# vtk DataFile Version 3.0
2D scalar data
ASCII
DATASET UNSTRUCTURED_GRID
POINTS 173 float
0.000000 0.000000 0
1.000000 0.000000 0
1.000000 1.000000 0
0.000000 1.000000 0
0.500000 0.500000 0
0.000000 0.500000 0
0.500000 0.000000 0
1.000000 0.500000 0
0.500000 1.000000 0
0.750000 0.250000 0
0.250000 0.750000 0
0.750000 0.750000 0
0.500000 0.250000 0
0.750000 0.000000 0
1.000000 0.250000 0
0.875000 0.375000 0
0.875000 0.125000 0
0.875000 0.250000 0
1.000000 0.375000 0
0.812500 0.562500 0
0.750000 0.125000 0
0.625000 0.187500 0
0.515625 0.125000 0
0.250000 0.000000 0
0.625000 0.000000 0
0.375000 0.000000 0
0.656250 0.093750 0
0.312500 0.187500 0
0.312500 0.083333 0
0.407652 0.135417 0
0.875000 0.000000 0
1.000000 0.125000 0
0.890625 0.484375 0
1.000000 0.750000 0
0.640625 0.609375 0
0.703125 0.421875 0
0.613839 0.321429 0
0.705212 0.330115 0
0.590473 0.432104 0
0.654316 0.509772 0
0.476906 0.375000 0
0.250000 0.481554 0
0.381582 0.292755 0
0.377417 0.458014 0
0.000000 0.250000 0
0.385208 0.635208 0
0.295879 0.373278 0
0.125696 0.365026 0
0.328333 0.548940 0
0.000000 0.750000 0
0.202686 0.615777 0
0.290234 0.660366 0
0.125000 0.718613 0
0.126679 0.513534 0
0.250000 1.000000 0
0.000000 0.875000 0
0.000000 0.625000 0
0.153535 0.869571 0
0.100962 0.612024 0
0.000000 0.375000 0
0.154067 0.207833 0
0.199692 0.102836 0
0.125000 0.000000 0
0.000000 0.125000 0
0.098089 0.098089 0
0.282603 0.875000 0
0.391641 0.779808 0
0.375000 1.000000 0
0.520939 0.701613 0
0.437500 0.893999 0
0.750000 1.000000 0
0.612338 0.862338 0
0.530762 0.910436 0
0.625000 1.000000 0
0.125000 1.000000 0
0.243199 0.274932 0
0.090326 0.277486 0
0.484846 0.603468 0
0.635362 0.726316 0
1.000000 0.625000 0
0.875000 0.687500 0
0.742188 0.643229 0
0.737338 0.875000 0
0.879376 0.834998 0
1.000000 0.875000 0
0.875000 1.000000 0
0.825573 0.916130 0
0.918597 0.918597 0
0.783433 0.377797 0
0.252489 0.557883 0
0.576778 0.068157 0
0.582250 0.135360 0
0.153329 0.573095 0
0.562500 1.000000 0
0.710750 0.568272 0
0.665935 0.258341 0
0.312500 0.000000 0
0.718750 0.062500 0
0.381599 0.070054 0
0.251114 0.064269 0
0.576942 0.508301 0
0.316284 0.483724 0
0.000000 0.312500 0
0.418868 0.540961 0
0.561808 0.630874 0
0.167116 0.297375 0
0.210718 0.370577 0
0.163556 0.439032 0
0.353947 0.709042 0
0.437241 0.700773 0
0.000000 0.687500 0
0.000000 0.562500 0
0.150237 0.656916 0
0.062500 0.000000 0
0.263414 0.135417 0
0.150789 0.059811 0
0.068469 0.182346 0
0.146935 0.142322 0
0.524212 0.806102 0
0.599020 0.932976 0
0.687500 1.000000 0
0.937500 1.000000 0
0.762812 0.935561 0
0.812500 1.000000 0
1.000000 0.937500 0
0.827265 0.312500 0
0.831070 0.437079 0
0.757487 0.492441 0
0.068319 0.550898 0
0.000000 0.062500 0
0.569858 0.752376 0
0.462834 0.768211 0
0.388311 0.213041 0
0.937500 0.421875 0
0.466670 0.182357 0
0.935268 0.562500 0
0.927193 0.635636 0
0.552436 0.366269 0
0.643022 0.385394 0
0.519504 0.431763 0
0.378514 0.375360 0
0.309996 0.302434 0
0.356018 0.917382 0
0.312500 1.000000 0
0.350304 0.842504 0
0.318384 0.776483 0
0.676974 0.669600 0
0.437500 1.000000 0
0.679143 0.803686 0
0.799479 0.692708 0
0.842218 0.762287 0
0.920798 0.752154 0
0.801080 0.829160 0
1.000000 0.812500 0
0.069449 0.675136 0
0.228587 0.201593 0
0.676167 0.923046 0
0.937500 0.312500 0
0.812500 0.062500 0
0.078508 0.921492 0
0.578659 0.251068 0
0.937500 0.187500 0
0.937500 0.062500 0
0.812500 0.187500 0
0.703125 0.187500 0
0.453293 0.306004 0
0.080310 0.805236 0
0.000000 0.812500 0
0.070510 0.439648 0
0.220077 0.824556 0
0.179769 0.765096 0
0.215879 0.924349 0
0.460550 0.068408 0

CELLS 297 1188
3 35 37 88
3 75 60 155
3 48 45 51
3 89 48 51
3 29 98 172
3 26 90 24
3 15 126 88
3 65 145 144
3 15 125 157
3 158 16 20
3 92 58 128
3 74 159 57
3 72 93 8
3 152 11 150
3 29 132 27
3 160 36 137
3 20 164 26
3 17 161 14
3 133 32 126
3 32 133 7
3 31 14 161
3 30 162 16
3 163 16 17
3 125 15 88
3 157 18 133
3 39 94 34
3 33 151 136
3 26 164 21
3 16 163 20
3 22 91 12
3 36 160 95
3 96 25 98
3 158 97 13
3 160 91 21
3 96 98 28
3 6 24 90
3 132 12 165
3 97 24 13
3 137 12 160
3 99 28 114
3 172 6 90
3 61 155 117
3 12 134 22
3 27 28 29
3 16 158 30
3 16 162 31
3 135 7 79
3 127 88 126
3 78 68 104
3 19 135 136
3 137 36 138
3 81 146 94
3 100 38 39
3 36 95 37
3 137 138 38
3 157 125 17
3 138 37 35
3 39 38 35
3 100 139 38
3 39 127 94
3 100 4 139
3 40 139 43
3 165 42 132
3 43 48 101
3 44 76 102
3 140 40 43
3 141 140 46
3 77 103 4
3 101 46 43
3 68 77 104
3 76 105 47
3 108 109 66
3 105 106 47
3 140 141 42
3 53 168 107
3 60 75 105
3 103 43 4
3 45 108 51
3 10 170 112
3 49 52 166
3 58 112 154
3 10 50 51
3 51 50 89
3 49 166 167
3 53 92 128
3 107 168 47
3 92 41 89
3 171 169 65
3 65 54 171
3 170 52 112
3 56 58 154
3 159 3 55
3 154 112 52
3 5 168 128
3 64 113 62
3 168 59 47
3 99 114 61
3 117 115 61
3 99 115 23
3 116 63 64
3 116 64 117
3 61 114 155
3 113 129 0
3 51 108 10
3 65 142 143
3 77 68 109
3 143 54 65
3 104 146 78
3 144 69 142
3 72 118 71
3 66 109 131
3 67 142 147
3 148 82 156
3 152 86 82
3 8 69 72
3 118 68 130
3 73 156 120
3 27 132 141
3 71 119 72
3 171 74 57
3 106 105 75
3 102 47 59
3 116 76 44
3 103 45 48
3 77 4 100
3 11 148 78
3 130 71 118
3 83 150 151
3 7 135 32
3 81 149 11
3 149 19 80
3 146 11 78
3 11 149 150
3 156 73 119
3 85 87 121
3 86 122 82
3 87 86 83
3 153 83 151
3 84 87 83
3 122 123 70
3 121 124 2
3 86 87 85
3 125 37 9
3 15 133 126
3 89 50 92
3 101 89 41
3 91 26 21
3 90 22 172
3 22 90 91
3 26 91 90
3 92 53 41
3 112 92 50
3 127 39 35
3 119 93 72
3 19 81 94
3 164 95 21
3 9 37 95
3 20 26 97
3 99 96 28
3 24 97 26
3 172 25 6
3 29 28 98
3 115 99 61
3 96 99 23
3 39 34 100
3 100 34 104
3 89 101 48
3 46 101 41
3 45 103 77
3 47 102 76
3 43 103 48
3 100 104 77
3 104 34 146
3 60 105 76
3 106 75 46
3 46 41 106
3 107 41 53
3 47 106 107
3 41 107 106
3 109 108 45
3 108 66 145
3 77 109 45
3 68 118 131
3 92 112 58
3 49 110 154
3 56 111 128
3 10 112 50
3 28 27 114
3 129 64 63
3 27 75 155
3 64 62 115
3 23 115 62
3 76 116 60
3 44 63 116
3 116 117 60
3 115 117 64
3 72 69 118
3 131 69 66
3 71 148 156
3 93 119 73
3 123 122 86
3 120 156 122
3 124 121 87
3 120 122 70
3 37 125 88
3 86 85 123
3 87 84 124
3 9 17 125
3 32 19 126
3 126 19 127
3 127 35 88
3 19 94 127
3 56 128 58
3 5 128 111
3 68 78 130
3 64 129 113
3 130 78 148
3 68 131 109
3 69 131 118
3 132 29 134
3 141 132 42
3 157 133 15
3 7 133 18
3 132 134 12
3 29 22 134
3 136 135 79
3 19 32 135
3 33 136 79
3 19 136 80
3 139 137 38
3 137 40 165
3 37 138 36
3 35 38 138
3 43 139 4
3 137 139 40
3 140 42 165
3 43 46 140
3 46 75 141
3 27 141 75
3 144 142 65
3 147 142 69
3 65 169 145
3 142 67 143
3 69 144 66
3 108 145 10
3 66 144 145
3 94 146 34
3 11 146 81
3 148 11 152
3 69 8 147
3 130 148 71
3 19 149 81
3 150 149 80
3 151 150 80
3 150 83 152
3 136 151 80
3 153 84 83
3 86 152 83
3 152 82 148
3 49 154 52
3 151 33 153
3 56 154 110
3 117 155 60
3 27 155 114
3 71 156 119
3 122 156 82
3 14 18 157
3 17 14 157
3 13 30 158
3 97 158 20
3 3 159 74
3 166 159 55
3 91 160 12
3 95 160 21
3 16 31 161
3 17 16 161
3 1 31 162
3 30 1 162
3 164 163 9
3 17 9 163
3 163 164 20
3 95 164 9
3 137 165 12
3 140 165 40
3 166 52 170
3 166 57 159
3 128 168 53
3 166 55 167
3 59 168 5
3 57 166 170
3 145 169 10
3 10 169 170
3 170 169 57
3 74 171 54
3 169 171 57
3 29 172 22
3 25 172 98

CELL_TYPES 297
5
5
5
5
5
5
5
5
5
5
5
5
5
5
5
5
5
5
5
5
5
5
5
5
5
5
5
5
5
5
5
5
5
5
5
5
5
5
5
5
5
5
5
5
5
5
5
5
5
5
5
5
5
5
5
5
5
5
5
5
5
5
5
5
5
5
5
5
5
5
5
5
5
5
5
5
5
5
5
5
5
5
5
5
5
5
5
5
5
5
5
5
5
5
5
5
5
5
5
5
5
5
5
5
5
5
5
5
5
5
5
5
5
5
5
5
5
5
5
5
5
5
5
5
5
5
5
5
5
5
5
5
5
5
5
5
5
5
5
5
5
5
5
5
5
5
5
5
5
5
5
5
5
5
5
5
5
5
5
5
5
5
5
5
5
5
5
5
5
5
5
5
5
5
5
5
5
5
5
5
5
5
5
5
5
5
5
5
5
5
5
5
5
5
5
5
5
5
5
5
5
5
5
5
5
5
5
5
5
5
5
5
5
5
5
5
5
5
5
5
5
5
5
5
5
5
5
5
5
5
5
5
5
5
5
5
5
5
5
5
5
5
5
5
5
5
5
5
5
5
5
5
5
5
5
5
5
5
5
5
5
5
5
5
5
5
5
5
5
5
5
5
5
5
5
5
5
5
5
5
5
5
5
5
5
5
5
5
5
5
5
5
5
5
5
5
5

POINT_DATA 173
SCALARS pressure float 1
LOOKUP_TABLE default
0
0
0
0
0
0
0
0
0
0
0
0
0
0
0
0
0
0
0
0
0
0
0
0
0
0
0
0
0
0
0
0
0
0
0
0
0
0
0
0
0
0
0
0
0
0
0
0
0
0
0
0
0
0
0
0
0
0
0
0
0
0
0
0
0
0
0
0
0
0
0
0
0
0
0
0
0
0
0
0
0
0
0
0
0
0
0
0
0
0
0
0
0
0
0
0
0
0
0
0
0
0
0
0
0
0
0
0
0
0
0
0
0
0
0
0
0
0
0
0
0
0
0
0
0
0
0
0
0
0
0
0
0
0
0
0
0
0
0
0
0
0
0
0
0
0
0
0
0
0
0
0
0
0
0
0
0
0
0
0
0
0
0
0
0
0
0
0
0
0
0
0
0
VECTORS displacement float
0 0 0
0 3 0
2 3 0
2 0 0
0.502352 0.749956 0
0.5 0 0
0 0.75 0
0.5 3 0
2 0.75 0
0.126995 1.69245 0
1.12156 0.187934 0
1.12337 1.6859 0
0.12494 0.752256 0
0 1.6875 0
0.125 3 0
0.285693 2.30502 0
0.030623 2.29558 0
0.125669 2.2965 0
0.28125 3 0
0.629688 1.97816 0
0.0353625 1.69149 0
0.0747756 1.17396 0
0.0306504 0.804399 0
0 0.1875 0
0 1.17188 0
0 0.421875 0
0.0165834 1.29361 0
0.0686377 0.292829 0
0.0149672 0.292895 0
0.039564 0.497011 0
0 2.29687 0
0.03125 3 0
0.47331 2.38639 0
1.125 3 0
0.743769 1.23739 0
0.357824 1.48406 0
0.210476 1.13506 0
0.219012 1.49074 0
0.372858 1.04522 0
0.518902 1.28591 0
0.279592 0.687949 0
0.462117 0.186563 0
0.17559 0.437503 0
0.417544 0.424463 0
0.125 0 0
0.806816 0.444173 0
0.277856 0.260067 0
0.266976 0.0473044 0
0.601047 0.321754 0
1.125 0 0
0.757144 0.127868 0
0.873799 0.251699 0
1.03474 0.0474285 0
0.528624 0.0496008 0
2 0.1875 0
1.53125 0 0
0.78125 0 0
1.51452 0.0747927 0
0.747912 0.03422 0
0.28125 0 0
0.0869718 0.0734812 0
0.0227137 0.126493 0
0 0.046875 0
0.03125 0 0
0.0181633 0.0289971 0
1.53221 0.23996 0
1.21628 0.460478 0
2 0.421875 0
0.98263 0.808906 0
1.59775 0.571333 0
2 1.6875 0
1.48955 1.12623 0
1.65731 0.843614 0
2 1.17187 0
2 0.046875 0
0.152615 0.177104 0
0.151492 0.0293886 0
0.727027 0.701581 0
1.05252 1.21013 0
0.78125 3 0
0.948918 2.30185 0
0.831313 1.65573 0
1.53415 1.6342 0
1.39393 2.31644 0
1.53125 3 0
2 2.29687 0
1.67821 2.04112 0
1.6855 2.53224 0
0.287404 1.84503 0
0.619756 0.193829 0
0.0102147 1.00011 0
0.036908 1.01947 0
0.654108 0.0714251 0
2 0.949219 0
0.646099 1.51777 0
0.134807 1.33183 0
0 0.292969 0
0.0110201 1.55437 0
0.0104492 0.438333 0
0.00904589 0.189916 0
0.516702 0.998112 0
0.464959 0.301116 0
0.195312 0 0
0.583853 0.527913 0
0.795525 0.945803 0
0.177039 0.0857758 0
0.274233 0.132669 0
0.38951 0.0821974 0
1.00501 0.37502 0
0.981652 0.571971 0
0.945313 0 0
0.632813 0 0
0.863419 0.0662033 0
0 0.0117187 0
0.0406522 0.209548 0
0.00717988 0.0719597 0
0.0690375 0.0167017 0
0.0408988 0.0661382 0
1.30182 0.821962 0
1.74203 1.07669 0
2 1.41797 0
2 2.63672 0
1.75052 1.74689 0
2 1.98047 0
1.75781 3 0
0.199081 2.05698 0
0.383843 2.07646 0
0.484754 1.72242 0
0.604647 0.0157008 0
0.0078125 0 0
1.13262 0.976254 0
1.18152 0.641648 0
0.0923326 0.450399 0
0.357986 2.64169 0
0.0697506 0.661941 0
0.635718 2.62791 0
0.811062 2.58079 0
0.267926 0.91275 0
0.300617 1.24597 0
0.372933 0.807288 0
0.281963 0.429046 0
0.185519 0.286952 0
1.68714 0.378794 0
2 0.292969 0
1.42297 0.367185 0
1.20493 0.304165 0
0.899747 1.37581 0
2 0.574219 0
1.29302 1.38015 0
0.962792 1.91929 0
1.16209 2.12705 0
1.13236 2.54573 0
1.37404 1.92196 0
1.32031 3 0
0.91171 0.0211641 0
0.0806619 0.158519 0
1.70338 1.37036 0
0.196738 2.63993 0
0.0109269 1.98752 0
1.70086 0.0236668 0
0.128127 1.00567 0
0.0756918 2.64437 0
0.0133339 2.64473 0
0.0747733 1.98879 0
0.0737524 1.48448 0
0.190057 0.621095 0
1.29514 0.0240534 0
1.32031 0 0
0.389629 0.0183129 0
1.35911 0.145369 0
1.16503 0.0990041 0
1.7129 0.143876 0
0.0121769 0.639305 0
VECTORS displacementExact float
0 0 0
0 3 0
2 3 0
2 0 0
0.5 0.75 0
0.5 0 0
0 0.75 0
0.5 3 0
2 0.75 0
0.125 1.6875 0
1.125 0.1875 0
1.125 1.6875 0
0.125 0.75 0
0 1.6875 0
0.125 3 0
0.28125 2.29688 0
0.03125 2.29688 0
0.125 2.29688 0
0.28125 3 0
0.632813 1.98047 0
0.03125 1.6875 0
0.0703125 1.17188 0
0.03125 0.797607 0
0 0.1875 0
0 1.17188 0
0 0.421875 0
0.0175781 1.29199 0
0.0703125 0.292969 0
0.0138889 0.292969 0
0.0366753 0.498541 0
0 2.29688 0
0.03125 3 0
0.469238 2.37964 0
1.125 3 0
0.742676 1.2312 0
0.355957 1.48315 0
0.206633 1.1304 0
0.217951 1.49197 0
0.373429 1.04597 0
0.519735 1.28439 0
0.28125 0.682318 0
0.463789 0.1875 0
0.171411 0.436813 0
0.419554 0.427332 0
0.125 0 0
0.806978 0.445156 0
0.278672 0.262633 0
0.266488 0.0473983 0
0.602671 0.323407 0
1.125 0 0
0.758363 0.123244 0
0.872168 0.252708 0
1.03281 0.046875 0
0.527434 0.0481427 0
2 0.1875 0
1.53125 0 0
0.78125 0 0
1.51231 0.0707192 0
0.749147 0.0305801 0
0.28125 0 0
0.0863891 0.0712095 0
0.0211503 0.11963 0
0 0.046875 0
0.03125 0 0
0.0192428 0.0288643 0
1.53125 0.239593 0
1.2162 0.460148 0
2 0.421875 0
0.984521 0.814133 0
1.59847 0.574219 0
2 1.6875 0
1.48725 1.12487 0
1.65779 0.845126 0
2 1.17188 0
2 0.046875 0
0.151175 0.177438 0
0.153997 0.0244766 0
0.728346 0.705227 0
1.05507 1.21105 0
0.78125 3 0
0.945313 2.29688 0
0.827488 1.65253 0
1.53125 1.631 0
1.39444 2.31991 0
1.53125 3 0
2 2.29688 0
1.67859 2.04471 0
1.68764 2.53146 0
0.285461 1.8413 0
0.622466 0.191253 0
0.00929084 0.998019 0
0.0366448 1.01704 0
0.656876 0.0705297 0
2 0.949219 0
0.645865 1.5155 0
0.13348 1.33041 0
0 0.292969 0
0.0078125 1.5498 0
0.00981504 0.436854 0
0.0082609 0.189175 0
0.516739 0.998586 0
0.467978 0.300107 0
0.195313 0 0
0.585277 0.526351 0
0.796004 0.946886 0
0.176864 0.0837837 0
0.274655 0.133207 0
0.385499 0.0802521 0
1.00548 0.375836 0
0.982165 0.573538 0
0.945313 0 0
0.632813 0 0
0.863079 0.0677133 0
0 0.0117188 0
0.0366753 0.208161 0
0.00715482 0.0682122 0
0.0664999 0.014064 0
0.0405113 0.0647693 0
1.2996 0.824396 0
1.74089 1.07647 0
2 1.41797 0
2 2.63672 0
1.75055 1.74564 0
2 1.98047 0
1.75781 3 0
0.195313 2.0531 0
0.382077 2.07203 0
0.484995 1.72136 0
0.606977 0.0140023 0
0.0078125 0 0
1.13214 0.974214 0
1.1803 0.642646 0
0.0907731 0.452356 0
0.355957 2.63672 0
0.0665083 0.653342 0
0.632813 2.62418 0
0.808065 2.57906 0
0.268307 0.915558 0
0.297058 1.24043 0
0.372839 0.809654 0
0.28179 0.429819 0
0.182932 0.288293 0
1.68318 0.380247 0
2 0.292969 0
1.41962 0.368138 0
1.20585 0.304105 0
0.896727 1.37488 0
2 0.574219 0
1.29182 1.3837 0
0.95969 1.9175 0
1.16216 2.12799 0
1.13147 2.54361 0
1.37501 1.92519 0
1.32031 3 0
0.911616 0.0144697 0
0.0812792 0.156756 0
1.70403 1.37161 0
0.195313 2.63672 0
0.0078125 1.98047 0
1.6983 0.0184904 0
0.12607 1.00454 0
0.0703125 2.63672 0
0.0078125 2.63672 0
0.0703125 1.98047 0
0.0703125 1.48315 0
0.187277 0.616423 0
1.29681 0.0193493 0
1.32031 0 0
0.386582 0.014915 0
1.35979 0.145302 0
1.17074 0.0969504 0
1.70884 0.139811 0
0.00935925 0.636319 0
VECTORS error float
0 0 0
0 -9.10827e-13 0
-6.07514e-13 -9.10827e-13 0
-1.66489e-12 0 0
0.00235217 -4.44866e-05 0
-1.22902e-13 0 0
0 4.35207e-14 0
2.78777e-13 1.83054e-12 0
-3.48832e-13 -6.52256e-13 0
0.00199486 0.00495198 0
-0.00343852 0.000433988 0
-0.00163382 -0.00159732 0
-5.97363e-05 0.00225562 0
0 5.96634e-13 0
-1.70003e-14 -4.10338e-13 0
0.00444335 0.00814602 0
-0.000626988 -0.00129928 0
0.00066895 -0.000371483 0
-3.13471e-13 2.92211e-13 0
-0.0031246 -0.00230888 0
0.00411253 0.00398977 0
0.00446306 0.00208208 0
-0.000599592 0.00679138 0
0 1.13687e-13 0
0 1.44107e-13 0
0 -3.32512e-13 0
-0.000994689 0.00161824 0
-0.00167476 -0.000140186 0
0.00107826 -7.42364e-05 0
0.0028887 -0.00153012 0
0 -3.15303e-13 0
-4.25007e-15 -4.10338e-13 0
0.00407142 0.00675235 0
3.13749e-13 1.91536e-12 0
0.00109279 0.00619206 0
0.00186708 0.000901823 0
0.00384346 0.00466122 0
0.00106105 -0.0012295 0
-0.000570727 -0.000755319 0
-0.000833038 0.0015249 0
-0.00165751 0.00563048 0
-0.00167202 -0.000936803 0
0.00417898 0.000689804 0
-0.00200943 -0.00286844 0
-1.45592e-13 0 0
-0.000162244 -0.00098277 0
-0.000816451 -0.00256603 0
0.000488427 -9.38755e-05 0
-0.00162354 -0.0016537 0
-1.64091e-13 0 0
-0.00121899 0.00462325 0
0.00163163 -0.00100865 0
0.00192893 0.000553468 0
0.00119004 0.00145812 0
7.6783e-13 1.13271e-13 0
-4.25882e-13 0 0
-7.99361e-13 0 0
0.00221187 0.00407341 0
-0.0012357 0.00363988 0
1.78746e-14 0 0
0.000582776 0.00227162 0
0.00156345 0.00686258 0
0 -3.86011e-14 0
-3.55584e-14 0 0
-0.00107956 0.000132797 0
0.000958285 0.000366434 0
8.10858e-05 0.00033055 0
1.11822e-12 -1.34892e-14 0
-0.00189172 -0.00522683 0
-0.000717308 -0.00288588 0
-6.87672e-13 -6.31939e-13 0
0.00229453 0.00135535 0
-0.00047845 -0.00151118 0
5.27578e-13 -1.58318e-13 0
-6.98108e-13 -3.76157e-14 0
0.00143942 -0.00033397 0
-0.0025047 0.00491204 0
-0.00131896 -0.00364625 0
-0.00254532 -0.000926849 0
-1.35714e-12 9.63229e-13 0
0.00360514 0.00497312 0
0.00382587 0.00319819 0
0.00289709 0.00319644 0
-0.000512475 -0.0034698 0
1.04294e-12 6.38156e-13 0
4.51639e-13 -9.76552e-13 0
-0.000383212 -0.00358964 0
-0.00213956 0.000773109 0
0.00194214 0.00373094 0
-0.00271024 0.00257678 0
0.000923886 0.00208694 0
0.000263249 0.0024304 0
-0.00276803 0.000895426 0
-1.26676e-12 6.08291e-13 0
0.000234209 0.00227362 0
0.00132758 0.001421 0
0 7.41074e-14 0
0.00320761 0.00456876 0
0.000634194 0.00147899 0
0.000784989 0.000741108 0
-3.74028e-05 -0.000473953 0
-0.00301942 0.00100922 0
-1.73805e-13 0 0
-0.00142462 0.00156205 0
-0.00047941 -0.00108277 0
0.000175409 0.00199215 0
-0.000421693 -0.000538034 0
0.00401108 0.00194529 0
-0.000472686 -0.000816305 0
-0.000512355 -0.00156689 0
5.21139e-13 0 0
2.83884e-13 0 0
0.000339982 -0.00151004 0
0 -1.21032e-14 0
0.00397689 0.00138724 0
2.50617e-05 0.00374748 0
0.00253766 0.00263766 0
0.000387481 0.00136888 0
0.00222321 -0.00243415 0
0.00113725 0.000218228 0
2.93987e-13 -5.3535e-13 0
4.62297e-13 -3.59712e-13 0
-2.52672e-05 0.00124486 0
-4.17e-13 -1.14664e-12 0
-2.40696e-13 6.94111e-13 0
0.00376861 0.00387979 0
0.00176625 0.00442204 0
-0.000241583 0.00105743 0
-0.00232973 0.00169853 0
-8.06213e-15 0 0
0.000484952 0.00204022 0
0.00121929 -0.000998124 0
0.00155953 -0.00195699 0
0.00202854 0.00497539 0
0.0032423 0.00859947 0
0.00290506 0.00373115 0
0.00299669 0.00173236 0
-0.000380909 -0.00280729 0
0.00355972 0.00554286 0
9.43822e-05 -0.00236609 0
0.000173016 -0.00077321 0
0.00258677 -0.00134074 0
0.00395858 -0.00145278 0
2.43805e-13 2.35811e-13 0
0.00334396 -0.000953133 0
-0.000919664 5.99503e-05 0
0.00301954 0.000929354 0
-2.78888e-13 -6.56808e-13 0
0.00119537 -0.00355689 0
0.00310186 0.00179161 0
-7.41508e-05 -0.000937227 0
0.000886852 0.00212611 0
-0.000975017 -0.00322438 0
8.00249e-13 -7.59393e-13 0
9.35086e-05 0.00669445 0
-0.000617289 0.00176303 0
-0.00065246 -0.00124218 0
0.00142527 0.00320693 0
0.00311439 0.00705502 0
0.00256491 0.00517643 0
0.0020568 0.00112893 0
0.00537932 0.00764885 0
0.00552139 0.00800879 0
0.00446076 0.00832617 0
0.00343992 0.00132992 0
0.00277967 0.00467202 0
-0.00167211 0.00470415 0
-1.525e-12 0 0
0.00304745 0.00339793 0
-0.000677043 6.71034e-05 0
-0.00571682 0.00205365 0
0.00406367 0.00406501 0
0.00281764 0.00298553 0

CELL_DATA 297
TENSORS efStress float
-1205.09 60229.1 0
60229.1 333.112 0
0    0    0

297.577 21248.7 0
21248.7 859.453 0
0    0    0

-1128.8 44717.6 0
44717.6 1533.89 0
0    0    0

716.781 41430.7 0
41430.7 -1240.93 0
0    0    0

-657.074 29762.3 0
29762.3 -3593.97 0
0    0    0

2042 38370.9 0
38370.9 3034 0
0    0    0

-887.423 66220.1 0
66220.1 -4088.97 0
0    0    0

-245.312 52108.1 0
52108.1 961.063 0
0    0    0

-1798.28 66902.2 0
66902.2 -2778.82 0
0    0    0

115.089 51857.4 0
51857.4 2796.28 0
0    0    0

-2047.45 30322.4 0
30322.4 -2441.03 0
0    0    0

2655.25 43744.1 0
43744.1 -1049.23 0
0    0    0

743.628 70137.1 0
70137.1 1735.13 0
0    0    0

-1797.19 79671.5 0
79671.5 -4046.42 0
0    0    0

1554.01 28031.3 0
28031.3 -1511.13 0
0    0    0

-1759 48358.4 0
48358.4 -152.753 0
0    0    0

-1672.85 48900.4 0
48900.4 -3666.74 0
0    0    0

744.893 64222.5 0
64222.5 2094.86 0
0    0    0

-898.652 71571.7 0
71571.7 -3638.49 0
0    0    0

1044.38 74262.3 0
74262.3 3615.45 0
0    0    0

1362.58 64401.2 0
64401.2 583.964 0
0    0    0

-1263.38 58210.2 0
58210.2 -838.425 0
0    0    0

2000.06 56762.8 0
56762.8 1069.24 0
0    0    0

2741.95 63955.9 0
63955.9 4856.76 0
0    0    0

-4029.91 72192.9 0
72192.9 -1265.14 0
0    0    0

-1626.43 62853 0
62853 1243.55 0
0    0    0

-419.056 84924.2 0
84924.2 217.946 0
0    0    0

270.837 45911 0
45911 1505.03 0
0    0    0

-2464.14 55011.8 0
55011.8 -3221.92 0
0    0    0

-1002.96 39817 0
39817 -811.688 0
0    0    0

-1229.99 49210.4 0
49210.4 -1410.08 0
0    0    0

609.61 22116.6 0
22116.6 1422.42 0
0    0    0

2666.85 47960.9 0
47960.9 6288.94 0
0    0    0

-2657.52 44081.4 0
44081.4 -1336.77 0
0    0    0

-1093.67 22842.1 0
22842.1 -494.169 0
0    0    0

-1985.16 35248.7 0
35248.7 -4632.04 0
0    0    0

-3579.76 38275.2 0
38275.2 -3504.24 0
0    0    0

-1012.87 43013.2 0
43013.2 -2363.37 0
0    0    0

-256.373 44416.1 0
44416.1 -2195.87 0
0    0    0

-1758.35 21340 0
21340 -1178.69 0
0    0    0

2005.28 32731 0
32731 5780.24 0
0    0    0

2584.53 17017 0
17017 863.111 0
0    0    0

2550.53 36034.3 0
36034.3 -694.467 0
0    0    0

-832.852 26607.4 0
26607.4 -375.026 0
0    0    0

2299.47 51842.1 0
51842.1 688.511 0
0    0    0

910.034 59170.4 0
59170.4 1789.02 0
0    0    0

2653.4 79981.6 0
79981.6 1137.17 0
0    0    0

-2866.12 65295.9 0
65295.9 -561.262 0
0    0    0

2447.26 61545.5 0
61545.5 3350.72 0
0    0    0

820.674 76954.5 0
76954.5 -1359.38 0
0    0    0

3380.13 50427.4 0
50427.4 3211.86 0
0    0    0

-986.378 67951.1 0
67951.1 560.29 0
0    0    0

371.959 56052.9 0
56052.9 1363.7 0
0    0    0

658.751 50679.2 0
50679.2 2810.24 0
0    0    0

-961.261 52835.8 0
52835.8 -4094.61 0
0    0    0

2354.45 64465.5 0
64465.5 6910.89 0
0    0    0

1415.33 54644.2 0
54644.2 1092.11 0
0    0    0

-224.328 57386.4 0
57386.4 -2837.17 0
0    0    0

-697.503 52387.5 0
52387.5 -951.985 0
0    0    0

-492.013 63596.8 0
63596.8 -3114.36 0
0    0    0

573.572 51082.9 0
51082.9 2509.72 0
0    0    0

747.421 43584.4 0
43584.4 2339.15 0
0    0    0

1104.8 35954.5 0
35954.5 2002.45 0
0    0    0

2528.84 40649.4 0
40649.4 -409.308 0
0    0    0

-1716.35 14503.6 0
14503.6 -735.579 0
0    0    0

-941.207 42713.7 0
42713.7 -989.837 0
0    0    0

1004.87 33509 0
33509 1226.34 0
0    0    0

2387.38 48864 0
48864 -1034.73 0
0    0    0

-2065.98 37221.3 0
37221.3 -914.67 0
0    0    0

-2773.65 58235.1 0
58235.1 -3603.27 0
0    0    0

-1893.53 20842 0
20842 -3748.18 0
0    0    0

-207.149 53371 0
53371 -1496.06 0
0    0    0

615.537 23297 0
23297 1529.07 0
0    0    0

879.221 33888.5 0
33888.5 -320.714 0
0    0    0

-1080.74 25587.1 0
25587.1 -3263.09 0
0    0    0

-1357.19 21989.9 0
21989.9 -1612.64 0
0    0    0

-1227.26 46901.6 0
46901.6 -3274.36 0
0    0    0

-1099.09 46902.2 0
46902.2 -2999.04 0
0    0    0

-1249.99 40507.2 0
40507.2 -1681.75 0
0    0    0

39.2642 33835.8 0
33835.8 -2415.3 0
0    0    0

717.677 31640.5 0
31640.5 2609.72 0
0    0    0

-3080.5 41827.8 0
41827.8 -3099.11 0
0    0    0

3821.25 38341.6 0
38341.6 3175.77 0
0    0    0

-1078.44 34245.1 0
34245.1 -462.187 0
0    0    0

2498.47 27246.2 0
27246.2 3436.25 0
0    0    0

2135.25 23381.6 0
23381.6 4338.86 0
0    0    0

-210.559 33090.3 0
33090.3 1471.61 0
0    0    0

-2401.12 50164.2 0
50164.2 316.271 0
0    0    0

1769.18 51612.4 0
51612.4 -802.506 0
0    0    0

1476.63 36742.8 0
36742.8 2348.41 0
0    0    0

-477.714 29309.4 0
29309.4 -1353.64 0
0    0    0

-2110.98 40514.6 0
40514.6 -904.706 0
0    0    0

-162.551 33282 0
33282 -2470.09 0
0    0    0

2887.5 21782.7 0
21782.7 703.823 0
0    0    0

-419.071 7476.72 0
7476.72 -977.832 0
0    0    0

-1128.8 20239.4 0
20239.4 -3828.4 0
0    0    0

2920.32 17089.3 0
17089.3 2837.64 0
0    0    0

-1674.09 15375.2 0
15375.2 -1224.01 0
0    0    0

690.817 13155.2 0
13155.2 788.169 0
0    0    0

551.468 8992.09 0
8992.09 -1091.89 0
0    0    0

-778.204 12591.1 0
12591.1 2296.98 0
0    0    0

-1768.26 19308.5 0
19308.5 -2675.14 0
0    0    0

0 3125 0
3125 0 0
0    0    0

392.863 45926.6 0
45926.6 3517.72 0
0    0    0

-2525.53 56662.3 0
56662.3 -2018.16 0
0    0    0

282.124 54399.5 0
54399.5 1626.39 0
0    0    0

306.931 54298.3 0
54298.3 716.173 0
0    0    0

-2210.2 64760.9 0
64760.9 -5113.75 0
0    0    0

-3268.33 58901.6 0
58901.6 -2107.91 0
0    0    0

-1750.23 68688.4 0
68688.4 -1024.41 0
0    0    0

768.698 55207.5 0
55207.5 2143.93 0
0    0    0

-578.663 62243.5 0
62243.5 -1350.21 0
0    0    0

-1970.86 77698.5 0
77698.5 -99.951 0
0    0    0

1327.55 80701.7 0
80701.7 2914.4 0
0    0    0

-1780.28 67412.2 0
67412.2 -1907 0
0    0    0

-3478.8 64600.4 0
64600.4 -965.743 0
0    0    0

581.221 77920.7 0
77920.7 1356.18 0
0    0    0

-1131.64 30967.2 0
30967.2 -650.897 0
0    0    0

1193.43 70175.9 0
70175.9 -1034.05 0
0    0    0

-2236.17 47931.6 0
47931.6 -278.07 0
0    0    0

1153.59 24736.7 0
24736.7 -1313.51 0
0    0    0

-155.754 17513.4 0
17513.4 -66.7515 0
0    0    0

2057.89 11655.5 0
11655.5 2682.15 0
0    0    0

-493.902 46428.6 0
46428.6 -2431.66 0
0    0    0

-1574.26 53893 0
53893 -538.63 0
0    0    0

-3524.28 73094.3 0
73094.3 -6394.84 0
0    0    0

3333.32 66428.9 0
66428.9 2568.43 0
0    0    0

-586.57 84865.3 0
84865.3 -3421.26 0
0    0    0

-3885.87 77397 0
77397 -5223.33 0
0    0    0

-3383.7 73908 0
73908 -3096.44 0
0    0    0

565.945 76268.5 0
76268.5 1809.2 0
0    0    0

3478.94 68609 0
68609 4560.45 0
0    0    0

2235.52 76156.6 0
76156.6 2438.1 0
0    0    0

-977.56 76508.8 0
76508.8 -1927.12 0
0    0    0

313.111 93009.8 0
93009.8 730.593 0
0    0    0

-2903.28 82477 0
82477 -4054.5 0
0    0    0

1088.56 87710.1 0
87710.1 3489.19 0
0    0    0

259.3 88260 0
88260 2179.4 0
0    0    0

-2128.32 91951 0
91951 -3528.18 0
0    0    0

154.772 85590.1 0
85590.1 361.136 0
0    0    0

-9.84279e-07 96875 0
96875 -1.15552e-06 0
0    0    0

-1772.66 91318.7 0
91318.7 -2556.91 0
0    0    0

1330.99 58012.6 0
58012.6 2927.15 0
0    0    0

609.062 68906.3 0
68906.3 2688.54 0
0    0    0

-627.352 36112.8 0
36112.8 -2817.88 0
0    0    0

-283.623 37930.2 0
37930.2 989.154 0
0    0    0

2438.06 43270.6 0
43270.6 -412.97 0
0    0    0

-2118.3 34461.7 0
34461.7 -3866.38 0
0    0    0

1525.48 36187.2 0
36187.2 1388.13 0
0    0    0

-1909.47 40985.1 0
40985.1 -1184.63 0
0    0    0

-1533.64 31842.7 0
31842.7 -3998.76 0
0    0    0

-2728.67 36549.6 0
36549.6 -1726.12 0
0    0    0

680.756 60669.1 0
60669.1 3289.51 0
0    0    0

-1411.69 72614.4 0
72614.4 -1605.8 0
0    0    0

-1561.22 70011.2 0
70011.2 -2266.67 0
0    0    0

-1481.95 48297.4 0
48297.4 -2584.8 0
0    0    0

-1119.5 54382.7 0
54382.7 -4096.04 0
0    0    0

4253.42 45625 0
45625 4285.91 0
0    0    0

1410.41 18574.4 0
18574.4 579.007 0
0    0    0

-1202.79 43097.4 0
43097.4 -2774.05 0
0    0    0

-1565.46 28030 0
28030 -3652.73 0
0    0    0

1476.39 25532.2 0
25532.2 2192.76 0
0    0    0

-993.813 15369.5 0
15369.5 -2498.59 0
0    0    0

125.085 18282.5 0
18282.5 291.865 0
0    0    0

-144.727 59747.9 0
59747.9 626.11 0
0    0    0

-844.366 59781.9 0
59781.9 525.645 0
0    0    0

49.1539 37740.9 0
37740.9 156.162 0
0    0    0

347.236 34228.8 0
34228.8 1654.36 0
0    0    0

-1284.85 49424.3 0
49424.3 550.085 0
0    0    0

1743.58 16599.4 0
16599.4 2555.49 0
0    0    0

1126.79 42976.7 0
42976.7 3472.65 0
0    0    0

2178.7 54694 0
54694 -23.2365 0
0    0    0

2339.37 62790.6 0
62790.6 2607.81 0
0    0    0

3096.9 17210.9 0
17210.9 2226.59 0
0    0    0

721.627 27669.2 0
27669.2 1537.45 0
0    0    0

-1060.22 31943.7 0
31943.7 -1722.39 0
0    0    0

-280.636 29799.9 0
29799.9 3557.99 0
0    0    0

-1477.99 26746.2 0
26746.2 -1879.49 0
0    0    0

1361.48 28625.5 0
28625.5 2599.98 0
0    0    0

502.12 50493.9 0
50493.9 2139.79 0
0    0    0

1789.3 51053.8 0
51053.8 2847.65 0
0    0    0

150.393 51935.2 0
51935.2 -2239.74 0
0    0    0

3154.29 59694.6 0
59694.6 2310.98 0
0    0    0

1784.33 31824.6 0
31824.6 -295.359 0
0    0    0

980.111 31797.4 0
31797.4 420.048 0
0    0    0

-312.638 26048.2 0
26048.2 -133.988 0
0    0    0

3221.76 38825.1 0
38825.1 2120.92 0
0    0    0

810.641 22125.3 0
22125.3 329.329 0
0    0    0

-1068.69 6706.2 0
6706.2 -458.009 0
0    0    0

-223.357 25668.9 0
25668.9 -1906.49 0
0    0    0

-2455.46 10126.2 0
10126.2 424.808 0
0    0    0

-985.158 12450.4 0
12450.4 -2298.7 0
0    0    0

-2130.13 15480.5 0
15480.5 -1496.94 0
0    0    0

-2669.23 9939.31 0
9939.31 -1143.95 0
0    0    0

622.061 13543.4 0
13543.4 1443.99 0
0    0    0

2698.75 12037.5 0
12037.5 196.329 0
0    0    0

1716.55 63199.7 0
63199.7 1436.32 0
0    0    0

1113.29 58565.1 0
58565.1 -895.77 0
0    0    0

2935.41 72523.2 0
72523.2 1631.51 0
0    0    0

588.182 74114.8 0
74114.8 1372.43 0
0    0    0

1428.71 85332.4 0
85332.4 839.208 0
0    0    0

-777.946 82052.6 0
82052.6 -956.913 0
0    0    0

-1133.19 96244.2 0
96244.2 -2020.76 0
0    0    0

-963.567 81840.1 0
81840.1 -2248.32 0
0    0    0

-950.787 59945.8 0
59945.8 -4574 0
0    0    0

988.697 88993.3 0
88993.3 2306.96 0
0    0    0

1628.59 93712.9 0
93712.9 697.969 0
0    0    0

-2494.4 59989.1 0
59989.1 -5113.11 0
0    0    0

-1880.81 71665.3 0
71665.3 -1142.77 0
0    0    0

2867.31 67283.9 0
67283.9 -1064.73 0
0    0    0

1820.17 62011.4 0
62011.4 -924.762 0
0    0    0

-73.6687 66317.7 0
66317.7 2633 0
0    0    0

762.544 27118.3 0
27118.3 3587.58 0
0    0    0

-1798.59 23548.2 0
23548.2 -770.825 0
0    0    0

-2757.73 65166.9 0
65166.9 -4155.75 0
0    0    0

2735.36 4359.88 0
4359.88 3439.03 0
0    0    0

2563.34 67298.7 0
67298.7 5230.13 0
0    0    0

-1254.28 58017.6 0
58017.6 -1717.05 0
0    0    0

-2137.33 62140.2 0
62140.2 -85.7135 0
0    0    0

346.873 34047 0
34047 2434.03 0
0    0    0

328.169 31499.2 0
31499.2 596.253 0
0    0    0

2026.7 68489.1 0
68489.1 1330.55 0
0    0    0

2965.58 74828.9 0
74828.9 1270.96 0
0    0    0

980.502 35042.5 0
35042.5 538.406 0
0    0    0

-1519.93 35073.3 0
35073.3 -2326.87 0
0    0    0

-2237.07 81474 0
81474 -1206.03 0
0    0    0

2726.16 73432.6 0
73432.6 3086.74 0
0    0    0

-271.147 85077.8 0
85077.8 -116.206 0
0    0    0

-3249.4 78779.7 0
78779.7 -2971.86 0
0    0    0

823.827 49511.9 0
49511.9 2505.77 0
0    0    0

-866.974 42699.6 0
42699.6 -1736.67 0
0    0    0

-2140.54 53253.9 0
53253.9 -2169.43 0
0    0    0

1685.05 54593.8 0
54593.8 3413.12 0
0    0    0

236.448 45882.4 0
45882.4 -2012.6 0
0    0    0

-663.788 45821.6 0
45821.6 -3733.36 0
0    0    0

-1366.73 38479 0
38479 -793.419 0
0    0    0

-131.657 36860.4 0
36860.4 -864.94 0
0    0    0

-2142.06 29595 0
29595 -2285.59 0
0    0    0

2336.21 26693 0
26693 567.884 0
0    0    0

2864.68 54067.1 0
54067.1 1548.07 0
0    0    0

127.487 61655.4 0
61655.4 832.494 0
0    0    0

1205.01 49234.8 0
49234.8 -1743.26 0
0    0    0

713.695 58493.5 0
58493.5 1665.29 0
0    0    0

2050.55 56415.9 0
56415.9 2022.58 0
0    0    0

144.735 47448.8 0
47448.8 -3599.78 0
0    0    0

-1002.05 54374.1 0
54374.1 -2681.4 0
0    0    0

1967.17 64826.2 0
64826.2 -1580.13 0
0    0    0

1469.92 70112.2 0
70112.2 -242.216 0
0    0    0

2108.26 75801.5 0
75801.5 4696.34 0
0    0    0

408.374 66072.6 0
66072.6 952.874 0
0    0    0

-3577.37 70048.7 0
70048.7 -3762.21 0
0    0    0

2864.45 71602.4 0
71602.4 1436.52 0
0    0    0

-1341.65 79134.5 0
79134.5 -4015.15 0
0    0    0

-427.496 81731.6 0
81731.6 -235.152 0
0    0    0

1059.55 82157.8 0
82157.8 1340.44 0
0    0    0

3538.97 80997.4 0
80997.4 1287.98 0
0    0    0

670.965 90418.9 0
90418.9 287.557 0
0    0    0

-986.827 85412.6 0
85412.6 -1846.36 0
0    0    0

-2919.06 78819 0
78819 -3440.74 0
0    0    0

1048.41 32430.1 0
32430.1 3030.01 0
0    0    0

-277.041 88605.5 0
88605.5 -118.732 0
0    0    0

-577.684 29297.4 0
29297.4 -247.579 0
0    0    0

-1074.7 18462 0
18462 -804.448 0
0    0    0

-430.903 21941.9 0
21941.9 2048.14 0
0    0    0

-1215.7 73751.3 0
73751.3 -39.7425 0
0    0    0

1571.95 79008.7 0
79008.7 1674.25 0
0    0    0

3576.85 70111.9 0
70111.9 1532.93 0
0    0    0

-2185.57 67704.2 0
67704.2 -4742.88 0
0    0    0

-1119.29 50498.3 0
50498.3 -2611.69 0
0    0    0

-1778.91 50102.5 0
50102.5 -4084.5 0
0    0    0

1103.12 41853.1 0
41853.1 2573.95 0
0    0    0

3270.26 37920.1 0
37920.1 1439.73 0
0    0    0

752.757 40112 0
40112 -230.009 0
0    0    0

1306.43 45749 0
45749 2633.15 0
0    0    0

-645.307 63514.8 0
63514.8 -1840.11 0
0    0    0

-1263 63336.2 0
63336.2 -329.217 0
0    0    0

1283.02 59343.6 0
59343.6 549.866 0
0    0    0

-890.39 58383.4 0
58383.4 -2077.58 0
0    0    0

-1633.03 54557.2 0
54557.2 -4432.62 0
0    0    0

992.624 56573.5 0
56573.5 3023.27 0
0    0    0

2517.29 52320.8 0
52320.8 5251.46 0
0    0    0

1263.42 51577.3 0
51577.3 3470.03 0
0    0    0

2935.91 41030.4 0
41030.4 3370.85 0
0    0    0

348.339 39359 0
39359 2100.97 0
0    0    0

-1944.68 37584.6 0
37584.6 3458.29 0
0    0    0

-2314.68 41753.2 0
41753.2 -782.882 0
0    0    0

-2495.49 25045.2 0
25045.2 -1417.81 0
0    0    0

-287.024 36745.1 0
36745.1 -123.01 0
0    0    0

-2360.71 20097.2 0
20097.2 -1011.73 0
0    0    0

921.802 40914.2 0
40914.2 -956.772 0
0    0    0

997.636 48434.2 0
48434.2 3178.54 0
0    0    0

1497.22 44666.2 0
44666.2 -1319.2 0
0    0    0

-2432.94 44120.9 0
44120.9 147.425 0
0    0    0

1038.51 49199.8 0
49199.8 2423.18 0
0    0    0

2721.57 46293.2 0
46293.2 2038.69 0
0    0    0

377.651 32317 0
32317 3993.14 0
0    0    0

800.217 26922.4 0
26922.4 204.282 0
0    0    0

