# vtk DataFile Version 3.0
2D scalar data
ASCII
DATASET UNSTRUCTURED_GRID
POINTS 666 float
0.000000 0.000000 0
1.000000 0.000000 0
1.000000 1.000000 0
0.000000 1.000000 0
0.500000 0.500000 0
0.000000 0.500000 0
0.500000 0.000000 0
1.000000 0.500000 0
0.500000 1.000000 0
0.750000 0.250000 0
0.250000 0.750000 0
0.750000 0.750000 0
0.500000 0.250000 0
0.750000 0.000000 0
1.000000 0.250000 0
0.875000 0.375000 0
0.875000 0.125000 0
0.875000 0.250000 0
1.000000 0.375000 0
0.812500 0.562500 0
0.750000 0.125000 0
0.625000 0.187500 0
0.515625 0.125000 0
0.250000 0.000000 0
0.625000 0.000000 0
0.375000 0.000000 0
0.656250 0.093750 0
0.312500 0.187500 0
0.312500 0.083333 0
0.407652 0.135417 0
0.875000 0.000000 0
1.000000 0.125000 0
0.890625 0.484375 0
1.000000 0.750000 0
0.640625 0.609375 0
0.703125 0.421875 0
0.613839 0.321429 0
0.705212 0.330115 0
0.590473 0.432104 0
0.654316 0.509772 0
0.476906 0.375000 0
0.250000 0.481554 0
0.381582 0.292755 0
0.377417 0.458014 0
0.000000 0.250000 0
0.385208 0.635208 0
0.295879 0.373278 0
0.125696 0.365026 0
0.328333 0.548940 0
0.000000 0.750000 0
0.202686 0.615777 0
0.290234 0.660366 0
0.125000 0.718613 0
0.126679 0.513534 0
0.250000 1.000000 0
0.000000 0.875000 0
0.000000 0.625000 0
0.153535 0.869571 0
0.100962 0.612024 0
0.000000 0.375000 0
0.154067 0.207833 0
0.199692 0.102836 0
0.125000 0.000000 0
0.000000 0.125000 0
0.098089 0.098089 0
0.282603 0.875000 0
0.391641 0.779808 0
0.375000 1.000000 0
0.520939 0.701613 0
0.437500 0.893999 0
0.750000 1.000000 0
0.612338 0.862338 0
0.530762 0.910436 0
0.625000 1.000000 0
0.125000 1.000000 0
0.243199 0.274932 0
0.090326 0.277486 0
0.484846 0.603468 0
0.635362 0.726316 0
1.000000 0.625000 0
0.875000 0.687500 0
0.742188 0.643229 0
0.737338 0.875000 0
0.879376 0.834998 0
1.000000 0.875000 0
0.875000 1.000000 0
0.825573 0.916130 0
0.918597 0.918597 0
0.783433 0.377797 0
0.252489 0.557883 0
0.576778 0.068157 0
0.582250 0.135360 0
0.153329 0.573095 0
0.562500 1.000000 0
0.710750 0.568272 0
0.665935 0.258341 0
0.312500 0.000000 0
0.718750 0.062500 0
0.381599 0.070054 0
0.251114 0.064269 0
0.576942 0.508301 0
0.316284 0.483724 0
0.000000 0.312500 0
0.418868 0.540961 0
0.561808 0.630874 0
0.167116 0.297375 0
0.210718 0.370577 0
0.163556 0.439032 0
0.353947 0.709042 0
0.437241 0.700773 0
0.000000 0.687500 0
0.000000 0.562500 0
0.150237 0.656916 0
0.062500 0.000000 0
0.263414 0.135417 0
0.150789 0.059811 0
0.068469 0.182346 0
0.146935 0.142322 0
0.524212 0.806102 0
0.599020 0.932976 0
0.687500 1.000000 0
0.937500 1.000000 0
0.762812 0.935561 0
0.812500 1.000000 0
1.000000 0.937500 0
0.827265 0.312500 0
0.831070 0.437079 0
0.757487 0.492441 0
0.068319 0.550898 0
0.000000 0.062500 0
0.569858 0.752376 0
0.462834 0.768211 0
0.388311 0.213041 0
0.937500 0.421875 0
0.466670 0.182357 0
0.935268 0.562500 0
0.927193 0.635636 0
0.552436 0.366269 0
0.643022 0.385394 0
0.519504 0.431763 0
0.378514 0.375360 0
0.309996 0.302434 0
0.356018 0.917382 0
0.312500 1.000000 0
0.350304 0.842504 0
0.318384 0.776483 0
0.676974 0.669600 0
0.437500 1.000000 0
0.679143 0.803686 0
0.799479 0.692708 0
0.842218 0.762287 0
0.920798 0.752154 0
0.801080 0.829160 0
1.000000 0.812500 0
0.069449 0.675136 0
0.228587 0.201593 0
0.676167 0.923046 0
0.937500 0.312500 0
0.812500 0.062500 0
0.078508 0.921492 0
0.578659 0.251068 0
0.937500 0.187500 0
0.937500 0.062500 0
0.812500 0.187500 0
0.703125 0.187500 0
0.453293 0.306004 0
0.080310 0.805236 0
0.000000 0.812500 0
0.070510 0.439648 0
0.220077 0.824556 0
0.179769 0.765096 0
0.215879 0.924349 0
0.460550 0.068408 0
0.421549 0.092004 0
0.300633 0.825792 0
0.531250 0.960668 0
0.471574 0.945334 0
0.539410 0.191450 0
0.765625 0.046875 0
0.340318 0.041667 0
0.439128 0.246712 0
0.687500 0.000000 0
0.198844 0.156689 0
0.873884 0.592736 0
0.599695 0.366521 0
0.694513 0.619153 0
0.690045 0.375674 0
0.554829 0.465074 0
0.447783 0.441221 0
0.039836 0.281250 0
0.337940 0.344831 0
0.327378 0.424567 0
0.268379 0.425483 0
0.216925 0.439666 0
0.202670 0.700723 0
0.037657 0.781250 0
0.051543 0.626771 0
0.093750 0.044162 0
0.051062 0.074735 0
0.187500 0.000000 0
0.099292 0.145846 0
0.281250 0.941399 0
0.613798 0.666871 0
0.422502 0.744942 0
0.406250 0.949331 0
0.574758 0.891827 0
0.583559 0.810269 0
0.632072 0.817443 0
0.695087 0.726512 0
0.740169 0.697048 0
0.641095 0.955214 0
0.906250 0.964361 0
0.281961 0.518717 0
0.632360 0.137870 0
0.193949 0.519177 0
0.291787 0.041667 0
0.356141 0.753296 0
0.513912 0.754129 0
0.315589 0.135417 0
0.436076 0.828267 0
0.803413 0.955630 0
0.964361 0.906250 0
0.942776 0.845686 0
0.339224 0.249038 0
1.000000 0.562500 0
1.000000 0.687500 0
0.509434 0.325329 0
0.410819 0.335200 0
0.259885 0.329276 0
0.343750 0.963690 0
0.299592 0.723476 0
0.933752 0.694430 0
0.268125 0.180149 0
0.634383 0.903069 0
0.125394 0.773655 0
0.159862 0.815628 0
0.073904 0.495362 0
0.043310 0.843750 0
0.097848 0.859114 0
0.437500 0.000000 0
0.582945 0.205517 0
0.656250 0.041667 0
0.863835 0.535710 0
0.814702 0.504142 0
0.879720 0.640056 0
0.421693 0.487719 0
0.404826 0.417043 0
0.069074 0.732843 0
0.201497 0.049763 0
0.051560 0.126309 0
0.573303 0.700104 0
0.615288 0.771214 0
0.162936 0.485103 0
0.204446 0.566923 0
0.361621 0.115891 0
0.490902 0.859961 0
0.397604 0.861982 0
0.917493 0.802279 0
0.284291 0.236322 0
0.959487 0.602188 0
0.210902 0.320881 0
0.254460 0.697919 0
0.420545 0.043800 0
0.541209 0.853844 0
0.961985 0.781250 0
0.194821 0.246446 0
0.295914 0.600082 0
0.348466 0.597549 0
0.252408 0.626393 0
0.829616 0.389467 0
0.882382 0.319882 0
0.793170 0.778204 0
0.740951 0.812402 0
0.695313 0.132813 0
0.884496 0.430950 0
0.947329 0.478075 0
0.945313 0.367188 0
0.659513 0.561229 0
0.620687 0.274029 0
0.562500 0.000000 0
0.518638 0.056328 0
0.772289 0.435533 0
0.616257 0.475983 0
0.652545 0.437456 0
0.661259 0.307533 0
0.708124 0.514335 0
0.511913 0.649223 0
0.121357 0.315864 0
0.060940 0.345969 0
0.082852 0.391059 0
0.340958 0.660008 0
0.230992 0.875000 0
0.788938 0.879514 0
0.149504 0.937025 0
0.187500 1.000000 0
0.532701 0.557633 0
0.594033 0.568131 0
0.763044 0.590410 0
0.752768 0.541851 0
0.816342 0.627079 0
0.664063 0.212175 0
0.710584 0.280541 0
0.764822 0.311497 0
0.136845 0.256065 0
0.166710 0.390731 0
0.393338 0.682185 0
0.442595 0.643094 0
0.420036 0.594512 0
0.715553 0.956557 0
0.812500 0.251744 0
0.420496 0.179839 0
1.000000 0.437500 0
0.327563 0.881896 0
0.839047 0.716319 0
0.842005 0.808246 0
0.757813 0.195313 0
0.461590 0.128451 0
0.260778 0.797609 0
0.538884 0.283385 0
0.430215 0.377761 0
0.361194 0.168250 0
0.566731 0.321382 0
0.812500 0.125000 0
0.937500 0.250000 0
1.000000 0.187500 0
0.875000 0.062500 0
0.875000 0.187500 0
0.937500 0.125000 0
0.473838 0.549012 0
0.000000 0.937500 0
0.872836 0.889067 0
0.370798 0.513152 0
0.000000 0.187500 0
1.000000 0.312500 0
0.812500 0.000000 0
0.062500 1.000000 0
0.044547 0.955453 0
1.000000 0.062500 0
0.937500 0.000000 0
0.000000 0.437500 0
0.678851 0.863326 0
0.736495 0.387475 0
0.612249 0.042116 0
0.577798 0.032369 0
0.615585 0.083838 0
0.585985 0.101232 0
0.544658 0.094918 0
0.859989 0.406328 0
0.497989 0.966322 0
0.348241 0.206696 0
0.842212 0.350563 0
0.803398 0.343839 0
0.679425 0.533227 0
0.664063 0.167932 0
0.375076 0.035331 0
0.781250 0.000000 0
0.618557 0.230551 0
1.000000 0.593750 0
0.577433 0.663849 0
0.575904 0.396616 0
0.611430 0.402767 0
0.555017 0.425925 0
0.652366 0.473640 0
0.518375 0.468346 0
0.538773 0.501348 0
0.478607 0.466421 0
0.302515 0.337772 0
0.391184 0.721341 0
0.170253 0.344068 0
0.373046 0.329927 0
0.346697 0.304311 0
0.117180 0.461447 0
0.219611 0.658253 0
0.261407 0.592148 0
0.256798 0.907687 0
0.031247 0.661783 0
0.041364 0.383351 0
0.000000 0.406250 0
0.218750 0.000000 0
0.000000 0.093750 0
0.125606 0.177788 0
0.236025 0.160915 0
0.228409 0.125275 0
0.319641 0.932524 0
0.306997 0.965302 0
0.293852 0.908442 0
0.598091 0.727987 0
0.365137 0.880918 0
0.377280 0.966435 0
0.665044 0.892626 0
0.765760 0.847284 0
0.656250 1.000000 0
0.238653 0.306062 0
0.036578 0.318113 0
0.000000 0.343750 0
0.061697 0.233982 0
0.883786 0.774884 0
0.882262 0.730904 0
0.850892 0.619591 0
0.841792 0.661056 0
0.800611 0.735773 0
0.771296 0.714996 0
0.761092 0.900646 0
0.933566 0.883097 0
0.781250 1.000000 0
0.744666 0.283821 0
0.782985 0.277091 0
0.176242 0.548097 0
0.606166 0.159346 0
0.570997 0.961169 0
0.606637 0.968571 0
0.705831 0.234103 0
0.180269 0.075608 0
0.281250 0.000000 0
0.624047 0.538820 0
0.290713 0.555974 0
0.163712 0.238467 0
0.203893 0.478975 0
0.124864 0.412253 0
0.289502 0.110831 0
0.260263 0.212824 0
0.000000 0.156250 0
0.678192 0.963210 0
0.954006 0.954006 0
0.718750 1.000000 0
0.843750 1.000000 0
0.779381 0.561586 0
0.067641 0.590539 0
0.036449 0.570180 0
0.032501 0.527675 0
0.547807 0.724673 0
0.056568 0.037335 0
0.659864 0.348273 0
0.365327 0.412830 0
0.335974 0.385138 0
0.395548 0.820828 0
0.671312 0.593636 0
0.759121 0.783180 0
0.662288 0.833424 0
0.833247 0.863557 0
0.752232 0.084821 0
0.781250 0.106585 0
0.717228 0.101055 0
0.000000 0.968750 0
0.072394 0.769396 0
0.032402 0.813231 0
0.193353 0.856742 0
0.184435 0.897269 0
0.406250 0.000000 0
0.259418 0.839765 0
0.333650 0.809828 0
0.343750 0.000000 0
0.346959 0.076220 0
0.423566 0.215016 0
0.682292 0.067708 0
0.083206 0.314977 0
0.190511 0.416539 0
0.083164 0.642561 0
0.518737 0.878956 0
0.482046 0.902830 0
0.315762 0.517542 0
0.663084 0.125979 0
0.259785 0.031974 0
0.430980 0.861259 0
0.501040 0.288125 0
0.417444 0.299345 0
0.451710 0.345085 0
0.229795 0.722038 0
0.315799 0.688824 0
0.570200 0.170562 0
0.537038 0.154817 0
0.504488 0.175317 0
0.508258 0.213020 0
0.543904 0.231220 0
0.656250 0.000000 0
0.035545 0.745481 0
0.220470 0.076975 0
0.171499 0.031351 0
0.659189 0.763905 0
0.513608 0.836773 0
0.967634 0.569982 0
0.961104 0.524487 0
0.202656 0.283708 0
0.552859 0.822800 0
0.964405 0.817053 0
0.353095 0.629786 0
0.802263 0.414131 0
0.628036 0.576658 0
0.620728 0.443841 0
0.092423 0.358538 0
0.315399 0.632328 0
0.781719 0.519685 0
0.411750 0.654806 0
0.718179 0.913571 0
0.748099 0.966129 0
0.282476 0.767672 0
0.585546 0.288405 0
0.455253 0.404992 0
0.491544 0.408381 0
0.515519 0.377968 0
0.539042 0.337284 0
0.796875 0.031250 0
0.031250 1.000000 0
0.753335 0.350484 0
0.764382 0.404063 0
0.086326 0.466645 0
0.184705 0.668943 0
0.162213 0.702626 0
0.183786 0.730265 0
0.254829 0.662454 0
0.227315 0.592206 0
0.031664 0.100711 0
0.032741 0.249279 0
0.035694 0.204310 0
0.099641 0.212696 0
0.159955 0.518635 0
0.563269 0.925977 0
0.727892 0.209442 0
0.610161 0.508640 0
1.000000 0.968750 0
0.968750 1.000000 0
0.848638 0.955036 0
0.000000 0.593750 0
0.358607 0.787017 0
0.227612 0.030945 0
0.467508 0.271270 0
0.551526 0.126226 0
0.489818 0.145679 0
0.469732 0.221738 0
0.916060 0.521659 0
0.128242 0.225803 0
0.881733 0.933198 0
0.231727 0.239093 0
0.726563 0.156250 0
0.915793 0.454423 0
0.968750 0.335938 0
0.484209 0.036473 0
0.451269 0.030512 0
0.178444 0.129435 0
0.800918 0.465249 0
0.847977 0.567903 0
0.707816 0.652050 0
0.905378 0.282122 0
0.397750 0.253979 0
0.351919 0.482919 0
0.454902 0.581180 0
0.191681 0.208946 0
0.402728 0.513408 0
0.035199 0.469759 0
0.127044 0.034584 0
0.474690 0.675161 0
0.542581 0.775454 0
0.383084 0.568530 0
0.665296 0.704655 0
0.906216 0.398483 0
0.495279 0.089705 0
0.716886 0.467496 0
0.686093 0.485974 0
0.736106 0.436812 0
0.558781 0.589673 0
0.521256 0.593583 0
0.298262 0.449726 0
0.273898 0.295240 0
0.297606 0.407534 0
0.234571 0.403257 0
0.249753 0.367131 0
0.478083 0.723848 0
0.117495 0.069390 0
0.144575 0.100867 0
0.706438 0.833640 0
0.853557 0.497688 0
0.830258 0.533950 0
0.907964 0.351362 0
1.000000 0.468750 0
0.895652 0.559501 0
0.959842 0.730600 0
0.967563 0.697536 0
0.798649 0.595728 0
0.777748 0.628191 0
0.797900 0.657322 0
0.830641 0.594807 0
0.670913 0.407194 0
0.458425 0.509297 0
0.306412 0.265774 0
0.704762 0.692094 0
0.439904 0.963546 0
0.907128 0.667637 0
0.091543 0.704134 0
0.166287 0.173359 0
0.000000 0.843750 0
0.780273 0.157227 0
0.074684 0.836861 0
0.093097 0.525341 0
0.109715 0.566243 0
0.119688 0.813480 0
0.129128 0.846042 0
0.663508 0.636645 0
0.727459 0.601635 0
0.247356 0.449640 0
0.093750 0.000000 0
0.709118 0.769645 0
0.727444 0.726799 0
0.494916 0.784901 0
0.148896 0.745964 0
0.154964 0.784512 0
0.193022 0.799504 0
0.217620 0.770273 0
0.043964 0.890293 0
0.078129 0.887188 0
0.031741 0.922985 0
0.413270 0.452424 0
0.102271 0.746298 0
0.316464 0.222351 0
0.321299 0.580328 0
0.858727 0.287050 0
0.964650 0.446086 0
0.968750 0.398438 0
0.531250 0.000000 0
0.566669 0.543592 0
0.598471 0.610057 0
0.477937 0.638439 0
0.781926 0.226659 0
0.505999 0.534690 0
0.541420 0.671112 0
0.901134 0.865060 0
0.037332 0.161172 0
0.000000 0.031250 0
0.360832 0.544415 0
0.684479 0.451233 0
0.530887 0.623805 0
0.860823 0.460516 0
0.764796 0.671024 0
0.112376 0.669943 0
0.476108 0.820982 0
0.543331 0.032281 0
0.906250 0.218750 0
0.968750 0.218750 0
0.906250 0.031250 0
0.843750 0.218750 0
0.718750 0.000000 0
0.843750 0.031250 0
0.906250 0.093750 0
0.159958 0.615307 0
0.429755 0.789461 0
0.906250 0.156250 0
0.968750 0.093750 0
0.968750 0.031250 0
0.156250 1.000000 0
0.914216 0.597189 0
0.241987 0.958094 0
0.218750 1.000000 0
0.201797 0.962215 0
0.167294 0.966968 0
0.235313 0.520238 0
0.107915 0.957097 0
0.093750 1.000000 0
0.075909 0.968705 0
0.843750 0.156250 0
0.843750 0.093750 0
0.968750 0.281250 0
0.968750 0.156250 0
0.035762 0.421945 0
0.397612 0.907962 0
0.038702 0.703660 0
0.967023 0.653774 0
0.121231 0.901488 0

CELLS 1237 4948
3 186 341 35
3 546 532 265
3 485 490 267
3 212 415 89
3 254 173 29
3 343 342 90
3 347 15 554
3 174 144 312
3 350 270 15
3 590 441 322
3 593 128 592
3 665 159 608
3 175 8 348
3 271 150 314
3 349 320 132
3 318 321 500
3 533 164 273
3 635 161 323
3 534 274 133
3 274 534 32
3 324 636 161
3 637 162 325
3 163 326 638
3 15 269 350
3 535 157 659
3 352 39 557
3 231 151 397
3 300 353 164
3 163 590 322
3 470 526 469
3 496 36 321
3 354 179 451
3 355 334 501
3 21 356 240
3 179 28 215
3 342 343 24
3 165 227 465
3 97 639 13
3 321 36 184
3 28 419 99
3 536 280 555
3 382 538 61
3 471 527 470
3 218 27 232
3 325 640 30
3 641 162 327
3 357 79 259
3 486 539 281
3 619 358 104
3 574 540 242
3 321 184 137
3 81 541 185
3 187 282 100
3 278 284 36
3 184 359 137
3 270 542 157
3 186 35 581
3 362 282 488
3 187 38 282
3 94 277 352
3 187 100 364
3 188 497 498
3 543 180 465
3 331 544 43
3 44 189 102
3 319 497 246
3 190 46 366
3 545 77 306
3 191 43 544
3 358 623 104
3 303 287 76
3 367 305 109
3 368 260 106
3 42 227 369
3 418 168 289
3 532 546 155
3 582 547 245
3 305 290 45
3 603 507 508
3 234 166 444
3 154 632 587
3 506 372 194
3 415 373 89
3 49 195 167
3 592 53 593
3 371 168 418
3 253 214 653
3 291 65 374
3 291 374 171
3 506 507 112
3 196 154 375
3 55 607 609
3 52 587 632
3 429 548 236
3 599 549 197
3 289 376 288
3 114 382 99
3 568 412 61
3 524 23 462
3 63 379 511
3 588 380 117
3 232 381 114
3 431 0 113
3 216 230 108
3 229 383 142
3 620 550 306
3 54 201 384
3 430 386 130
3 142 312 387
3 483 71 263
3 203 131 643
3 147 388 204
3 156 233 389
3 292 82 390
3 175 348 72
3 551 118 602
3 210 391 73
3 543 223 132
3 233 205 71
3 447 57 446
3 392 260 482
3 189 76 455
3 76 189 395
3 307 45 552
3 295 622 364
3 478 148 207
3 483 551 206
3 397 150 313
3 275 481 529
3 209 631 401
3 244 398 183
3 584 553 146
3 313 400 149
3 210 119 233
3 85 211 121
3 402 292 86
3 222 403 624
3 484 257 264
3 84 403 222
3 494 220 404
3 423 520 121
3 87 211 531
3 301 9 405
3 133 274 554
3 92 407 253
3 101 212 41
3 91 213 408
3 555 280 346
3 526 345 91
3 90 342 344
3 252 515 53
3 642 50 506
3 285 556 127
3 93 175 409
3 297 94 298
3 300 21 353
3 301 95 411
3 442 273 26
3 99 215 28
3 241 344 342
3 6 536 537
3 98 173 254
3 412 115 477
3 215 413 96
3 277 487 414
3 559 296 619
3 415 212 460
3 563 561 192
3 306 307 545
3 393 189 455
3 547 43 245
3 328 295 560
3 596 202 34
3 416 60 546
3 562 228 392
3 561 563 191
3 252 417 214
3 304 107 418
3 564 193 456
3 367 109 203
3 216 145 230
3 492 307 306
3 203 566 131
3 642 58 92
3 247 475 663
3 111 5 429
3 606 508 467
3 218 114 419
3 511 129 198
3 155 232 420
3 197 567 64
3 248 199 524
3 395 116 514
3 249 625 63
3 117 380 200
3 64 567 568
3 463 255 69
3 633 643 131
3 438 569 340
3 410 93 409
3 404 70 494
3 422 120 391
3 121 211 423
3 308 424 120
3 503 302 351
3 123 220 521
3 124 423 221
3 125 302 406
3 570 242 571
3 571 242 540
3 558 341 504
3 298 426 297
3 593 427 128
3 428 111 429
3 386 430 250
3 197 198 431
3 251 478 207
3 131 566 217
3 602 633 131
3 320 310 132
3 42 370 223
3 15 270 572
3 275 573 7
3 180 453 528
3 316 29 173
3 648 259 136
3 648 574 135
3 231 575 151
3 19 540 580
3 359 361 137
3 466 226 40
3 37 432 284
3 283 138 581
3 365 582 245
3 498 499 139
3 369 140 190
3 140 246 433
3 141 190 366
3 583 223 370
3 387 144 256
3 388 147 67
3 169 605 606
3 388 142 204
3 643 435 66
3 495 230 145
3 435 144 523
3 487 436 34
3 584 208 553
3 271 437 11
3 147 204 585
3 207 148 438
3 577 578 297
3 231 397 80
3 397 313 80
3 314 152 271
3 231 80 586
3 221 403 84
3 86 439 330
3 569 82 340
3 587 247 663
3 33 153 264
3 375 56 196
3 588 117 538
3 232 114 218
3 233 119 205
3 122 493 402
3 276 535 18
3 323 157 542
3 334 30 640
3 178 440 97
3 336 443 329
3 589 167 445
3 472 473 12
3 95 356 300
3 16 327 644
3 635 326 161
3 337 645 162
3 338 646 162
3 9 411 517
3 621 638 309
3 315 590 163
3 9 301 411
3 500 499 226
3 227 165 466
3 444 195 475
3 591 166 594
3 128 236 592
3 167 195 445
3 376 377 59
3 594 234 604
3 495 174 317
3 317 169 606
3 235 605 446
3 74 654 652
3 291 446 169
3 316 555 527
3 262 448 239
3 262 173 98
3 172 555 316
3 317 449 169
3 145 450 174
3 72 205 516
3 93 8 175
3 348 147 585
3 69 255 459
3 240 469 408
3 472 134 471
3 322 441 158
3 97 13 178
3 354 451 25
3 452 179 354
3 543 453 180
3 525 12 464
3 182 382 381
3 241 454 26
3 182 155 546
3 648 183 574
3 183 648 244
3 432 184 36
3 184 360 359
3 436 596 34
3 297 597 94
3 432 36 284
3 302 503 37
3 187 364 363
3 361 187 139
3 139 363 365
3 188 610 246
3 512 44 513
3 76 287 455
3 190 370 369
3 140 433 434
3 41 598 561
3 46 190 434
3 598 41 417
3 192 564 565
3 41 653 417
3 193 107 456
3 372 506 50
3 261 194 372
3 49 663 475
3 166 591 445
3 111 428 522
3 58 457 196
3 198 197 64
3 62 549 599
3 64 200 249
3 431 113 599
3 513 332 625
3 62 199 477
3 568 200 64
3 374 649 171
3 312 383 385
3 358 619 202
3 553 202 146
3 66 216 367
3 566 203 109
3 662 142 387
3 585 69 176
3 516 119 409
3 458 263 205
3 386 251 130
3 263 71 205
3 71 206 207
3 206 130 251
3 541 209 584
3 478 600 148
3 209 81 631
3 601 209 401
3 156 308 422
3 410 210 73
3 85 425 521
3 87 221 423
3 415 460 48
3 653 212 89
3 213 345 344
3 213 26 461
3 407 515 214
3 253 653 89
3 413 462 23
3 179 215 96
3 216 108 367
3 523 216 66
3 217 68 430
3 602 217 551
3 28 452 254
3 218 254 320
3 118 633 602
3 256 463 69
3 122 86 220
3 425 123 521
3 83 624 330
3 84 124 221
3 222 624 257
3 84 222 484
3 562 258 583
3 320 349 27
3 12 318 464
3 224 480 481
3 225 576 664
3 226 464 318
3 465 227 42
3 319 466 40
3 106 565 564
3 228 565 260
3 67 143 229
3 143 54 384
3 261 467 194
3 290 468 51
3 136 259 664
3 576 33 575
3 27 258 420
3 381 155 182
3 207 438 71
3 210 233 156
3 603 234 611
3 604 170 605
3 446 605 169
3 665 595 57
3 236 128 429
3 53 505 371
3 234 594 166
3 591 608 237
3 57 447 665
3 608 607 237
3 473 240 160
3 239 537 262
3 408 469 91
3 474 181 241
3 454 181 97
3 19 426 491
3 242 32 529
3 539 127 281
3 126 274 630
3 586 244 136
3 398 399 299
3 43 610 245
3 245 188 365
3 433 43 191
3 140 227 319
3 611 52 603
3 49 475 195
3 412 476 61
3 477 248 412
3 64 249 198
3 116 249 200
3 68 286 623
3 386 202 78
3 251 78 478
3 206 251 207
3 236 505 53
3 417 107 193
3 89 373 510
3 253 50 642
3 310 320 29
3 28 254 218
3 458 479 263
3 458 72 459
3 69 204 662
3 450 523 144
3 83 314 396
3 575 264 151
3 420 258 532
3 27 612 258
3 357 480 224
3 664 259 79
3 106 304 368
3 260 105 482
3 468 261 51
3 10 261 230
3 173 262 172
3 262 98 354
3 118 551 483
3 458 205 72
3 484 153 84
3 151 264 257
3 75 392 482
3 416 105 303
3 490 613 267
3 266 490 268
3 460 627 48
3 267 45 485
3 509 51 261
3 50 253 510
3 486 126 539
3 351 350 269
3 542 614 17
3 572 157 276
3 437 152 272
3 401 11 601
3 390 152 292
3 272 148 600
3 273 164 353
3 26 454 442
3 630 32 570
3 126 269 347
3 615 133 616
3 7 224 481
3 616 133 276
3 276 133 554
3 436 94 185
3 436 487 277
3 160 240 356
3 284 278 95
3 634 279 343
3 634 617 279
3 346 90 345
3 127 556 558
3 486 88 269
3 283 488 360
3 518 39 414
3 628 283 581
3 38 488 282
3 301 284 95
3 432 37 186
3 362 557 39
3 298 285 127
3 306 550 109
3 77 560 629
3 368 287 105
3 455 287 489
3 289 489 47
3 394 102 393
3 47 304 418
3 59 394 376
3 468 108 230
3 290 51 490
3 447 446 291
3 449 291 169
3 439 83 330
3 402 86 122
3 649 650 651
3 665 654 159
3 559 618 296
3 651 293 171
3 328 560 77
3 414 39 277
3 559 619 104
3 299 577 580
3 597 81 185
3 285 298 94
3 298 127 491
3 244 399 398
3 631 578 579
3 411 300 164
3 356 95 278
3 406 405 9
3 284 301 37
3 351 125 350
3 301 405 37
3 287 303 105
3 76 395 514
3 287 368 47
3 106 564 456
3 290 305 108
3 492 45 307
3 286 620 77
3 492 109 305
3 552 45 267
3 103 328 545
3 493 156 389
3 424 494 70
3 406 621 309
3 614 309 17
3 316 310 29
3 134 528 453
3 312 142 383
3 616 311 615
3 174 312 65
3 400 150 271
3 399 313 149
3 314 150 396
3 439 314 83
3 315 517 533
3 163 638 621
3 316 134 310
3 172 316 173
3 174 495 145
3 449 174 65
3 473 318 12
3 160 278 496
3 246 497 188
3 140 319 246
3 218 320 27
3 29 320 254
3 318 500 226
3 496 318 160
3 657 163 322
3 658 16 322
3 659 157 323
3 161 636 323
3 660 31 324
3 16 658 325
3 162 641 325
3 16 644 326
3 163 657 326
3 31 660 327
3 162 645 327
3 103 547 582
3 295 328 622
3 531 211 521
3 329 609 336
3 439 86 292
3 552 103 307
3 627 460 331
3 659 333 535
3 421 625 332
3 178 501 158
3 656 159 654
3 335 336 656
3 443 502 3
3 162 646 337
3 162 637 338
3 493 389 340
3 548 168 505
3 389 71 340
3 37 341 186
3 504 341 88
3 24 241 342
3 344 241 26
3 634 90 280
3 24 343 279
3 26 213 344
3 345 213 91
3 526 346 345
3 90 344 345
3 555 346 22
3 280 90 346
3 126 347 274
3 269 15 347
3 147 348 8
3 72 348 176
3 132 223 349
3 612 349 223
3 351 269 88
3 270 350 125
3 503 351 88
3 302 125 351
3 94 352 285
3 277 39 352
3 21 213 353
3 353 213 461
3 354 25 448
3 452 354 98
3 300 356 21
3 178 13 355
3 160 356 278
3 202 250 358
3 480 357 259
3 250 68 623
3 360 184 138
3 361 359 38
3 283 360 138
3 38 359 360
3 187 361 38
3 361 139 499
3 556 557 628
3 39 282 362
3 365 363 4
3 139 187 363
3 364 100 618
3 4 363 364
3 365 4 582
3 365 188 498
3 46 228 366
3 562 366 228
3 367 203 66
3 108 305 367
3 47 368 304
3 105 260 368
3 140 369 227
3 370 190 141
3 370 141 583
3 42 369 370
3 107 252 371
3 53 371 252
3 50 268 372
3 268 51 509
3 266 268 373
3 268 50 510
3 385 374 65
3 374 201 649
3 663 375 154
3 56 375 110
3 168 661 289
3 376 289 661
3 60 416 530
3 661 377 376
3 199 378 524
3 249 511 198
3 116 200 380
3 155 381 232
3 182 538 382
3 382 61 476
3 114 381 382
3 384 229 143
3 383 201 385
3 201 383 384
3 229 384 383
3 374 385 201
3 312 385 65
3 202 386 250
3 251 386 78
3 144 387 312
3 662 256 69
3 67 229 388
3 142 388 229
3 71 389 233
3 493 340 82
3 569 390 82
3 272 152 390
3 562 392 75
3 422 391 210
3 228 260 392
3 288 376 394
3 102 189 393
3 44 512 189
3 394 393 288
3 116 380 514
3 151 257 396
3 396 257 83
3 151 396 397
3 397 396 150
3 399 244 80
3 540 183 580
3 313 399 80
3 579 399 149
3 150 400 313
3 11 400 271
3 149 400 401
3 11 401 400
3 493 122 308
3 82 292 402
3 221 87 403
3 624 87 330
3 9 621 406
3 220 123 404
3 37 405 302
3 125 406 309
3 302 405 406
3 515 92 53
3 214 253 407
3 213 21 408
3 240 408 21
3 516 175 72
3 410 409 119
3 210 410 119
3 93 410 73
3 300 411 95
3 411 164 517
3 476 412 248
3 61 538 568
3 618 414 296
3 462 413 215
3 282 518 100
3 613 415 48
3 373 415 266
3 105 416 265
3 530 416 303
3 107 417 252
3 417 193 598
3 371 418 107
3 47 418 289
3 99 419 114
3 28 218 419
3 27 420 232
3 532 258 75
3 156 422 210
3 116 625 249
3 308 120 422
3 423 211 87
3 520 519 2
3 426 298 491
3 494 424 308
3 521 220 86
3 577 426 19
3 58 196 427
3 56 522 196
3 128 427 428
3 428 427 196
3 429 5 548
3 128 428 429
3 430 130 551
3 68 250 430
3 198 129 431
3 0 431 626
3 186 138 432
3 432 138 184
3 43 433 246
3 434 433 191
3 434 191 563
3 140 434 190
3 219 256 435
3 144 435 256
3 94 436 277
3 596 436 185
3 152 437 271
3 600 437 272
3 569 438 148
3 71 438 340
3 292 152 439
3 439 152 314
3 158 440 178
3 442 20 273
3 20 440 441
3 158 441 440
3 97 440 442
3 20 442 440
3 444 247 611
3 502 443 336
3 166 195 444
3 166 445 195
3 589 445 237
3 447 291 171
3 235 446 57
3 171 293 447
3 665 447 293
3 174 449 317
3 354 448 262
3 291 449 65
3 145 216 523
3 144 174 450
3 254 452 98
3 179 96 451
3 28 179 452
3 132 310 453
3 134 453 310
3 181 454 241
3 442 454 97
3 489 287 47
3 393 455 288
3 107 304 456
3 106 456 304
3 632 58 112
3 154 196 457
3 459 72 176
3 479 458 255
3 69 459 176
3 255 458 459
3 212 101 460
3 460 101 544
3 26 273 461
3 353 461 273
3 215 99 462
3 476 524 99
3 256 219 463
3 463 219 633
3 226 165 464
3 525 464 165
3 543 465 42
3 525 465 180
3 227 466 319
3 226 466 165
3 261 10 467
3 467 10 606
3 108 468 290
3 261 468 230
3 240 177 469
3 470 469 177
3 471 470 177
3 22 346 526
3 472 471 177
3 134 316 527
3 473 472 177
3 525 528 12
3 240 473 177
3 473 160 318
3 663 49 110
3 241 24 474
3 444 475 247
3 524 476 248
3 382 476 99
3 477 115 549
3 199 248 477
3 553 478 78
3 600 478 208
3 255 463 633
3 483 479 118
3 259 135 480
3 480 135 481
3 529 481 135
3 275 7 481
3 105 265 482
3 482 265 532
3 71 483 206
3 479 483 263
3 257 484 222
3 264 153 484
3 45 290 485
3 485 290 490
3 486 281 504
3 269 126 486
3 619 487 34
3 414 487 296
3 360 488 38
3 362 488 283
3 289 288 489
3 455 489 288
3 268 490 51
3 266 613 490
3 539 491 127
3 243 571 491
3 109 492 306
3 305 45 492
3 402 493 82
3 308 156 493
3 308 122 494
3 494 122 220
3 317 10 495
3 230 495 10
3 36 496 278
3 318 496 321
3 319 40 497
3 498 497 40
3 499 498 40
3 498 139 365
3 226 499 40
3 499 137 361
3 321 137 500
3 499 500 137
3 355 501 178
3 640 501 334
3 88 341 503
3 336 335 502
3 37 503 341
3 486 504 88
3 504 281 558
3 548 505 236
3 168 371 505
3 507 506 194
3 506 112 642
3 508 507 194
3 507 52 632
3 467 508 194
3 508 170 603
3 261 372 509
3 268 509 372
3 89 510 253
3 268 510 373
3 63 511 249
3 129 511 379
3 513 44 332
3 395 189 512
3 116 395 513
3 512 513 395
3 530 380 60
3 514 530 76
3 214 515 252
3 92 515 407
3 119 516 205
3 175 516 409
3 533 517 164
3 9 517 315
3 39 518 282
3 618 518 414
3 531 86 330
3 423 124 519
3 519 520 423
3 85 521 211
3 435 523 66
3 196 522 428
3 145 523 450
3 23 524 378
3 99 524 462
3 465 525 165
3 525 180 528
3 469 526 91
3 22 526 470
3 470 527 22
3 134 527 471
3 134 472 528
3 12 528 472
3 529 135 574
3 275 529 32
3 76 530 303
3 380 530 514
3 86 531 521
3 330 87 531
3 420 532 155
3 482 532 75
3 590 533 20
3 273 20 533
3 615 534 133
3 275 32 534
3 18 535 333
3 276 157 535
3 172 262 537
3 6 280 536
3 6 537 239
3 172 537 536
3 588 538 182
3 538 117 568
3 539 126 630
3 539 243 491
3 580 183 398
3 571 540 19
3 209 541 81
3 596 541 146
3 614 542 270
3 323 542 17
3 223 543 42
3 453 543 132
3 460 544 331
3 191 544 101
3 103 545 307
3 328 77 545
3 416 546 265
3 546 60 588
3 627 103 552
3 43 547 331
3 5 339 548
3 661 548 339
3 477 549 62
3 567 549 115
3 286 68 550
3 566 550 68
3 430 551 217
3 551 130 206
3 627 267 48
3 627 547 103
3 478 553 208
3 202 553 78
3 347 554 274
3 554 15 572
3 555 22 527
3 536 555 172
3 557 556 285
3 558 556 35
3 557 285 352
3 628 362 283
3 558 35 341
3 127 558 281
3 623 629 104
3 618 559 295
3 295 559 560
3 559 104 629
3 191 101 561
3 41 561 101
3 258 562 75
3 366 562 141
3 565 563 192
3 434 563 46
3 260 565 106
3 598 564 192
3 228 46 565
3 565 46 563
3 550 566 109
3 68 217 566
3 549 567 197
3 568 567 115
3 412 568 115
3 568 117 200
3 148 272 569
3 569 272 390
3 570 243 539
3 32 242 570
3 491 571 19
3 570 571 243
3 157 572 270
3 554 572 276
3 540 574 183
3 615 573 275
3 529 574 242
3 576 575 231
3 264 575 33
3 664 231 136
3 33 576 225
3 578 577 299
3 426 577 297
3 579 578 299
3 297 578 81
3 399 579 299
3 401 631 149
3 299 580 398
3 19 580 577
3 186 581 138
3 628 581 35
3 622 582 4
3 103 582 328
3 562 583 141
3 612 583 258
3 541 584 146
3 601 584 209
3 69 585 204
3 348 585 176
3 244 586 80
3 136 231 586
3 154 457 632
3 611 587 52
3 546 588 182
3 380 588 60
3 533 590 315
3 237 55 589
3 590 20 441
3 591 238 608
3 445 591 237
3 236 53 592
3 593 53 92
3 92 58 593
3 427 593 58
3 595 235 57
3 591 594 238
3 238 594 595
3 235 595 594
3 541 596 185
3 202 596 146
3 81 597 297
3 185 94 597
3 564 598 193
3 561 598 192
3 601 600 208
3 431 599 197
3 600 11 437
3 600 601 11
3 584 601 208
3 633 118 479
3 131 217 602
3 603 52 507
3 604 603 170
3 594 604 235
3 603 604 234
3 604 605 235
3 606 605 170
3 606 170 508
3 317 606 10
3 159 336 609
3 55 237 607
3 238 595 665
3 159 607 608
3 55 609 329
3 159 609 607
3 246 610 43
3 188 245 610
3 444 611 234
3 587 611 247
3 349 612 27
3 583 612 223
3 415 613 266
3 48 267 613
3 270 125 614
3 309 614 125
3 573 615 311
3 534 615 275
3 18 311 616
3 276 18 616
3 364 618 295
3 6 617 634
3 618 100 518
3 487 619 296
3 202 619 34
3 550 620 286
3 306 77 620
3 9 315 621
3 163 621 315
3 582 622 328
3 364 622 4
3 623 286 629
3 250 623 358
3 624 83 257
3 87 624 403
3 513 625 116
3 63 625 421
3 547 627 331
3 431 129 626
3 267 627 552
3 556 628 35
3 362 628 557
3 77 629 286
3 559 629 560
3 32 630 274
3 539 630 570
3 578 631 81
3 149 631 579
3 58 632 457
3 632 112 507
3 255 633 479
3 633 219 643
3 90 634 343
3 6 634 280
3 17 326 635
3 323 17 635
3 14 323 636
3 324 14 636
3 30 338 637
3 325 30 637
3 17 309 638
3 326 17 638
3 501 640 158
3 97 181 639
3 325 158 640
3 16 325 641
3 327 16 641
3 58 642 112
3 253 642 92
3 435 643 219
3 203 643 66
3 161 326 644
3 327 161 644
3 31 327 645
3 337 31 645
3 1 337 646
3 338 1 646
3 259 648 135
3 294 652 651
3 244 648 136
3 201 54 649
3 651 650 294
3 294 647 652
3 649 54 650
3 171 649 651
3 74 652 647
3 293 651 652
3 417 653 214
3 212 653 41
3 652 654 293
3 656 655 335
3 159 656 336
3 654 74 655
3 655 656 654
3 16 326 657
3 322 16 657
3 158 325 658
3 322 158 658
3 14 333 659
3 323 14 659
3 161 327 660
3 324 161 660
3 548 661 168
3 377 661 339
3 142 662 204
3 256 662 387
3 375 663 110
3 663 154 587
3 225 664 79
3 231 664 576
3 665 293 654
3 238 665 608

CELL_TYPES 1237
5
5
5
5
5
5
5
5
5
5
5
5
5
5
5
5
5
5
5
5
5
5
5
5
5
5
5
5
5
5
5
5
5
5
5
5
5
5
5
5
5
5
5
5
5
5
5
5
5
5
5
5
5
5
5
5
5
5
5
5
5
5
5
5
5
5
5
5
5
5
5
5
5
5
5
5
5
5
5
5
5
5
5
5
5
5
5
5
5
5
5
5
5
5
5
5
5
5
5
5
5
5
5
5
5
5
5
5
5
5
5
5
5
5
5
5
5
5
5
5
5
5
5
5
5
5
5
5
5
5
5
5
5
5
5
5
5
5
5
5
5
5
5
5
5
5
5
5
5
5
5
5
5
5
5
5
5
5
5
5
5
5
5
5
5
5
5
5
5
5
5
5
5
5
5
5
5
5
5
5
5
5
5
5
5
5
5
5
5
5
5
5
5
5
5
5
5
5
5
5
5
5
5
5
5
5
5
5
5
5
5
5
5
5
5
5
5
5
5
5
5
5
5
5
5
5
5
5
5
5
5
5
5
5
5
5
5
5
5
5
5
5
5
5
5
5
5
5
5
5
5
5
5
5
5
5
5
5
5
5
5
5
5
5
5
5
5
5
5
5
5
5
5
5
5
5
5
5
5
5
5
5
5
5
5
5
5
5
5
5
5
5
5
5
5
5
5
5
5
5
5
5
5
5
5
5
5
5
5
5
5
5
5
5
5
5
5
5
5
5
5
5
5
5
5
5
5
5
5
5
5
5
5
5
5
5
5
5
5
5
5
5
5
5
5
5
5
5
5
5
5
5
5
5
5
5
5
5
5
5
5
5
5
5
5
5
5
5
5
5
5
5
5
5
5
5
5
5
5
5
5
5
5
5
5
5
5
5
5
5
5
5
5
5
5
5
5
5
5
5
5
5
5
5
5
5
5
5
5
5
5
5
5
5
5
5
5
5
5
5
5
5
5
5
5
5
5
5
5
5
5
5
5
5
5
5
5
5
5
5
5
5
5
5
5
5
5
5
5
5
5
5
5
5
5
5
5
5
5
5
5
5
5
5
5
5
5
5
5
5
5
5
5
5
5
5
5
5
5
5
5
5
5
5
5
5
5
5
5
5
5
5
5
5
5
5
5
5
5
5
5
5
5
5
5
5
5
5
5
5
5
5
5
5
5
5
5
5
5
5
5
5
5
5
5
5
5
5
5
5
5
5
5
5
5
5
5
5
5
5
5
5
5
5
5
5
5
5
5
5
5
5
5
5
5
5
5
5
5
5
5
5
5
5
5
5
5
5
5
5
5
5
5
5
5
5
5
5
5
5
5
5
5
5
5
5
5
5
5
5
5
5
5
5
5
5
5
5
5
5
5
5
5
5
5
5
5
5
5
5
5
5
5
5
5
5
5
5
5
5
5
5
5
5
5
5
5
5
5
5
5
5
5
5
5
5
5
5
5
5
5
5
5
5
5
5
5
5
5
5
5
5
5
5
5
5
5
5
5
5
5
5
5
5
5
5
5
5
5
5
5
5
5
5
5
5
5
5
5
5
5
5
5
5
5
5
5
5
5
5
5
5
5
5
5
5
5
5
5
5
5
5
5
5
5
5
5
5
5
5
5
5
5
5
5
5
5
5
5
5
5
5
5
5
5
5
5
5
5
5
5
5
5
5
5
5
5
5
5
5
5
5
5
5
5
5
5
5
5
5
5
5
5
5
5
5
5
5
5
5
5
5
5
5
5
5
5
5
5
5
5
5
5
5
5
5
5
5
5
5
5
5
5
5
5
5
5
5
5
5
5
5
5
5
5
5
5
5
5
5
5
5
5
5
5
5
5
5
5
5
5
5
5
5
5
5
5
5
5
5
5
5
5
5
5
5
5
5
5
5
5
5
5
5
5
5
5
5
5
5
5
5
5
5
5
5
5
5
5
5
5
5
5
5
5
5
5
5
5
5
5
5
5
5
5
5
5
5
5
5
5
5
5
5
5
5
5
5
5
5
5
5
5
5
5
5
5
5
5
5
5
5
5
5
5
5
5
5
5
5
5
5
5
5
5
5
5
5
5
5
5
5
5
5
5
5
5
5
5
5
5
5
5
5
5
5
5
5
5
5
5
5
5
5
5
5
5
5
5
5
5
5
5
5
5
5
5
5
5
5
5
5
5
5
5
5
5
5
5
5
5
5
5
5
5
5
5
5
5
5
5
5
5
5
5
5
5
5
5
5
5
5
5
5
5
5
5
5
5
5
5
5
5
5
5
5
5
5
5
5
5
5
5
5
5
5
5
5
5
5
5
5
5
5
5
5
5
5
5
5
5
5
5
5
5
5
5
5
5
5
5
5
5
5
5
5
5
5
5
5
5
5
5
5
5
5
5
5
5
5
5
5
5
5
5
5
5
5
5
5
5
5
5
5
5
5
5
5
5
5
5
5
5
5
5
5
5
5
5
5
5
5
5
5
5
5
5
5
5
5
5
5
5
5
5
5
5
5
5
5
5
5
5
5
5
5
5
5
5
5
5
5
5
5
5
5
5
5
5
5
5
5
5
5
5
5
5
5
5
5
5
5
5
5
5
5
5
5
5
5
5
5
5
5
5
5
5
5
5
5
5
5
5
5
5
5
5
5
5
5
5
5
5
5
5
5
5
5
5
5
5
5
5
5
5
5
5
5
5
5
5
5
5
5
5
5
5
5
5
5
5
5
5
5
5
5
5
5
5
5
5
5
5
5
5
5
5
5
5
5
5
5
5
5
5
5
5
5
5
5
5
5
5
5
5
5
5
5
5
5
5
5
5
5
5
5
5

POINT_DATA 666
SCALARS pressure float 1
LOOKUP_TABLE default
0
0
0
0
0
0
0
0
0
0
0
0
0
0
0
0
0
0
0
0
0
0
0
0
0
0
0
0
0
0
0
0
0
0
0
0
0
0
0
0
0
0
0
0
0
0
0
0
0
0
0
0
0
0
0
0
0
0
0
0
0
0
0
0
0
0
0
0
0
0
0
0
0
0
0
0
0
0
0
0
0
0
0
0
0
0
0
0
0
0
0
0
0
0
0
0
0
0
0
0
0
0
0
0
0
0
0
0
0
0
0
0
0
0
0
0
0
0
0
0
0
0
0
0
0
0
0
0
0
0
0
0
0
0
0
0
0
0
0
0
0
0
0
0
0
0
0
0
0
0
0
0
0
0
0
0
0
0
0
0
0
0
0
0
0
0
0
0
0
0
0
0
0
0
0
0
0
0
0
0
0
0
0
0
0
0
0
0
0
0
0
0
0
0
0
0
0
0
0
0
0
0
0
0
0
0
0
0
0
0
0
0
0
0
0
0
0
0
0
0
0
0
0
0
0
0
0
0
0
0
0
0
0
0
0
0
0
0
0
0
0
0
0
0
0
0
0
0
0
0
0
0
0
0
0
0
0
0
0
0
0
0
0
0
0
0
0
0
0
0
0
0
0
0
0
0
0
0
0
0
0
0
0
0
0
0
0
0
0
0
0
0
0
0
0
0
0
0
0
0
0
0
0
0
0
0
0
0
0
0
0
0
0
0
0
0
0
0
0
0
0
0
0
0
0
0
0
0
0
0
0
0
0
0
0
0
0
0
0
0
0
0
0
0
0
0
0
0
0
0
0
0
0
0
0
0
0
0
0
0
0
0
0
0
0
0
0
0
0
0
0
0
0
0
0
0
0
0
0
0
0
0
0
0
0
0
0
0
0
0
0
0
0
0
0
0
0
0
0
0
0
0
0
0
0
0
0
0
0
0
0
0
0
0
0
0
0
0
0
0
0
0
0
0
0
0
0
0
0
0
0
0
0
0
0
0
0
0
0
0
0
0
0
0
0
0
0
0
0
0
0
0
0
0
0
0
0
0
0
0
0
0
0
0
0
0
0
0
0
0
0
0
0
0
0
0
0
0
0
0
0
0
0
0
0
0
0
0
0
0
0
0
0
0
0
0
0
0
0
0
0
0
0
0
0
0
0
0
0
0
0
0
0
0
0
0
0
0
0
0
0
0
0
0
0
0
0
0
0
0
0
0
0
0
0
0
0
0
0
0
0
0
0
0
0
0
0
0
0
0
0
0
0
0
0
0
0
0
0
0
0
0
0
0
0
0
0
0
0
0
0
0
0
0
0
0
0
0
0
0
0
0
0
0
0
0
0
0
0
0
0
0
0
0
0
0
0
0
0
0
0
0
0
0
0
0
0
0
0
0
0
0
0
0
0
0
0
0
0
0
0
0
0
0
0
0
0
0
0
0
0
0
0
0
0
0
0
0
0
0
0
0
0
0
0
0
0
0
0
0
0
0
0
0
0
0
0
0
0
0
0
0
0
0
0
0
VECTORS displacement float
0 0 0
0 3 0
2 3 0
2 0 0
0.500158 0.750957 0
0.5 0 0
0 0.75 0
0.5 3 0
2 0.75 0
0.125696 1.68742 0
1.12485 0.187971 0
1.12542 1.68835 0
0.125479 0.749967 0
0 1.6875 0
0.125 3 0
0.281822 2.29804 0
0.0311617 2.29665 0
0.124997 2.29651 0
0.28125 3 0
0.633172 1.98108 0
0.0319058 1.68761 0
0.0710264 1.17186 0
0.0319996 0.798929 0
0 0.1875 0
0 1.17187 0
0 0.421875 0
0.0177188 1.29081 0
0.0702047 0.292566 0
0.0144217 0.2919 0
0.0371106 0.498875 0
0 2.29687 0
0.03125 3 0
0.46906 2.37987 0
1.125 3 0
0.742972 1.23213 0
0.356473 1.48342 0
0.206865 1.13028 0
0.217657 1.49126 0
0.3738 1.04718 0
0.520041 1.28446 0
0.281562 0.682611 0
0.464374 0.187189 0
0.172098 0.437451 0
0.419955 0.426725 0
0.125 0 0
0.807051 0.445779 0
0.278661 0.262657 0
0.266126 0.0477864 0
0.602681 0.323931 0
1.125 0 0
0.758927 0.123008 0
0.872748 0.254233 0
1.03292 0.047967 0
0.52748 0.0483579 0
2 0.1875 0
1.53125 0 0
0.78125 0 0
1.51337 0.0722403 0
0.749094 0.0300712 0
0.28125 0 0
0.0868134 0.0713887 0
0.0223737 0.120008 0
0 0.046875 0
0.03125 0 0
0.0194121 0.0290171 0
1.5319 0.239571 0
1.21645 0.460457 0
2 0.421875 0
0.98431 0.813808 0
1.59815 0.574881 0
2 1.6875 0
1.48715 1.12357 0
1.65772 0.84518 0
2 1.17188 0
2 0.046875 0
0.151478 0.178112 0
0.154224 0.0244415 0
0.728628 0.705728 0
1.05509 1.21226 0
0.78125 3 0
0.945924 2.29686 0
0.827666 1.6526 0
1.53169 1.631 0
1.39509 2.32001 0
1.53125 3 0
2 2.29688 0
1.67856 2.04245 0
1.68761 2.53106 0
0.285802 1.84191 0
0.622773 0.191957 0
0.0098091 0.997533 0
0.0375804 1.01708 0
0.656959 0.070516 0
2 0.949219 0
0.645538 1.51541 0
0.133872 1.33018 0
0 0.292969 0
0.00806831 1.54957 0
0.0105258 0.43745 0
0.00847206 0.188441 0
0.517009 0.999432 0
0.468538 0.299109 0
0.195312 0 0
0.58478 0.526076 0
0.796767 0.947372 0
0.176765 0.0838939 0
0.274604 0.133437 0
0.385537 0.0797531 0
1.00479 0.376067 0
0.982351 0.573769 0
0.945313 0 0
0.632812 0 0
0.863824 0.0680774 0
0 0.0117188 0
0.0363649 0.208523 0
0.00807725 0.0688251 0
0.0660663 0.0140223 0
0.0411752 0.064858 0
1.3006 0.825055 0
1.74133 1.07779 0
2 1.41797 0
2 2.63672 0
1.7506 1.74562 0
2 1.98047 0
1.75781 3 0
0.1953 2.0532 0
0.382564 2.07323 0
0.484452 1.72151 0
0.606903 0.0147685 0
0.0078125 0 0
1.13253 0.975457 0
1.18053 0.643473 0
0.090362 0.453269 0
0.356252 2.63743 0
0.0665422 0.65329 0
0.632866 2.62508 0
0.808202 2.57981 0
0.267956 0.915507 0
0.2973 1.24089 0
0.373046 0.809781 0
0.281905 0.429668 0
0.18314 0.28828 0
1.68333 0.380835 0
2 0.292969 0
1.42035 0.368129 0
1.20662 0.305221 0
0.897072 1.37534 0
2 0.574219 0
1.2924 1.38317 0
0.960522 1.91763 0
1.16223 2.12782 0
1.13217 2.54402 0
1.37564 1.92448 0
1.32031 3 0
0.912288 0.0148413 0
0.0812639 0.157113 0
1.70403 1.37157 0
0.195519 2.63685 0
0.00771136 1.98024 0
1.69849 0.0178709 0
0.126536 1.00459 0
0.0702605 2.63635 0
0.00771674 2.63665 0
0.0701562 1.98102 0
0.0708469 1.48329 0
0.187776 0.616959 0
1.29725 0.0197743 0
1.32031 0 0
0.386981 0.0153937 0
1.36033 0.145402 0
1.17121 0.0970486 0
1.70936 0.139092 0
0.00986451 0.636216 0
0.0175448 0.53307 0
1.36389 0.271462 0
1.84593 0.848049 0
1.78821 0.668424 0
0.0736445 0.872899 0
0.00532768 1.75864 0
0.00386316 0.347004 0
0.122217 0.579175 0
0 1.41797 0
0.049613 0.119232 0
0.70278 2.29168 0
0.268429 1.07851 0
0.766789 1.44779 0
0.282558 1.42762 0
0.432932 0.922987 0
0.390033 0.602367 0
0.158862 0.00509023 0
0.237925 0.342573 0
0.360762 0.321223 0
0.362683 0.217505 0
0.387678 0.141064 0
0.982435 0.123253 0
1.22181 0.004395 0
0.785713 0.00770258 0
0.00353567 0.0268273 0
0.0115566 0.00782911 0
0 0.105469 0
0.0427344 0.0296268 0
1.77268 0.238265 0
0.888983 1.13017 0
1.11021 0.535352 0
1.80313 0.496237 0
1.59108 0.991623 0
1.31234 1.02284 0
1.33674 1.19797 0
1.05671 1.45031 0
0.972634 1.6441 0
1.8244 1.23292 0
1.85991 2.46391 0
0.538169 0.239528 0
0.0380665 1.19917 0
0.539538 0.112827 0
0.00331471 0.25556 0
1.13616 0.380496 0
1.13768 0.792566 0
0.0366146 0.298231 0
1.3723 0.57133 0
1.82681 1.93585 0
1.64339 2.79147 0
1.43187 2.66717 0
0.124154 0.344958 0
0.632813 3 0
0.945313 3 0
0.212008 0.777884 0
0.224672 0.506857 0
0.217496 0.202508 0
1.85781 0.355724 0
1.04702 0.269811 0
0.964468 2.61581 0
0.0649894 0.216127 0
1.63095 1.20655 0
1.19787 0.0473859 0
1.33125 0.0771384 0
0.491754 0.0169254 0
1.42372 0.00605493 0
1.47736 0.0290037 0
0 0.574219 0
0.0847438 1.01937 0
0.00457242 1.29155 0
0.574496 2.23907 0
0.508321 1.99276 0
0.819585 2.32237 0
0.476479 0.533874 0
0.348363 0.49185 0
1.07482 0.015162 0
0.00558628 0.122915 0
0.0313357 0.00770304 0
0.980905 0.98659 0
1.18961 1.13627 0
0.471248 0.0793877 0
0.642936 0.125022 0
0.0269636 0.391447 0
1.47915 0.723095 0
1.48617 0.474756 0
1.28766 2.52551 0
0.11167 0.242697 0
0.724732 2.76219 0
0.205692 0.1335 0
0.974211 0.193647 0
0.00364873 0.530484 0
1.45854 0.87894 0
1.22148 2.77682 0
0.121772 0.114051 0
0.721301 0.264128 0
0.715496 0.364405 0
0.785491 0.190501 0
0.303188 2.06542 0
0.204956 2.33615 0
1.21175 1.88729 0
1.32052 1.6474 0
0.034978 1.45031 0
0.371512 2.34696 0
0.457311 2.6924 0
0.269855 2.68092 0
0.62996 1.30498 0
0.150413 1.15565 0
0 0.949219 0
0.00710859 0.806987 0
0.379721 1.78992 0
0.453483 1.13909 0
0.383675 1.27729 0
0.18906 1.3114 0
0.529138 1.50442 0
0.84354 0.787164 0
0.199346 0.0439784 0
0.239745 0.0113685 0
0.305589 0.0209614 0
0.871479 0.348066 0
1.53138 0.159603 0
1.54714 1.86739 0
1.7562 0.0672676 0
2 0.105469 0
0.62233 0.850959 0
0.64611 1.05978 0
0.696868 1.74643 0
0.587147 1.70063 0
0.786886 1.99958 0
0.0904083 1.32277 0
0.157497 1.51468 0
0.194466 1.75425 0
0.131717 0.0565046 0
0.305438 0.0835876 0
0.931142 0.464021 0
0.827275 0.588227 0
0.707867 0.5297 0
1.82965 1.53573 0
0.127188 1.98193 0
0.0650565 0.530166 0
0.382813 3 0
1.55545 0.322474 0
1.02661 2.11212 0
1.3077 2.12644 0
0.0764179 1.72281 0
0.0329651 0.638719 0
1.27352 0.204038 0
0.160396 0.870791 0
0.285882 0.555568 0
0.0566945 0.390558 0
0.206823 0.963879 0
0.0314076 1.98078 0
0.124664 2.63598 0
0.0703125 3 0
0.00747022 2.2966 0
0.0700508 2.29651 0
0.0311684 2.6365 0
0.602657 0.673162 0
1.75781 0 0
1.5812 2.2856 0
0.526646 0.411987 0
0.0703125 0 0
0.195312 3 0
0 1.98047 0
2 0.0117187 0
1.82599 0.0059177 0
0.0078125 3 0
0 2.63672 0
0.382812 0 0
1.49085 1.3815 0
0.300131 1.62695 0
0.00468354 1.1249 0
0.00270334 1.00208 0
0.0140248 1.13679 0
0.0211867 1.02994 0
0.018428 0.890679 0
0.330531 2.21984 0
1.86775 0.744653 0
0.0860327 0.363869 0
0.246676 2.12902 0
0.237038 1.93748 0
0.569324 1.38559 0
0.0571221 1.32266 0
0.00293402 0.421798 0
0 1.83105 0
0.106782 1.14769 0
0.705078 3 0
0.881768 1.00067 0
0.315875 0.995707 0
0.325127 1.12196 0
0.363203 0.924016 0
0.448988 1.27674 0
0.438901 0.806513 0
0.502769 0.870441 0
0.435206 0.687229 0
0.22887 0.274558 0
1.04037 0.458841 0
0.2367 0.0871129 0
0.217744 0.417776 0
0.18533 0.360612 0
0.426069 0.0414562 0
0.867178 0.145318 0
0.702681 0.205461 0
1.64826 0.198231 0
0.87703 0.00333606 0
0.294176 0.00600409 0
0.330078 0 0
0 0.143555 0
0.0175781 0 0
0.0629562 0.0469758 0
0.0522394 0.167242 0
0.031933 0.155724 0
1.73947 0.307344 0
1.86395 0.283316 0
1.65107 0.25996 0
1.05977 1.07362 0
1.55236 0.401022 0
1.8686 0.427695 0
1.59467 1.32639 0
1.43664 1.75973 0
2 1.29199 0
0.187561 0.171954 0
0.202312 0.0051565 0
0.236328 0 0
0.109989 0.0121731 0
1.20115 2.34316 0
1.06883 2.33533 0
0.768413 2.17283 0
0.874077 2.12599 0
1.08288 1.92281 0
1.02293 1.78541 0
1.62269 1.73794 0
1.56089 2.61462 0
2 1.83105 0
0.161349 1.66382 0
0.15421 1.83979 0
0.602187 0.0940332 0
0.0515003 1.10324 0
1.84812 0.978876 0
1.87597 1.10569 0
0.109953 1.49455 0
0.0117954 0.0988732 0
0 0.237305 0
0.581316 1.16821 0
0.618696 0.254214 0
0.113681 0.0807742 0
0.459226 0.12467 0
0.339651 0.0467912 0
0.0260433 0.252691 0
0.0908209 0.203821 0
0.0488281 0 0
1.85543 1.37986 0
1.81975 2.73035 0
2 1.5498 0
2 2.13574 0
0.631277 1.82262 0
0.698128 0.013857 0
0.649499 0.00484934 0
0.557536 0.0031676 0
1.05054 0.900575 0
0.0027704 0.00960887 0
0.242394 1.30595 0
0.341069 0.400606 0
0.296783 0.338514 0
1.34824 0.469749 0
0.705034 1.35251 0
1.22753 1.72968 0
1.38932 1.31581 0
1.49173 2.08192 0
0.0148515 1.69724 0
0.0233833 1.83186 0
0.021291 1.54331 0
1.87695 0 0
1.18465 0.0160894 0
1.32294 0.00335527 0
1.46874 0.112517 0
1.61073 0.102714 0
0 0.495117 0
1.41113 0.202431 0
1.3127 0.335728 0
0 0.354492 0
0.0119835 0.361183 0
0.0925425 0.538222 0
0.00971712 1.39739 0
0.198525 0.0209512 0
0.347823 0.109751 0
0.827341 0.0212011 0
1.5455 0.806755 0
1.63129 0.698046 0
0.535694 0.298628 0
0.0317461 1.31886 0
0.00258525 0.202214 0
1.48387 0.55783 0
0.165638 0.753254 0
0.179509 0.523156 0
0.238655 0.612543 0
1.04321 0.158889 0
0.949903 0.299804 0
0.0586875 0.975878 0
0.048699 0.865567 0
0.0614666 0.763977 0
0.0911981 0.775126 0
0.107082 0.887495 0
0 1.29199 0
1.11203 0.00408636 0
0.0124748 0.145707 0
0.00293911 0.0892456 0
1.16709 1.30312 0
1.40037 0.791656 0
0.649766 2.80966 0
0.550564 2.7718 0
0.161219 0.123616 0
1.35389 0.917884 0
1.33575 2.79111 0
0.794073 0.374335 0
0.343248 1.93192 0
0.665674 1.18369 0
0.39472 1.15616 0
0.257557 0.025972 0
0.800028 0.298607 0
0.539826 1.83338 0
0.857728 0.509281 0
1.66917 1.54733 0
1.86706 1.67865 0
1.17947 0.240132 0
0.166663 1.029 0
0.328647 0.622561 0
0.333906 0.725017 0
0.285713 0.797264 0
0.227687 0.871633 0
0.00256538 1.905 0
2 0.00292969 0
0.246782 1.70227 0
0.3272 1.75343 0
0.435805 0.0231426 0
0.895509 0.10249 0
0.987674 0.0784614 0
1.06709 0.101282 0
0.878363 0.194861 0
0.702298 0.155963 0
0.0206234 0.00412322 0
0.124797 0.00428139 0
0.0841114 0.00420503 0
0.0905436 0.0306406 0
0.538617 0.076772 0
1.71544 0.952507 0
0.0881052 1.59023 0
0.517812 1.11721 0
1.87695 3 0
2 2.81543 0
1.82351 2.15985 0
0.705078 0 0
1.23925 0.386135 0
0.00226847 0.154993 0
0.147498 0.655847 0
0.0324781 0.913166 0
0.0426259 0.719506 0
0.0983091 0.66197 0
0.544639 2.51796 0
0.102287 0.0492561 0
1.7417 2.33302 0
0.114593 0.160969 0
0.0494726 1.58373 0
0.413602 2.51728 0
0.226393 2.81648 0
0.00356861 0.703939 0
0.00166853 0.611962 0
0.0341453 0.0958519 0
0.433012 1.92434 0
0.645344 2.15745 0
0.850809 1.50382 0
0.160359 2.46022 0
0.129679 0.47463 0
0.466806 0.372417 0
0.676331 0.621396 0
0.0871821 0.110248 0
0.526536 0.486418 0
0.441623 0.00371181 0
0.00250346 0.0486654 0
0.912352 0.676355 0
1.20288 0.882747 0
0.646948 0.441289 0
0.993519 1.32862 0
0.318272 2.46455 0
0.0165713 0.735672 0
0.437448 1.54201 0
0.472497 1.41245 0
0.381837 1.62596 0
0.695587 0.936606 0
0.705224 0.815854 0
0.405153 0.267457 0
0.174214 0.225413 0
0.332568 0.265815 0
0.326433 0.164673 0
0.26965 0.186879 0
1.04792 0.686192 0
0.0104984 0.0418741 0
0.0203967 0.062284 0
1.39023 1.49771 0
0.495899 2.18651 0
0.570758 2.06838 0
0.247752 2.47429 0
0.439453 3 0
0.626364 2.40731 0
1.06831 2.76425 0
0.973409 2.80909 0
0.709898 1.91397 0
0.789508 1.81483 0
0.86489 1.91021 0
0.707923 2.07021 0
0.333017 1.35057 0
0.519133 0.630739 0
0.142134 0.281631 0
0.958443 1.49045 0
1.85738 0.580809 0
0.892759 2.47048 0
0.99223 0.0253064 0
0.0603869 0.0830436 0
1.42383 0 0
0.0502772 1.82671 0
1.40095 0.0169803 0
0.552742 0.0280764 0
0.642091 0.0362325 0
1.32414 0.0432167 0
1.433 0.0505798 0
0.81095 1.32159 0
0.723807 1.5891 0
0.404459 0.18366 0
0 0.0263672 0
1.18514 1.50905 0
1.0572 1.58793 0
1.23332 0.735883 0
1.11333 0.0660518 0
1.23149 0.0720969 0
1.27873 0.112029 0
1.18676 0.142427 0
1.58588 0.00602104 0
1.5747 0.0176781 0
1.70423 0.00346899 0
0.409894 0.513446 0
1.11412 0.0324026 0
0.0991455 0.300506 0
0.674831 0.310322 0
0.166321 2.21336 0
0.397953 2.79196 0
0.318404 2.81662 0
0 0.84668 0
0.591467 0.963234 0
0.74451 1.07477 0
0.816204 0.686065 0
0.103319 1.83428 0
0.572824 0.769241 0
0.9016 0.880323 0
1.49691 2.43656 0
0.0521915 0.00449524 0
0.00195312 0 0
0.59278 0.390091 0
0.407757 1.40586 0
0.779014 0.845955 0
0.424877 2.22372 0
0.901457 1.75503 0
0.897888 0.0380654 0
1.34751 0.680218 0
0.0031903 0.88605 0
0.096863 2.46539 0
0.0970314 2.81725 0
0.00324604 2.46588 0
0.0963371 2.1372 0
0 1.5498 0
0.00272645 2.13736 0
0.0187739 2.4657 0
0.757361 0.0765225 0
1.24683 0.554265 0
0.0500798 2.46566 0
0.0189285 2.81742 0
0.00331323 2.81749 0
2 0.0732422 0
0.713192 2.508 0
1.83645 0.175802 0
2 0.143555 0
1.85266 0.122099 0
1.87018 0.083928 0
0.541769 0.166199 0
1.83229 0.0338287 0
2 0.0263672 0
1.87723 0.0170822 0
0.0500619 2.13789 0
0.0187909 2.1377 0
0.158942 2.81651 0
0.0501907 2.81734 0
0.355978 0.00430249 0
1.64882 0.475833 0
0.990864 0.00409699 0
0.855657 2.8056 0
1.62507 0.042931 0
VECTORS displacementExact float
0 0 0
0 3 0
2 3 0
2 0 0
0.5 0.75 0
0.5 0 0
0 0.75 0
0.5 3 0
2 0.75 0
0.125 1.6875 0
1.125 0.1875 0
1.125 1.6875 0
0.125 0.75 0
0 1.6875 0
0.125 3 0
0.28125 2.29688 0
0.03125 2.29688 0
0.125 2.29688 0
0.28125 3 0
0.632813 1.98047 0
0.03125 1.6875 0
0.0703125 1.17188 0
0.03125 0.797607 0
0 0.1875 0
0 1.17188 0
0 0.421875 0
0.0175781 1.29199 0
0.0703125 0.292969 0
0.0138889 0.292969 0
0.0366753 0.498541 0
0 2.29688 0
0.03125 3 0
0.469238 2.37964 0
1.125 3 0
0.742676 1.2312 0
0.355957 1.48315 0
0.206633 1.1304 0
0.217951 1.49197 0
0.373429 1.04597 0
0.519735 1.28439 0
0.28125 0.682318 0
0.463789 0.1875 0
0.171411 0.436813 0
0.419554 0.427332 0
0.125 0 0
0.806978 0.445156 0
0.278672 0.262633 0
0.266488 0.0473983 0
0.602671 0.323407 0
1.125 0 0
0.758363 0.123244 0
0.872168 0.252708 0
1.03281 0.046875 0
0.527434 0.0481427 0
2 0.1875 0
1.53125 0 0
0.78125 0 0
1.51231 0.0707192 0
0.749147 0.0305801 0
0.28125 0 0
0.0863891 0.0712095 0
0.0211503 0.11963 0
0 0.046875 0
0.03125 0 0
0.0192428 0.0288643 0
1.53125 0.239593 0
1.2162 0.460148 0
2 0.421875 0
0.984521 0.814133 0
1.59847 0.574219 0
2 1.6875 0
1.48725 1.12487 0
1.65779 0.845126 0
2 1.17188 0
2 0.046875 0
0.151175 0.177438 0
0.153997 0.0244766 0
0.728346 0.705227 0
1.05507 1.21105 0
0.78125 3 0
0.945313 2.29688 0
0.827488 1.65253 0
1.53125 1.631 0
1.39444 2.31991 0
1.53125 3 0
2 2.29688 0
1.67859 2.04471 0
1.68764 2.53146 0
0.285461 1.8413 0
0.622466 0.191253 0
0.00929084 0.998019 0
0.0366448 1.01704 0
0.656876 0.0705297 0
2 0.949219 0
0.645865 1.5155 0
0.13348 1.33041 0
0 0.292969 0
0.0078125 1.5498 0
0.00981504 0.436854 0
0.0082609 0.189175 0
0.516739 0.998586 0
0.467978 0.300107 0
0.195313 0 0
0.585277 0.526351 0
0.796004 0.946886 0
0.176864 0.0837837 0
0.274655 0.133207 0
0.385499 0.0802521 0
1.00548 0.375836 0
0.982165 0.573538 0
0.945313 0 0
0.632813 0 0
0.863079 0.0677133 0
0 0.0117188 0
0.0366753 0.208161 0
0.00715482 0.0682122 0
0.0664999 0.014064 0
0.0405113 0.0647693 0
1.2996 0.824396 0
1.74089 1.07647 0
2 1.41797 0
2 2.63672 0
1.75055 1.74564 0
2 1.98047 0
1.75781 3 0
0.195313 2.0531 0
0.382077 2.07203 0
0.484995 1.72136 0
0.606977 0.0140023 0
0.0078125 0 0
1.13214 0.974214 0
1.1803 0.642646 0
0.0907731 0.452356 0
0.355957 2.63672 0
0.0665083 0.653342 0
0.632813 2.62418 0
0.808065 2.57906 0
0.268307 0.915558 0
0.297058 1.24043 0
0.372839 0.809654 0
0.28179 0.429819 0
0.182932 0.288293 0
1.68318 0.380247 0
2 0.292969 0
1.41962 0.368138 0
1.20585 0.304105 0
0.896727 1.37488 0
2 0.574219 0
1.29182 1.3837 0
0.95969 1.9175 0
1.16216 2.12799 0
1.13147 2.54361 0
1.37501 1.92519 0
1.32031 3 0
0.911616 0.0144697 0
0.0812792 0.156756 0
1.70403 1.37161 0
0.195313 2.63672 0
0.0078125 1.98047 0
1.6983 0.0184904 0
0.12607 1.00454 0
0.0703125 2.63672 0
0.0078125 2.63672 0
0.0703125 1.98047 0
0.0703125 1.48315 0
0.187277 0.616423 0
1.29681 0.0193493 0
1.32031 0 0
0.386582 0.014915 0
1.35979 0.145302 0
1.17074 0.0969504 0
1.70884 0.139811 0
0.00935925 0.636319 0
0.0169294 0.533112 0
1.36386 0.27114 0
1.84577 0.84668 0
1.78731 0.667146 0
0.0733059 0.872889 0
0.00439453 1.75854 0
0.00347222 0.347449 0
0.121734 0.578501 0
0 1.41797 0
0.0491032 0.118616 0
0.702672 2.29102 0
0.268676 1.0789 0
0.7667 1.44705 0
0.282261 1.42849 0
0.432588 0.923506 0
0.389352 0.601529 0
0.158203 0.00476069 0
0.237816 0.34261 0
0.360513 0.321528 0
0.362072 0.216081 0
0.386612 0.141169 0
0.982026 0.123226 0
1.2207 0.0042542 0
0.785684 0.00796991 0
0.00390064 0.0263672 0
0.0111706 0.00782185 0
0 0.105469 0
0.0425424 0.0295767 0
1.77246 0.237305 0
0.889434 1.13024 0
1.10988 0.535525 0
1.80246 0.495117 0
1.59071 0.991039 0
1.31307 1.02162 0
1.33643 1.19854 0
1.05564 1.44944 0
0.971752 1.64355 0
1.82487 1.23301 0
1.85998 2.46387 0
0.538134 0.238506 0
0.0380162 1.19964 0
0.53909 0.112849 0
0.00347222 0.255419 0
1.13491 0.380508 0
1.13742 0.792317 0
0.0366753 0.298789 0
1.37205 0.570487 0
1.82646 1.93642 0
1.64258 2.78997 0
1.43037 2.66648 0
0.12404 0.345219 0
0.632813 3 0
0.945313 3 0
0.211678 0.77857 0
0.224718 0.506317 0
0.216846 0.20262 0
1.8574 0.354492 0
1.04683 0.269266 0
0.964466 2.61568 0
0.0649071 0.215674 0
1.63107 1.20733 0
1.19709 0.047171 0
1.3305 0.076668 0
0.490766 0.0163852 0
1.42383 0.00562732 0
1.47615 0.0287226 0
0 0.574219 0
0.0844745 1.01948 0
0.00347222 1.29199 0
0.57397 2.23863 0
0.508318 1.99122 0
0.819343 2.32172 0
0.475739 0.533476 0
0.34785 0.491653 0
1.07412 0.0143135 0
0.00495268 0.121803 0
0.0319078 0.00797518 0
0.980291 0.986028 0
1.18954 1.13574 0
0.47065 0.0796443 0
0.642803 0.125395 0
0.0268613 0.392308 0
1.47906 0.722954 0
1.48603 0.474268 0
1.2873 2.52538 0
0.111696 0.242465 0
0.72526 2.76185 0
0.205929 0.133439 0
0.974183 0.194249 0
0.00383695 0.530573 0
1.4581 0.878722 0
1.2207 2.77624 0
0.121471 0.113866 0
0.720197 0.262695 0
0.71413 0.364286 0
0.784736 0.191129 0
0.303369 2.06479 0
0.204649 2.3358 0
1.2112 1.88735 0
1.31999 1.64703 0
0.0352783 1.45038 0
0.371435 2.347 0
0.457111 2.69229 0
0.269653 2.68085 0
0.629956 1.30487 0
0.150184 1.15576 0
0 0.949219 0
0.00634558 0.806957 0
0.379378 1.78929 0
0.453119 1.13932 0
0.382735 1.27744 0
0.189153 1.31179 0
0.52908 1.50432 0
0.842981 0.786166 0
0.19954 0.0441824 0
0.239388 0.011141 0
0.305854 0.0205935 0
0.871221 0.348758 0
1.53125 0.160072 0
1.54709 1.86727 0
1.75603 0.0670543 0
2 0.105469 0
0.621909 0.851311 0
0.645547 1.05863 0
0.697169 1.74671 0
0.587204 1.69998 0
0.786456 1.99924 0
0.0900367 1.32294 0
0.157407 1.51479 0
0.194061 1.75486 0
0.131138 0.0561801 0
0.305342 0.0833766 0
0.930752 0.464145 0
0.827141 0.587671 0
0.70689 0.529291 0
1.83 1.53605 0
0.12675 1.98047 0
0.064684 0.530452 0
0.382813 3 0
1.55548 0.321892 0
1.02623 2.112 0
1.30652 2.12692 0
0.0762939 1.72284 0
0.0329993 0.639197 0
1.27236 0.204015 0
0.160614 0.871186 0
0.285407 0.555256 0
0.0566158 0.391382 0
0.206573 0.963551 0
0.03125 1.98047 0
0.125 2.63672 0
0.0703125 3 0
0.0078125 2.29688 0
0.0703125 2.29688 0
0.03125 2.63672 0
0.602828 0.673569 0
1.75781 0 0
1.58088 2.28553 0
0.52665 0.412473 0
0.0703125 0 0
0.195313 3 0
0 1.98047 0
2 0.0117188 0
1.82578 0.00595319 0
0.0078125 3 0
0 2.63672 0
0.382813 0 0
1.49066 1.38252 0
0.300274 1.62727 0
0.00354746 1.12454 0
0.00209556 1.00155 0
0.0140576 1.13684 0
0.0204958 1.03014 0
0.0180188 0.889956 0
0.330205 2.21874 0
1.86756 0.74398 0
0.0854462 0.363815 0
0.245789 2.12796 0
0.23645 1.93635 0
0.568662 1.38485 0
0.0564022 1.32294 0
0.00249649 0.422046 0
0 1.83105 0
0.106307 1.14784 0
0.705078 3 0
0.881391 1.00029 0
0.314609 0.994998 0
0.324442 1.12154 0
0.362824 0.924133 0
0.44867 1.27674 0
0.438697 0.806139 0
0.502699 0.87083 0
0.435097 0.687195 0
0.228179 0.274546 0
1.04067 0.459075 0
0.236765 0.0869578 0
0.217704 0.417491 0
0.185211 0.360596 0
0.425867 0.0411932 0
0.866595 0.144688 0
0.70128 0.205001 0
1.64779 0.197835 0
0.875913 0.0029291 0
0.293916 0.00513287 0
0.330078 0 0
0 0.143555 0
0.0175781 0 0
0.063217 0.0473308 0
0.0517876 0.167124 0
0.0313879 0.156512 0
1.7392 0.30651 0
1.86361 0.282742 0
1.65054 0.259048 0
1.05993 1.07314 0
1.55203 0.399974 0
1.86799 0.427021 0
1.59356 1.32685 0
1.43578 1.75916 0
2 1.29199 0
0.187347 0.170866 0
0.202391 0.00401387 0
0.236328 0 0
0.109495 0.0114197 0
1.20089 2.34323 0
1.06844 2.33516 0
0.767787 2.17205 0
0.873989 2.12584 0
1.08272 1.92293 0
1.02244 1.78469 0
1.62233 1.73778 0
1.55972 2.61464 0
2 1.83105 0
0.161108 1.66358 0
0.153559 1.83919 0
0.60082 0.0931838 0
0.0507826 1.10231 0
1.84769 0.978113 0
1.87626 1.10403 0
0.109608 1.49459 0
0.011433 0.0974909 0
0 0.237305 0
0.580654 1.1683 0
0.618214 0.253543 0
0.113733 0.0804045 0
0.458835 0.124717 0
0.339905 0.0467734 0
0.0245668 0.251433 0
0.0905883 0.20321 0
0.0488281 0 0
1.85555 1.37983 0
1.82026 2.73038 0
2 1.5498 0
2 2.13574 0
0.630758 1.8223 0
0.697474 0.0137259 0
0.65021 0.0039855 0
0.556882 0.00316888 0
1.0503 0.900278 0
0.00278779 0.00959998 0
0.242588 1.30626 0
0.340858 0.400392 0
0.296662 0.338635 0
1.34752 0.469374 0
0.704807 1.35198 0
1.22674 1.72879 0
1.38919 1.31588 0
1.49146 2.0829 0
0.0143893 1.69756 0
0.0227206 1.83105 0
0.0204243 1.54325 0
1.87695 0 0
1.18394 0.0157228 0
1.32269 0.00314961 0
1.46801 0.112156 0
1.61018 0.102049 0
0 0.495117 0
1.41041 0.201893 0
1.31164 0.333968 0
0 0.354492 0
0.0116189 0.361141 0
0.0924636 0.538225 0
0.00916884 1.39657 0
0.198421 0.0207697 0
0.347009 0.108884 0
0.825768 0.0207489 0
1.54513 0.807264 0
1.63021 0.697104 0
0.535699 0.299117 0
0.0317412 1.31904 0
0.00204472 0.202464 0
1.48353 0.55723 0
0.166032 0.753124 0
0.179214 0.522778 0
0.238167 0.612125 0
1.04268 0.158417 0
0.948958 0.299186 0
0.0581825 0.975383 0
0.0479366 0.86523 0
0.0614724 0.763524 0
0.0907551 0.774979 0
0.106925 0.887494 0
0 1.29199 0
1.11148 0.00379038 0
0.0118504 0.145821 0
0.00196573 0.0882356 0
1.1671 1.30359 0
1.40038 0.79138 0
0.64976 2.80895 0
0.550172 2.77116 0
0.16098 0.123208 0
1.354 0.91696 0
1.33515 2.79023 0
0.793261 0.374028 0
0.343009 1.93088 0
0.665069 1.18329 0
0.393989 1.15591 0
0.2571 0.025626 0
0.799676 0.29843 0
0.540145 1.83326 0
0.857543 0.508614 0
1.66922 1.54734 0
1.86681 1.67896 0
1.17864 0.239378 0
0.166355 1.02859 0
0.328036 0.621765 0
0.333549 0.724846 0
0.285719 0.797279 0
0.227521 0.871699 0
0.00195313 1.90503 0
2 0.00292969 0
0.245678 1.70254 0
0.326534 1.75284 0
0.435515 0.0223566 0
0.89497 0.102348 0
0.987365 0.0789392 0
1.06657 0.101332 0
0.877691 0.194813 0
0.701416 0.155017 0
0.0202856 0.00300779 0
0.12428 0.00321588 0
0.0834849 0.00382218 0
0.090479 0.0297847 0
0.537964 0.0767564 0
1.71487 0.951815 0
0.0877317 1.58948 0
0.517429 1.11689 0
1.87695 3 0
2 2.81543 0
1.82419 2.16056 0
0.705078 0 0
1.23879 0.385797 0
0.00191516 0.155422 0
0.147175 0.65569 0
0.0318659 0.912543 0
0.0424449 0.719765 0
0.0983359 0.661945 0
0.544255 2.5175 0
0.101974 0.0493379 0
1.74172 2.33236 0
0.11433 0.161092 0
0.0488281 1.58368 0
0.413001 2.51603 0
0.225708 2.81543 0
0.00266049 0.703375 0
0.00186197 0.610931 0
0.0335066 0.0955271 0
0.432913 1.92441 0
0.645027 2.1572 0
0.850339 1.50301 0
0.159186 2.45913 0
0.129011 0.474614 0
0.466422 0.37154 0
0.675541 0.620807 0
0.0873168 0.110225 0
0.527176 0.48657 0
0.441347 0.00371699 0
0.00239213 0.0484207 0
0.911686 0.675992 0
1.20266 0.883181 0
0.646453 0.44026 0
0.993077 1.32786 0
0.317577 2.46368 0
0.0160939 0.735905 0
0.437105 1.54178 0
0.472342 1.41217 0
0.38161 1.62556 0
0.695428 0.93671 0
0.704682 0.815125 0
0.404506 0.266881 0
0.174334 0.22506 0
0.332167 0.265708 0
0.325233 0.165071 0
0.269571 0.18713 0
1.04791 0.685691 0
0.00962986 0.0414153 0
0.0203482 0.0627062 0
1.38991 1.49716 0
0.495387 2.18568 0
0.570204 2.06799 0
0.24691 2.47319 0
0.439453 3 0
0.626084 2.40658 0
1.06755 2.76389 0
0.973113 2.80854 0
0.709783 1.91352 0
0.789248 1.81468 0
0.864144 1.90993 0
0.70759 2.06989 0
0.331614 1.35037 0
0.518766 0.630462 0
0.141272 0.281664 0
0.957989 1.49007 0
1.85684 0.580546 0
0.891479 2.46864 0
0.99161 0.0251401 0
0.0601067 0.0829543 0
1.42383 0 0
0.0494404 1.82648 0
1.40067 0.0167331 0
0.551966 0.0260013 0
0.641263 0.0361122 0
1.3235 0.0429758 0
1.43157 0.050022 0
0.810635 1.32073 0
0.723929 1.58759 0
0.404353 0.183554 0
0 0.0263672 0
1.18471 1.50854 0
1.05647 1.58752 0
1.23214 0.734825 0
1.11293 0.0665101 0
1.23092 0.0720416 0
1.27841 0.111773 0
1.18664 0.142075 0
1.58524 0.00579842 0
1.5742 0.0183126 0
1.7038 0.00302247 0
0.409375 0.512376 0
1.11392 0.031378 0
0.0988795 0.300448 0
0.67356 0.309699 0
0.164796 2.21223 0
0.397985 2.79165 0
0.317505 2.81543 0
0 0.84668 0
0.590984 0.963342 0
0.74434 1.0745 0
0.815208 0.68527 0
0.102749 1.83422 0
0.571787 0.768104 0
0.900783 0.879405 0
1.49666 2.43613 0
0.0519527 0.00418095 0
0.00195313 0 0
0.592776 0.390599 0
0.407222 1.40553 0
0.778265 0.845524 0
0.42415 2.22305 0
0.900547 1.75474 0
0.897646 0.0378852 0
1.34802 0.680036 0
0.00208407 0.885626 0
0.0957031 2.46387 0
0.0957031 2.81543 0
0.00195313 2.46387 0
0.0957031 2.13574 0
0 1.5498 0
0.00195313 2.13574 0
0.0175781 2.46387 0
0.757206 0.0767601 0
1.2465 0.554067 0
0.0488281 2.46387 0
0.0175781 2.81543 0
0.00195313 2.81543 0
2 0.0732422 0
0.71327 2.50737 0
1.83589 0.175672 0
2 0.143555 0
1.85171 0.122167 0
1.87005 0.0839619 0
0.541295 0.166117 0
1.83207 0.0349371 0
2 0.0263672 0
1.87678 0.0172863 0
0.0488281 2.13574 0
0.0175781 2.13574 0
0.158203 2.81543 0
0.0488281 2.81543 0
0.356075 0.00383671 0
1.64879 0.474286 0
0.990274 0.00449361 0
0.85484 2.8054 0
1.62536 0.044091 0
VECTORS error float
0 0 0
0 6.29718e-13 0
4.17888e-13 6.29718e-13 0
4.17888e-13 0 0
0.000157544 0.000956878 0
2.73559e-13 0 0
0 1.31783e-13 0
-3.84914e-13 -4.86722e-13 0
6.80789e-13 6.29163e-13 0
0.000696289 -8.01528e-05 0
-0.000146637 0.000471011 0
0.000418561 0.000850564 0
0.000479179 -3.27181e-05 0
0 9.33476e-13 0
-4.7462e-15 -1.11466e-13 0
0.000572327 0.0011614 0
-8.82607e-05 -0.00022504 0
-2.78263e-06 -0.000362496 0
-9.09828e-14 1.15374e-12 0
0.00035921 0.000613719 0
0.000655755 0.000110774 0
0.000713899 -1.12743e-05 0
0.000749648 0.00132128 0
0 1.12133e-13 0
0 -2.05169e-13 0
0 1.43441e-13 0
0.000140677 -0.00118013 0
-0.000107802 -0.000402672 0
0.000532798 -0.00106875 0
0.00043523 0.00033352 0
0 -8.43769e-14 0
-1.18655e-15 -1.11466e-13 0
-0.000178018 0.000232967 0
-4.11227e-13 -7.75824e-13 0
0.000296196 0.000924811 0
0.000516287 0.000270242 0
0.000231888 -0.000112986 0
-0.00029416 -0.000705524 0
0.000371023 0.00120855 0
0.000306318 6.69766e-05 0
0.000311912 0.000292603 0
0.000584385 -0.000311006 0
0.000686509 0.00063792 0
0.000401304 -0.000606849 0
-8.46129e-14 0 0
7.2907e-05 0.000623731 0
-1.15e-05 2.36977e-05 0
-0.000362023 0.000388123 0
1.05901e-05 0.000523348 0
5.89973e-13 0 0
0.000564123 -0.000235867 0
0.000580711 0.00152563 0
0.000107146 0.00109205 0
4.61345e-05 0.000215143 0
4.57856e-13 3.15858e-14 0
-7.70495e-14 0 0
-6.29274e-13 0 0
0.00106336 0.00152104 0
-5.30576e-05 -0.000508841 0
-1.54987e-13 0 0
0.000424309 0.000179129 0
0.00122339 0.000378273 0
0 1.1359e-14 0
1.5446e-14 0 0
0.000169229 0.000152782 0
0.000647892 -2.27695e-05 0
0.000249881 0.000308978 0
-4.13447e-13 1.69142e-13 0
-0.000211412 -0.000324911 0
-0.000321892 0.000662315 0
-5.89306e-13 -7.04992e-13 0
-0.000102237 -0.00129958 0
-7.22331e-05 5.49888e-05 0
-1.66311e-13 1.84963e-13 0
-3.21521e-13 1.48492e-15 0
0.000302357 0.000674429 0
0.000227892 -3.50885e-05 0
0.000281123 0.000500518 0
2.60201e-05 0.00120744 0
-9.39249e-13 1.251e-12 0
0.000611807 -1.78841e-05 0
0.000178409 7.05491e-05 0
0.000438448 5.61103e-07 0
0.000646679 0.000102072 0
-1.25233e-13 -2.77556e-13 0
3.93019e-13 8.65974e-14 0
-3.15152e-05 -0.00226533 0
-3.32643e-05 -0.000400158 0
0.000340141 0.000605771 0
0.000307168 0.000704482 0
0.000518257 -0.000485566 0
0.000935615 3.26015e-05 0
8.35626e-05 -1.37337e-05 0
-9.21485e-14 -1.42775e-13 0
-0.000327139 -8.14607e-05 0
0.000392107 -0.000234984 0
0 -3.40283e-14 0
0.000255807 -0.000238871 0
0.000710718 0.000595581 0
0.000211162 -0.000733898 0
0.000270172 0.000846182 0
0.000559852 -0.000998275 0
-1.33921e-13 0 0
-0.000497833 -0.000274672 0
0.000762547 0.000486393 0
-9.86772e-05 0.000110255 0
-5.12333e-05 0.000230093 0
3.77214e-05 -0.000499028 0
-0.000687954 0.000230669 0
0.000185967 0.000230423 0
6.15286e-13 0 0
-6.0707e-13 0 0
0.000745377 0.000364108 0
0 7.03777e-15 0
-0.000310475 0.000361923 0
0.000922432 0.000612862 0
-0.000433577 -4.17904e-05 0
0.000663922 8.8723e-05 0
0.00100193 0.000658905 0
0.000438999 0.00131932 0
-7.10543e-13 6.50591e-13 0
5.73319e-13 -7.57616e-13 0
4.9678e-05 -2.53169e-05 0
2.47358e-13 -1.36824e-12 0
-5.06928e-13 8.6553e-13 0
-1.25614e-05 0.000102362 0
0.000487325 0.00119838 0
-0.000543005 0.000145651 0
-7.39582e-05 0.000766203 0
3.19536e-15 0 0
0.00039004 0.00124282 0
0.000237047 0.00082657 0
-0.000411093 0.000912621 0
0.000294485 0.000711124 0
3.39119e-05 -5.22477e-05 0
5.31311e-05 0.000906091 0
0.000137119 0.000755398 0
-0.000350491 -5.07903e-05 0
0.000242698 0.000456462 0
0.000207284 0.000126705 0
0.00011519 -0.000150542 0
0.000208027 -1.31289e-05 0
0.000146956 0.000587608 0
1.20082e-12 -8.9373e-15 0
0.000724833 -9.5485e-06 0
0.000773601 0.00111671 0
0.000344301 0.000455747 0
-1.00298e-12 -2.498e-14 0
0.000581546 -0.000531197 0
0.000832788 0.000127843 0
6.71592e-05 -0.00017393 0
0.000699729 0.000411748 0
0.00062416 -0.000709175 0
1.64535e-13 -2.66454e-15 0
0.00067167 0.00037164 0
-1.53659e-05 0.000357046 0
-1.71945e-06 -4.04443e-05 0
0.000206428 0.00013223 0
-0.000101141 -0.000229884 0
0.000198981 -0.000619471 0
0.000465918 5.25835e-05 0
-5.19749e-05 -0.000370522 0
-9.57575e-05 -6.9302e-05 0
-0.000156333 0.000549723 0
0.000534442 0.000132098 0
0.000499327 0.000535948 0
0.000436329 0.000425005 0
-6.66134e-14 0 0
0.000399575 0.000478716 0
0.000542659 0.000100438 0
0.000465431 9.81199e-05 0
0.000517069 -0.0007194 0
0.000505259 -0.000103141 0
0.000615385 -4.18047e-05 0
2.71136e-05 0.00032231 0
0.000161126 0.00136912 0
0.000891847 0.00127792 0
0.000338581 1.0179e-05 0
0.000933146 9.49323e-05 0
0.000390939 -0.000445547 0
0.000483675 0.000673458 0
0 7.72715e-13 0
0.000509884 0.000615222 0
0.000108279 0.000656706 0
-0.000246774 -0.000386925 0
8.90842e-05 0.000748164 0
0.000296781 -0.000863339 0
0.000343455 -0.000519157 0
0.000681081 0.000837761 0
0.000658621 0.000329541 0
0.000108922 -3.62633e-05 0
0.000248995 -0.00030555 0
0.000610958 0.00142386 0
0.00106606 -0.000105438 0
0.000408296 2.70276e-05 0
0.00111041 0.000140799 0
2.84498e-05 -0.00026733 0
-0.000364974 0.000460079 0
0.000385995 7.25525e-06 0
0 3.89827e-14 0
0.000191967 5.01356e-05 0
0.00021522 0.000960774 0
-0.000451709 -7.46016e-05 0
0.000334846 -0.000173009 0
0.000673991 0.00111938 0
0.00036958 0.000584096 0
-0.000728234 0.0012223 0
0.000317202 -0.000573397 0
0.00106948 0.000868166 0
0.00088157 0.00054731 0
-0.000469996 -8.54011e-05 0
-6.80045e-05 3.88847e-05 0
3.43895e-05 0.00102169 0
5.02984e-05 -0.00046766 0
0.000448177 -2.20416e-05 0
-0.000157516 0.000141205 0
0.0012538 -1.25015e-05 0
0.000258857 0.000248848 0
-6.07139e-05 -0.000558262 0
0.000249023 0.000843581 0
0.000351985 -0.000565704 0
0.000813911 0.00150066 0
0.00150265 0.000691223 0
0.000113585 -0.00026078 0
3.64153e-14 -1.29674e-13 0
3.40838e-14 -5.84865e-13 0
0.000330613 -0.000685854 0
-4.65007e-05 0.00053927 0
0.000650335 -0.000111875 0
0.000415461 0.00123138 0
0.000190361 0.000545495 0
2.23959e-06 0.000127316 0
8.23144e-05 0.000452885 0
-0.000117201 -0.00077829 0
0.00078387 0.000214904 0
0.000746642 0.00047031 0
0.000987689 0.000540211 0
-0.000110883 0.000427614 0
0.00120299 0.000281113 0
0 -2.08056e-13 0
0.00026926 -0.000108286 0
0.0011002 -0.000437464 0
0.000525967 0.000434699 0
3.03454e-06 0.00153521 0
0.000242072 0.000646017 0
0.000740401 0.000398331 0
0.000512756 0.000196664 0
0.000705793 0.00084846 0
0.000633599 0.00111192 0
-0.00057208 -0.000272132 0
0.000614066 0.000561788 0
6.71629e-05 0.000533363 0
0.000598369 -0.000256672 0
0.000132902 -0.000372762 0
0.000102345 -0.000861604 0
8.23794e-05 0.000140635 0
0.000142651 0.000487692 0
0.00035979 0.000133501 0
-2.58573e-05 0.000232329 0
-0.000528161 0.000338632 0
-0.000237505 6.04663e-05 0
2.81533e-05 -0.000601832 0
-0.000188225 -8.96561e-05 0
0.000437117 0.00021802 0
0.000775217 0.000575964 0
0.000301137 0.000185381 0
0.00110363 0.0014332 0
0.00136659 0.000118655 0
0.000754476 -0.000628344 0
-0.000181409 0.00062957 0
0.000306655 0.000350027 0
0.000551751 -6.52031e-05 0
0.000528969 0.000373343 0
-0.000300289 -6.47258e-05 0
7.65866e-05 -4.20019e-05 0
0.000200723 0.00010917 0
0.000201679 7.34202e-05 0
4.41998e-06 0.000108427 0
0.000229292 -0.000104494 0
0 2.14384e-13 0
0.000763015 2.95802e-05 0
0.00034347 0.00062567 0
0.000363555 -0.000230156 0
0.000940064 -0.000158586 0
-9.33455e-05 -0.000392892 0
5.79607e-05 0.000106553 0
0.000559272 0.00099759 0
-0.000193726 -0.000204005 0
0.000356743 0.000227481 0
-0.000264615 0.000367978 0
0.000258041 -0.000691426 0
0.000130612 -0.000469299 0
4.86569e-05 0.000121083 0
0.000166396 0.000213271 0
-3.5727e-13 7.5287e-14 0
0.00042123 -0.000352659 0
0.000563237 0.00115338 0
-0.000300868 -0.000279961 0
-5.74922e-05 0.000644782 0
0.000430386 0.000335396 0
0.000371628 -0.000164516 0
9.06039e-05 -0.000105345 0
0.000404894 -0.00061244 0
0.0005788 0.00032451 0
9.58645e-05 0.000211026 0
0.000389719 -0.000123489 0
0.000133903 0.000556151 0
0.000976937 0.000409776 0
-0.000351911 -0.000320348 0
0.000437628 0.00146146 0
0.000372522 -0.00028569 0
1.53155e-13 6.5814e-13 0
-3.26125e-05 0.000582236 0
0.000384029 0.000117527 0
0.0011731 -0.000476686 0
0.000123997 -3.03594e-05 0
-3.42251e-05 -0.00047743 0
0.00115818 2.3564e-05 0
-0.00021879 -0.000395633 0
0.000474891 0.000312754 0
7.86322e-05 -0.000824622 0
0.000250359 0.000327869 0
0.000157562 0.000306825 0
-0.000335853 -0.000736707 0
-2.55351e-15 -1.11466e-13 0
-0.000342278 -0.000270956 0
-0.000261737 -0.000366779 0
-8.15686e-05 -0.000215567 0
-0.000171446 -0.00040628 0
3.28404e-13 0 0
0.000322627 7.67416e-05 0
-4.89351e-06 -0.000485854 0
2.20657e-15 0 0
-5.77038e-14 1.03206e-12 0
0 -6.21947e-13 0
2.64677e-13 -4.34375e-15 0
0.000205686 -3.5489e-05 0
-2.96638e-16 -1.11466e-13 0
0 -1.00808e-13 0
-1.19182e-13 0 0
0.000188855 -0.00101815 0
-0.000142904 -0.000326356 0
0.00113608 0.00035202 0
0.000607785 0.00053213 0
-3.2797e-05 -4.61588e-05 0
0.000690931 -0.000193679 0
0.000409238 0.000723014 0
0.000325281 0.00110068 0
0.000189488 0.000673188 0
0.00058648 5.4214e-05 0
0.00088762 0.00105297 0
0.000587999 0.00113045 0
0.000661783 0.000740732 0
0.000719941 -0.000278378 0
0.000437522 -0.000248142 0
0 5.01143e-10 0
0.000474286 -0.000150193 0
4.49751e-13 6.84341e-13 0
0.000377655 0.000386458 0
0.00126633 0.000708681 0
0.000684677 0.000422594 0
0.000378561 -0.000116864 0
0.000318678 -2.55579e-06 0
0.000204032 0.000374237 0
6.99844e-05 -0.000388855 0
0.000108754 3.36985e-05 0
0.00069084 1.19137e-05 0
-0.000293751 -0.000234467 0
-6.50168e-05 0.000155039 0
3.959e-05 0.000285642 0
0.000119739 1.6017e-05 0
0.000202083 0.000263049 0
0.000582693 0.000630121 0
0.00140128 0.000460286 0
0.000467837 0.000396079 0
0.00111688 0.000406961 0
0.000259887 0.000871218 0
1.57874e-13 0 0
0 5.00029e-10 0
-2.42861e-17 0 0
-0.000260864 -0.000355063 0
0.00045185 0.000118194 0
0.000545153 -0.000787142 0
0.000265829 0.000833584 0
0.000335169 0.000574475 0
0.000539523 0.000912667 0
-0.000156709 0.000480562 0
0.000322398 0.00104813 0
0.000609606 0.000674036 0
0.0011046 -0.000456776 0
0.000857376 0.000564298 0
-5.63549e-13 4.99099e-10 0
0.000213441 0.00108871 0
-7.90846e-05 0.00114262 0
-1.47105e-14 0 0
0.000493545 0.000753413 0
0.000253287 -6.93134e-05 0
0.000390962 0.000176296 0
0.000626446 0.000776197 0
8.77622e-05 0.000149818 0
0.000154862 -0.000127867 0
0.00049402 0.000715571 0
0.000366627 0.000159008 0
0.00116751 -1.38509e-05 0
-1.54987e-13 4.9933e-10 0
0.000241195 0.000242708 0
0.000651402 0.000591593 0
0.00136705 0.000849385 0
0.000717776 0.000928551 0
0.00043241 0.000762517 0
-0.000286878 0.00166582 0
0.000344372 -3.97764e-05 0
0.000362395 0.00138231 0
0 5.0009e-10 0
0.000662714 -9.5281e-05 0
0.000481359 0.000671606 0
-5.18174e-05 0.000369635 0
0.000391468 -4.77709e-05 0
-0.00025377 1.78504e-05 0
0.00147649 0.00125743 0
0.000232556 0.0006108 0
9.08995e-16 0 0
-0.000122028 2.81189e-05 0
-0.000504668 -3.42055e-05 0
7.18092e-13 5.00084e-10 0
6.02185e-13 5.00391e-10 0
0.000519411 0.000312785 0
0.000654285 0.000131146 0
-0.000710281 0.000863837 0
0.0006537 -1.28042e-06 0
0.000238649 0.000296972 0
-1.73926e-05 8.89349e-06 0
-0.000193823 -0.000310334 0
0.00021106 0.000214259 0
0.000120972 -0.000120618 0
0.000722811 0.000374358 0
0.000227996 0.000529834 0
0.000790629 0.000889875 0
0.00013016 -6.73007e-05 0
0.000265161 -0.000985219 0
0.000462178 -0.000314666 0
0.000662671 0.000805826 0
0.000866706 6.40091e-05 0
-7.00329e-13 0 0
0.000705433 0.000366636 0
0.000247439 0.00020566 0
0.000723886 0.000360861 0
0.000545047 0.000664965 0
0 4.99814e-10 0
0.000722999 0.000537549 0
0.00105385 0.00176034 0
0 5.00037e-10 0
0.000364691 4.25377e-05 0
7.89119e-05 -2.79304e-06 0
0.000548279 0.000826758 0
0.000104345 0.000181452 0
0.000814133 0.000867452 0
0.00157254 0.000452216 0
0.000368519 -0.000509216 0
0.00108764 0.000942413 0
-4.76164e-06 -0.000488893 0
4.92073e-06 -0.000180741 0
0.000540535 -0.000249684 0
0.000339755 0.000599576 0
-0.00039387 0.00013055 0
0.000294967 0.000378078 0
0.000488445 0.000417724 0
0.000535062 0.000471712 0
0.000945333 0.000617367 0
0.000505036 0.000495261 0
0.000762424 0.00033718 0
-5.77781e-06 0.000452993 0
0.000443011 0.00014658 0
0.000157347 4.7917e-07 0
0 5.00561e-10 0
0.000544939 0.000295976 0
0.000624354 -0.000114935 0
0.000973376 0.00100994 0
-1.34469e-05 -0.000466831 0
-1.28978e-05 0.000275701 0
6.38056e-06 0.000714246 0
0.000392097 0.0006371 0
0.000238915 0.000408334 0
-0.00010706 0.000924241 0
0.000596467 0.00087452 0
0.000812225 0.00030755 0
0.00023912 0.00104347 0
0.000605026 0.000400886 0
0.000730755 0.000250909 0
0.000457473 0.000346037 0
0.000351569 0.000176858 0
-0.000319016 0.000120579 0
0.000185102 0.000666454 0
-5.24964e-05 -1.50826e-05 0
0.000249855 -0.000308848 0
0.00083249 0.000754373 0
0.000308215 0.000402165 0
0.000610781 0.000795071 0
0.000356178 0.000170963 0
-5.52006e-06 -1.5376e-05 0
0.000165807 -6.59323e-05 0
0.000612258 -3.02815e-05 0
5.8975e-13 4.99999e-10 0
0.00110423 -0.000273388 0
0.000665487 0.00059378 0
0.000289641 0.00078604 0
0.000539069 0.000141814 0
0.000308785 -0.000477861 0
0.000513393 -4.99983e-05 0
0.000671884 4.77005e-05 0
0.000882064 0.00094568 0
0.000337754 0.00111543 0
0.000516758 0.00106551 0
0.000626484 0.000382853 0
6.46615e-05 0.000855957 0
0.000652778 1.55538e-05 0
0.000571216 0.000692398 0
0.000373501 0.000751301 0
0.000382437 0.000318274 0
-7.40519e-13 2.13163e-14 0
1.5099e-14 4.98893e-10 0
-0.00067472 -0.000712916 0
-4.48863e-13 0 0
0.000458172 0.000338327 0
0.000353307 -0.000428895 0
0.000322717 0.000157014 0
0.000612241 0.000622114 0
0.000181042 -0.000259035 0
-2.67985e-05 2.56811e-05 0
0.000383347 0.000465654 0
0.000313228 -8.18551e-05 0
-2.20994e-05 0.000657832 0
0.000262584 -0.000123269 0
0.000644502 4.72548e-05 0
0.000601552 0.00124245 0
0.000684504 0.00104922 0
0.000908127 0.000564549 0
-0.000193439 0.00103146 0
0.000638643 0.000324793 0
9.88775e-05 -6.95627e-05 0
0.000317312 0.000250171 0
0.000469774 0.000812788 0
0.0011729 0.00109534 0
0.0006684 1.52231e-05 0
0.000383825 0.000877475 0
0.000790225 0.000588691 0
-0.000134785 2.2953e-05 0
-0.000640044 -0.000152498 0
0.000275976 -5.18152e-06 0
0.000111323 0.000244748 0
0.000666504 0.000363002 0
0.000216955 -0.00043417 0
0.000495726 0.00102809 0
0.000442112 0.000767605 0
0.000695075 0.000866025 0
0.000477335 -0.000232985 0
0.000342868 0.000232371 0
0.000155328 0.000281559 0
0.000226738 0.000400533 0
0.000159823 -0.000104007 0
0.000541662 0.00072912 0
0.000646753 0.000576334 0
-0.000120162 0.000352627 0
0.000400326 0.000106167 0
0.00119974 -0.000397612 0
7.99273e-05 -0.000251113 0
7.32514e-06 0.000501037 0
0.000868524 0.000458819 0
4.8504e-05 -0.00042215 0
0.00031652 0.000545813 0
0.000512485 0.000830816 0
0.000553116 0.00038902 0
0.000841257 0.00109369 0
-2.53075e-13 -2.63789e-13 0
0.000280563 0.000728163 0
0.000759622 0.00036249 0
0.000296128 0.000557649 0
0.000114916 0.000451695 0
0.000259674 0.000154495 0
0.000746585 0.000274715 0
0.000333234 0.000311898 0
0.00140217 0.000192987 0
0.000367317 0.000277224 0
0.000862316 -3.2869e-05 0
0.000454514 0.000385065 0
0.000539153 0.00026332 0
0.00128059 0.00184323 0
0.000619966 0.00016628 0
0.000280273 8.93231e-05 0
4.98046e-13 0 0
0.000836828 0.000230502 0
0.000275597 0.000247143 0
0.000776038 0.00207512 0
0.000828375 0.000120319 0
0.000642679 0.000240911 0
0.00142706 0.000557835 0
0.000315622 0.000861464 0
-0.00012213 0.00151349 0
0.000106751 0.000105881 0
0 4.99993e-10 0
0.000434603 0.000508139 0
0.000724224 0.000409808 0
0.00117908 0.00105824 0
0.000405935 -0.000458251 0
0.000576823 5.52994e-05 0
0.000316782 0.000256521 0
0.000117975 0.0003524 0
0.000638603 0.000222628 0
0.000491355 -0.000634508 0
0.000423116 0.000446521 0
0.000518723 0.00106964 0
0.00019403 0.0010246 0
0.000266032 5.77951e-05 0
0.00127104 0.00062336 0
0.00152509 0.00113009 0
-3.28821e-05 0.000313493 0
0.000898785 0.0011865 0
0 4.99738e-10 0
0.000482767 -0.000107507 0
0.000170448 0.000268513 0
0.0009955 0.000794553 0
0.000570726 5.38949e-05 0
0.00103677 0.00113665 0
0.000816899 0.000918065 0
0.00025524 0.000426836 0
0.000238818 0.000314292 0
-1.18373e-15 0 0
4.19854e-06 -0.000508387 0
0.000535343 0.000326609 0
0.000749516 0.000431384 0
0.000727074 0.000670016 0
0.000909688 0.000295532 0
0.000242032 0.000180244 0
-0.000517774 0.000181202 0
0.00110623 0.000424377 0
0.00115988 0.00152711 0
0.00132832 0.00182425 0
0.00129292 0.00201081 0
0.000633997 0.00145337 0
0 5.00616e-10 0
0.000773321 0.00161947 0
0.00119576 0.00183311 0
0.000154167 -0.000237629 0
0.000334123 0.000198176 0
0.0012517 0.00179536 0
0.0013504 0.00198844 0
0.00136011 0.00205761 0
-8.23785e-14 5.00006e-10 0
-7.74787e-05 0.000623804 0
0.000559861 0.000129377 0
7.2653e-13 5.001e-10 0
0.000944221 -6.75022e-05 0
0.000124554 -3.38494e-05 0
0.000473335 8.126e-05 0
0.000223941 -0.00110846 0
-8.08242e-13 5.00014e-10 0
0.000450896 -0.000204086 0
0.00123381 0.00214732 0
0.00121273 0.00195622 0
0.000739199 0.00108193 0
0.00136256 0.001911 0
-9.70841e-05 0.000465787 0
3.27833e-05 0.00154654 0
0.000590502 -0.000396619 0
0.00081642 0.00019606 0
-0.000286218 -0.00116002 0

CELL_DATA 1237
TENSORS efStress float
-1176.15 59015.5 0
59015.5 -722.009 0
0    0    0

-443.974 21935.9 0
21935.9 -331.586 0
0    0    0

512.116 44468.3 0
44468.3 774.257 0
0    0    0

214.684 37904.1 0
37904.1 418.902 0
0    0    0

365.431 28078.8 0
28078.8 -864.604 0
0    0    0

-334.806 37706.7 0
37706.7 -867.717 0
0    0    0

611.413 68551.1 0
68551.1 1521.67 0
0    0    0

-950.723 53773.6 0
53773.6 -1256.15 0
0    0    0

1021.71 65541.5 0
65541.5 412.488 0
0    0    0

-2089.32 53009.9 0
53009.9 -1172.4 0
0    0    0

1460.67 26885.9 0
26885.9 247.53 0
0    0    0

-1013.35 41953.2 0
41953.2 -458.404 0
0    0    0

2.1059 70304.6 0
70304.6 -758.135 0
0    0    0

501.593 80667.9 0
80667.9 6.7794 0
0    0    0

393.239 29814.4 0
29814.4 1727.75 0
0    0    0

-1187.8 45834.6 0
45834.6 -342.778 0
0    0    0

-1217.99 49354.4 0
49354.4 -744.636 0
0    0    0

583.366 63351.2 0
63351.2 82.6148 0
0    0    0

-79.6287 72454.7 0
72454.7 -1221.66 0
0    0    0

-1076.29 72776.2 0
72776.2 -718.369 0
0    0    0

-412.578 66742.7 0
66742.7 -1018.12 0
0    0    0

497.452 55798.4 0
55798.4 897.767 0
0    0    0

-811.565 58873.1 0
58873.1 -1781.22 0
0    0    0

112.391 65841.6 0
65841.6 836.978 0
0    0    0

2193.35 69819.2 0
69819.2 922.917 0
0    0    0

1503.73 60832 0
60832 645.719 0
0    0    0

916.223 83427.6 0
83427.6 -328.554 0
0    0    0

-854.841 48631.2 0
48631.2 -292.831 0
0    0    0

1263.93 54045.5 0
54045.5 652.724 0
0    0    0

1150.35 38988.5 0
38988.5 972.895 0
0    0    0

600.829 47499.5 0
47499.5 1423.59 0
0    0    0

-387.153 22433 0
22433 -238.003 0
0    0    0

-366.098 48633.4 0
48633.4 -854.228 0
0    0    0

805.957 44527.8 0
44527.8 -230.689 0
0    0    0

-572.184 21451.8 0
21451.8 -2088.5 0
0    0    0

340.045 36927.8 0
36927.8 -804.281 0
0    0    0

304.104 38703.9 0
38703.9 927.272 0
0    0    0

-57.3291 45353.4 0
45353.4 -133.768 0
0    0    0

-616.747 48975.3 0
48975.3 -1407.7 0
0    0    0

-1148.02 20892.5 0
20892.5 -861.383 0
0    0    0

-1961.69 32635.1 0
32635.1 -1695.34 0
0    0    0

508.996 16388.7 0
16388.7 1718.78 0
0    0    0

-290.27 37323.6 0
37323.6 -1090.01 0
0    0    0

272.337 23692.4 0
23692.4 -70.0505 0
0    0    0

1064.68 52196.2 0
52196.2 332.424 0
0    0    0

713.839 58432.6 0
58432.6 239.067 0
0    0    0

788.873 83076 0
83076 338.088 0
0    0    0

957.826 64773.8 0
64773.8 -278.635 0
0    0    0

700.515 60248.9 0
60248.9 -377.899 0
0    0    0

364.566 74450.2 0
74450.2 1602.45 0
0    0    0

407.332 48119.6 0
48119.6 767.607 0
0    0    0

-1207.08 68779.8 0
68779.8 -1737.48 0
0    0    0

-931.744 54752.1 0
54752.1 -1378.47 0
0    0    0

-708.447 50114.3 0
50114.3 190.19 0
0    0    0

-315.654 50272.3 0
50272.3 -842.96 0
0    0    0

100.306 66334.5 0
66334.5 1179.76 0
0    0    0

653.116 57036.8 0
57036.8 1595.55 0
0    0    0

-220.113 56395.2 0
56395.2 -119.98 0
0    0    0

928.495 53206.4 0
53206.4 1268.28 0
0    0    0

772.286 62714.5 0
62714.5 1413.93 0
0    0    0

1380.66 53060 0
53060 1841.73 0
0    0    0

-94.2432 45126 0
45126 651.996 0
0    0    0

30.6228 36154.5 0
36154.5 -707.599 0
0    0    0

1886.51 40590.8 0
40590.8 433.247 0
0    0    0

-1137.36 12527.8 0
12527.8 -487.439 0
0    0    0

496.113 41894.5 0
41894.5 2012.4 0
0    0    0

-461.675 33134.8 0
33134.8 453.906 0
0    0    0

-1761.61 52268.4 0
52268.4 -155.528 0
0    0    0

-1743.39 39529.5 0
39529.5 -1119.39 0
0    0    0

-532.253 59389.5 0
59389.5 631.132 0
0    0    0

940.853 18148.7 0
18148.7 -600.742 0
0    0    0

-425.301 52864.5 0
52864.5 -36.7981 0
0    0    0

1031.29 25296 0
25296 526.583 0
0    0    0

584.37 35872.9 0
35872.9 588.325 0
0    0    0

-510.594 22635.9 0
22635.9 834.27 0
0    0    0

524.061 21565.7 0
21565.7 126.06 0
0    0    0

1445.53 45533.5 0
45533.5 2601.98 0
0    0    0

864.258 48490.3 0
48490.3 530.467 0
0    0    0

-427.582 39142.5 0
39142.5 610.318 0
0    0    0

-528.311 37351.9 0
37351.9 -1029.61 0
0    0    0

-767.136 32934.5 0
32934.5 -1670.85 0
0    0    0

261.123 39391.2 0
39391.2 -868.38 0
0    0    0

-103.662 39567.6 0
39567.6 -884.464 0
0    0    0

-783.25 32417.1 0
32417.1 -335.679 0
0    0    0

-120.06 27686.4 0
27686.4 -1200.61 0
0    0    0

259.077 23268.3 0
23268.3 -453.765 0
0    0    0

-483.144 34569.7 0
34569.7 -1018.88 0
0    0    0

-271.305 51172.2 0
51172.2 -1301.22 0
0    0    0

-522.495 50557.6 0
50557.6 657.06 0
0    0    0

-1575.72 37286.7 0
37286.7 -1757.37 0
0    0    0

950.506 29003.1 0
29003.1 1592.02 0
0    0    0

-869.586 37597.1 0
37597.1 -1051.77 0
0    0    0

1078.86 34335.8 0
34335.8 1356.07 0
0    0    0

-878.89 23373.2 0
23373.2 -196.182 0
0    0    0

-122.701 7389.73 0
7389.73 245.067 0
0    0    0

765.643 18110.9 0
18110.9 1507.47 0
0    0    0

819.623 18914 0
18914 998.032 0
0    0    0

1238.51 14186.7 0
14186.7 1385.4 0
0    0    0

423.81 15460.1 0
15460.1 500.165 0
0    0    0

-0.458044 5677.19 0
5677.19 -0.196304 0
0    0    0

603.783 15065.1 0
15065.1 1144.5 0
0    0    0

668.414 21551.1 0
21551.1 578.899 0
0    0    0

-400.852 2617.04 0
2617.04 -935.32 0
0    0    0

438.748 49236.6 0
49236.6 278.256 0
0    0    0

868.154 57923.3 0
57923.3 145.636 0
0    0    0

822.216 53867.9 0
53867.9 -216.182 0
0    0    0

-649.263 55672.9 0
55672.9 998.088 0
0    0    0

-995.241 64130.3 0
64130.3 -1517.52 0
0    0    0

-72.6455 56842.9 0
56842.9 -919.092 0
0    0    0

511.986 68059 0
68059 1209.51 0
0    0    0

-1237.01 57619.8 0
57619.8 -904.334 0
0    0    0

1750.44 62705.1 0
62705.1 2422.58 0
0    0    0

2021.07 75072.6 0
75072.6 2281.01 0
0    0    0

715.454 80057.7 0
80057.7 1705.7 0
0    0    0

-263.042 68602.5 0
68602.5 654.931 0
0    0    0

-875.285 62573 0
62573 -1535.03 0
0    0    0

273.689 77646.7 0
77646.7 638.607 0
0    0    0

643.293 31719.7 0
31719.7 594.606 0
0    0    0

1557.59 71151 0
71151 3409.79 0
0    0    0

-14.0624 45103.1 0
45103.1 -599.739 0
0    0    0

-1009.81 25651.2 0
25651.2 -1493.8 0
0    0    0

-442.024 15626.4 0
15626.4 -777.964 0
0    0    0

-109.039 14122.7 0
14122.7 764.54 0
0    0    0

-1558.99 48014.3 0
48014.3 -927.062 0
0    0    0

705.734 51999.5 0
51999.5 -115.416 0
0    0    0

-143.618 71038.7 0
71038.7 903.74 0
0    0    0

-1655.55 66188.5 0
66188.5 -712.294 0
0    0    0

-896.036 81220.1 0
81220.1 -814.585 0
0    0    0

775.032 76404.7 0
76404.7 1441.03 0
0    0    0

1203.08 72862.7 0
72862.7 1130.15 0
0    0    0

1019.4 76457.8 0
76457.8 713.614 0
0    0    0

47.546 68588 0
68588 1089.06 0
0    0    0

-1031.35 77626.4 0
77626.4 -702.143 0
0    0    0

1013.01 73771.6 0
73771.6 1391.87 0
0    0    0

1216.69 93681.3 0
93681.3 2838.94 0
0    0    0

1313.43 82878.6 0
82878.6 2669.76 0
0    0    0

984.141 89768.6 0
89768.6 -908.832 0
0    0    0

960.068 88464.9 0
88464.9 887.198 0
0    0    0

-568.431 92459.1 0
92459.1 447.634 0
0    0    0

-140.045 85522.7 0
85522.7 -1298.83 0
0    0    0

249.262 96377.4 0
96377.4 581.611 0
0    0    0

641.498 91367.4 0
91367.4 -300.711 0
0    0    0

288.885 54326.6 0
54326.6 -87.1047 0
0    0    0

467.849 71231.7 0
71231.7 1630.76 0
0    0    0

232.21 32522.3 0
32522.3 1275.01 0
0    0    0

-754.096 36776.3 0
36776.3 -1610.24 0
0    0    0

-1203.51 42361.3 0
42361.3 -1449.42 0
0    0    0

1092.5 34217.5 0
34217.5 2072.84 0
0    0    0

689.711 38669.1 0
38669.1 107.809 0
0    0    0

626.958 38116.1 0
38116.1 211.444 0
0    0    0

891.04 28656.6 0
28656.6 323.082 0
0    0    0

24.7753 36599.8 0
36599.8 -501.471 0
0    0    0

-1080.94 63574.5 0
63574.5 167.628 0
0    0    0

-441.994 72045.3 0
72045.3 -1428.6 0
0    0    0

1099.87 66673.6 0
66673.6 736.096 0
0    0    0

771.254 46139.8 0
46139.8 404.066 0
0    0    0

906.639 51486 0
51486 705.886 0
0    0    0

-756.864 45840.9 0
45840.9 -2193.93 0
0    0    0

1193.94 19310.4 0
19310.4 1671.61 0
0    0    0

-276.17 40112.8 0
40112.8 -628.368 0
0    0    0

547.078 29152.1 0
29152.1 -1195.08 0
0    0    0

-123.211 27270.4 0
27270.4 860.439 0
0    0    0

1001.12 12058.7 0
12058.7 926.226 0
0    0    0

-184.88 18608 0
18608 -431.388 0
0    0    0

-1349.98 60883.2 0
60883.2 -500.42 0
0    0    0

833.987 58310.3 0
58310.3 27.9156 0
0    0    0

-179.224 39088.4 0
39088.4 -545.863 0
0    0    0

1103.51 33808.8 0
33808.8 847.571 0
0    0    0

840.614 50685 0
50685 -40.4232 0
0    0    0

410.252 15194.3 0
15194.3 1087.93 0
0    0    0

-1325.98 43806.9 0
43806.9 -1728.84 0
0    0    0

-329.918 53273.4 0
53273.4 -548.284 0
0    0    0

-761.883 63934.3 0
63934.3 608.263 0
0    0    0

-856.65 19158.5 0
19158.5 -911.996 0
0    0    0

-361.892 27769.4 0
27769.4 -1740.36 0
0    0    0

-1162.78 35762.9 0
35762.9 -210.033 0
0    0    0

-134.227 31014 0
31014 -683.913 0
0    0    0

936.659 25283.5 0
25283.5 -248.327 0
0    0    0

106.735 29253.2 0
29253.2 -1436.41 0
0    0    0

703.046 53836.3 0
53836.3 -944.863 0
0    0    0

-970.445 49900.3 0
49900.3 -1325.43 0
0    0    0

-1401.02 50438.8 0
50438.8 -206.566 0
0    0    0

33.8619 56954.8 0
56954.8 -973.983 0
0    0    0

555.873 31635.6 0
31635.6 775.658 0
0    0    0

-253.45 32357.3 0
32357.3 617.261 0
0    0    0

-1371.83 22224.6 0
22224.6 -587.927 0
0    0    0

88.6276 42268.3 0
42268.3 -717.02 0
0    0    0

586.113 21442.6 0
21442.6 1048.46 0
0    0    0

-664.386 5015.58 0
5015.58 -967.37 0
0    0    0

389.194 22769.6 0
22769.6 -406.612 0
0    0    0

-918.744 9418.69 0
9418.69 -717.99 0
0    0    0

-1279.66 13544.3 0
13544.3 -427.458 0
0    0    0

-879.356 13493 0
13493 487.224 0
0    0    0

-929.238 7429.39 0
7429.39 -1275.99 0
0    0    0

-468.77 13570.2 0
13570.2 -1980.07 0
0    0    0

605.87 10258.6 0
10258.6 1245.76 0
0    0    0

-538.672 62483.2 0
62483.2 -1040.62 0
0    0    0

1087.03 58646.4 0
58646.4 907.895 0
0    0    0

-1145.87 75137.7 0
75137.7 -2935.83 0
0    0    0

-821.762 74600.2 0
74600.2 54.5762 0
0    0    0

53.0473 85186.3 0
85186.3 123.777 0
0    0    0

238.356 79609.9 0
79609.9 556.164 0
0    0    0

-214.296 94937.4 0
94937.4 -1128.22 0
0    0    0

203.514 81399.7 0
81399.7 474.867 0
0    0    0

195.456 60421.3 0
60421.3 1601.96 0
0    0    0

-886.295 88605.3 0
88605.3 -630.21 0
0    0    0

-954.015 95472.2 0
95472.2 -681.411 0
0    0    0

423.827 59542.2 0
59542.2 1348.09 0
0    0    0

228.983 71495.4 0
71495.4 333.132 0
0    0    0

-594.339 72840.5 0
72840.5 -1124.98 0
0    0    0

-268.807 61823.1 0
61823.1 330.188 0
0    0    0

-1196.93 68713.9 0
68713.9 -1420.36 0
0    0    0

-315.817 28249 0
28249 -536.497 0
0    0    0

485.859 22906.3 0
22906.3 1001.13 0
0    0    0

881.109 62682 0
62682 2254.37 0
0    0    0

-467.834 6910.99 0
6910.99 372.571 0
0    0    0

-81.9162 69704.9 0
69704.9 -1253.03 0
0    0    0

95.5294 59148.9 0
59148.9 1315.98 0
0    0    0

-516.993 60616.7 0
60616.7 -1149.85 0
0    0    0

-661.876 31154.3 0
31154.3 -1099.42 0
0    0    0

-634.119 33064.9 0
33064.9 -670.554 0
0    0    0

-888.071 67560.7 0
67560.7 400.873 0
0    0    0

138.327 77774.1 0
77774.1 59.283 0
0    0    0

-819.019 36265.5 0
36265.5 -1090.89 0
0    0    0

-19.3774 30428.5 0
30428.5 1251.96 0
0    0    0

-1075.89 80954.5 0
80954.5 -1266.89 0
0    0    0

-935.801 78092.3 0
78092.3 -1472.13 0
0    0    0

-887.321 85517.8 0
85517.8 343.991 0
0    0    0

-892.012 72961.4 0
72961.4 -1406.83 0
0    0    0

-924.768 50221.8 0
50221.8 -554.28 0
0    0    0

-23.6586 42607.9 0
42607.9 -1568.64 0
0    0    0

-660.375 53974.5 0
53974.5 -102.167 0
0    0    0

-1014.7 56133 0
56133 -1107.14 0
0    0    0

-585.459 46337.9 0
46337.9 -1957.4 0
0    0    0

1705.15 46444.3 0
46444.3 977.092 0
0    0    0

877.173 35531.4 0
35531.4 483.169 0
0    0    0

1088.53 38906.3 0
38906.3 1495.29 0
0    0    0

185.829 32101.5 0
32101.5 577.703 0
0    0    0

854.606 30453.1 0
30453.1 961.946 0
0    0    0

-1233.87 57083.6 0
57083.6 -1009.03 0
0    0    0

-117.13 63522.1 0
63522.1 -273.303 0
0    0    0

2001.74 44294.1 0
44294.1 826.875 0
0    0    0

-1672.9 61203.5 0
61203.5 -2314.42 0
0    0    0

-716.773 56777.5 0
56777.5 -538.584 0
0    0    0

1082.38 48100.3 0
48100.3 1258.81 0
0    0    0

-949.15 55110.1 0
55110.1 -50.2477 0
0    0    0

-1078.74 62810.2 0
62810.2 -1154.1 0
0    0    0

537.924 69568.8 0
69568.8 -202.867 0
0    0    0

-843.404 77062.4 0
77062.4 -1095 0
0    0    0

-1601.41 64289.2 0
64289.2 -1105.58 0
0    0    0

-192.746 71883.7 0
71883.7 -1290.38 0
0    0    0

-341.576 71610.8 0
71610.8 -780.408 0
0    0    0

-989.562 82662 0
82662 -1059.01 0
0    0    0

1145.64 79852.5 0
79852.5 1166 0
0    0    0

-1041.13 81363 0
81363 -1406.12 0
0    0    0

495.025 81013.1 0
81013.1 1159.71 0
0    0    0

-1350.71 93697.7 0
93697.7 -2473.68 0
0    0    0

-949.375 86946.8 0
86946.8 -399.958 0
0    0    0

1267 76642.2 0
76642.2 1739.53 0
0    0    0

-583.839 32786.9 0
32786.9 -1362.71 0
0    0    0

1084.47 89958 0
89958 464.774 0
0    0    0

-664.626 27571.9 0
27571.9 -1351.8 0
0    0    0

511.254 15787.6 0
15787.6 -404.52 0
0    0    0

0.955057 23587.8 0
23587.8 -316.904 0
0    0    0

-1304.82 72756 0
72756 -1562.53 0
0    0    0

715.872 81045.5 0
81045.5 338.226 0
0    0    0

821.939 72270.4 0
72270.4 1334.97 0
0    0    0

994.751 66191.8 0
66191.8 823.55 0
0    0    0

-628.904 51497.5 0
51497.5 -1467.44 0
0    0    0

255.899 47047.8 0
47047.8 -1306.43 0
0    0    0

-213.514 39453.4 0
39453.4 -91.5059 0
0    0    0

219.084 34160.5 0
34160.5 93.8933 0
0    0    0

-551.546 40630.2 0
40630.2 370.161 0
0    0    0

764.114 47899 0
47899 447.032 0
0    0    0

-434.984 60429.2 0
60429.2 -1022.1 0
0    0    0

-378.817 62920.8 0
62920.8 -1107.65 0
0    0    0

-381.54 61708.5 0
61708.5 -992.402 0
0    0    0

-627.188 59091.7 0
59091.7 -300.476 0
0    0    0

1295.12 52707.3 0
52707.3 1126.39 0
0    0    0

-846.627 58324.1 0
58324.1 -2482.2 0
0    0    0

295.505 54061.1 0
54061.1 1887.03 0
0    0    0

-646.92 53967 0
53967 -675.387 0
0    0    0

-1281.95 45700 0
45700 -484.674 0
0    0    0

821.616 38896 0
38896 117.081 0
0    0    0

-940.291 34034.7 0
34034.7 -718.051 0
0    0    0

136.386 38702.9 0
38702.9 542.268 0
0    0    0

-1591.42 26226.3 0
26226.3 -198.376 0
0    0    0

105.142 32674.6 0
32674.6 -395.985 0
0    0    0

-103.722 17076.5 0
17076.5 -44.4524 0
0    0    0

-682.464 39974.9 0
39974.9 115.808 0
0    0    0

1270.64 48456.9 0
48456.9 931.833 0
0    0    0

-691.847 46321.6 0
46321.6 -585.482 0
0    0    0

1100.29 43728.2 0
43728.2 541.095 0
0    0    0

-954.207 47634.1 0
47634.1 -1384.9 0
0    0    0

941.066 46313.6 0
46313.6 748.893 0
0    0    0

1785.44 33383 0
33383 507.088 0
0    0    0

-279.712 26145.5 0
26145.5 -652.662 0
0    0    0

669.687 26793.2 0
26793.2 395.71 0
0    0    0

-1634.68 32541.4 0
32541.4 -929.285 0
0    0    0

1144.28 47116.7 0
47116.7 733.461 0
0    0    0

-67.2112 51415.2 0
51415.2 526.613 0
0    0    0

600.62 69675.5 0
69675.5 -595.075 0
0    0    0

595.159 71047.4 0
71047.4 1388.71 0
0    0    0

-219.803 67322.3 0
67322.3 54.1378 0
0    0    0

1172.7 63244.9 0
63244.9 143.16 0
0    0    0

390.875 42627.1 0
42627.1 -1039.77 0
0    0    0

476.691 37147.3 0
37147.3 288.812 0
0    0    0

1296.21 51393.6 0
51393.6 800.873 0
0    0    0

-231.133 45893.5 0
45893.5 695.553 0
0    0    0

-102.32 22392.9 0
22392.9 -238.747 0
0    0    0

498.707 23833.2 0
23833.2 126.04 0
0    0    0

199.33 34782.9 0
34782.9 1441.39 0
0    0    0

514.797 39543.4 0
39543.4 422.344 0
0    0    0

936.678 18542.2 0
18542.2 1783.98 0
0    0    0

-2133.79 43308.4 0
43308.4 -1321.89 0
0    0    0

-582.916 19868.2 0
19868.2 -187.051 0
0    0    0

612.704 76619.2 0
76619.2 1162.99 0
0    0    0

-706.381 78351.4 0
78351.4 -676.055 0
0    0    0

-96.4288 51513.9 0
51513.9 1147.01 0
0    0    0

377.874 51129.8 0
51129.8 1616.29 0
0    0    0

917.006 63869 0
63869 169.93 0
0    0    0

-586.939 67729.4 0
67729.4 -387.874 0
0    0    0

244.193 51279.6 0
51279.6 20.8567 0
0    0    0

606.958 57518.3 0
57518.3 -790.329 0
0    0    0

-205.778 51213.8 0
51213.8 -1110 0
0    0    0

385.018 49961 0
49961 -144.331 0
0    0    0

249.749 47996.6 0
47996.6 199.589 0
0    0    0

-417.624 43166.2 0
43166.2 -297.734 0
0    0    0

635.313 10366.3 0
10366.3 566.576 0
0    0    0

114.244 17835.9 0
17835.9 661.602 0
0    0    0

-624.998 34427.8 0
34427.8 291.333 0
0    0    0

151.052 37213.7 0
37213.7 -603.704 0
0    0    0

-20.7315 35226.3 0
35226.3 -746.851 0
0    0    0

567.042 33556.1 0
33556.1 5.77625 0
0    0    0

206.176 32328.7 0
32328.7 37.0956 0
0    0    0

1562.03 31256.5 0
31256.5 1611.23 0
0    0    0

-417.838 33581.1 0
33581.1 -957.227 0
0    0    0

1334.65 28488.4 0
28488.4 1784.62 0
0    0    0

-487.235 37964.2 0
37964.2 715.721 0
0    0    0

-76.8031 40695.1 0
40695.1 628.767 0
0    0    0

248.078 30135 0
30135 349.349 0
0    0    0

-27.1216 36191.3 0
36191.3 -817.758 0
0    0    0

-1029.69 24455.5 0
24455.5 -441.295 0
0    0    0

518.196 30220.9 0
30220.9 -700.255 0
0    0    0

827.68 7409.55 0
7409.55 484.373 0
0    0    0

194.71 7286.37 0
7286.37 454.324 0
0    0    0

1394.32 9461.67 0
9461.67 632.124 0
0    0    0

269.395 5429.54 0
5429.54 628.588 0
0    0    0

1277.44 8602.23 0
8602.23 484.175 0
0    0    0

-584.755 10312.5 0
10312.5 -1364.43 0
0    0    0

-359.474 12044.9 0
12044.9 -304.574 0
0    0    0

728.47 51783.1 0
51783.1 -346.445 0
0    0    0

873.381 54859.6 0
54859.6 91.6069 0
0    0    0

-242.787 61062.7 0
61062.7 317.021 0
0    0    0

-270.164 66367.3 0
66367.3 -1236.04 0
0    0    0

591.864 52563.5 0
52563.5 542.352 0
0    0    0

-271.96 56157.8 0
56157.8 1054.54 0
0    0    0

-318.516 58756.7 0
58756.7 393.467 0
0    0    0

-1552.27 64894.7 0
64894.7 -955.983 0
0    0    0

-829.241 72821.1 0
72821.1 -962.057 0
0    0    0

1503.04 67613.3 0
67613.3 2506.19 0
0    0    0

1198.71 65177.5 0
65177.5 1921.08 0
0    0    0

-1756.11 69525.9 0
69525.9 -3023.38 0
0    0    0

-743.949 69729.8 0
69729.8 -2207.39 0
0    0    0

-1541.04 66628.8 0
66628.8 -1268.26 0
0    0    0

812.094 70295.5 0
70295.5 265.204 0
0    0    0

-920.909 72817.9 0
72817.9 -2108.29 0
0    0    0

-1424.03 72087 0
72087 -282.493 0
0    0    0

3.19207 73493.5 0
73493.5 1238.1 0
0    0    0

-702.125 79416.9 0
79416.9 -407.92 0
0    0    0

310.042 76066.7 0
76066.7 -1067.3 0
0    0    0

366.796 90813.3 0
90813.3 855.856 0
0    0    0

386.048 93770.3 0
93770.3 -1235.52 0
0    0    0

19.298 40077.5 0
40077.5 1706.89 0
0    0    0

-728.876 37259 0
37259 -1240.95 0
0    0    0

1006.91 40663.4 0
40663.4 1249.28 0
0    0    0

-592.063 43540.3 0
43540.3 914.043 0
0    0    0

-265.612 32224.1 0
32224.1 -126.92 0
0    0    0

194.87 35596.8 0
35596.8 1361.66 0
0    0    0

-412.726 16746 0
16746 -963.028 0
0    0    0

978.511 19694 0
19694 1529.79 0
0    0    0

-1043.88 51961 0
51961 -740.341 0
0    0    0

-753.653 53091.2 0
53091.2 -247.66 0
0    0    0

-931.033 61235.7 0
61235.7 309.058 0
0    0    0

120.902 61867.3 0
61867.3 2007.26 0
0    0    0

509.387 23895.5 0
23895.5 742.676 0
0    0    0

1088.98 25929.2 0
25929.2 453.422 0
0    0    0

641.056 61879.1 0
61879.1 1183.66 0
0    0    0

613.551 59785.9 0
59785.9 976.576 0
0    0    0

-223.965 84753.1 0
84753.1 -1663.29 0
0    0    0

61.0335 88938.3 0
88938.3 142.411 0
0    0    0

-2131.32 87769.7 0
87769.7 -629.3 0
0    0    0

1118.78 94759.7 0
94759.7 479.475 0
0    0    0

-1.12838 88815.8 0
88815.8 847.788 0
0    0    0

1130.87 91585.2 0
91585.2 1826.47 0
0    0    0

-817.419 27980 0
27980 46.0956 0
0    0    0

698.23 27775.5 0
27775.5 -234.223 0
0    0    0

-208.238 41595.8 0
41595.8 -47.1197 0
0    0    0

-841.033 80613.8 0
80613.8 -689.126 0
0    0    0

-1065.87 85788.8 0
85788.8 -250.365 0
0    0    0

32.9601 43436.7 0
43436.7 -1062.33 0
0    0    0

-1027.64 36472.9 0
36472.9 -800.981 0
0    0    0

464.573 41642.3 0
41642.3 1573.29 0
0    0    0

-181.03 29424.4 0
29424.4 -1243.97 0
0    0    0

-351.197 27937 0
27937 -1128.87 0
0    0    0

701.591 59784.4 0
59784.4 1637.04 0
0    0    0

158.43 56084.4 0
56084.4 369.67 0
0    0    0

-956.061 42130.3 0
42130.3 -1955.99 0
0    0    0

-1105.05 45658.7 0
45658.7 -2190.03 0
0    0    0

1552.6 81944.6 0
81944.6 1076.77 0
0    0    0

984.672 87396.5 0
87396.5 799.767 0
0    0    0

0.0498908 25350.8 0
25350.8 -1581.7 0
0    0    0

-548.141 20043.3 0
20043.3 -595.692 0
0    0    0

-209.597 72142.1 0
72142.1 1232.83 0
0    0    0

-963.876 76637.9 0
76637.9 -490.056 0
0    0    0

-751.739 37784.4 0
37784.4 -2091.73 0
0    0    0

971.715 41550.1 0
41550.1 1468.36 0
0    0    0

-2014.44 45521.7 0
45521.7 -823.32 0
0    0    0

-1588.11 43555.7 0
43555.7 -971.027 0
0    0    0

1028.25 24043.1 0
24043.1 272.581 0
0    0    0

775.877 25422.9 0
25422.9 1004.73 0
0    0    0

370.195 37726.6 0
37726.6 -379.337 0
0    0    0

967.619 37962.8 0
37962.8 133.955 0
0    0    0

877.108 44557 0
44557 1572.37 0
0    0    0

-458.171 38250.3 0
38250.3 -353.834 0
0    0    0

1083.48 42938.5 0
42938.5 265.087 0
0    0    0

-689.093 27366 0
27366 667.898 0
0    0    0

198.58 41504.3 0
41504.3 1422.99 0
0    0    0

-157.487 41409.9 0
41409.9 -367.47 0
0    0    0

-614.43 43179.7 0
43179.7 232.803 0
0    0    0

47.7233 69668.3 0
69668.3 312.803 0
0    0    0

-8.99348 73963.5 0
73963.5 1460.63 0
0    0    0

-1119.47 65100.7 0
65100.7 -49.1932 0
0    0    0

-1081.42 69202.7 0
69202.7 -2539.01 0
0    0    0

-24.3348 80678.9 0
80678.9 -499.465 0
0    0    0

188.501 75602 0
75602 -791.083 0
0    0    0

478.115 43025.1 0
43025.1 246.785 0
0    0    0

-568.598 45511.1 0
45511.1 1161 0
0    0    0

932.457 38377.6 0
38377.6 883.326 0
0    0    0

894.517 38669.6 0
38669.6 1398 0
0    0    0

604.316 36583.2 0
36583.2 1130.05 0
0    0    0

905.841 31829.8 0
31829.8 440.414 0
0    0    0

-710.023 15527 0
15527 -1908.21 0
0    0    0

-1461.19 13337.1 0
13337.1 -784.956 0
0    0    0

-925.795 8376.74 0
8376.74 -591.85 0
0    0    0

-1036.42 10962.7 0
10962.7 -1286.17 0
0    0    0

-1635.88 58794 0
58794 -1859.55 0
0    0    0

458.674 65157.4 0
65157.4 1084.57 0
0    0    0

-427.43 67909.8 0
67909.8 25.4621 0
0    0    0

1575.94 67764.5 0
67764.5 1401.68 0
0    0    0

722.339 25338.7 0
25338.7 1332.71 0
0    0    0

104.855 29754.9 0
29754.9 -985.434 0
0    0    0

774.044 37800 0
37800 795.336 0
0    0    0

339.425 34626 0
34626 88.1563 0
0    0    0

1047.42 29728.1 0
29728.1 1167.57 0
0    0    0

-965.843 24534.2 0
24534.2 -373.452 0
0    0    0

-1200.81 66232.9 0
66232.9 -1334.9 0
0    0    0

540.261 65796.3 0
65796.3 2265.05 0
0    0    0

797.173 61981.5 0
61981.5 -331.233 0
0    0    0

1245.27 52670.4 0
52670.4 -203.496 0
0    0    0

889.923 84115 0
84115 240.021 0
0    0    0

1296.12 86683.9 0
86683.9 820.549 0
0    0    0

624.811 24539.2 0
24539.2 2016.84 0
0    0    0

-621.036 26400.8 0
26400.8 372.441 0
0    0    0

377.722 81933.3 0
81933.3 161.881 0
0    0    0

-1559.77 84233.2 0
84233.2 -1166.41 0
0    0    0

-782.003 26086.7 0
26086.7 -25.8479 0
0    0    0

978.118 23157.9 0
23157.9 891.002 0
0    0    0

793.918 44434.2 0
44434.2 1516.19 0
0    0    0

-311.233 45588.7 0
45588.7 834.438 0
0    0    0

-800.011 29325.9 0
29325.9 -384.522 0
0    0    0

-880.717 26135.3 0
26135.3 -327.295 0
0    0    0

703.923 64041 0
64041 1565.75 0
0    0    0

-860.843 68770.7 0
68770.7 -1620.18 0
0    0    0

-67.6776 92436.5 0
92436.5 -29.0047 0
0    0    0

-721.748 87505.9 0
87505.9 -213.389 0
0    0    0

360.65 25045.3 0
25045.3 110.163 0
0    0    0

1026.71 19730.3 0
19730.3 460.627 0
0    0    0

-951.034 43949.1 0
43949.1 -392.653 0
0    0    0

540.054 41540 0
41540 1206.48 0
0    0    0

-382.852 41708.8 0
41708.8 -412.635 0
0    0    0

-440.473 46652.9 0
46652.9 -522.014 0
0    0    0

-224.182 43785.5 0
43785.5 -575.34 0
0    0    0

-871.285 37181.3 0
37181.3 -166.148 0
0    0    0

-1451.15 66755.4 0
66755.4 -1160.7 0
0    0    0

-635.791 63924.6 0
63924.6 -1273.36 0
0    0    0

891.894 64111.7 0
64111.7 2778.78 0
0    0    0

837.589 68824.1 0
68824.1 829.917 0
0    0    0

1517.73 77943.1 0
77943.1 1853.33 0
0    0    0

-314.472 74252.3 0
74252.3 -1264.67 0
0    0    0

669.558 80708 0
80708 -5.61367 0
0    0    0

1216.63 74258.6 0
74258.6 2210.22 0
0    0    0

1109.43 47560.9 0
47560.9 952.179 0
0    0    0

1325.43 44623.9 0
44623.9 1796.52 0
0    0    0

-1123.47 71263 0
71263 91.6408 0
0    0    0

-764.613 67472.7 0
67472.7 -71.2612 0
0    0    0

1148.42 73879.7 0
73879.7 -241.472 0
0    0    0

1322.34 79919.3 0
79919.3 566.715 0
0    0    0

-628.412 73296.4 0
73296.4 494.798 0
0    0    0

956.279 71141.6 0
71141.6 260.058 0
0    0    0

852.405 65145.7 0
65145.7 -24.8127 0
0    0    0

838.302 61961.7 0
61961.7 1902.58 0
0    0    0

-650.965 45088.3 0
45088.3 114.539 0
0    0    0

613.732 49757.6 0
49757.6 -181.768 0
0    0    0

130.239 34567.1 0
34567.1 1261.29 0
0    0    0

-125.633 33800.8 0
33800.8 -293.144 0
0    0    0

1174.15 37029.5 0
37029.5 1751.29 0
0    0    0

1478.69 62385.8 0
62385.8 1321.99 0
0    0    0

-1459.24 64434.3 0
64434.3 -1636.25 0
0    0    0

-657.133 54972.2 0
54972.2 -1079.36 0
0    0    0

-924.684 58949.3 0
58949.3 -1924.74 0
0    0    0

1150.32 57080.2 0
57080.2 998.064 0
0    0    0

-1017.24 54389.2 0
54389.2 -1252.68 0
0    0    0

-799.306 52464.5 0
52464.5 -38.8404 0
0    0    0

374.735 55037.7 0
55037.7 -1042.87 0
0    0    0

-846.164 59928.7 0
59928.7 -469.755 0
0    0    0

565.476 64764.8 0
64764.8 164.368 0
0    0    0

-1078.59 54276 0
54276 -351.834 0
0    0    0

1090.38 54683.9 0
54683.9 1313.1 0
0    0    0

1008.46 21583.2 0
21583.2 720.106 0
0    0    0

-538.904 19611.4 0
19611.4 -588.426 0
0    0    0

-456.524 21169.7 0
21169.7 854.737 0
0    0    0

-351.038 14534.7 0
14534.7 -150.445 0
0    0    0

-681.802 24329.9 0
24329.9 -453.466 0
0    0    0

779.588 15826.5 0
15826.5 334.109 0
0    0    0

-471.191 47549.6 0
47549.6 1388.28 0
0    0    0

937.029 44379.4 0
44379.4 2635.58 0
0    0    0

-661.549 47329.5 0
47329.5 578.339 0
0    0    0

-1271.13 48587.1 0
48587.1 -1547.24 0
0    0    0

1173.27 86002.8 0
86002.8 132.735 0
0    0    0

-664.813 83894.8 0
83894.8 -652.164 0
0    0    0

-572.586 52341 0
52341 -1110.92 0
0    0    0

643.625 43077.5 0
43077.5 -471.606 0
0    0    0

-553.419 57630.8 0
57630.8 408.45 0
0    0    0

-105.682 48638.1 0
48638.1 -1470.81 0
0    0    0

-680.797 53372.5 0
53372.5 -653.959 0
0    0    0

967.551 59838.6 0
59838.6 701.437 0
0    0    0

-954.637 59360.8 0
59360.8 -244.053 0
0    0    0

-66.716 73334.7 0
73334.7 -744.21 0
0    0    0

776.02 67826.9 0
67826.9 518.393 0
0    0    0

-1267.57 65608.4 0
65608.4 -843.975 0
0    0    0

-1384.49 66719.6 0
66719.6 -121.253 0
0    0    0

-912.151 77237.3 0
77237.3 -171.498 0
0    0    0

-543.945 73033.1 0
73033.1 465.278 0
0    0    0

1034.56 49485.6 0
49485.6 530.115 0
0    0    0

-691.709 48593.9 0
48593.9 -458.551 0
0    0    0

367.981 56508.5 0
56508.5 939.071 0
0    0    0

489.417 53227.1 0
53227.1 -572.816 0
0    0    0

1410.94 62684.9 0
62684.9 2256.37 0
0    0    0

-102.542 55889.4 0
55889.4 7.73138 0
0    0    0

-1151.97 20000.9 0
20000.9 31.6239 0
0    0    0

1062.25 14599.9 0
14599.9 -343.803 0
0    0    0

-728.08 22425.9 0
22425.9 -324.109 0
0    0    0

352.674 28482.9 0
28482.9 1228.29 0
0    0    0

-735.102 49434.7 0
49434.7 -809.687 0
0    0    0

2217.57 48938.5 0
48938.5 694.093 0
0    0    0

682.001 54739.2 0
54739.2 981.418 0
0    0    0

1174.61 51883.2 0
51883.2 1126 0
0    0    0

1063.99 46182.7 0
46182.7 361.647 0
0    0    0

-800.495 49650.6 0
49650.6 -1240.44 0
0    0    0

-1230.89 77756.5 0
77756.5 -1710.55 0
0    0    0

210.9 83311.3 0
83311.3 492.1 0
0    0    0

-1563.44 58328.8 0
58328.8 -442.244 0
0    0    0

-646.986 61459.6 0
61459.6 -1244.68 0
0    0    0

-506.132 32149.4 0
32149.4 -1462.89 0
0    0    0

445.458 34848.1 0
34848.1 537.299 0
0    0    0

-859.433 56575.6 0
56575.6 159.317 0
0    0    0

-983.645 75498.4 0
75498.4 -743.1 0
0    0    0

395.486 52542.1 0
52542.1 913.918 0
0    0    0

-527.195 79446.9 0
79446.9 470.213 0
0    0    0

689.268 76805.5 0
76805.5 103.924 0
0    0    0

-894.957 83473.6 0
83473.6 -554.625 0
0    0    0

-1154.48 84909.2 0
84909.2 -105.505 0
0    0    0

-1476.71 51638.4 0
51638.4 -306.856 0
0    0    0

1124.58 57536.8 0
57536.8 2964.48 0
0    0    0

223.669 32885.6 0
32885.6 642.312 0
0    0    0

1180.24 30263.7 0
30263.7 389.167 0
0    0    0

-1292.72 50005.7 0
50005.7 -1396.39 0
0    0    0

-138.395 50805.3 0
50805.3 -1181.93 0
0    0    0

369.147 41479.3 0
41479.3 -400.417 0
0    0    0

-897.434 46786.3 0
46786.3 -683.109 0
0    0    0

152.068 42837.3 0
42837.3 -624.384 0
0    0    0

-598.372 40298 0
40298 -1592.96 0
0    0    0

-643.385 26602.6 0
26602.6 34.0279 0
0    0    0

-681.895 29005.7 0
29005.7 -233.73 0
0    0    0

985.794 44122.1 0
44122.1 603.132 0
0    0    0

1099.67 44584.9 0
44584.9 1293.91 0
0    0    0

-748.028 56437.4 0
56437.4 -209.544 0
0    0    0

349.233 54537.9 0
54537.9 1077.09 0
0    0    0

-1078.57 68967.2 0
68967.2 -65.0178 0
0    0    0

-570.479 66653 0
66653 -411.89 0
0    0    0

661.436 64701 0
64701 283.473 0
0    0    0

599.165 54647.8 0
54647.8 277.775 0
0    0    0

-306.646 57985 0
57985 -978.462 0
0    0    0

-623.614 60328.9 0
60328.9 -332.058 0
0    0    0

360.419 56891.7 0
56891.7 953.407 0
0    0    0

-391.556 64233.6 0
64233.6 -1000.64 0
0    0    0

-610.848 61621.7 0
61621.7 -328.656 0
0    0    0

-351.83 46865.3 0
46865.3 -2299.82 0
0    0    0

1605.13 51446.4 0
51446.4 2283.19 0
0    0    0

1540.22 90463.8 0
90463.8 2231.09 0
0    0    0

1202 38630.7 0
38630.7 1297.33 0
0    0    0

382.438 83830.9 0
83830.9 -1164.14 0
0    0    0

1388.62 46793.3 0
46793.3 1044.53 0
0    0    0

-519.5 41729.8 0
41729.8 -1506.83 0
0    0    0

-2442.5 71056 0
71056 -1063.87 0
0    0    0

-19.0747 8079.14 0
8079.14 -8.17486 0
0    0    0

621.525 48769.6 0
48769.6 1773.31 0
0    0    0

-921.227 43116.8 0
43116.8 -42.0658 0
0    0    0

-943.001 42771.3 0
42771.3 -860.368 0
0    0    0

1.92486e-07 40312.5 0
40312.5 8.2494e-08 0
0    0    0

455.591 59560.5 0
59560.5 960.904 0
0    0    0

669.173 55892.6 0
55892.6 255.108 0
0    0    0

1158.04 76771.7 0
76771.7 2392.02 0
0    0    0

809.085 21944.2 0
21944.2 2122.74 0
0    0    0

-690.113 74231.5 0
74231.5 -1809.71 0
0    0    0

966.214 57133.5 0
57133.5 1247.26 0
0    0    0

-14.1314 61612.1 0
61612.1 -1576.12 0
0    0    0

422.301 38986.6 0
38986.6 1078.36 0
0    0    0

812.143 40435.1 0
40435.1 -59.346 0
0    0    0

1346.71 34385.8 0
34385.8 2409.22 0
0    0    0

-757.279 36460.2 0
36460.2 -1766.99 0
0    0    0

-1014.28 42441.3 0
42441.3 -1096 0
0    0    0

-189.944 41116 0
41116 508.688 0
0    0    0

-392.089 38222.6 0
38222.6 -789.91 0
0    0    0

-1519.42 39506.1 0
39506.1 -1264.36 0
0    0    0

-595.28 35834.9 0
35834.9 -782.387 0
0    0    0

-1250.13 35907.3 0
35907.3 -1894.38 0
0    0    0

349.266 68086.3 0
68086.3 1766.49 0
0    0    0

318.419 66793.4 0
66793.4 -1211.87 0
0    0    0

-137.309 67395.2 0
67395.2 -320.387 0
0    0    0

-489.307 67117.7 0
67117.7 -2285.26 0
0    0    0

-755.772 31199 0
31199 463.309 0
0    0    0

838.654 28895.4 0
28895.4 -342.924 0
0    0    0

820.855 62757.6 0
62757.6 1125.29 0
0    0    0

-588.492 64889.4 0
64889.4 -979.466 0
0    0    0

-999.834 61241.5 0
61241.5 -2041.56 0
0    0    0

-968.431 61142.5 0
61142.5 -1730.67 0
0    0    0

723.267 62990.4 0
62990.4 369.914 0
0    0    0

-1394.33 61760.2 0
61760.2 -847.98 0
0    0    0

-518.552 45327.9 0
45327.9 465.58 0
0    0    0

979.873 44997.5 0
44997.5 410.698 0
0    0    0

-108.368 24267.9 0
24267.9 -252.859 0
0    0    0

431.917 24272.5 0
24272.5 1212.09 0
0    0    0

-682.388 46803.2 0
46803.2 141.317 0
0    0    0

-203.997 47074.1 0
47074.1 -475.992 0
0    0    0

823.836 45928.4 0
45928.4 561.426 0
0    0    0

-745.023 62907.6 0
62907.6 168.433 0
0    0    0

158.935 82001.3 0
82001.3 393.385 0
0    0    0

1001.3 60214 0
60214 1444.33 0
0    0    0

-868.366 53249.9 0
53249.9 -859.545 0
0    0    0

938.096 50951.1 0
50951.1 1154.83 0
0    0    0

1146.42 54235.5 0
54235.5 765.268 0
0    0    0

-971.027 51975.3 0
51975.3 -675.061 0
0    0    0

-547.49 52565.7 0
52565.7 -508.181 0
0    0    0

-439.422 48399.6 0
48399.6 -347.229 0
0    0    0

-764.507 60683.7 0
60683.7 -487.228 0
0    0    0

224.59 57789.9 0
57789.9 316.793 0
0    0    0

-229.182 49349.5 0
49349.5 -483.896 0
0    0    0

63.6671 49960 0
49960 293.179 0
0    0    0

-971.451 54934.6 0
54934.6 -1554.96 0
0    0    0

499.708 50157.3 0
50157.3 1160.27 0
0    0    0

-1.39456 48501.4 0
48501.4 1391.15 0
0    0    0

668.155 45316 0
45316 -618.489 0
0    0    0

-705.881 30938.5 0
30938.5 -834.363 0
0    0    0

750.488 29626.5 0
29626.5 926.184 0
0    0    0

-1261.07 54484.4 0
54484.4 -294.551 0
0    0    0

1024.31 50175.9 0
50175.9 157.748 0
0    0    0

1045.7 23540.5 0
23540.5 195.164 0
0    0    0

-1144.44 24224.9 0
24224.9 -702.558 0
0    0    0

-825.287 37753.6 0
37753.6 -995.112 0
0    0    0

-518.357 32684.2 0
32684.2 -765.76 0
0    0    0

-85.0191 30897.8 0
30897.8 -362.543 0
0    0    0

657.883 34290.1 0
34290.1 -445.809 0
0    0    0

936.095 26881.1 0
26881.1 492.939 0
0    0    0

-1050.97 27904.9 0
27904.9 -1039.87 0
0    0    0

-634.509 39138.4 0
39138.4 -761.381 0
0    0    0

-109.736 42532.7 0
42532.7 189.964 0
0    0    0

-400.416 41121.4 0
41121.4 95.5964 0
0    0    0

858.458 37745.3 0
37745.3 841.75 0
0    0    0

862.406 52273.9 0
52273.9 1788.56 0
0    0    0

-1081.25 53228.9 0
53228.9 270.779 0
0    0    0

-1582.15 30378.6 0
30378.6 -1758.03 0
0    0    0

-868.112 27317.6 0
27317.6 -372.048 0
0    0    0

757.349 20181.1 0
20181.1 -523.155 0
0    0    0

-643.044 19572 0
19572 -46.3406 0
0    0    0

768.599 17520.8 0
17520.8 1185.78 0
0    0    0

330.115 17355.7 0
17355.7 -573.721 0
0    0    0

309.05 12920.6 0
12920.6 721.117 0
0    0    0

1531.7 5684.46 0
5684.46 535.459 0
0    0    0

828.137 12179.6 0
12179.6 2178.24 0
0    0    0

-558.242 22155 0
22155 519.588 0
0    0    0

-454.005 17606.8 0
17606.8 -1245.46 0
0    0    0

777.567 16404.8 0
16404.8 431.521 0
0    0    0

-1421.66 20865.6 0
20865.6 -584.078 0
0    0    0

-338.452 58887.9 0
58887.9 -1117.12 0
0    0    0

25.7451 54916.8 0
54916.8 944.296 0
0    0    0

-147.776 55926.8 0
55926.8 -1286.01 0
0    0    0

394.048 57689 0
57689 950.35 0
0    0    0

-290.006 53564.5 0
53564.5 -727.039 0
0    0    0

-1008 54173.9 0
54173.9 -750.534 0
0    0    0

770.878 63331.2 0
63331.2 -178.94 0
0    0    0

-134.37 67185.2 0
67185.2 -913.622 0
0    0    0

975.878 55254.1 0
55254.1 1806.79 0
0    0    0

-779.795 60287.3 0
60287.3 323.258 0
0    0    0

-365.034 60635.1 0
60635.1 -940.072 0
0    0    0

844.759 59157.6 0
59157.6 1100.22 0
0    0    0

-429.479 74079.2 0
74079.2 -2076.77 0
0    0    0

-1109.17 78335.5 0
78335.5 -1784.39 0
0    0    0

-1578.92 78624.4 0
78624.4 -3337.2 0
0    0    0

-1554.33 79666 0
79666 -2700.24 0
0    0    0

-463.602 26800.3 0
26800.3 510.501 0
0    0    0

-676.365 78900.1 0
78900.1 -949.509 0
0    0    0

1320.99 26710.5 0
26710.5 1502.69 0
0    0    0

-568.999 16458.1 0
16458.1 -1528.17 0
0    0    0

573.514 13184.4 0
13184.4 647.66 0
0    0    0

545.524 11923.7 0
11923.7 128.004 0
0    0    0

1185.83 15216.5 0
15216.5 2274.52 0
0    0    0

-300.728 13705.4 0
13705.4 -1311.81 0
0    0    0

1337.82 85244.2 0
85244.2 235.009 0
0    0    0

-1662.65 86233.7 0
86233.7 -397.596 0
0    0    0

-694.484 84297 0
84297 -578.55 0
0    0    0

841.908 81885.8 0
81885.8 317.257 0
0    0    0

1036.36 78312.4 0
78312.4 -239.275 0
0    0    0

617.41 74453.8 0
74453.8 1960.14 0
0    0    0

-1092.51 79003.3 0
79003.3 -343.975 0
0    0    0

-869.714 76204.8 0
76204.8 -650.563 0
0    0    0

1017.82 78746.2 0
78746.2 486.664 0
0    0    0

100.209 76649.7 0
76649.7 -697.158 0
0    0    0

1066.78 75294.7 0
75294.7 371.035 0
0    0    0

86.3614 75629.6 0
75629.6 1608.67 0
0    0    0

-486.106 81744.1 0
81744.1 -165.491 0
0    0    0

-1616.58 81477.3 0
81477.3 -2973.58 0
0    0    0

648.817 92723.7 0
92723.7 1747.7 0
0    0    0

1480.15 89019.9 0
89019.9 1200.49 0
0    0    0

1457.14 56174.2 0
56174.2 980.495 0
0    0    0

395.497 86845.8 0
86845.8 922.826 0
0    0    0

224.476 56311 0
56311 1357.06 0
0    0    0

1401.2 59294.7 0
59294.7 665.531 0
0    0    0

-287.428 57612 0
57612 -2079.07 0
0    0    0

-107.895 30287.5 0
30287.5 -354.595 0
0    0    0

213.2 32536.8 0
32536.8 555.482 0
0    0    0

1139.97 43251.1 0
43251.1 258.042 0
0    0    0

-654.037 43386.9 0
43386.9 -20.9902 0
0    0    0

-171.136 70366.8 0
70366.8 645.357 0
0    0    0

194.933 73370.5 0
73370.5 750.364 0
0    0    0

-1073.07 74788 0
74788 -628.773 0
0    0    0

365.412 75087.7 0
75087.7 852.627 0
0    0    0

-1041.42 50587.2 0
50587.2 -636.179 0
0    0    0

-1860.76 51684.2 0
51684.2 -1068.04 0
0    0    0

685.553 14113.1 0
14113.1 1033.78 0
0    0    0

-361.158 15079.5 0
15079.5 -2142.99 0
0    0    0

-410.86 57868.8 0
57868.8 -1464.09 0
0    0    0

220.143 17414 0
17414 607.511 0
0    0    0

18.2848 55160.8 0
55160.8 -225.74 0
0    0    0

-136.053 41492.9 0
41492.9 -602.832 0
0    0    0

546.187 40200.6 0
40200.6 947.96 0
0    0    0

-652.753 21437.3 0
21437.3 -536.838 0
0    0    0

-1231.27 18745.3 0
18745.3 -944.42 0
0    0    0

-427.866 29668.7 0
29668.7 15.8582 0
0    0    0

-788.909 31925.2 0
31925.2 872.989 0
0    0    0

-611.205 25889.7 0
25889.7 373.147 0
0    0    0

727.655 21772.3 0
21772.3 21.5863 0
0    0    0

-922.46 20805.4 0
20805.4 -651.873 0
0    0    0

421.41 21535.6 0
21535.6 725.98 0
0    0    0

94.4833 25039.9 0
25039.9 1081.91 0
0    0    0

-332.48 25834 0
25834 -686.71 0
0    0    0

949.433 77277.3 0
77277.3 604.958 0
0    0    0

1448.8 8990.92 0
8990.92 1355.74 0
0    0    0

49.1559 80958.9 0
80958.9 -517.464 0
0    0    0

-313.924 93460.4 0
93460.4 1013.84 0
0    0    0

7.43157e-07 98437.5 0
98437.5 8.74749e-07 0
0    0    0

1320.97 67693.3 0
67693.3 539.889 0
0    0    0

-123.173 83125.5 0
83125.5 -27.4305 0
0    0    0

377.237 86938.5 0
86938.5 2465 0
0    0    0

-599.022 70918.3 0
70918.3 -968.097 0
0    0    0

-251.573 28706.7 0
28706.7 921.385 0
0    0    0

98.7522 25869.4 0
25869.4 42.3224 0
0    0    0

1702.61 26026.4 0
26026.4 219.501 0
0    0    0

-994.753 27206.6 0
27206.6 -1346.67 0
0    0    0

2153.87 21057.9 0
21057.9 789.666 0
0    0    0

-761.554 24833.8 0
24833.8 -38.0807 0
0    0    0

-1588.48 63928.4 0
63928.4 -720.25 0
0    0    0

-587.459 61494.6 0
61494.6 -2515.16 0
0    0    0

213.514 3964.64 0
3964.64 -598.741 0
0    0    0

270.361 2323.63 0
2323.63 115.869 0
0    0    0

511.865 54575.3 0
54575.3 1764.32 0
0    0    0

-11.3594 52541.3 0
52541.3 -1255.2 0
0    0    0

-674.368 40607.4 0
40607.4 -1467.08 0
0    0    0

-361.276 37162.7 0
37162.7 381.141 0
0    0    0

144.053 35040.8 0
35040.8 -771.448 0
0    0    0

-441.338 36031.9 0
36031.9 -79.0446 0
0    0    0

-813.128 58597.2 0
58597.2 -452.069 0
0    0    0

543.572 56013.9 0
56013.9 495.841 0
0    0    0

-983.825 64333.8 0
64333.8 -1285.56 0
0    0    0

-1033.94 65383.1 0
65383.1 183.193 0
0    0    0

392.03 78455.7 0
78455.7 482.511 0
0    0    0

-1335.91 76040.7 0
76040.7 -2340.88 0
0    0    0

1205.45 73813.6 0
73813.6 2507.68 0
0    0    0

922.755 72696.2 0
72696.2 1803.14 0
0    0    0

-365.794 82544.7 0
82544.7 898.845 0
0    0    0

1145.41 82559.4 0
82559.4 -241.946 0
0    0    0

-348.682 49529.8 0
49529.8 1143.41 0
0    0    0

1307.73 47847.2 0
47847.2 2652.66 0
0    0    0

-559.015 50493.1 0
50493.1 252.554 0
0    0    0

-130.965 50450.9 0
50450.9 -1498.07 0
0    0    0

-714.095 47449 0
47449 25.5647 0
0    0    0

532.672 48249.1 0
48249.1 361.015 0
0    0    0

-1580.01 35362 0
35362 -1323.98 0
0    0    0

389.662 40373.2 0
40373.2 -693.19 0
0    0    0

466.888 34870 0
34870 956.132 0
0    0    0

58.9427 35073.3 0
35073.3 724.683 0
0    0    0

487.711 34429.4 0
34429.4 1308.67 0
0    0    0

122.968 48126.8 0
48126.8 -1333.78 0
0    0    0

-770.861 43930.8 0
43930.8 496.481 0
0    0    0

777.317 47474.8 0
47474.8 2364.8 0
0    0    0

-322.563 46167.6 0
46167.6 -1975 0
0    0    0

-1156.77 49435.1 0
49435.1 -37.0376 0
0    0    0

444.092 24681.6 0
24681.6 1021.94 0
0    0    0

868.572 49702.4 0
49702.4 1358.49 0
0    0    0

681.502 50625 0
50625 877.705 0
0    0    0

1185.26 52235 0
52235 498.415 0
0    0    0

109.667 25620.4 0
25620.4 -1316 0
0    0    0

-263.502 20614.7 0
20614.7 -614.838 0
0    0    0

-402.883 22545.1 0
22545.1 485.956 0
0    0    0

918.498 31883.9 0
31883.9 931.537 0
0    0    0

-422.691 34490.3 0
34490.3 -286.904 0
0    0    0

1878 42034.4 0
42034.4 1036.56 0
0    0    0

171.358 45173.7 0
45173.7 147.134 0
0    0    0

38.3468 20107.5 0
20107.5 586.054 0
0    0    0

-735.008 16703.3 0
16703.3 -2291.43 0
0    0    0

-672.083 27642.3 0
27642.3 -491.365 0
0    0    0

941.711 27317.6 0
27317.6 -216.556 0
0    0    0

-774.841 33587.9 0
33587.9 -818.819 0
0    0    0

222.476 30460 0
30460 -270.839 0
0    0    0

-464.369 66967.8 0
66967.8 1098.29 0
0    0    0

1242.24 64469 0
64469 299.124 0
0    0    0

181.993 64624.9 0
64624.9 -350.824 0
0    0    0

-693.67 65257.6 0
65257.6 619.709 0
0    0    0

45.7703 37347 0
37347 385.048 0
0    0    0

131.955 40434.2 0
40434.2 558.149 0
0    0    0

377.549 45110.6 0
45110.6 323.273 0
0    0    0

-1053.4 46852.9 0
46852.9 -583.486 0
0    0    0

-757.231 18352.7 0
18352.7 231.563 0
0    0    0

-1212.35 16163.5 0
16163.5 -72.9526 0
0    0    0

-213.654 58710.7 0
58710.7 -799.833 0
0    0    0

25.2737 61032.2 0
61032.2 333.069 0
0    0    0

347.266 41064.6 0
41064.6 622.33 0
0    0    0

-355.25 40214.1 0
40214.1 1487.8 0
0    0    0

709.105 34795.3 0
34795.3 1303.66 0
0    0    0

-780.638 37435.9 0
37435.9 692.644 0
0    0    0

-785.522 40347.6 0
40347.6 -1407.59 0
0    0    0

-523.915 41666 0
41666 -136.955 0
0    0    0

1369.76 43170.7 0
43170.7 951.311 0
0    0    0

-1775.21 43781.5 0
43781.5 -294.148 0
0    0    0

640.619 46929.6 0
46929.6 1653.4 0
0    0    0

-178.41 45342.3 0
45342.3 -1798.9 0
0    0    0

854.816 40975.6 0
40975.6 930.078 0
0    0    0

-1033.6 40163.7 0
40163.7 -891.475 0
0    0    0

1204.38 37985.5 0
37985.5 463.629 0
0    0    0

234.308 36305 0
36305 680.694 0
0    0    0

-826.071 39170.7 0
39170.7 -839.433 0
0    0    0

-1398.26 34882.3 0
34882.3 -580.619 0
0    0    0

778.476 39853.7 0
39853.7 660.49 0
0    0    0

-894.126 38928.4 0
38928.4 -192.829 0
0    0    0

-812.808 42115 0
42115 -738.945 0
0    0    0

-736.088 43868.2 0
43868.2 -206.193 0
0    0    0

-820.398 29808.6 0
29808.6 -351.599 0
0    0    0

-157.487 39534.9 0
39534.9 -367.47 0
0    0    0

705.119 33311.1 0
33311.1 174.121 0
0    0    0

1101.1 14467.2 0
14467.2 112.739 0
0    0    0

887.687 17833.5 0
17833.5 -202.488 0
0    0    0

3.88351 11069 0
11069 -1605.13 0
0    0    0

1450.84 12021.9 0
12021.9 1826.67 0
0    0    0

1891.09 68004.6 0
68004.6 -107.005 0
0    0    0

1017.25 70931 0
70931 1039.47 0
0    0    0

594.145 61385.6 0
61385.6 1763.68 0
0    0    0

-648.18 64676.2 0
64676.2 469.337 0
0    0    0

-974.644 80336 0
80336 -1269.12 0
0    0    0

867.042 78772.8 0
78772.8 775.608 0
0    0    0

-571.249 77992.8 0
77992.8 -1053.24 0
0    0    0

-1422.34 78686.9 0
78686.9 -1347.72 0
0    0    0

-680.558 21899.6 0
21899.6 281.82 0
0    0    0

398.434 23245.8 0
23245.8 -119.788 0
0    0    0

1032.62 67834.8 0
67834.8 1487.49 0
0    0    0

-178.283 65741 0
65741 -1646.84 0
0    0    0

-1539.43 90121 0
90121 -1854.56 0
0    0    0

-846.996 90622.5 0
90622.5 -298.174 0
0    0    0

-587.557 47715.3 0
47715.3 395.939 0
0    0    0

-433.469 45719.5 0
45719.5 -2019.84 0
0    0    0

-1141.61 63931.2 0
63931.2 -1241.3 0
0    0    0

1537.03 65597 0
65597 1077.17 0
0    0    0

719.038 60955.2 0
60955.2 1561.86 0
0    0    0

970.646 58653.2 0
58653.2 1147.84 0
0    0    0

1595.96 52804.7 0
52804.7 1223.28 0
0    0    0

585.496 56128 0
56128 359.017 0
0    0    0

-985.571 19408.1 0
19408.1 -871.43 0
0    0    0

1225.08 18058.2 0
18058.2 1059.15 0
0    0    0

-1022.48 43022.1 0
43022.1 -1551.8 0
0    0    0

1341.63 42166.4 0
42166.4 -15.3657 0
0    0    0

1520.38 66332.1 0
66332.1 -224.558 0
0    0    0

1078.74 69191.6 0
69191.6 809.907 0
0    0    0

1015.27 52461.8 0
52461.8 47.8044 0
0    0    0

-2095.41 50639.8 0
50639.8 -1741.35 0
0    0    0

261.178 80138.3 0
80138.3 1355.3 0
0    0    0

220.618 79144.3 0
79144.3 -319.2 0
0    0    0

-129.794 82333.5 0
82333.5 -1991.41 0
0    0    0

603.322 84672.6 0
84672.6 1740.05 0
0    0    0

-1139.06 47494.6 0
47494.6 -1338.97 0
0    0    0

864.117 46415.8 0
46415.8 -798.023 0
0    0    0

690.824 47927.4 0
47927.4 -144.964 0
0    0    0

-458.532 46140.5 0
46140.5 -1277.69 0
0    0    0

-580.407 42887.9 0
42887.9 -1376.55 0
0    0    0

450.356 43888.3 0
43888.3 1157.74 0
0    0    0

-962.653 45458 0
45458 -1349.46 0
0    0    0

-1450.65 47483.2 0
47483.2 -28.5927 0
0    0    0

374.075 43675.8 0
43675.8 879.251 0
0    0    0

920.52 47997.2 0
47997.2 508.966 0
0    0    0

920.984 46928.9 0
46928.9 -189.336 0
0    0    0

-805.416 46179.2 0
46179.2 491.619 0
0    0    0

-1032.06 47943.1 0
47943.1 117.045 0
0    0    0

1072.81 50408.8 0
50408.8 2274.16 0
0    0    0

500.348 60289.5 0
60289.5 1750.45 0
0    0    0

253.099 41875.4 0
41875.4 590.565 0
0    0    0

-657.398 58390.5 0
58390.5 -1241.58 0
0    0    0

757.645 62798.7 0
62798.7 1501.48 0
0    0    0

327.739 62009.6 0
62009.6 728.507 0
0    0    0

-627.622 23272.8 0
23272.8 -1797.69 0
0    0    0

-1175.07 23985.7 0
23985.7 -2082.35 0
0    0    0

370.762 38441 0
38441 923.638 0
0    0    0

1277.39 35529.8 0
35529.8 1347.93 0
0    0    0

-368.163 39743.6 0
39743.6 -1218.25 0
0    0    0

-874.033 35958.4 0
35958.4 -608.592 0
0    0    0

702.098 41243.5 0
41243.5 2128.64 0
0    0    0

646.038 39990.7 0
39990.7 123.787 0
0    0    0

-459.828 41116.6 0
41116.6 -755.645 0
0    0    0

767.302 39783 0
39783 1091 0
0    0    0

194.428 37181.6 0
37181.6 -806.515 0
0    0    0

-293.85 38740.6 0
38740.6 -1707.02 0
0    0    0

43.1594 5743.87 0
5743.87 710.087 0
0    0    0

961.412 4427.19 0
4427.19 412.034 0
0    0    0

-891.91 9928.08 0
9928.08 -382.247 0
0    0    0

1140.47 13111.7 0
13111.7 -410.968 0
0    0    0

803.738 11554.9 0
11554.9 453.17 0
0    0    0

-907.998 11857.2 0
11857.2 190.858 0
0    0    0

-977.631 16780.1 0
16780.1 -406.634 0
0    0    0

-1337.71 16292.8 0
16292.8 -629.987 0
0    0    0

70.761 30690 0
30690 495.162 0
0    0    0

-621.213 32092 0
32092 62.8446 0
0    0    0

841.958 71433 0
71433 1260.4 0
0    0    0

669.607 70597.9 0
70597.9 1044.46 0
0    0    0

2131.22 50299.6 0
50299.6 1333.21 0
0    0    0

1083.11 53302.8 0
53302.8 31.6551 0
0    0    0

552.818 57566.2 0
57566.2 1290.31 0
0    0    0

603.69 56811.2 0
56811.2 1530.93 0
0    0    0

1207.6 87964.9 0
87964.9 1468.98 0
0    0    0

754.427 96752.6 0
96752.6 323.326 0
0    0    0

-984.68 97968 0
97968 -1362.89 0
0    0    0

-907.73 92133.8 0
92133.8 -1865.08 0
0    0    0

555.782 54642.5 0
54642.5 580.618 0
0    0    0

1136.19 25410.3 0
25410.3 850.819 0
0    0    0

-978.803 52059.1 0
52059.1 -618.044 0
0    0    0

-496.423 14795.6 0
14795.6 -1158.32 0
0    0    0

-343.013 16521.5 0
16521.5 -1065.63 0
0    0    0

-185.689 37904.4 0
37904.4 -1374.17 0
0    0    0

1026.34 36980.5 0
36980.5 376.915 0
0    0    0

-559.153 39813.6 0
39813.6 -566.42 0
0    0    0

-980.331 37480.7 0
37480.7 -1891.44 0
0    0    0

1058.11 36333.4 0
36333.4 902.36 0
0    0    0

202.396 35785.4 0
35785.4 1441.48 0
0    0    0

-187.34 37421.4 0
37421.4 -303.987 0
0    0    0

543.319 38642.3 0
38642.3 -502.165 0
0    0    0

604.493 76542.5 0
76542.5 1369.02 0
0    0    0

-197.662 75215.5 0
75215.5 -1578.99 0
0    0    0

-536.67 16885.5 0
16885.5 870.723 0
0    0    0

1445.01 14624.8 0
14624.8 964.128 0
0    0    0

-1256.51 89240.8 0
89240.8 -2274.69 0
0    0    0

-989.492 90108.1 0
90108.1 -654.932 0
0    0    0

-803.613 23720.5 0
23720.5 -952.4 0
0    0    0

101.268 23882.6 0
23882.6 1327.94 0
0    0    0

1180.1 50883.5 0
50883.5 2440.56 0
0    0    0

-229.187 49103.6 0
49103.6 -2336.25 0
0    0    0

205.492 73807.3 0
73807.3 1956.86 0
0    0    0

670.597 73672.7 0
73672.7 1672.71 0
0    0    0

1284.14 72476.8 0
72476.8 550.344 0
0    0    0

-1492.49 71252.9 0
71252.9 -1129.62 0
0    0    0

792.011 28580.6 0
28580.6 94.4378 0
0    0    0

1694.96 30917.1 0
30917.1 1479.98 0
0    0    0

-482.5 28671.8 0
28671.8 -1125.83 0
0    0    0

-8.98947 30120.9 0
30120.9 -1314.85 0
0    0    0

-740.424 17104.7 0
17104.7 216.899 0
0    0    0

-529.437 14883 0
14883 -56.166 0
0    0    0

1262.18 68006 0
68006 2530.42 0
0    0    0

-683.377 68002.1 0
68002.1 844.914 0
0    0    0

-706.676 75617.6 0
75617.6 -1516.52 0
0    0    0

799.48 71582.8 0
71582.8 1244.63 0
0    0    0

701.945 70238.6 0
70238.6 428.033 0
0    0    0

-1236.68 67506.6 0
67506.6 -2184.17 0
0    0    0

-1130.12 64635 0
64635 -2420.62 0
0    0    0

-787.832 65374 0
65374 -1483 0
0    0    0

-436.929 33132.5 0
33132.5 -1152.12 0
0    0    0

-227.812 33701.1 0
33701.1 -1075.73 0
0    0    0

104.6 40446.3 0
40446.3 660.063 0
0    0    0

-81.8689 38779.5 0
38779.5 308.287 0
0    0    0

-734.611 49328.9 0
49328.9 -22.672 0
0    0    0

1524.82 50985.2 0
50985.2 1619.74 0
0    0    0

1022.5 19869.7 0
19869.7 784.328 0
0    0    0

-28.4651 17943.1 0
17943.1 783.42 0
0    0    0

-693.255 45908.3 0
45908.3 -1354.99 0
0    0    0

-474.131 42636.1 0
42636.1 155.425 0
0    0    0

-1665.62 19804.5 0
19804.5 -713.839 0
0    0    0

846.215 19070.8 0
19070.8 48.5192 0
0    0    0

492.376 9841.84 0
9841.84 148.834 0
0    0    0

186.904 10456.3 0
10456.3 916.507 0
0    0    0

684.345 56575.1 0
56575.1 184.184 0
0    0    0

-1416.35 57621.9 0
57621.9 -758.446 0
0    0    0

1006.9 61684.4 0
61684.4 -293.434 0
0    0    0

1603.73 65051.3 0
65051.3 1025.09 0
0    0    0

462.165 43480 0
43480 -86.7086 0
0    0    0

561.688 44676.8 0
44676.8 2085.86 0
0    0    0

-1047.5 70176.6 0
70176.6 -698.249 0
0    0    0

-1315.68 66750.3 0
66750.3 -1223.52 0
0    0    0

-844.828 69278.4 0
69278.4 -2958.24 0
0    0    0

1295.16 68387.6 0
68387.6 309.061 0
0    0    0

-1285.59 35489 0
35489 -195.634 0
0    0    0

1747.63 30972.9 0
30972.9 767.192 0
0    0    0

1178.79 61622.3 0
61622.3 11.1804 0
0    0    0

-1750.11 61189.4 0
61189.4 -1392.52 0
0    0    0

-1716.91 61932.4 0
61932.4 -234.178 0
0    0    0

-786.335 58290.7 0
58290.7 -198.342 0
0    0    0

871.072 59715.5 0
59715.5 771.189 0
0    0    0

-122.303 63726.7 0
63726.7 -730.104 0
0    0    0

-733.842 58763.1 0
58763.1 -426.676 0
0    0    0

761.787 55641.5 0
55641.5 -44.9856 0
0    0    0

146.143 55234.3 0
55234.3 1479.07 0
0    0    0

761.927 57299.1 0
57299.1 917.808 0
0    0    0

1580.46 36511.9 0
36511.9 -261.28 0
0    0    0

612.508 35506.6 0
35506.6 1307.24 0
0    0    0

913.391 26211.6 0
26211.6 -160.015 0
0    0    0

-637.619 30372.2 0
30372.2 -810.9 0
0    0    0

-1533.76 32594.8 0
32594.8 -722.474 0
0    0    0

-528.662 34672.6 0
34672.6 -319.806 0
0    0    0

-99.658 27560.7 0
27560.7 65.8819 0
0    0    0

-1831.62 32734.6 0
32734.6 -1531.01 0
0    0    0

785.564 30201.9 0
30201.9 1076.46 0
0    0    0

-364.58 32159.7 0
32159.7 112.569 0
0    0    0

1333.1 55287.4 0
55287.4 874.814 0
0    0    0

1067.28 58993.2 0
58993.2 272.093 0
0    0    0

1085.98 8913.29 0
8913.29 -5.07888 0
0    0    0

-79.3299 11006.3 0
11006.3 -1133.48 0
0    0    0

-1192.21 13170 0
13170 -644.478 0
0    0    0

450.473 12419.4 0
12419.4 762.325 0
0    0    0

-1459.19 75581.8 0
75581.8 -2976.95 0
0    0    0

2114.51 77097.8 0
77097.8 3601.1 0
0    0    0

-53.6405 69210.2 0
69210.2 -246.402 0
0    0    0

206.257 72699.4 0
72699.4 -635.193 0
0    0    0

-738.865 70363 0
70363 -1430.88 0
0    0    0

5.35846 70577.2 0
70577.2 -1719 0
0    0    0

-268.077 68017.5 0
68017.5 -1278.83 0
0    0    0

-1480.74 70281.8 0
70281.8 -676.635 0
0    0    0

-508.661 75361.8 0
75361.8 -1719.55 0
0    0    0

420.003 76990 0
76990 1757.37 0
0    0    0

-393.421 74918.6 0
74918.6 -1646.38 0
0    0    0

-285.438 85890.4 0
85890.4 -715.548 0
0    0    0

-1763.46 88967.5 0
88967.5 -762.391 0
0    0    0

-1018.02 83383.8 0
83383.8 -1045.87 0
0    0    0

816.753 87605 0
87605 350.037 0
0    0    0

526.383 72418.8 0
72418.8 1041.77 0
0    0    0

1172.79 69915.3 0
69915.3 1130.7 0
0    0    0

-321.729 73691.3 0
73691.3 -1185.24 0
0    0    0

-635.412 70389.6 0
70389.6 584.695 0
0    0    0

273.849 74861.6 0
74861.6 1280.31 0
0    0    0

-969.215 74560.5 0
74560.5 -485.657 0
0    0    0

381.62 74670.6 0
74670.6 1216.07 0
0    0    0

411.115 71950.7 0
71950.7 638.583 0
0    0    0

108.384 55759.1 0
55759.1 -1074.5 0
0    0    0

-2104.69 58458.3 0
58458.3 -1398.46 0
0    0    0

794.056 49901.8 0
49901.8 1083.97 0
0    0    0

1111.79 47670.8 0
47670.8 1378.45 0
0    0    0

1039.97 28554.4 0
28554.4 768.182 0
0    0    0

1268.51 27882.4 0
27882.4 -50.5361 0
0    0    0

824.181 68465.9 0
68465.9 -129.317 0
0    0    0

-347.55 71872.2 0
71872.2 -1005.32 0
0    0    0

1307.62 62398.7 0
62398.7 513.513 0
0    0    0

1207.1 66100.1 0
66100.1 3006.66 0
0    0    0

-316.686 80662.8 0
80662.8 -137.274 0
0    0    0

791.839 81100.2 0
81100.2 443.087 0
0    0    0

-222.419 31440.4 0
31440.4 884.457 0
0    0    0

-1441.31 35800.1 0
35800.1 -747.212 0
0    0    0

1083.89 18251.9 0
18251.9 -136.56 0
0    0    0

367.817 16579.6 0
16579.6 -549.335 0
0    0    0

-805.725 52128.2 0
52128.2 -2044.96 0
0    0    0

-89.6072 35773 0
35773 -38.4031 0
0    0    0

1231.77 51402.8 0
51402.8 161.362 0
0    0    0

-1023.1 39950.5 0
39950.5 -1101.16 0
0    0    0

-521.519 36433.3 0
36433.3 -1177.51 0
0    0    0

-1236.99 26534 0
26534 -873.109 0
0    0    0

304.457 29568.1 0
29568.1 754.45 0
0    0    0

-664.405 31160.7 0
31160.7 150.912 0
0    0    0

146.801 28515.7 0
28515.7 -993.881 0
0    0    0

1376.41 42562.2 0
42562.2 931.091 0
0    0    0

1106.47 39420 0
39420 -759.522 0
0    0    0

-302.799 40480.7 0
40480.7 536.972 0
0    0    0

-353.596 41890.8 0
41890.8 -692.858 0
0    0    0

1171.74 66451.9 0
66451.9 1832.7 0
0    0    0

1230.72 64857.7 0
64857.7 1841.97 0
0    0    0

436.453 68972.6 0
68972.6 -815.304 0
0    0    0

-864.986 66831.8 0
66831.8 995.855 0
0    0    0

390.622 30735.2 0
30735.2 906.547 0
0    0    0

846.66 33847.4 0
33847.4 1261.63 0
0    0    0

-721.913 72349 0
72349 -928.982 0
0    0    0

362.092 5412.38 0
5412.38 452.836 0
0    0    0

1088.17 74759.6 0
74759.6 1478.86 0
0    0    0

-485.23 73789.5 0
73789.5 1044.32 0
0    0    0

80.0789 71053.9 0
71053.9 866.029 0
0    0    0

414.418 62589.9 0
62589.9 -1356.62 0
0    0    0

29.1654 60268.7 0
60268.7 -1368.01 0
0    0    0

608.08 37123.6 0
37123.6 -876.299 0
0    0    0

-985.488 40745.9 0
40745.9 -461.246 0
0    0    0

630.55 40476.7 0
40476.7 1108.65 0
0    0    0

837.057 38892.6 0
38892.6 1125.06 0
0    0    0

-859.659 42599.5 0
42599.5 -464.53 0
0    0    0

-1030.89 43343.2 0
43343.2 -1238.28 0
0    0    0

314.388 41862 0
41862 605.42 0
0    0    0

1575.5 45310.4 0
45310.4 1152.75 0
0    0    0

-780.095 40577.9 0
40577.9 -1633.37 0
0    0    0

1038.59 36216.4 0
36216.4 368.995 0
0    0    0

470.659 41407.8 0
41407.8 -1004.77 0
0    0    0

48.3582 39501.9 0
39501.9 73.7571 0
0    0    0

-1069.46 37342.9 0
37342.9 -458.339 0
0    0    0

315.012 39264.7 0
39264.7 1206.99 0
0    0    0

159.522 41650.9 0
41650.9 981.198 0
0    0    0

697.091 44439.5 0
44439.5 -658.411 0
0    0    0

911.736 36446.4 0
36446.4 1879.92 0
0    0    0

1071.11 33903.7 0
33903.7 1610.92 0
0    0    0

-102.847 28252.9 0
28252.9 -16.2097 0
0    0    0

-1502.06 29156.5 0
29156.5 -251.395 0
0    0    0

-511.472 41554.3 0
41554.3 47.9828 0
0    0    0

1381.22 42902.3 0
42902.3 906.143 0
0    0    0

1361.83 62900.9 0
62900.9 1880.47 0
0    0    0

-1218.91 61713.4 0
61713.4 -2050.78 0
0    0    0

417.893 76975.8 0
76975.8 179.097 0
0    0    0

-1263.82 74629.8 0
74629.8 -2679.53 0
0    0    0

1044.14 74932.8 0
74932.8 447.489 0
0    0    0

-1097.93 74049.4 0
74049.4 -1548.53 0
0    0    0

-954.477 54306 0
54306 -96.5527 0
0    0    0

926.954 31925.8 0
31925.8 2162.89 0
0    0    0

185.541 56559.2 0
56559.2 259.844 0
0    0    0

-907.382 59997.7 0
59997.7 -1215.11 0
0    0    0

-314.564 62739.9 0
62739.9 -1043.74 0
0    0    0

-920.564 55919.1 0
55919.1 -432.062 0
0    0    0

361.917 52738.8 0
52738.8 -293.798 0
0    0    0

-1478.14 55025.3 0
55025.3 -313.701 0
0    0    0

-772.15 55643.4 0
55643.4 -2288.1 0
0    0    0

-900.709 50529.6 0
50529.6 -2608.16 0
0    0    0

-279.975 51774.9 0
51774.9 -287.234 0
0    0    0

2326.17 57155.2 0
57155.2 1803.26 0
0    0    0

-89.7683 60747.2 0
60747.2 -264.905 0
0    0    0

1688.8 87253.6 0
87253.6 277.683 0
0    0    0

-827.706 90732.1 0
90732.1 -1250.44 0
0    0    0

-1893.01 10405.4 0
10405.4 -675.151 0
0    0    0

557.723 6829.14 0
6829.14 239.024 0
0    0    0

-73.4164 44396.2 0
44396.2 1184.64 0
0    0    0

-200.247 3573.63 0
3573.63 -85.8203 0
0    0    0

-1293.87 45525.8 0
45525.8 632.898 0
0    0    0

1348.05 59570.8 0
59570.8 1147.43 0
0    0    0

596.067 58855.1 0
58855.1 336.528 0
0    0    0

-1154.28 55822.5 0
55822.5 -1342.55 0
0    0    0

-506.882 56573.2 0
56573.2 -1031.45 0
0    0    0

1048.46 70497.3 0
70497.3 920.534 0
0    0    0

171.122 69092.8 0
69092.8 -626.965 0
0    0    0

1008.86 71789.4 0
71789.4 -108.286 0
0    0    0

489.88 73895.5 0
73895.5 224.536 0
0    0    0

743.53 31167.8 0
31167.8 1168.66 0
0    0    0

1311.42 35005.7 0
35005.7 1072.6 0
0    0    0

-1019.98 63685.8 0
63685.8 -1384.26 0
0    0    0

-1103.08 59575.9 0
59575.9 -565.031 0
0    0    0

-980.45 35647.3 0
35647.3 -1311.79 0
0    0    0

-1489.17 33018.6 0
33018.6 -1670.64 0
0    0    0

-739.275 62834.3 0
62834.3 -314.874 0
0    0    0

222.908 63264.8 0
63264.8 875.393 0
0    0    0

541.877 67139.1 0
67139.1 906.136 0
0    0    0

699.778 67228.7 0
67228.7 299.905 0
0    0    0

-441.063 55413.7 0
55413.7 -1029.15 0
0    0    0

-612.783 55319.5 0
55319.5 -386.487 0
0    0    0

623.996 59614 0
59614 2069.31 0
0    0    0

1330.32 59772.2 0
59772.2 572.095 0
0    0    0

-942.634 51200.2 0
51200.2 -2428.55 0
0    0    0

-57.3291 43478.4 0
43478.4 -133.768 0
0    0    0

373.665 52175 0
52175 1129.1 0
0    0    0

-596.124 57894.1 0
57894.1 -234.491 0
0    0    0

424.361 58341.7 0
58341.7 983.037 0
0    0    0

-359.971 33465.3 0
33465.3 -690.224 0
0    0    0

71.0608 34398.2 0
34398.2 -675.036 0
0    0    0

494.671 57337.2 0
57337.2 1138.64 0
0    0    0

1099.4 55203.8 0
55203.8 1183.21 0
0    0    0

484.992 60798.7 0
60798.7 907.902 0
0    0    0

673.622 60898.9 0
60898.9 217.859 0
0    0    0

445.739 62089.3 0
62089.3 953.052 0
0    0    0

675.047 62176.2 0
62176.2 289.306 0
0    0    0

664.18 59654.1 0
59654.1 284.649 0
0    0    0

-418.599 59185.2 0
59185.2 -976.731 0
0    0    0

426.298 79266.6 0
79266.6 1043.14 0
0    0    0

745.578 50143.5 0
50143.5 -329.129 0
0    0    0

218.188 79008.3 0
79008.3 1134.38 0
0    0    0

797.379 54776 0
54776 -320.526 0
0    0    0

315.456 51181.9 0
51181.9 736.064 0
0    0    0

319.379 49614.2 0
49614.2 745.219 0
0    0    0

153.643 53090.8 0
53090.8 358.501 0
0    0    0

193.364 51198.7 0
51198.7 1513.53 0
0    0    0

-620.962 47739.2 0
47739.2 -1448.91 0
0    0    0

-860.924 48909.1 0
48909.1 -3033.2 0
0    0    0

459.803 32880.4 0
32880.4 894.729 0
0    0    0

400.45 35699 0
35699 1739.52 0
0    0    0

1120.62 46367 0
46367 2227.75 0
0    0    0

441.812 43917.5 0
43917.5 1030.89 0
0    0    0

1214.37 41423.7 0
41423.7 601.228 0
0    0    0

641.388 45652.2 0
45652.2 1496.57 0
0    0    0

525.472 44368.6 0
44368.6 187.387 0
0    0    0

575.62 57002.9 0
57002.9 181.899 0
0    0    0

-532.827 56548.6 0
56548.6 -981.052 0
0    0    0

-482.101 54202.4 0
54202.4 -867.689 0
0    0    0

-732.032 54092.6 0
54092.6 -68.3754 0
0    0    0

1359.6 69966.3 0
69966.3 582.684 0
0    0    0

-522.037 69158.2 0
69158.2 -1576.33 0
0    0    0

-623.841 64147.5 0
64147.5 -338.197 0
0    0    0

429.151 64614.9 0
64614.9 945.912 0
0    0    0

-836.702 21145.2 0
21145.2 -602.828 0
0    0    0

-572.887 18078.1 0
18078.1 -245.523 0
0    0    0

743.048 60145.2 0
60145.2 763.838 0
0    0    0

1207.15 58219 0
58219 1175.79 0
0    0    0

1576.39 28164 0
28164 654.738 0
0    0    0

870.139 31568.1 0
31568.1 1957.41 0
0    0    0

1193.41 85201.2 0
85201.2 511.463 0
0    0    0

744.804 84063.3 0
84063.3 586.314 0
0    0    0

-747.801 45376.6 0
45376.6 611.422 0
0    0    0

623.181 40615 0
40615 454.619 0
0    0    0

