# vtk DataFile Version 3.0
2D scalar data
ASCII
DATASET UNSTRUCTURED_GRID
POINTS 341 float
0.000000 0.000000 0
1.000000 0.000000 0
1.000000 1.000000 0
0.000000 1.000000 0
0.500000 0.500000 0
0.000000 0.500000 0
0.500000 0.000000 0
1.000000 0.500000 0
0.500000 1.000000 0
0.750000 0.250000 0
0.250000 0.750000 0
0.750000 0.750000 0
0.500000 0.250000 0
0.750000 0.000000 0
1.000000 0.250000 0
0.875000 0.375000 0
0.875000 0.125000 0
0.875000 0.250000 0
1.000000 0.375000 0
0.812500 0.562500 0
0.750000 0.125000 0
0.625000 0.187500 0
0.515625 0.125000 0
0.250000 0.000000 0
0.625000 0.000000 0
0.375000 0.000000 0
0.656250 0.093750 0
0.312500 0.187500 0
0.312500 0.083333 0
0.407652 0.135417 0
0.875000 0.000000 0
1.000000 0.125000 0
0.890625 0.484375 0
1.000000 0.750000 0
0.640625 0.609375 0
0.703125 0.421875 0
0.613839 0.321429 0
0.705212 0.330115 0
0.590473 0.432104 0
0.654316 0.509772 0
0.476906 0.375000 0
0.250000 0.481554 0
0.381582 0.292755 0
0.377417 0.458014 0
0.000000 0.250000 0
0.385208 0.635208 0
0.295879 0.373278 0
0.125696 0.365026 0
0.328333 0.548940 0
0.000000 0.750000 0
0.202686 0.615777 0
0.290234 0.660366 0
0.125000 0.718613 0
0.126679 0.513534 0
0.250000 1.000000 0
0.000000 0.875000 0
0.000000 0.625000 0
0.153535 0.869571 0
0.100962 0.612024 0
0.000000 0.375000 0
0.154067 0.207833 0
0.199692 0.102836 0
0.125000 0.000000 0
0.000000 0.125000 0
0.098089 0.098089 0
0.282603 0.875000 0
0.391641 0.779808 0
0.375000 1.000000 0
0.520939 0.701613 0
0.437500 0.893999 0
0.750000 1.000000 0
0.612338 0.862338 0
0.530762 0.910436 0
0.625000 1.000000 0
0.125000 1.000000 0
0.243199 0.274932 0
0.090326 0.277486 0
0.484846 0.603468 0
0.635362 0.726316 0
1.000000 0.625000 0
0.875000 0.687500 0
0.742188 0.643229 0
0.737338 0.875000 0
0.879376 0.834998 0
1.000000 0.875000 0
0.875000 1.000000 0
0.825573 0.916130 0
0.918597 0.918597 0
0.783433 0.377797 0
0.252489 0.557883 0
0.576778 0.068157 0
0.582250 0.135360 0
0.153329 0.573095 0
0.562500 1.000000 0
0.710750 0.568272 0
0.665935 0.258341 0
0.312500 0.000000 0
0.718750 0.062500 0
0.381599 0.070054 0
0.251114 0.064269 0
0.576942 0.508301 0
0.316284 0.483724 0
0.000000 0.312500 0
0.418868 0.540961 0
0.561808 0.630874 0
0.167116 0.297375 0
0.210718 0.370577 0
0.163556 0.439032 0
0.353947 0.709042 0
0.437241 0.700773 0
0.000000 0.687500 0
0.000000 0.562500 0
0.150237 0.656916 0
0.062500 0.000000 0
0.263414 0.135417 0
0.150789 0.059811 0
0.068469 0.182346 0
0.146935 0.142322 0
0.524212 0.806102 0
0.599020 0.932976 0
0.687500 1.000000 0
0.937500 1.000000 0
0.762812 0.935561 0
0.812500 1.000000 0
1.000000 0.937500 0
0.827265 0.312500 0
0.831070 0.437079 0
0.757487 0.492441 0
0.068319 0.550898 0
0.000000 0.062500 0
0.569858 0.752376 0
0.462834 0.768211 0
0.388311 0.213041 0
0.937500 0.421875 0
0.466670 0.182357 0
0.935268 0.562500 0
0.927193 0.635636 0
0.552436 0.366269 0
0.643022 0.385394 0
0.519504 0.431763 0
0.378514 0.375360 0
0.309996 0.302434 0
0.356018 0.917382 0
0.312500 1.000000 0
0.350304 0.842504 0
0.318384 0.776483 0
0.676974 0.669600 0
0.437500 1.000000 0
0.679143 0.803686 0
0.799479 0.692708 0
0.842218 0.762287 0
0.920798 0.752154 0
0.801080 0.829160 0
1.000000 0.812500 0
0.069449 0.675136 0
0.228587 0.201593 0
0.676167 0.923046 0
0.937500 0.312500 0
0.812500 0.062500 0
0.078508 0.921492 0
0.578659 0.251068 0
0.937500 0.187500 0
0.937500 0.062500 0
0.812500 0.187500 0
0.703125 0.187500 0
0.453293 0.306004 0
0.080310 0.805236 0
0.000000 0.812500 0
0.070510 0.439648 0
0.220077 0.824556 0
0.179769 0.765096 0
0.215879 0.924349 0
0.460550 0.068408 0
0.421549 0.092004 0
0.300633 0.825792 0
0.531250 0.960668 0
0.471574 0.945334 0
0.539410 0.191450 0
0.765625 0.046875 0
0.340318 0.041667 0
0.439128 0.246712 0
0.687500 0.000000 0
0.198844 0.156689 0
0.873884 0.592736 0
0.599695 0.366521 0
0.694513 0.619153 0
0.690045 0.375674 0
0.554829 0.465074 0
0.447783 0.441221 0
0.039836 0.281250 0
0.337940 0.344831 0
0.327378 0.424567 0
0.268379 0.425483 0
0.216925 0.439666 0
0.202670 0.700723 0
0.037657 0.781250 0
0.051543 0.626771 0
0.093750 0.044162 0
0.051062 0.074735 0
0.187500 0.000000 0
0.099292 0.145846 0
0.281250 0.941399 0
0.613798 0.666871 0
0.422502 0.744942 0
0.406250 0.949331 0
0.574758 0.891827 0
0.583559 0.810269 0
0.632072 0.817443 0
0.695087 0.726512 0
0.740169 0.697048 0
0.641095 0.955214 0
0.906250 0.964361 0
0.281961 0.518717 0
0.632360 0.137870 0
0.193949 0.519177 0
0.291787 0.041667 0
0.356141 0.753296 0
0.513912 0.754129 0
0.315589 0.135417 0
0.436076 0.828267 0
0.803413 0.955630 0
0.964361 0.906250 0
0.942776 0.845686 0
0.339224 0.249038 0
1.000000 0.562500 0
1.000000 0.687500 0
0.509434 0.325329 0
0.410819 0.335200 0
0.259885 0.329276 0
0.343750 0.963690 0
0.299592 0.723476 0
0.933752 0.694430 0
0.268125 0.180149 0
0.634383 0.903069 0
0.125394 0.773655 0
0.159862 0.815628 0
0.073904 0.495362 0
0.043310 0.843750 0
0.097848 0.859114 0
0.437500 0.000000 0
0.582945 0.205517 0
0.656250 0.041667 0
0.863835 0.535710 0
0.814702 0.504142 0
0.879720 0.640056 0
0.421693 0.487719 0
0.404826 0.417043 0
0.069074 0.732843 0
0.201497 0.049763 0
0.051560 0.126309 0
0.573303 0.700104 0
0.615288 0.771214 0
0.162936 0.485103 0
0.204446 0.566923 0
0.361621 0.115891 0
0.490902 0.859961 0
0.397604 0.861982 0
0.917493 0.802279 0
0.284291 0.236322 0
0.959487 0.602188 0
0.210902 0.320881 0
0.254460 0.697919 0
0.420545 0.043800 0
0.541209 0.853844 0
0.961985 0.781250 0
0.194821 0.246446 0
0.295914 0.600082 0
0.348466 0.597549 0
0.252408 0.626393 0
0.829616 0.389467 0
0.882382 0.319882 0
0.793170 0.778204 0
0.740951 0.812402 0
0.695313 0.132813 0
0.884496 0.430950 0
0.947329 0.478075 0
0.945313 0.367188 0
0.659513 0.561229 0
0.620687 0.274029 0
0.562500 0.000000 0
0.518638 0.056328 0
0.772289 0.435533 0
0.616257 0.475983 0
0.652545 0.437456 0
0.661259 0.307533 0
0.708124 0.514335 0
0.511913 0.649223 0
0.121357 0.315864 0
0.060940 0.345969 0
0.082852 0.391059 0
0.340958 0.660008 0
0.230992 0.875000 0
0.788938 0.879514 0
0.149504 0.937025 0
0.187500 1.000000 0
0.532701 0.557633 0
0.594033 0.568131 0
0.763044 0.590410 0
0.752768 0.541851 0
0.816342 0.627079 0
0.664063 0.212175 0
0.710584 0.280541 0
0.764822 0.311497 0
0.136845 0.256065 0
0.166710 0.390731 0
0.393338 0.682185 0
0.442595 0.643094 0
0.420036 0.594512 0
0.715553 0.956557 0
0.812500 0.251744 0
0.420496 0.179839 0
1.000000 0.437500 0
0.327563 0.881896 0
0.839047 0.716319 0
0.842005 0.808246 0
0.757813 0.195313 0
0.461590 0.128451 0
0.260778 0.797609 0
0.538884 0.283385 0
0.430215 0.377761 0
0.361194 0.168250 0
0.566731 0.321382 0
0.812500 0.125000 0
0.937500 0.250000 0
1.000000 0.187500 0
0.875000 0.062500 0
0.875000 0.187500 0
0.937500 0.125000 0
0.473838 0.549012 0
0.000000 0.937500 0
0.872836 0.889067 0
0.370798 0.513152 0
0.000000 0.187500 0
1.000000 0.312500 0
0.812500 0.000000 0
0.062500 1.000000 0
0.044547 0.955453 0
1.000000 0.062500 0
0.937500 0.000000 0
0.000000 0.437500 0
0.678851 0.863326 0

CELLS 616 2464
3 186 88 35
3 265 155 75
3 266 267 290
3 89 48 266
3 254 173 29
3 90 24 241
3 274 269 15
3 174 144 312
3 15 125 270
3 158 322 20
3 92 58 128
3 159 57 293
3 175 8 176
3 271 150 314
3 132 27 320
3 226 318 321
3 20 164 273
3 17 161 323
3 133 32 274
3 32 133 275
3 324 14 161
3 30 162 325
3 163 326 17
3 15 269 125
3 333 276 157
3 285 277 39
3 80 231 151
3 164 21 213
3 322 163 20
3 22 91 177
3 321 278 36
3 25 98 179
3 178 13 334
3 21 278 240
3 179 28 215
3 279 24 90
3 180 165 42
3 97 181 13
3 321 36 184
3 99 28 114
3 172 6 280
3 61 182 117
3 134 22 177
3 218 27 232
3 325 158 30
3 16 162 327
3 224 79 259
3 281 126 243
3 104 202 250
3 242 183 19
3 321 184 137
3 81 146 185
3 187 282 100
3 278 284 36
3 184 38 137
3 270 17 157
3 138 186 35
3 283 39 282
3 187 38 282
3 285 94 277
3 4 139 187
3 40 139 188
3 42 132 180
3 331 101 43
3 44 189 102
3 246 319 188
3 141 190 46
3 307 328 77
3 101 191 43
3 286 104 250
3 303 287 76
3 203 108 305
3 304 105 260
3 42 227 190
3 168 107 252
3 155 265 60
3 245 103 331
3 305 290 45
3 52 194 170
3 247 234 166
3 58 112 154
3 194 50 268
3 89 266 268
3 49 195 167
3 53 92 128
3 168 289 107
3 89 253 214
3 291 65 201
3 171 291 201
3 52 112 194
3 196 154 110
3 159 329 55
3 154 112 52
3 168 236 5
3 197 62 115
3 288 289 59
3 99 114 61
3 117 115 61
3 199 23 248
3 198 249 63
3 200 117 60
3 232 182 114
3 113 129 0
3 216 230 108
3 229 201 142
3 109 306 286
3 143 54 201
3 130 250 78
3 142 312 256
3 263 206 71
3 66 203 131
3 204 67 229
3 156 233 340
3 152 292 82
3 72 175 176
3 217 130 118
3 210 120 73
3 132 42 223
3 233 205 71
3 171 293 57
3 75 228 260
3 288 102 189
3 76 189 116
3 267 103 307
3 4 100 295
3 148 78 208
3 130 206 118
3 150 151 257
3 135 32 275
3 149 11 209
3 244 299 183
3 146 208 78
3 313 271 149
3 210 119 233
3 85 211 121
3 122 82 292
3 330 83 222
3 264 222 257
3 222 221 87
3 220 70 122
3 121 124 2
3 211 86 330
3 301 9 302
3 133 274 15
3 92 214 253
3 101 212 41
3 91 213 21
3 22 172 280
3 22 90 91
3 213 90 26
3 92 53 214
3 112 92 50
3 285 35 127
3 93 175 119
3 297 94 298
3 164 300 21
3 301 95 164
3 273 97 20
3 99 215 28
3 26 90 241
3 172 239 6
3 98 173 254
3 248 61 115
3 215 23 96
3 296 39 277
3 104 295 296
3 212 48 89
3 192 191 101
3 77 306 307
3 189 76 288
3 245 331 43
3 77 328 295
3 34 146 202
3 265 303 60
3 75 141 228
3 191 192 46
3 252 193 214
3 304 107 289
3 106 192 193
3 203 305 109
3 216 145 230
3 306 45 307
3 217 131 109
3 92 112 58
3 110 154 247
3 111 128 196
3 170 194 10
3 218 114 28
3 198 63 129
3 155 232 258
3 197 115 64
3 248 23 99
3 116 60 303
3 63 249 332
3 200 60 116
3 115 117 64
3 69 219 255
3 131 219 66
3 340 148 272
3 93 119 73
3 70 220 123
3 210 308 120
3 121 211 124
3 308 70 120
3 302 88 37
3 85 123 220
3 221 124 211
3 309 125 302
3 243 32 242
3 19 243 242
3 35 88 281
3 298 19 297
3 128 58 196
3 5 128 111
3 250 130 68
3 113 197 198
3 207 251 148
3 217 109 68
3 118 255 219
3 320 310 132
3 223 42 141
3 15 270 276
3 275 311 7
3 134 12 180
3 316 29 173
3 136 135 259
3 135 183 242
3 231 33 151
3 299 297 19
3 139 137 38
3 40 165 226
3 284 186 138
3 283 138 35
3 245 4 328
3 137 139 40
3 190 227 140
3 140 246 191
3 228 141 46
3 141 258 223
3 256 312 144
3 67 204 147
3 10 317 169
3 204 229 142
3 66 219 256
3 145 10 230
3 66 144 145
3 34 277 185
3 146 209 208
3 271 272 11
3 147 204 176
3 207 148 340
3 81 297 299
3 313 80 151
3 150 313 151
3 314 152 271
3 231 80 136
3 84 221 222
3 330 292 152
3 340 272 82
3 154 52 247
3 33 153 264
3 196 110 56
3 182 60 117
3 232 114 218
3 233 119 205
3 308 82 122
3 18 276 333
3 17 323 157
3 334 30 158
3 178 20 97
3 336 3 329
3 237 55 167
3 160 12 177
3 21 300 278
3 16 327 161
3 17 326 161
3 337 31 162
3 338 1 162
3 164 315 9
3 309 163 17
3 315 20 163
3 164 9 301
3 40 226 137
3 319 227 165
3 247 166 195
3 238 237 166
3 128 236 53
3 167 195 237
3 59 168 339
3 234 235 166
3 317 145 174
3 10 169 170
3 169 57 235
3 293 294 74
3 291 57 169
3 22 134 316
3 262 25 239
3 262 173 98
3 316 172 22
3 317 65 169
3 145 144 174
3 119 175 72
3 93 8 175
3 147 176 8
3 176 69 255
3 91 21 240
3 134 177 12
3 20 178 158
3 97 13 178
3 25 179 96
3 98 28 179
3 180 132 310
3 12 165 180
3 114 182 61
3 241 97 26
3 60 182 155
3 135 136 183
3 244 183 136
3 36 138 184
3 38 184 138
3 34 185 146
3 297 185 94
3 284 138 36
3 88 186 37
3 4 187 100
3 139 38 187
3 4 188 139
3 246 188 43
3 116 189 44
3 76 287 288
3 42 190 141
3 191 190 140
3 192 101 41
3 191 46 190
3 193 192 41
3 106 46 192
3 214 193 41
3 193 107 304
3 112 50 194
3 268 261 194
3 110 247 49
3 237 195 166
3 196 56 111
3 58 154 196
3 198 197 64
3 113 62 197
3 64 200 249
3 113 198 129
3 116 332 249
3 115 62 199
3 64 117 200
3 171 201 54
3 201 65 312
3 34 202 104
3 146 78 202
3 203 66 216
3 109 131 203
3 142 69 204
3 176 204 69
3 119 72 205
3 72 255 263
3 130 78 251
3 263 71 205
3 71 206 207
3 206 130 251
3 209 146 81
3 148 208 11
3 149 209 81
3 11 208 209
3 210 156 308
3 73 119 210
3 86 211 85
3 211 87 221
3 48 212 101
3 89 41 212
3 90 213 91
3 213 26 273
3 252 214 53
3 89 214 41
3 23 215 99
3 179 215 96
3 203 216 108
3 66 145 216
3 130 217 68
3 118 131 217
3 254 28 98
3 218 254 320
3 118 219 131
3 256 219 69
3 122 86 220
3 85 220 86
3 87 330 222
3 84 124 221
3 257 222 83
3 153 84 222
3 258 141 75
3 27 132 223
3 165 12 226
3 135 7 224
3 136 79 225
3 318 226 12
3 42 165 227
3 319 165 40
3 46 106 228
3 260 228 106
3 67 143 229
3 201 229 143
3 261 10 194
3 290 230 51
3 136 225 231
3 33 231 225
3 232 27 258
3 182 232 155
3 71 207 340
3 210 233 156
3 52 170 234
3 235 234 170
3 169 235 170
3 235 57 238
3 5 236 128
3 168 53 236
3 166 235 238
3 159 55 237
3 57 159 238
3 159 237 238
3 160 177 240
3 262 239 172
3 91 240 177
3 24 181 241
3 97 241 181
3 298 243 19
3 135 242 32
3 281 243 127
3 32 243 126
3 136 80 244
3 299 80 149
3 43 188 245
3 4 245 188
3 191 246 43
3 140 227 319
3 234 247 52
3 49 247 195
3 61 248 99
3 115 199 248
3 64 249 198
3 116 249 200
3 250 68 286
3 78 250 202
3 148 251 78
3 206 251 207
3 168 252 53
3 193 252 107
3 268 253 89
3 92 253 50
3 310 320 29
3 28 254 218
3 263 255 118
3 176 255 72
3 142 256 69
3 66 256 144
3 257 83 314
3 151 33 264
3 258 75 155
3 27 223 258
3 224 259 135
3 79 136 259
3 260 106 304
3 260 105 265
3 51 230 261
3 10 261 230
3 173 262 172
3 25 262 98
3 206 263 118
3 72 263 205
3 222 264 153
3 151 264 257
3 260 265 75
3 303 265 105
3 267 266 48
3 268 266 51
3 267 48 331
3 267 45 290
3 261 268 51
3 268 50 253
3 281 269 126
3 125 269 88
3 17 270 125
3 276 270 157
3 272 271 152
3 149 271 11
3 82 272 152
3 11 272 148
3 213 273 164
3 97 273 26
3 32 126 274
3 274 126 269
3 311 275 133
3 135 275 7
3 18 133 276
3 15 276 133
3 185 277 94
3 277 34 296
3 278 160 240
3 284 278 95
3 279 280 6
3 280 279 90
3 22 280 90
3 35 281 127
3 269 281 88
3 38 138 283
3 39 100 282
3 283 35 285
3 38 283 282
3 301 284 95
3 186 284 37
3 285 39 283
3 298 285 127
3 109 286 68
3 77 104 286
3 105 47 287
3 287 47 288
3 289 288 47
3 288 59 102
3 289 47 304
3 59 289 168
3 230 290 108
3 290 51 266
3 57 291 171
3 169 65 291
3 330 152 83
3 122 292 86
3 294 171 54
3 159 293 74
3 296 295 100
3 171 294 293
3 104 77 295
3 296 100 39
3 104 296 34
3 183 299 19
3 185 297 81
3 285 298 94
3 298 127 243
3 80 299 244
3 81 299 149
3 164 95 300
3 278 300 95
3 9 309 302
3 284 301 37
3 88 302 125
3 37 301 302
3 287 303 105
3 116 303 76
3 304 47 105
3 193 304 106
3 290 305 108
3 306 305 45
3 286 306 77
3 305 306 109
3 267 307 45
3 307 103 328
3 82 308 156
3 70 308 122
3 309 9 315
3 17 125 309
3 316 310 29
3 180 310 134
3 201 312 142
3 133 18 311
3 174 312 65
3 271 313 150
3 149 80 313
3 257 314 150
3 83 152 314
3 20 315 164
3 309 315 163
3 316 134 310
3 172 316 173
3 145 317 10
3 65 317 174
3 12 160 318
3 160 278 321
3 188 319 40
3 140 319 246
3 218 320 27
3 29 320 254
3 226 321 137
3 160 321 318
3 16 163 322
3 158 16 322
3 14 157 323
3 161 14 323
3 161 31 324
3 16 158 325
3 162 16 325
3 16 161 326
3 163 16 326
3 31 161 327
3 162 31 327
3 245 328 103
3 295 328 4
3 211 330 87
3 336 329 159
3 292 330 86
3 267 331 103
3 101 331 48
3 157 14 333
3 116 44 332
3 178 334 158
3 159 335 336
3 159 74 335
3 3 336 335
3 162 1 337
3 162 30 338
3 156 340 82
3 168 5 339
3 340 233 71

CELL_TYPES 616
5
5
5
5
5
5
5
5
5
5
5
5
5
5
5
5
5
5
5
5
5
5
5
5
5
5
5
5
5
5
5
5
5
5
5
5
5
5
5
5
5
5
5
5
5
5
5
5
5
5
5
5
5
5
5
5
5
5
5
5
5
5
5
5
5
5
5
5
5
5
5
5
5
5
5
5
5
5
5
5
5
5
5
5
5
5
5
5
5
5
5
5
5
5
5
5
5
5
5
5
5
5
5
5
5
5
5
5
5
5
5
5
5
5
5
5
5
5
5
5
5
5
5
5
5
5
5
5
5
5
5
5
5
5
5
5
5
5
5
5
5
5
5
5
5
5
5
5
5
5
5
5
5
5
5
5
5
5
5
5
5
5
5
5
5
5
5
5
5
5
5
5
5
5
5
5
5
5
5
5
5
5
5
5
5
5
5
5
5
5
5
5
5
5
5
5
5
5
5
5
5
5
5
5
5
5
5
5
5
5
5
5
5
5
5
5
5
5
5
5
5
5
5
5
5
5
5
5
5
5
5
5
5
5
5
5
5
5
5
5
5
5
5
5
5
5
5
5
5
5
5
5
5
5
5
5
5
5
5
5
5
5
5
5
5
5
5
5
5
5
5
5
5
5
5
5
5
5
5
5
5
5
5
5
5
5
5
5
5
5
5
5
5
5
5
5
5
5
5
5
5
5
5
5
5
5
5
5
5
5
5
5
5
5
5
5
5
5
5
5
5
5
5
5
5
5
5
5
5
5
5
5
5
5
5
5
5
5
5
5
5
5
5
5
5
5
5
5
5
5
5
5
5
5
5
5
5
5
5
5
5
5
5
5
5
5
5
5
5
5
5
5
5
5
5
5
5
5
5
5
5
5
5
5
5
5
5
5
5
5
5
5
5
5
5
5
5
5
5
5
5
5
5
5
5
5
5
5
5
5
5
5
5
5
5
5
5
5
5
5
5
5
5
5
5
5
5
5
5
5
5
5
5
5
5
5
5
5
5
5
5
5
5
5
5
5
5
5
5
5
5
5
5
5
5
5
5
5
5
5
5
5
5
5
5
5
5
5
5
5
5
5
5
5
5
5
5
5
5
5
5
5
5
5
5
5
5
5
5
5
5
5
5
5
5
5
5
5
5
5
5
5
5
5
5
5
5
5
5
5
5
5
5
5
5
5
5
5
5
5
5
5
5
5
5
5
5
5
5
5
5
5
5
5
5
5
5
5
5
5
5
5
5
5
5
5
5
5
5
5
5
5
5
5
5
5
5
5
5
5
5
5
5
5
5
5
5
5
5
5
5
5
5
5
5
5
5
5
5
5
5
5
5
5
5
5
5
5
5
5
5
5
5
5
5
5
5
5
5
5
5
5
5
5
5
5
5
5
5
5
5
5
5
5
5
5

POINT_DATA 341
SCALARS pressure float 1
LOOKUP_TABLE default
0
0
0
0
0
0
0
0
0
0
0
0
0
0
0
0
0
0
0
0
0
0
0
0
0
0
0
0
0
0
0
0
0
0
0
0
0
0
0
0
0
0
0
0
0
0
0
0
0
0
0
0
0
0
0
0
0
0
0
0
0
0
0
0
0
0
0
0
0
0
0
0
0
0
0
0
0
0
0
0
0
0
0
0
0
0
0
0
0
0
0
0
0
0
0
0
0
0
0
0
0
0
0
0
0
0
0
0
0
0
0
0
0
0
0
0
0
0
0
0
0
0
0
0
0
0
0
0
0
0
0
0
0
0
0
0
0
0
0
0
0
0
0
0
0
0
0
0
0
0
0
0
0
0
0
0
0
0
0
0
0
0
0
0
0
0
0
0
0
0
0
0
0
0
0
0
0
0
0
0
0
0
0
0
0
0
0
0
0
0
0
0
0
0
0
0
0
0
0
0
0
0
0
0
0
0
0
0
0
0
0
0
0
0
0
0
0
0
0
0
0
0
0
0
0
0
0
0
0
0
0
0
0
0
0
0
0
0
0
0
0
0
0
0
0
0
0
0
0
0
0
0
0
0
0
0
0
0
0
0
0
0
0
0
0
0
0
0
0
0
0
0
0
0
0
0
0
0
0
0
0
0
0
0
0
0
0
0
0
0
0
0
0
0
0
0
0
0
0
0
0
0
0
0
0
0
0
0
0
0
0
0
0
0
0
0
0
0
0
0
0
0
0
0
0
0
0
0
0
0
0
0
0
0
0
0
0
0
0
0
0
VECTORS displacement float
0 0 0
0 3 0
2 3 0
2 0 0
0.499895 0.748948 0
0.5 0 0
0 0.75 0
0.5 3 0
2 0.75 0
0.125949 1.68872 0
1.12488 0.186237 0
1.12591 1.68613 0
0.125456 0.750615 0
0 1.6875 0
0.125 3 0
0.281052 2.29741 0
0.030999 2.29658 0
0.125171 2.29636 0
0.28125 3 0
0.633786 1.98008 0
0.0306747 1.68704 0
0.070739 1.17187 0
0.0309605 0.79822 0
0 0.1875 0
0 1.17187 0
0 0.421875 0
0.0189583 1.29175 0
0.0708434 0.292831 0
0.0145079 0.292242 0
0.0368664 0.500009 0
0 2.29688 0
0.03125 3 0
0.468955 2.37986 0
1.125 3 0
0.74263 1.2311 0
0.3543 1.48338 0
0.206982 1.13098 0
0.219181 1.49332 0
0.37301 1.04695 0
0.51943 1.28379 0
0.280783 0.682609 0
0.464018 0.187491 0
0.171482 0.436899 0
0.418923 0.427718 0
0.125 0 0
0.807934 0.446719 0
0.279326 0.261723 0
0.268348 0.0492888 0
0.603916 0.323442 0
1.125 0 0
0.758828 0.123567 0
0.873059 0.252932 0
1.0327 0.0485676 0
0.526259 0.0513665 0
2 0.1875 0
1.53125 0 0
0.78125 0 0
1.5122 0.0701475 0
0.749955 0.0343319 0
0.28125 0 0
0.0866433 0.0699558 0
0.0225098 0.119802 0
0 0.046875 0
0.03125 0 0
0.0197284 0.0305295 0
1.53166 0.238581 0
1.21586 0.459545 0
2 0.421875 0
0.985177 0.814812 0
1.59895 0.573808 0
2 1.6875 0
1.48686 1.12514 0
1.65959 0.845471 0
2 1.17188 0
2 0.046875 0
0.152641 0.177393 0
0.153632 0.0276139 0
0.729159 0.705681 0
1.05515 1.21131 0
0.78125 3 0
0.944758 2.29794 0
0.827342 1.65214 0
1.53053 1.63018 0
1.3954 2.32203 0
1.53125 3 0
2 2.29687 0
1.67835 2.0464 0
1.6903 2.53192 0
0.285678 1.84049 0
0.621578 0.190108 0
0.0087322 0.997059 0
0.0366463 1.01646 0
0.656253 0.0711232 0
2 0.949219 0
0.647231 1.51566 0
0.135791 1.33145 0
0 0.292969 0
0.00773165 1.54976 0
0.0103216 0.437608 0
0.00795077 0.189625 0
0.516784 0.999401 0
0.467552 0.299642 0
0.195313 0 0
0.586384 0.526112 0
0.794876 0.946382 0
0.177149 0.0847942 0
0.274798 0.13343 0
0.384865 0.0809349 0
1.00606 0.37713 0
0.982516 0.572837 0
0.945312 0 0
0.632812 0 0
0.863554 0.0688704 0
0 0.0117187 0
0.0364094 0.208747 0
0.00672406 0.0689475 0
0.0652617 0.0136766 0
0.0395586 0.0652138 0
1.2999 0.822445 0
1.74135 1.0774 0
2 1.41797 0
2 2.63672 0
1.75169 1.7452 0
2 1.98047 0
1.75781 3 0
0.195234 2.05241 0
0.382778 2.07247 0
0.486343 1.72151 0
0.60709 0.013873 0
0.0078125 0 0
1.13279 0.974018 0
1.17973 0.644024 0
0.0920981 0.452187 0
0.356103 2.63625 0
0.0673334 0.652939 0
0.632076 2.62383 0
0.808057 2.57867 0
0.268701 0.915916 0
0.296627 1.24 0
0.372965 0.809241 0
0.282808 0.432582 0
0.182055 0.287291 0
1.6833 0.37995 0
2 0.292969 0
1.42228 0.369859 0
1.20515 0.303573 0
0.896992 1.37417 0
2 0.574219 0
1.29151 1.38347 0
0.959918 1.9169 0
1.16288 2.13081 0
1.13108 2.5426 0
1.37477 1.92414 0
1.32031 3 0
0.911182 0.0145776 0
0.0805436 0.157582 0
1.70531 1.37279 0
0.195085 2.63702 0
0.0076451 1.98015 0
1.69711 0.0173954 0
0.126864 1.00368 0
0.0700263 2.63632 0
0.00745469 2.63614 0
0.0701301 1.98032 0
0.0699446 1.48204 0
0.187386 0.615375 0
1.29667 0.020478 0
1.32031 0 0
0.386007 0.0136987 0
1.36007 0.145672 0
1.17172 0.0973192 0
1.70931 0.139781 0
0.00933546 0.636934 0
0.0169073 0.533813 0
1.36684 0.271125 0
1.84616 0.847084 0
1.78658 0.666455 0
0.0740559 0.873955 0
0.00428992 1.75939 0
0.00517738 0.348841 0
0.122653 0.578059 0
0 1.41797 0
0.0490973 0.118849 0
0.702967 2.29219 0
0.269247 1.07924 0
0.766867 1.44632 0
0.2819 1.4283 0
0.433095 0.925527 0
0.388714 0.601047 0
0.157652 0.00642937 0
0.238264 0.342605 0
0.359435 0.320063 0
0.361956 0.21724 0
0.384929 0.140974 0
0.981275 0.122531 0
1.22173 0.00585871 0
0.785628 0.00875014 0
0.00526179 0.0275425 0
0.0117217 0.00817194 0
0 0.105469 0
0.0421393 0.0320659 0
1.77263 0.235845 0
0.890532 1.13094 0
1.11145 0.536052 0
1.80274 0.495781 0
1.59135 0.99316 0
1.31344 1.0219 0
1.33675 1.20023 0
1.05607 1.44981 0
0.972289 1.64319 0
1.82589 1.23235 0
1.86109 2.46148 0
0.54059 0.240826 0
0.038356 1.20014 0
0.539366 0.111588 0
0.0042695 0.256669 0
1.13485 0.381604 0
1.13781 0.792621 0
0.0367093 0.298858 0
1.37291 0.570523 0
1.82871 1.93676 0
1.64384 2.79257 0
1.42984 2.66614 0
0.125843 0.346783 0
0.632812 3 0
0.945312 3 0
0.211709 0.780025 0
0.225127 0.50737 0
0.216708 0.205388 0
1.85834 0.354731 0
1.04636 0.269201 0
0.964672 2.61599 0
0.0646755 0.215839 0
1.63189 1.2075 0
1.19771 0.0496432 0
1.33195 0.075883 0
0.491325 0.0164626 0
1.42284 0.00756536 0
1.47664 0.0296653 0
0 0.574219 0
0.0855078 1.01956 0
0.00405188 1.29185 0
0.575487 2.23931 0
0.507936 1.99096 0
0.819748 2.32287 0
0.476425 0.533215 0
0.349105 0.492581 0
1.07401 0.0145161 0
0.00491936 0.122431 0
0.0314821 0.00834729 0
0.981302 0.985427 0
1.19199 1.13627 0
0.471498 0.0807581 0
0.642231 0.125689 0
0.0270773 0.393584 0
1.48024 0.724393 0
1.48677 0.475788 0
1.28791 2.52561 0
0.113173 0.241906 0
0.726585 2.76394 0
0.206852 0.133335 0
0.974399 0.193875 0
0.00558249 0.531274 0
1.45868 0.877759 0
1.22111 2.77823 0
0.121576 0.115213 0
0.720577 0.263372 0
0.713791 0.363306 0
0.784997 0.190436 0
0.302934 2.06468 0
0.204667 2.33633 0
1.21073 1.88683 0
1.31999 1.6465 0
0.0348225 1.45064 0
0.37143 2.34791 0
0.456965 2.69279 0
0.269834 2.68064 0
0.630283 1.30475 0
0.14997 1.15521 0
0 0.949219 0
0.00630695 0.807689 0
0.379887 1.78906 0
0.454009 1.14141 0
0.382163 1.27768 0
0.188593 1.31198 0
0.528503 1.50415 0
0.842652 0.78768 0
0.200557 0.04677 0
0.239088 0.0121467 0
0.306801 0.0199371 0
0.871928 0.348712 0
1.53137 0.160125 0
1.54791 1.86586 0
1.75668 0.0667702 0
2 0.105469 0
0.620902 0.852843 0
0.64542 1.05966 0
0.698011 1.74664 0
0.587737 1.6997 0
0.785868 1.99899 0
0.0922276 1.32541 0
0.157333 1.51609 0
0.19331 1.75597 0
0.131492 0.0570535 0
0.304527 0.0829544 0
0.930271 0.466212 0
0.82779 0.588145 0
0.707506 0.529471 0
1.83089 1.53575 0
0.126792 1.98042 0
0.0651678 0.530683 0
0.382813 3 0
1.55547 0.322012 0
1.0284 2.11375 0
1.30666 2.12982 0
0.0761193 1.72339 0
0.0326946 0.63947 0
1.27228 0.205697 0
0.162884 0.874031 0
0.285381 0.554909 0
0.056303 0.392939 0
0.206738 0.964058 0
0.0314685 1.98107 0
0.125588 2.63749 0
0.0703125 3 0
0.00815906 2.29753 0
0.0707001 2.29737 0
0.0316595 2.63717 0
0.603082 0.67444 0
1.75781 0 0
1.58009 2.28725 0
0.527317 0.412712 0
0.0703125 0 0
0.195313 3 0
0 1.98047 0
2 0.0117188 0
1.82708 0.00827139 0
0.0078125 3 0
0 2.63672 0
0.382813 0 0
1.49048 1.38222 0
VECTORS displacementExact float
0 0 0
0 3 0
2 3 0
2 0 0
0.5 0.75 0
0.5 0 0
0 0.75 0
0.5 3 0
2 0.75 0
0.125 1.6875 0
1.125 0.1875 0
1.125 1.6875 0
0.125 0.75 0
0 1.6875 0
0.125 3 0
0.28125 2.29688 0
0.03125 2.29688 0
0.125 2.29688 0
0.28125 3 0
0.632813 1.98047 0
0.03125 1.6875 0
0.0703125 1.17188 0
0.03125 0.797607 0
0 0.1875 0
0 1.17188 0
0 0.421875 0
0.0175781 1.29199 0
0.0703125 0.292969 0
0.0138889 0.292969 0
0.0366753 0.498541 0
0 2.29688 0
0.03125 3 0
0.469238 2.37964 0
1.125 3 0
0.742676 1.2312 0
0.355957 1.48315 0
0.206633 1.1304 0
0.217951 1.49197 0
0.373429 1.04597 0
0.519735 1.28439 0
0.28125 0.682318 0
0.463789 0.1875 0
0.171411 0.436813 0
0.419554 0.427332 0
0.125 0 0
0.806978 0.445156 0
0.278672 0.262633 0
0.266488 0.0473983 0
0.602671 0.323407 0
1.125 0 0
0.758363 0.123244 0
0.872168 0.252708 0
1.03281 0.046875 0
0.527434 0.0481427 0
2 0.1875 0
1.53125 0 0
0.78125 0 0
1.51231 0.0707192 0
0.749147 0.0305801 0
0.28125 0 0
0.0863891 0.0712095 0
0.0211503 0.11963 0
0 0.046875 0
0.03125 0 0
0.0192428 0.0288643 0
1.53125 0.239593 0
1.2162 0.460148 0
2 0.421875 0
0.984521 0.814133 0
1.59847 0.574219 0
2 1.6875 0
1.48725 1.12487 0
1.65779 0.845126 0
2 1.17188 0
2 0.046875 0
0.151175 0.177438 0
0.153997 0.0244766 0
0.728346 0.705227 0
1.05507 1.21105 0
0.78125 3 0
0.945313 2.29688 0
0.827488 1.65253 0
1.53125 1.631 0
1.39444 2.31991 0
1.53125 3 0
2 2.29688 0
1.67859 2.04471 0
1.68764 2.53146 0
0.285461 1.8413 0
0.622466 0.191253 0
0.00929084 0.998019 0
0.0366448 1.01704 0
0.656876 0.0705297 0
2 0.949219 0
0.645865 1.5155 0
0.13348 1.33041 0
0 0.292969 0
0.0078125 1.5498 0
0.00981504 0.436854 0
0.0082609 0.189175 0
0.516739 0.998586 0
0.467978 0.300107 0
0.195313 0 0
0.585277 0.526351 0
0.796004 0.946886 0
0.176864 0.0837837 0
0.274655 0.133207 0
0.385499 0.0802521 0
1.00548 0.375836 0
0.982165 0.573538 0
0.945313 0 0
0.632813 0 0
0.863079 0.0677133 0
0 0.0117188 0
0.0366753 0.208161 0
0.00715482 0.0682122 0
0.0664999 0.014064 0
0.0405113 0.0647693 0
1.2996 0.824396 0
1.74089 1.07647 0
2 1.41797 0
2 2.63672 0
1.75055 1.74564 0
2 1.98047 0
1.75781 3 0
0.195313 2.0531 0
0.382077 2.07203 0
0.484995 1.72136 0
0.606977 0.0140023 0
0.0078125 0 0
1.13214 0.974214 0
1.1803 0.642646 0
0.0907731 0.452356 0
0.355957 2.63672 0
0.0665083 0.653342 0
0.632813 2.62418 0
0.808065 2.57906 0
0.268307 0.915558 0
0.297058 1.24043 0
0.372839 0.809654 0
0.28179 0.429819 0
0.182932 0.288293 0
1.68318 0.380247 0
2 0.292969 0
1.41962 0.368138 0
1.20585 0.304105 0
0.896727 1.37488 0
2 0.574219 0
1.29182 1.3837 0
0.95969 1.9175 0
1.16216 2.12799 0
1.13147 2.54361 0
1.37501 1.92519 0
1.32031 3 0
0.911616 0.0144697 0
0.0812792 0.156756 0
1.70403 1.37161 0
0.195313 2.63672 0
0.0078125 1.98047 0
1.6983 0.0184904 0
0.12607 1.00454 0
0.0703125 2.63672 0
0.0078125 2.63672 0
0.0703125 1.98047 0
0.0703125 1.48315 0
0.187277 0.616423 0
1.29681 0.0193493 0
1.32031 0 0
0.386582 0.014915 0
1.35979 0.145302 0
1.17074 0.0969504 0
1.70884 0.139811 0
0.00935925 0.636319 0
0.0169294 0.533112 0
1.36386 0.27114 0
1.84577 0.84668 0
1.78731 0.667146 0
0.0733059 0.872889 0
0.00439453 1.75854 0
0.00347222 0.347449 0
0.121734 0.578501 0
0 1.41797 0
0.0491032 0.118616 0
0.702672 2.29102 0
0.268676 1.0789 0
0.7667 1.44705 0
0.282261 1.42849 0
0.432588 0.923506 0
0.389352 0.601529 0
0.158203 0.00476069 0
0.237816 0.34261 0
0.360513 0.321528 0
0.362072 0.216081 0
0.386612 0.141169 0
0.982026 0.123226 0
1.2207 0.0042542 0
0.785684 0.00796991 0
0.00390064 0.0263672 0
0.0111706 0.00782185 0
0 0.105469 0
0.0425424 0.0295767 0
1.77246 0.237305 0
0.889434 1.13024 0
1.10988 0.535525 0
1.80246 0.495117 0
1.59071 0.991039 0
1.31307 1.02162 0
1.33643 1.19854 0
1.05564 1.44944 0
0.971752 1.64355 0
1.82487 1.23301 0
1.85998 2.46387 0
0.538134 0.238506 0
0.0380162 1.19964 0
0.53909 0.112849 0
0.00347222 0.255419 0
1.13491 0.380508 0
1.13742 0.792317 0
0.0366753 0.298789 0
1.37205 0.570487 0
1.82646 1.93642 0
1.64258 2.78997 0
1.43037 2.66648 0
0.12404 0.345219 0
0.632813 3 0
0.945313 3 0
0.211678 0.77857 0
0.224718 0.506317 0
0.216846 0.20262 0
1.8574 0.354492 0
1.04683 0.269266 0
0.964466 2.61568 0
0.0649071 0.215674 0
1.63107 1.20733 0
1.19709 0.047171 0
1.3305 0.076668 0
0.490766 0.0163852 0
1.42383 0.00562732 0
1.47615 0.0287226 0
0 0.574219 0
0.0844745 1.01948 0
0.00347222 1.29199 0
0.57397 2.23863 0
0.508318 1.99122 0
0.819343 2.32172 0
0.475739 0.533476 0
0.34785 0.491653 0
1.07412 0.0143135 0
0.00495268 0.121803 0
0.0319078 0.00797518 0
0.980291 0.986028 0
1.18954 1.13574 0
0.47065 0.0796443 0
0.642803 0.125395 0
0.0268613 0.392308 0
1.47906 0.722954 0
1.48603 0.474268 0
1.2873 2.52538 0
0.111696 0.242465 0
0.72526 2.76185 0
0.205929 0.133439 0
0.974183 0.194249 0
0.00383695 0.530573 0
1.4581 0.878722 0
1.2207 2.77624 0
0.121471 0.113866 0
0.720197 0.262695 0
0.71413 0.364286 0
0.784736 0.191129 0
0.303369 2.06479 0
0.204649 2.3358 0
1.2112 1.88735 0
1.31999 1.64703 0
0.0352783 1.45038 0
0.371435 2.347 0
0.457111 2.69229 0
0.269653 2.68085 0
0.629956 1.30487 0
0.150184 1.15576 0
0 0.949219 0
0.00634558 0.806957 0
0.379378 1.78929 0
0.453119 1.13932 0
0.382735 1.27744 0
0.189153 1.31179 0
0.52908 1.50432 0
0.842981 0.786166 0
0.19954 0.0441824 0
0.239388 0.011141 0
0.305854 0.0205935 0
0.871221 0.348758 0
1.53125 0.160072 0
1.54709 1.86727 0
1.75603 0.0670543 0
2 0.105469 0
0.621909 0.851311 0
0.645547 1.05863 0
0.697169 1.74671 0
0.587204 1.69998 0
0.786456 1.99924 0
0.0900367 1.32294 0
0.157407 1.51479 0
0.194061 1.75486 0
0.131138 0.0561801 0
0.305342 0.0833766 0
0.930752 0.464145 0
0.827141 0.587671 0
0.70689 0.529291 0
1.83 1.53605 0
0.12675 1.98047 0
0.064684 0.530452 0
0.382813 3 0
1.55548 0.321892 0
1.02623 2.112 0
1.30652 2.12692 0
0.0762939 1.72284 0
0.0329993 0.639197 0
1.27236 0.204015 0
0.160614 0.871186 0
0.285407 0.555256 0
0.0566158 0.391382 0
0.206573 0.963551 0
0.03125 1.98047 0
0.125 2.63672 0
0.0703125 3 0
0.0078125 2.29688 0
0.0703125 2.29688 0
0.03125 2.63672 0
0.602828 0.673569 0
1.75781 0 0
1.58088 2.28553 0
0.52665 0.412473 0
0.0703125 0 0
0.195313 3 0
0 1.98047 0
2 0.0117188 0
1.82578 0.00595319 0
0.0078125 3 0
0 2.63672 0
0.382813 0 0
1.49066 1.38252 0
VECTORS error float
0 0 0
0 7.26974e-13 0
4.83169e-13 7.26974e-13 0
1.54143e-12 0 0
-0.000105324 -0.00105184 0
2.76446e-14 0 0
0 2.01728e-13 0
-7.56617e-14 -1.28253e-12 0
-6.37268e-13 1.34337e-14 0
0.000949267 0.00122182 0
-0.000118943 -0.00126336 0
0.000905306 -0.00136917 0
0.000455944 0.000615299 0
0 4.69624e-13 0
4.82947e-15 1.1724e-13 0
-0.000198379 0.000535039 0
-0.000250993 -0.000292392 0
0.000171444 -0.000514802 0
-2.82552e-14 3.65485e-13 0
0.000973937 -0.000392138 0
-0.000575333 -0.000464354 0
0.000426469 -8.95086e-08 0
-0.000289455 0.000612225 0
0 -1.7028e-13 0
0 -6.31495e-13 0
0 -3.70481e-13 0
0.00138022 -0.000243486 0
0.000530947 -0.000137723 0
0.000619045 -0.00072714 0
0.000191036 0.00146795 0
0 8.92619e-14 0
1.20737e-15 1.1724e-13 0
-0.000283675 0.000216726 0
3.20632e-13 1.29674e-13 0
-4.54341e-05 -0.00010511 0
-0.00165725 0.000228579 0
0.000349191 0.0005834 0
0.0012299 0.00134768 0
-0.000418949 0.000978326 0
-0.00030496 -0.000597183 0
-0.000466866 0.00029097 0
0.000228719 -8.83659e-06 0
7.04425e-05 8.60113e-05 0
-0.000630439 0.000386714 0
-1.90514e-13 0 0
0.000956086 0.00156341 0
0.00065393 -0.000909807 0
0.00185964 0.00189056 0
0.00124515 3.46727e-05 0
-7.27862e-13 0 0
0.000464414 0.000322706 0
0.000890852 0.000223901 0
-0.0001094 0.00169263 0
-0.00117508 0.00322373 0
9.51239e-13 1.13215e-13 0
5.64659e-13 0 0
-8.56093e-13 0 0
-0.000109818 -0.000571774 0
0.000808159 0.00375183 0
-2.65399e-13 0 0
0.00025428 -0.00125373 0
0.00135953 0.000172124 0
0 -3.1225e-14 0
3.26128e-16 0 0
0.00048559 0.00166528 0
0.000405799 -0.00101212 0
-0.000341079 -0.000602873 0
-1.44906e-12 1.43219e-13 0
0.000655989 0.00067907 0
0.000479518 -0.000411022 0
4.18776e-13 2.66009e-13 0
-0.000391595 0.000263435 0
0.00180261 0.000345252 0
-6.47926e-13 7.77156e-15 0
-6.4837e-13 -4.38677e-14 0
0.0014651 -4.44694e-05 0
-0.000364589 0.0031373 0
0.000812259 0.000454267 0
8.33081e-05 0.000255841 0
2.92766e-13 7.56284e-13 0
-0.000554591 0.00106414 0
-0.000145185 -0.000391486 0
-0.000722686 -0.000815954 0
0.000960069 0.0021289 0
-8.67084e-13 3.51719e-13 0
5.11147e-13 -7.17204e-13 0
-0.000240613 0.0016906 0
0.00265583 0.00046106 0
0.000216894 -0.000810295 0
-0.000888519 -0.00114488 0
-0.000558641 -0.000960013 0
1.57049e-06 -0.00058444 0
-0.000623248 0.00059354 0
5.37348e-14 3.55493e-13 0
0.00136606 0.000160088 0
0.00231161 0.00104161 0
0 4.21885e-15 0
-8.08487e-05 -4.63423e-05 0
0.000506516 0.000753416 0
-0.000310134 0.000450578 0
4.51873e-05 0.000815877 0
-0.000426455 -0.000464973 0
7.31915e-14 0 0
0.00110678 -0.00023822 0
-0.00112827 -0.000503799 0
0.000285366 0.00101049 0
0.000143139 0.000222952 0
-0.000634173 0.00068283 0
0.000578449 0.00129385 0
0.000351437 -0.000701142 0
-7.66387e-13 0 0
-3.54716e-13 0 0
0.000475354 0.00115707 0
0 -9.02056e-16 0
-0.000265972 0.000586513 0
-0.000430754 0.000735271 0
-0.00123812 -0.000387408 0
-0.000952687 0.000444463 0
0.00030052 -0.00195081 0
0.000462876 0.000927526 0
1.32294e-12 6.68576e-13 0
-4.75842e-13 1.35092e-12 0
0.00114526 -0.000449152 0
4.44089e-16 4.20997e-13 0
2.55129e-13 -3.55715e-13 0
-7.81701e-05 -0.000693588 0
0.000701088 0.000434613 0
0.00134749 0.000146729 0
0.000113039 -0.000129298 0
-2.49627e-15 0 0
0.000648177 -0.000195955 0
-0.000571265 0.00137737 0
0.0013251 -0.000168861 0
0.000145654 -0.000465511 0
0.000825104 -0.000403207 0
-0.000736791 -0.000348477 0
-8.22485e-06 -0.00039032 0
0.000394479 0.000358769 0
-0.000430967 -0.000433267 0
0.00012569 -0.000412558 0
0.00101842 0.00276302 0
-0.000877017 -0.00100215 0
0.000121752 -0.000296916 0
-6.23723e-13 -1.52323e-13 0
0.00265409 0.00172083 0
-0.000704938 -0.000531793 0
0.000264224 -0.000709055 0
5.81757e-13 -2.51243e-13 0
-0.000313987 -0.000234332 0
0.000228366 -0.000598818 0
0.000717804 0.00281332 0
-0.000393368 -0.00100527 0
-0.000246155 -0.00104264 0
-5.3979e-13 7.66942e-13 0
-0.00043388 0.000107866 0
-0.000735595 0.000826479 0
0.001277 0.00118333 0
-0.000227584 0.000297268 0
-0.000167402 -0.000323357 0
-0.00118738 -0.00109495 0
0.000794041 -0.000854327 0
-0.000286204 -0.000394032 0
-0.000357814 -0.000583462 0
-0.000182434 -0.000147637 0
-0.000367856 -0.00111021 0
0.000108953 -0.00104799 0
-0.000144549 0.00112872 0
-2.02061e-13 0 0
-0.000574873 -0.00121633 0
0.000280027 0.000370751 0
0.000975736 0.000368774 0
0.000473648 -2.99435e-05 0
-2.37947e-05 0.000614733 0
-2.21216e-05 0.000701328 0
0.0029726 -1.53024e-05 0
0.000390286 0.000404001 0
-0.00073531 -0.000691037 0
0.000750003 0.00106654 0
-0.000104609 0.000845318 0
0.00170515 0.0013914 0
0.000919222 -0.000442018 0
0 -5.52669e-13 0
-5.8718e-06 0.000233083 0
0.000294994 0.00116669 0
0.000571472 0.000336799 0
0.000166486 -0.000728414 0
-0.00036164 -0.000189568 0
0.000506885 0.00202106 0
-0.000637645 -0.000482206 0
-0.000550746 0.00166868 0
0.000447987 -4.88475e-06 0
-0.00107865 -0.00146536 0
-0.000116004 0.00115925 0
-0.00168357 -0.000195831 0
-0.000751865 -0.000694261 0
0.0010281 0.00160451 0
-5.64504e-05 0.000780232 0
0.00136115 0.00117532 0
0.000551065 0.000350094 0
0 3.92048e-14 0
-0.000403059 0.00248921 0
0.000164327 -0.00146004 0
0.00109769 0.000696399 0
0.00157273 0.000527735 0
0.000283334 0.000663356 0
0.000638811 0.00212125 0
0.000362937 0.00027873 0
0.0003251 0.00169026 0
0.000430955 0.000368868 0
0.000537449 -0.00036266 0
0.00102163 -0.000662323 0
0.00110378 -0.0023903 0
0.00245555 0.00232014 0
0.000339769 0.000503361 0
0.000276263 -0.00126114 0
0.000797275 0.00125005 0
-5.44245e-05 0.00109546 0
0.000387414 0.000303529 0
3.39858e-05 6.8753e-05 0
0.000857651 3.59399e-05 0
0.00224771 0.000344275 0
0.00125861 0.00259841 0
-0.000531683 -0.000346077 0
0.00180246 0.00156414 0
-3.20743e-13 9.82325e-13 0
-5.86309e-13 -7.8737e-13 0
3.16617e-05 0.00145467 0
0.000408683 0.00105242 0
-0.000138361 0.00276812 0
0.000941147 0.000238573 0
-0.000477062 -6.48531e-05 0
0.000205485 0.000310853 0
-0.000231542 0.000165122 0
0.00082033 0.000171063 0
0.000629046 0.00247213 0
0.00145119 -0.000785047 0
0.000558817 7.74106e-05 0
-0.000988372 0.00193804 0
0.000484394 0.00094268 0
0 -2.77556e-15 0
0.0010333 8.39229e-05 0
0.00057966 -0.000144049 0
0.00151696 0.000683055 0
-0.000382451 -0.000258698 0
0.000404747 0.00114966 0
0.00068638 -0.000260683 0
0.00125452 0.000927647 0
-0.000107007 0.000202613 0
-3.33196e-05 0.000627679 0
-0.000425668 0.000372117 0
0.00101065 -0.000601794 0
0.00244631 0.000530704 0
0.000848239 0.00111372 0
-0.000571958 0.000294363 0
0.000216044 0.00127543 0
0.00117209 0.00143848 0
0.000742863 0.0015203 0
0.000609805 0.000236139 0
0.00147643 -0.000558684 0
0.00132459 0.00209097 0
0.000922583 -0.000104313 0
0.000216551 -0.00037451 0
0.00174553 0.000701013 0
0.000583655 -0.000963328 0
0.000409058 0.00198652 0
0.000104908 0.00134715 0
0.000380426 0.000677242 0
-0.000338733 -0.000979818 0
0.000260612 -0.000693749 0
-0.000435135 -0.000108767 0
1.73055e-05 0.000536731 0
-0.000472952 -0.000528061 0
-8.77961e-06 -0.000525154 0
-0.000455775 0.000258037 0
-5.84439e-06 0.000910937 0
-0.000145592 0.000494124 0
0.000180783 -0.000210937 0
0.000327888 -0.000125708 0
-0.000214506 -0.000540964 0
0 -9.03722e-13 0
-3.86241e-05 0.000731588 0
0.000509274 -0.000229815 0
0.000889917 0.00208952 0
-0.000572061 0.000239907 0
-0.000559689 0.000187941 0
-0.000576929 -0.000171127 0
-0.000328703 0.00151391 0
0.00101716 0.00258751 0
-0.000300271 0.00100571 0
0.000946747 -0.000656399 0
0.000706753 -4.56646e-05 0
0.00011608 5.32518e-05 0
0.000823131 -0.00140728 0
0.000649375 -0.000284185 0
8.70859e-13 1.69781e-13 0
-0.00100707 0.0015312 0
-0.00012652 0.00103798 0
0.000842556 -6.8298e-05 0
0.000533053 -0.000277907 0
-0.000587386 -0.000246277 0
0.00219089 0.00247017 0
-7.41074e-05 0.00129697 0
-0.000750805 0.00111314 0
0.000353615 0.000873463 0
-0.000814831 -0.000422234 0
-0.000481363 0.00206747 0
0.000649013 0.000474492 0
0.000616606 0.000180695 0
0.000881541 -0.000299872 0
4.18895e-05 -5.10663e-05 0
0.000483809 0.000231124 0
5.50116e-14 -1.02407e-12 0
-9.27785e-06 0.000119503 0
0.00217383 0.00174876 0
0.000136767 0.00290422 0
-0.000174679 0.000553648 0
-0.000304779 0.000273115 0
-8.11282e-05 0.00168253 0
0.00226966 0.00284501 0
-2.66916e-05 -0.000346172 0
-0.000312819 0.00155701 0
0.000165348 0.000506403 0
0.000218484 0.000600808 0
0.000588289 0.000773225 0
2.73392e-15 1.1724e-13 0
0.000346565 0.00065359 0
0.000387617 0.000493961 0
0.000409538 0.000455431 0
0.000253617 0.000871709 0
6.386e-13 0 0
-0.000794794 0.00172525 0
0.0006669 0.000239185 0
1.11577e-14 0 0
4.45477e-14 6.84786e-13 0
0 -2.23821e-13 0
-1.52234e-12 4.26048e-15 0
0.00129764 0.0023182 0
3.01842e-16 1.1724e-13 0
0 1.02141e-13 0
1.31062e-13 0 0
-0.000179988 -0.000292674 0

CELL_DATA 616
TENSORS efStress float
-694.636 59807.8 0
59807.8 -1944.77 0
0    0    0

2747.3 22447.1 0
22447.1 1631.83 0
0    0    0

-326.589 44323.6 0
44323.6 -285.882 0
0    0    0

389.931 40562.2 0
40562.2 -1690.52 0
0    0    0

34.3724 27911.2 0
27911.2 -955.141 0
0    0    0

426.728 38484.4 0
38484.4 2407.84 0
0    0    0

1546.74 67478.5 0
67478.5 1537.1 0
0    0    0

-1470.65 53775.1 0
53775.1 -2235.91 0
0    0    0

-737.108 65373.4 0
65373.4 -771.212 0
0    0    0

666.337 50857.2 0
50857.2 708.049 0
0    0    0

-1734.66 30380.6 0
30380.6 -1571.63 0
0    0    0

1467.69 43244.6 0
43244.6 389.128 0
0    0    0

-984.574 69473.7 0
69473.7 -1927.42 0
0    0    0

1414.91 81034.2 0
81034.2 652.606 0
0    0    0

1434.34 28714.8 0
28714.8 2414.95 0
0    0    0

-22.9819 43721.7 0
43721.7 407.116 0
0    0    0

-89.9677 49566.8 0
49566.8 -1248.76 0
0    0    0

513.575 63471 0
63471 753.707 0
0    0    0

417.482 72584.5 0
72584.5 -553.788 0
0    0    0

187.525 73199.8 0
73199.8 1224.24 0
0    0    0

160.274 66938 0
66938 68.6889 0
0    0    0

-237.591 55482.5 0
55482.5 196.959 0
0    0    0

77.1252 59443.1 0
59443.1 -428.095 0
0    0    0

-1210.15 65293 0
65293 -439.684 0
0    0    0

-353.317 71740.7 0
71740.7 -1067.16 0
0    0    0

-592.31 62515.1 0
62515.1 -437.292 0
0    0    0

-863.02 83024.8 0
83024.8 -1942.82 0
0    0    0

-67.4091 46211.4 0
46211.4 520.536 0
0    0    0

264.911 53231.3 0
53231.3 -228.613 0
0    0    0

-1094.76 39354.7 0
39354.7 -1459.62 0
0    0    0

148.035 47467.3 0
47467.3 79.8246 0
0    0    0

1224.9 22791 0
22791 1197.44 0
0    0    0

-432.623 47790.2 0
47790.2 -1009.45 0
0    0    0

1286.07 45343.3 0
45343.3 201 0
0    0    0

-701.047 21356.5 0
21356.5 -2882.92 0
0    0    0

-665.862 36906.2 0
36906.2 -1553.68 0
0    0    0

1281.16 35688.3 0
35688.3 1589.26 0
0    0    0

-714.247 44362.1 0
44362.1 -1666.58 0
0    0    0

-406.221 49254 0
49254 -1201.67 0
0    0    0

-964.498 20814.7 0
20814.7 -1024.16 0
0    0    0

-222.232 30705 0
30705 1281.01 0
0    0    0

1620.6 15280.9 0
15280.9 654.032 0
0    0    0

1235.17 36759.1 0
36759.1 2089.85 0
0    0    0

864.119 23943.2 0
23943.2 7.78433 0
0    0    0

444.683 52086.8 0
52086.8 489.362 0
0    0    0

619.232 58367.4 0
58367.4 740.308 0
0    0    0

419.991 82018.5 0
82018.5 179.996 0
0    0    0

-573.096 66887 0
66887 -1342.41 0
0    0    0

-1403.53 62672.6 0
62672.6 -1422.11 0
0    0    0

1503.72 72982.2 0
72982.2 1618.87 0
0    0    0

566.837 48375.2 0
48375.2 1043.15 0
0    0    0

-112.594 68560.7 0
68560.7 1673.97 0
0    0    0

-1593.69 54696.7 0
54696.7 -3473.26 0
0    0    0

-662.656 50267.1 0
50267.1 912.362 0
0    0    0

14.3937 50385.5 0
50385.5 -174.52 0
0    0    0

-804.953 65945.3 0
65945.3 -466.159 0
0    0    0

1186.62 55800.1 0
55800.1 2091.1 0
0    0    0

1096.87 56449.5 0
56449.5 260.373 0
0    0    0

1959.79 53347.3 0
53347.3 3631.39 0
0    0    0

1189.58 63144.2 0
63144.2 882.861 0
0    0    0

-752.96 50977.6 0
50977.6 967.735 0
0    0    0

542.397 45368.1 0
45368.1 1595.91 0
0    0    0

-1695.47 34572.5 0
34572.5 -258.05 0
0    0    0

828.152 40557.2 0
40557.2 -266.06 0
0    0    0

-2199.91 12864 0
12864 -942.82 0
0    0    0

729.741 41328.3 0
41328.3 1261.35 0
0    0    0

-1540.17 33024.6 0
33024.6 76.1728 0
0    0    0

882.412 50277.1 0
50277.1 1086.76 0
0    0    0

-243.255 39389.5 0
39389.5 1374.48 0
0    0    0

1587.81 58808.9 0
58808.9 1646.56 0
0    0    0

2084 18000.3 0
18000.3 631.902 0
0    0    0

1884.42 51648.8 0
51648.8 2150.95 0
0    0    0

-2112.35 24807.6 0
24807.6 -1329.46 0
0    0    0

990.561 35455 0
35455 3120.87 0
0    0    0

94.6278 26031 0
26031 208.955 0
0    0    0

-1147.25 20811.6 0
20811.6 -2303.56 0
0    0    0

1035.43 44306.8 0
44306.8 216.226 0
0    0    0

858.266 48331 0
48331 1191.69 0
0    0    0

-127.261 39049.8 0
39049.8 -1700.05 0
0    0    0

-1519.08 37167.9 0
37167.9 -1116.39 0
0    0    0

-148.471 32248.6 0
32248.6 662.652 0
0    0    0

-1326.51 39660.7 0
39660.7 -909.879 0
0    0    0

-1234.27 40658.6 0
40658.6 -335.208 0
0    0    0

-859.752 32805.8 0
32805.8 -368.465 0
0    0    0

850.066 28427.2 0
28427.2 1346.98 0
0    0    0

776.898 23527 0
23527 1911.59 0
0    0    0

-815.394 35005.6 0
35005.6 -334.245 0
0    0    0

42.8917 51494.2 0
51494.2 -274.154 0
0    0    0

1432.91 50742.7 0
50742.7 1613.93 0
0    0    0

-182.592 36954 0
36954 1828.66 0
0    0    0

-358.851 28232.2 0
28232.2 992.737 0
0    0    0

-1192.94 38465.8 0
38465.8 -511.258 0
0    0    0

212.402 34131.1 0
34131.1 -1614.15 0
0    0    0

582.607 21153 0
21153 1275.54 0
0    0    0

746.726 8234.32 0
8234.32 2136.07 0
0    0    0

1593.82 17211.1 0
17211.1 2444.15 0
0    0    0

974.382 17778.3 0
17778.3 1278.11 0
0    0    0

-869.979 14338.3 0
14338.3 -281.417 0
0    0    0

-424.722 14113.6 0
14113.6 -991.019 0
0    0    0

-155.314 5450.48 0
5450.48 -14.0766 0
0    0    0

-84.8373 14143.6 0
14143.6 -131.601 0
0    0    0

567.61 20267.4 0
20267.4 571.695 0
0    0    0

0 3125 0
3125 0 0
0    0    0

1126.48 48951.5 0
48951.5 558.507 0
0    0    0

186.242 57008.9 0
57008.9 -981.622 0
0    0    0

-763.392 55588.4 0
55588.4 -276.028 0
0    0    0

1123.63 55674.9 0
55674.9 2621.8 0
0    0    0

-843.125 65267.7 0
65267.7 239.81 0
0    0    0

-327.371 57398.9 0
57398.9 -3114.12 0
0    0    0

910.975 68018.2 0
68018.2 2237.94 0
0    0    0

932.312 55843.2 0
55843.2 3714.35 0
0    0    0

-967.237 61355.1 0
61355.1 -2635.52 0
0    0    0

1567.83 75453.9 0
75453.9 1225.96 0
0    0    0

413.721 80192.9 0
80192.9 -1392.89 0
0    0    0

1585.42 67397.9 0
67397.9 757.251 0
0    0    0

-747.412 63574.6 0
63574.6 -2272.33 0
0    0    0

972.281 78251.2 0
78251.2 2268.65 0
0    0    0

1430.71 31387.9 0
31387.9 293.05 0
0    0    0

1610.56 71340.7 0
71340.7 3122.88 0
0    0    0

-520.624 47261.6 0
47261.6 229.756 0
0    0    0

973.925 26387 0
26387 2332.41 0
0    0    0

1589.35 14311.8 0
14311.8 1493.66 0
0    0    0

381.784 13544.3 0
13544.3 1570.93 0
0    0    0

466.241 45838.5 0
45838.5 544.537 0
0    0    0

-968.184 53640.4 0
53640.4 -1762 0
0    0    0

-331.159 70452 0
70452 -1128.7 0
0    0    0

802.099 64768.3 0
64768.3 1265.23 0
0    0    0

56.9232 83701.2 0
83701.2 216.587 0
0    0    0

243.286 75924.5 0
75924.5 -720.663 0
0    0    0

-551.074 75120.2 0
75120.2 -1527.96 0
0    0    0

1330.3 75705.9 0
75705.9 1103.99 0
0    0    0

1088.62 67862.3 0
67862.3 2127.39 0
0    0    0

-442.765 78983.5 0
78983.5 230.686 0
0    0    0

1650.18 73956.3 0
73956.3 784.989 0
0    0    0

2239.09 93352.5 0
93352.5 5224.54 0
0    0    0

290.213 82137.2 0
82137.2 -530.914 0
0    0    0

-927.129 88370.4 0
88370.4 -27.9365 0
0    0    0

384.651 89014.2 0
89014.2 -1401.01 0
0    0    0

-1185.18 92633.7 0
92633.7 999.26 0
0    0    0

330.792 85509.1 0
85509.1 1252.96 0
0    0    0

7.96838e-07 96875 0
96875 8.36415e-07 0
0    0    0

2244.26 88314.6 0
88314.6 2156.18 0
0    0    0

2027.96 54892.8 0
54892.8 1781.83 0
0    0    0

-730.336 70539.9 0
70539.9 -887.617 0
0    0    0

403.449 32320.8 0
32320.8 1861.14 0
0    0    0

-817.339 37656.2 0
37656.2 -937.356 0
0    0    0

-336.286 43195.2 0
43195.2 -879.892 0
0    0    0

660.855 32977.1 0
32977.1 26.602 0
0    0    0

1069.61 36858.6 0
36858.6 1094.69 0
0    0    0

-1259.4 41605.8 0
41605.8 -2205.81 0
0    0    0

-645.755 30782.8 0
30782.8 -2320.73 0
0    0    0

-1871.16 35232 0
35232 -460.651 0
0    0    0

-827.487 62825.1 0
62825.1 -730.995 0
0    0    0

196.904 72469.7 0
72469.7 -2147.07 0
0    0    0

897.279 66708.2 0
66708.2 1386.17 0
0    0    0

-1299.5 48571.2 0
48571.2 -2354.35 0
0    0    0

1099.79 50554.4 0
50554.4 1493.76 0
0    0    0

-273.569 47054.2 0
47054.2 818.031 0
0    0    0

1665.98 18910.9 0
18910.9 1482.38 0
0    0    0

1249.17 39949.2 0
39949.2 480.809 0
0    0    0

-463.377 29489.7 0
29489.7 -1081.21 0
0    0    0

62.7429 27215 0
27215 2082.66 0
0    0    0

854.217 13844.9 0
13844.9 -26.4681 0
0    0    0

-484.755 17899.7 0
17899.7 -1131.1 0
0    0    0

292.843 59006.2 0
59006.2 951.63 0
0    0    0

-1270.98 57620.1 0
57620.1 -2476.37 0
0    0    0

879.608 38384.8 0
38384.8 1252.19 0
0    0    0

-779.712 35674.1 0
35674.1 -860.889 0
0    0    0

-1177.99 52068.2 0
52068.2 -2177 0
0    0    0

-225.127 16698.4 0
16698.4 -1448.66 0
0    0    0

-460.406 43377 0
43377 170.217 0
0    0    0

-1913 53594.9 0
53594.9 -1966.68 0
0    0    0

496.868 64160.9 0
64160.9 1737.66 0
0    0    0

822.199 19426.6 0
19426.6 3106.22 0
0    0    0

-1631.94 28352.7 0
28352.7 -372.346 0
0    0    0

357.681 33169.6 0
33169.6 2053.89 0
0    0    0

505.679 30169.8 0
30169.8 -1568.68 0
0    0    0

-612.966 24134.3 0
24134.3 -55.4002 0
0    0    0

-592.992 30704.7 0
30704.7 -922.379 0
0    0    0

-1701.58 53426.5 0
53426.5 -1290.4 0
0    0    0

-1670.96 50262.3 0
50262.3 -2692.46 0
0    0    0

1230.12 49281.6 0
49281.6 2461.33 0
0    0    0

-1115.53 58263.5 0
58263.5 -1732.36 0
0    0    0

1754.16 31768.3 0
31768.3 723.695 0
0    0    0

386.699 30316.5 0
30316.5 174.381 0
0    0    0

487.679 25574.8 0
25574.8 -462.492 0
0    0    0

-220.512 42262.8 0
42262.8 1723.39 0
0    0    0

570.267 21530.1 0
21530.1 947.35 0
0    0    0

-465.356 5350.41 0
5350.41 -199.438 0
0    0    0

2544.96 23388.8 0
23388.8 2079.8 0
0    0    0

-1762.86 9989.61 0
9989.61 -843.575 0
0    0    0

1021.6 14747.2 0
14747.2 713.374 0
0    0    0

-1300.75 15874.2 0
15874.2 -1403.29 0
0    0    0

-397.673 7868.96 0
7868.96 -170.431 0
0    0    0

2326.72 13200.3 0
13200.3 2170.85 0
0    0    0

1357.71 11205.6 0
11205.6 250.787 0
0    0    0

-1238.12 62523 0
62523 -843.822 0
0    0    0

-501.4 58037 0
58037 -2351.01 0
0    0    0

-342.057 75918.1 0
75918.1 -149.186 0
0    0    0

429.441 74215.5 0
74215.5 1002.03 0
0    0    0

375.857 85481 0
85481 876.999 0
0    0    0

-1292.32 79670.6 0
79670.6 -2809.05 0
0    0    0

-1010.67 96039.6 0
96039.6 -3166.34 0
0    0    0

1104.52 82053.2 0
82053.2 2577.22 0
0    0    0

559.469 58099.7 0
58099.7 1237.08 0
0    0    0

-776.116 89231 0
89231 -1810.94 0
0    0    0

-514.445 94588.3 0
94588.3 1644.26 0
0    0    0

917.117 58702.3 0
58702.3 1288.41 0
0    0    0

-32.4795 71942.6 0
71942.6 -2148.87 0
0    0    0

-303.411 72082.5 0
72082.5 -11.5086 0
0    0    0

1064.15 60673.9 0
60673.9 -582.291 0
0    0    0

-964.908 69779.6 0
69779.6 -1235.85 0
0    0    0

17.3559 28810.9 0
28810.9 1443.18 0
0    0    0

-547.145 23280.6 0
23280.6 -234.491 0
0    0    0

280.195 61568.2 0
61568.2 19.318 0
0    0    0

-1162.5 6215.95 0
6215.95 207.481 0
0    0    0

-1856.21 70314.5 0
70314.5 -1560.61 0
0    0    0

-443.576 57981.1 0
57981.1 -1209.36 0
0    0    0

-369.381 62009.5 0
62009.5 -1942.64 0
0    0    0

-1685.33 31449.5 0
31449.5 -3426.58 0
0    0    0

280.009 31438.8 0
31438.8 1039.99 0
0    0    0

165.573 68381.1 0
68381.1 762.232 0
0    0    0

1279.04 77076 0
77076 548.16 0
0    0    0

714.429 36915.8 0
36915.8 1691.93 0
0    0    0

110.879 30459.3 0
30459.3 1508.51 0
0    0    0

-940.283 81579.2 0
81579.2 111.051 0
0    0    0

-2075.31 76356.5 0
76356.5 -1544.9 0
0    0    0

430.535 86589.3 0
86589.3 893.073 0
0    0    0

1205.91 70799.6 0
70799.6 852.956 0
0    0    0

584.657 49377 0
49377 1831.18 0
0    0    0

-1794.59 43105.2 0
43105.2 -1716.35 0
0    0    0

-757.191 53883.3 0
53883.3 79.7138 0
0    0    0

-1767.36 57116.9 0
57116.9 -1298.68 0
0    0    0

-1671.75 48524.9 0
48524.9 -2025.41 0
0    0    0

-309.952 46844.5 0
46844.5 -2425.65 0
0    0    0

-359.222 36992.2 0
36992.2 -1549.47 0
0    0    0

1167.04 38084.7 0
38084.7 1396.7 0
0    0    0

1131.82 29961.3 0
29961.3 -641.061 0
0    0    0

-1325.8 29698.1 0
29698.1 -2320.95 0
0    0    0

128.691 55811.5 0
55811.5 1860.44 0
0    0    0

670.918 63305.7 0
63305.7 1565.48 0
0    0    0

-2282.05 46350.1 0
46350.1 883.109 0
0    0    0

63.2508 60437.1 0
60437.1 1648.28 0
0    0    0

-2048.9 57796.6 0
57796.6 -368.685 0
0    0    0

1251.31 46878.4 0
46878.4 1865.72 0
0    0    0

-497.705 54206.3 0
54206.3 -954.383 0
0    0    0

1380.55 63306.7 0
63306.7 1580.75 0
0    0    0

-1365.53 70734.2 0
70734.2 -1442.24 0
0    0    0

-1608.11 77269.5 0
77269.5 330.412 0
0    0    0

-1227.58 65075.7 0
65075.7 -2270.27 0
0    0    0

459.153 72285.5 0
72285.5 143.447 0
0    0    0

-47.5086 71286.6 0
71286.6 1786.2 0
0    0    0

1117.91 80916.8 0
80916.8 3307.59 0
0    0    0

-810.194 81690.9 0
81690.9 -75.4655 0
0    0    0

-1282.98 82249.8 0
82249.8 -1815.51 0
0    0    0

1346.1 80707.2 0
80707.2 1469.34 0
0    0    0

-1468.03 93790.8 0
93790.8 -337.021 0
0    0    0

509.002 84534 0
84534 1710.6 0
0    0    0

225.107 76069.2 0
76069.2 -353.099 0
0    0    0

-683.048 34310.9 0
34310.9 -209.721 0
0    0    0

1421.59 89587 0
89587 609.252 0
0    0    0

-184.417 27947.7 0
27947.7 -79.0359 0
0    0    0

-1167.68 17651.4 0
17651.4 -1681.85 0
0    0    0

-149.364 23583.8 0
23583.8 -731.79 0
0    0    0

-1512.2 72603 0
72603 -2971.42 0
0    0    0

-1127.64 81158 0
81158 356.277 0
0    0    0

431.174 72147.9 0
72147.9 184.789 0
0    0    0

119.203 65700.5 0
65700.5 -166.493 0
0    0    0

-77.6056 51848.2 0
51848.2 -181.08 0
0    0    0

958.561 48069.4 0
48069.4 -559.884 0
0    0    0

-237.189 40606.8 0
40606.8 -101.653 0
0    0    0

-2377.09 35496.8 0
35496.8 -1018.75 0
0    0    0

1084.14 40983.7 0
40983.7 2134.29 0
0    0    0

-910.86 48426.3 0
48426.3 -296.52 0
0    0    0

166.026 60633.3 0
60633.3 -317.172 0
0    0    0

-619.443 62948.3 0
62948.3 -726.624 0
0    0    0

200.376 61968.4 0
61968.4 85.8754 0
0    0    0

-140.031 59317.7 0
59317.7 -326.739 0
0    0    0

-643.861 53224.9 0
53224.9 -374.638 0
0    0    0

-23.5691 59371 0
59371 32.8472 0
0    0    0

-664.872 53456.2 0
53456.2 -423.609 0
0    0    0

-2047.18 53350.1 0
53350.1 -480.552 0
0    0    0

1029.86 44878.1 0
44878.1 2346.8 0
0    0    0

1775.42 39073.1 0
39073.1 -150.141 0
0    0    0

1523.81 33957.9 0
33957.9 1565.67 0
0    0    0

2387.81 37173.4 0
37173.4 2238.13 0
0    0    0

-1600.13 27338.2 0
27338.2 -136.765 0
0    0    0

1890.4 33791.2 0
33791.2 1161.9 0
0    0    0

-147.465 18192.8 0
18192.8 -63.1993 0
0    0    0

1903.88 38631.4 0
38631.4 2519.34 0
0    0    0

697.814 49739.9 0
49739.9 -1228.5 0
0    0    0

-163.895 44169.6 0
44169.6 -1194.11 0
0    0    0

-544.003 44928.7 0
44928.7 598.687 0
0    0    0

732.99 48012.4 0
48012.4 1710.31 0
0    0    0

871.469 45529.3 0
45529.3 1393.39 0
0    0    0

-90.8949 35779.5 0
35779.5 -805.102 0
0    0    0

-553.306 25649.5 0
25649.5 -1291.05 0
0    0    0

1303.74 26409.5 0
26409.5 630.119 0
0    0    0

-383.025 33265.3 0
33265.3 -411.322 0
0    0    0

1944.87 48165.6 0
48165.6 1050.01 0
0    0    0

1173.08 52537.8 0
52537.8 1968.9 0
0    0    0

-1018.71 71125.4 0
71125.4 -462.035 0
0    0    0

963.229 70989.1 0
70989.1 2247.53 0
0    0    0

986.947 67166.2 0
67166.2 2302.88 0
0    0    0

1919.25 63950.9 0
63950.9 -521.232 0
0    0    0

-1716.74 43223.5 0
43223.5 -500.322 0
0    0    0

-1408.67 39126.5 0
39126.5 -2222.12 0
0    0    0

-1123.76 50345.6 0
50345.6 -59.74 0
0    0    0

-772.172 45894.2 0
45894.2 773.311 0
0    0    0

-541.064 21867.6 0
21867.6 -1262.48 0
0    0    0

89.3945 23243.9 0
23243.9 1550.73 0
0    0    0

1697.87 33108.3 0
33108.3 1370.08 0
0    0    0

-1185.23 39322.7 0
39322.7 -1892.78 0
0    0    0

-1127.13 18868.1 0
18868.1 -361.627 0
0    0    0

-1307.01 44134 0
44134 -614.697 0
0    0    0

419.927 18973.9 0
18973.9 2445.82 0
0    0    0

791.319 78016.3 0
78016.3 -294.025 0
0    0    0

-808.475 78567.3 0
78567.3 -800.77 0
0    0    0

1154.06 50933.1 0
50933.1 907.29 0
0    0    0

-1471.9 52728.5 0
52728.5 162.05 0
0    0    0

-1187.91 65744.1 0
65744.1 -1625.83 0
0    0    0

-133.506 67440 0
67440 1119.55 0
0    0    0

216.514 51996.2 0
51996.2 -840.952 0
0    0    0

945.853 57925 0
57925 1601.06 0
0    0    0

1090.41 51804 0
51804 1793.23 0
0    0    0

-1204.59 51635.2 0
51635.2 -2271.54 0
0    0    0

95.0359 47632.3 0
47632.3 -1558.6 0
0    0    0

213.55 41677.4 0
41677.4 2292.98 0
0    0    0

2153.13 11330.1 0
11330.1 304.578 0
0    0    0

-328.455 18249.1 0
18249.1 588.067 0
0    0    0

11.1373 33875.9 0
33875.9 -1904.76 0
0    0    0

-1300.22 37241.8 0
37241.8 -270.371 0
0    0    0

139.249 35093.8 0
35093.8 738.638 0
0    0    0

1520.02 34293.3 0
34293.3 -226.777 0
0    0    0

1388.42 33088.3 0
33088.3 -809.681 0
0    0    0

-760.308 30926.3 0
30926.3 -1969.68 0
0    0    0

-1355.8 33000.9 0
33000.9 189.2 0
0    0    0

-174.387 27866.6 0
27866.6 828.543 0
0    0    0

1825.09 36521.4 0
36521.4 439.182 0
0    0    0

499.299 40257.3 0
40257.3 458.357 0
0    0    0

-842.61 30851.5 0
30851.5 -361.119 0
0    0    0

-2000.47 35676.9 0
35676.9 -968.553 0
0    0    0

116.273 25447.7 0
25447.7 49.8314 0
0    0    0

703.841 30769.2 0
30769.2 -1529.42 0
0    0    0

1617.99 7317.14 0
7317.14 1203.51 0
0    0    0

-595.881 6816.46 0
6816.46 -1390.39 0
0    0    0

1400.94 9572.5 0
9572.5 1167.73 0
0    0    0

983.653 3279.46 0
3279.46 -211.329 0
0    0    0

-460.665 8134.99 0
8134.99 775.572 0
0    0    0

-527.899 10499.2 0
10499.2 -1231.76 0
0    0    0

-460.499 11665.9 0
11665.9 220.211 0
0    0    0

-1879.84 53386.2 0
53386.2 -1842.51 0
0    0    0

-990.429 54848 0
54848 -521.364 0
0    0    0

585.398 61878.3 0
61878.3 -1597.95 0
0    0    0

-1297.15 66277.3 0
66277.3 -1851.27 0
0    0    0

-1309.98 53271.5 0
53271.5 -4878.62 0
0    0    0

1016.14 55693.3 0
55693.3 1884.32 0
0    0    0

-283.3 60541.3 0
60541.3 -2388.33 0
0    0    0

215.84 62870.7 0
62870.7 2029.11 0
0    0    0

557.97 70295.9 0
70295.9 1792.48 0
0    0    0

-4.71429 65983.3 0
65983.3 -228.98 0
0    0    0

218.59 66600.6 0
66600.6 -1704.06 0
0    0    0

-1382.28 69958.3 0
69958.3 -1665.65 0
0    0    0

-1256.13 70217.9 0
70217.9 -2065.97 0
0    0    0

57.0935 66977 0
66977 -549.363 0
0    0    0

650.739 69537.7 0
69537.7 93.4728 0
0    0    0

-658.909 73364.4 0
73364.4 493.667 0
0    0    0

-301.698 73082.7 0
73082.7 66.423 0
0    0    0

1368.88 71928.6 0
71928.6 958.378 0
0    0    0

1110.99 78214.7 0
78214.7 2626.91 0
0    0    0

-1676.48 75683.3 0
75683.3 -1361.99 0
0    0    0

-2550.86 90472.7 0
90472.7 -3104.66 0
0    0    0

-357.412 94243.8 0
94243.8 -235.421 0
0    0    0

722.002 38454.5 0
38454.5 1472.01 0
0    0    0

-473.659 37574.8 0
37574.8 -801.218 0
0    0    0

320.993 40803.1 0
40803.1 -142.281 0
0    0    0

466.101 44135.7 0
44135.7 2537.85 0
0    0    0

2513 28514.7 0
28514.7 3860.51 0
0    0    0

1269 34106.2 0
34106.2 267.492 0
0    0    0

-687.615 17749.2 0
17749.2 -167.434 0
0    0    0

1748.78 20110 0
20110 2833.34 0
0    0    0

263.41 52352.9 0
52352.9 -291.763 0
0    0    0

1701.82 51694.2 0
51694.2 3434.06 0
0    0    0

216.485 61492.8 0
61492.8 416.745 0
0    0    0

1262.33 60199.3 0
60199.3 467.425 0
0    0    0

-342.899 24647.5 0
24647.5 -1503.52 0
0    0    0

1034.09 26181.5 0
26181.5 571.506 0
0    0    0

74.4258 60794.1 0
60794.1 1629.87 0
0    0    0

1807.19 58971.9 0
58971.9 679.991 0
0    0    0

-1094.85 85812.4 0
85812.4 -3349.19 0
0    0    0

1387.05 88295.6 0
88295.6 1578.22 0
0    0    0

2138.58 89831.2 0
89831.2 -676.141 0
0    0    0

682.056 94451.7 0
94451.7 292.31 0
0    0    0

949.997 86880.7 0
86880.7 2812.83 0
0    0    0

1515.21 92093.8 0
92093.8 649.375 0
0    0    0

1310.22 26589.5 0
26589.5 2153.42 0
0    0    0

-1484.95 30205.7 0
30205.7 -1845.16 0
0    0    0

1793.01 40643.5 0
40643.5 1458.43 0
0    0    0

398.375 79361.9 0
79361.9 170.732 0
0    0    0

534.291 84119.4 0
84119.4 228.982 0
0    0    0

-925.079 43287.4 0
43287.4 -623.883 0
0    0    0

-1400.17 37734 0
37734 -2371.54 0
0    0    0

-66.5132 40970.8 0
40970.8 1047.72 0
0    0    0

1027.57 29212.9 0
29212.9 1846.96 0
0    0    0

-1048.62 28368.5 0
28368.5 -239.566 0
0    0    0

1111.73 59639.6 0
59639.6 2594.04 0
0    0    0

-1272 58078.1 0
58078.1 -1941.31 0
0    0    0

400.426 42674.4 0
42674.4 -652.119 0
0    0    0

-433.357 46345.4 0
46345.4 -819.013 0
0    0    0

-646.263 84605.9 0
84605.9 -613.562 0
0    0    0

298.351 86715.6 0
86715.6 127.865 0
0    0    0

-703.746 26057.5 0
26057.5 -1359.93 0
0    0    0

-1805.12 21389.7 0
21389.7 -3156.85 0
0    0    0

557.168 72105.1 0
72105.1 983.37 0
0    0    0

-1330.16 76959.1 0
76959.1 -1563.89 0
0    0    0

-16.1895 38768.9 0
38768.9 371.555 0
0    0    0

-473.97 40432.9 0
40432.9 -2603.59 0
0    0    0

352.444 43241.4 0
43241.4 1024.7 0
0    0    0

70.8383 40735.6 0
40735.6 -558.346 0
0    0    0

107.888 23070.8 0
23070.8 -650.394 0
0    0    0

536.876 25477.7 0
25477.7 502.264 0
0    0    0

-617.936 40420.6 0
40420.6 -1941.26 0
0    0    0

1654.69 37138.8 0
37138.8 1729.09 0
0    0    0

-424.725 42489.1 0
42489.1 592.553 0
0    0    0

-1278.01 39554.1 0
39554.1 -2415 0
0    0    0

-1522.08 42602.4 0
42602.4 -1589.6 0
0    0    0

943.865 27525.6 0
27525.6 1372.31 0
0    0    0

1500.29 40370 0
40370 958.989 0
0    0    0

-1106.55 40347.5 0
40347.5 -2581.94 0
0    0    0

1557.25 42215.4 0
42215.4 2222.31 0
0    0    0

739.42 68545.6 0
68545.6 52.6016 0
0    0    0

1302.92 74417.7 0
74417.7 2265.47 0
0    0    0

367.05 65715.2 0
65715.2 1184.65 0
0    0    0

-471.688 69910.3 0
69910.3 859.492 0
0    0    0

127.061 80240.9 0
80240.9 358.612 0
0    0    0

59.0003 76959.9 0
76959.9 1348.74 0
0    0    0

-484.839 43420 0
43420 -2737.86 0
0    0    0

1323.55 46307.8 0
46307.8 2851.69 0
0    0    0

-287.713 39449.7 0
39449.7 -2963.93 0
0    0    0

20.8236 37873.6 0
37873.6 1138.89 0
0    0    0

1070.66 36105 0
36105 891.794 0
0    0    0

66.9666 32645.4 0
32645.4 -1417.41 0
0    0    0

-1292.07 16855 0
16855 -651.531 0
0    0    0

97.3813 11661.5 0
11661.5 1237.59 0
0    0    0

-721.869 8593.55 0
8593.55 -343.565 0
0    0    0

-1875.8 11334.1 0
11334.1 -2591.6 0
0    0    0

-495.9 59767.3 0
59767.3 -1447.8 0
0    0    0

1401.19 63846.3 0
63846.3 1668.28 0
0    0    0

975.068 68975.2 0
68975.2 1802.68 0
0    0    0

1427.23 67930.1 0
67930.1 2093.43 0
0    0    0

-1479.6 26670 0
26670 -2539.73 0
0    0    0

-569.553 30050.1 0
30050.1 79.0693 0
0    0    0

759.018 37274 0
37274 507.575 0
0    0    0

412.818 34539.9 0
34539.9 34.3736 0
0    0    0

1227.4 29482.4 0
29482.4 1099.01 0
0    0    0

-897.688 24878.2 0
24878.2 -245.743 0
0    0    0

245.674 63911.6 0
63911.6 2111.51 0
0    0    0

-1098.88 66091.2 0
66091.2 -270.056 0
0    0    0

303.032 59306.9 0
59306.9 2168.81 0
0    0    0

752.57 55209 0
55209 1357.61 0
0    0    0

-1445.09 85330.4 0
85330.4 -4204.7 0
0    0    0

-856.145 88573.6 0
88573.6 -2473.75 0
0    0    0

-1623.92 25254.1 0
25254.1 -1723.08 0
0    0    0

1718.58 27792 0
27792 2249.28 0
0    0    0

158.56 81855.6 0
81855.6 -388.836 0
0    0    0

340.007 82170.5 0
82170.5 1753.63 0
0    0    0

-1639.32 25168.1 0
25168.1 -526.6 0
0    0    0

2574.77 22363.5 0
22363.5 1231.36 0
0    0    0

1675.71 44022.6 0
44022.6 1040.06 0
0    0    0

-1447.51 45570.2 0
45570.2 -722.26 0
0    0    0

-1833.78 28786.2 0
28786.2 -855.01 0
0    0    0

-764.067 25531.4 0
25531.4 -380.917 0
0    0    0

-780.315 66914.4 0
66914.4 -1445.69 0
0    0    0

-1078.48 69196.7 0
69196.7 1061.15 0
0    0    0

-1506.14 90606 0
90606 -659.322 0
0    0    0

-265.137 88224.4 0
88224.4 933.545 0
0    0    0

-1889.94 24620.6 0
24620.6 -1930.11 0
0    0    0

-465.287 20909.3 0
20909.3 -1818.91 0
0    0    0

-215.103 41717.3 0
41717.3 817.439 0
0    0    0

1574.94 42009.6 0
42009.6 213.165 0
0    0    0

2062.12 42999.2 0
42999.2 -188.168 0
0    0    0

-496.675 47627.9 0
47627.9 785.14 0
0    0    0

-1794.34 43010.4 0
43010.4 -748.8 0
0    0    0

657.186 37309.9 0
37309.9 424.247 0
0    0    0

422.225 64977.6 0
64977.6 647.643 0
0    0    0

875.913 62501.8 0
62501.8 696.475 0
0    0    0

1089.62 62830.3 0
62830.3 1273.17 0
0    0    0

586.266 68232.6 0
68232.6 764.236 0
0    0    0

751.432 78298.8 0
78298.8 786.594 0
0    0    0

1488.17 75914.3 0
75914.3 400.947 0
0    0    0

-819.592 79777.7 0
79777.7 -185.453 0
0    0    0

495.224 73713.6 0
73713.6 -291.211 0
0    0    0

-69.9024 46224.6 0
46224.6 135.721 0
0    0    0

-59.4696 44984.5 0
44984.5 -1180.3 0
0    0    0

-6.8668 69821.3 0
69821.3 179.825 0
0    0    0

-606.659 68338.8 0
68338.8 -86.0095 0
0    0    0

-966.459 76216.7 0
76216.7 -768.603 0
0    0    0

-1298.84 78940.5 0
78940.5 -113.788 0
0    0    0

-236.194 74117.8 0
74117.8 533.861 0
0    0    0

57.3884 70263.7 0
70263.7 -932.204 0
0    0    0

-452.718 64764.3 0
64764.3 -1540.36 0
0    0    0

-419.404 60756.3 0
60756.3 -2009.07 0
0    0    0

1656.91 45230.2 0
45230.2 458.969 0
0    0    0

1731.87 49648.2 0
49648.2 -14.1154 0
0    0    0

-458.284 32994.7 0
32994.7 -1069.33 0
0    0    0

878.677 33776.9 0
33776.9 960.766 0
0    0    0

-1012.09 36137.8 0
36137.8 -291.163 0
0    0    0

-517.217 62974.8 0
62974.8 -1241.5 0
0    0    0

-630.312 64678.2 0
64678.2 987.961 0
0    0    0

876.712 53552.2 0
53552.2 1651.37 0
0    0    0

1039.02 56132.4 0
56132.4 2603.13 0
0    0    0

1085.28 59507.5 0
59507.5 597.31 0
0    0    0

-930.861 55732.7 0
55732.7 -1351.68 0
0    0    0

-1752.16 52053.1 0
52053.1 -825.772 0
0    0    0

-1027.27 55227.8 0
55227.8 -1750.6 0
0    0    0

30.7295 59945.5 0
59945.5 -440.712 0
0    0    0

1724.37 64513.4 0
64513.4 119.332 0
0    0    0

455.026 56105.2 0
56105.2 762.21 0
0    0    0

-2406.39 56561.7 0
56561.7 -3131.63 0
0    0    0

1220.88 21973.6 0
21973.6 -86.5109 0
0    0    0

1663.5 19481.3 0
19481.3 730.943 0
0    0    0

-1450.67 21060.6 0
21060.6 -4154.49 0
0    0    0

-1288.55 15743.2 0
15743.2 -552.237 0
0    0    0

897.566 21936.6 0
21936.6 3526.48 0
0    0    0

-1213.98 18813.3 0
18813.3 -2351.99 0
0    0    0

260.817 47381 0
47381 1541.77 0
0    0    0

-83.9849 44172.4 0
44172.4 98.6886 0
0    0    0

-1010.19 47698.9 0
47698.9 -2013.11 0
0    0    0

-439.77 49147.9 0
49147.9 -1400.37 0
0    0    0

-116.813 85007.3 0
85007.3 -860.041 0
0    0    0

-281.445 84422 0
84422 2691.48 0
0    0    0

581.926 51549.4 0
51549.4 1357.83 0
0    0    0

-827.173 45661 0
45661 -1547.65 0
0    0    0

1860.62 55047.2 0
55047.2 2116.87 0
0    0    0

100.671 49421.6 0
49421.6 -1216.45 0
0    0    0

924.797 54849.7 0
54849.7 1535.14 0
0    0    0

-879.932 58282.4 0
58282.4 -1604.71 0
0    0    0

335.075 60023.7 0
60023.7 1798.75 0
0    0    0

-1336.43 74463.8 0
74463.8 -853 0
0    0    0

-124.948 68118.5 0
68118.5 -2066.71 0
0    0    0

-1077.31 65829.5 0
65829.5 -458.163 0
0    0    0

-1327.08 67559.2 0
67559.2 -331.274 0
0    0    0

-421.379 77480.5 0
77480.5 -659.896 0
0    0    0

-100.7 73232.2 0
73232.2 -1527.02 0
0    0    0

410.796 49329.8 0
49329.8 -708.484 0
0    0    0

77.1257 48286.7 0
48286.7 -730.042 0
0    0    0

-1075.07 57675.1 0
57675.1 -1362.03 0
0    0    0

1648.68 53849.7 0
53849.7 377.623 0
0    0    0

-574.182 61390.6 0
61390.6 -1905 0
0    0    0

-1323.51 56547 0
56547 -28.0845 0
0    0    0

-1030.09 19924.4 0
19924.4 938.962 0
0    0    0

-1511.45 15721.7 0
15721.7 -619.298 0
0    0    0

700.293 21954.6 0
21954.6 -159.574 0
0    0    0

1920.12 27390 0
27390 991.815 0
0    0    0

-1994.92 49989.3 0
49989.3 -1327.13 0
0    0    0

-603.919 50723.6 0
50723.6 -597.17 0
0    0    0

1232.26 53536.9 0
53536.9 3219.5 0
0    0    0

1250.46 51323.7 0
51323.7 -562.462 0
0    0    0

-109.733 48024.6 0
48024.6 -1425.03 0
0    0    0

-907.752 49601.4 0
49601.4 -278.365 0
0    0    0

923.315 78688.2 0
78688.2 -832.323 0
0    0    0

1159.37 82862.7 0
82862.7 51.7318 0
0    0    0

72.9206 55757 0
55757 963.137 0
0    0    0

-457.802 61790.6 0
61790.6 -1432.78 0
0    0    0

-659.04 32142 0
32142 -1854.69 0
0    0    0

-445.059 35089.9 0
35089.9 -1039.6 0
0    0    0

-6.59496 55758.7 0
55758.7 1978.38 0
0    0    0

738.747 74449.5 0
74449.5 316.606 0
0    0    0

793.234 52079.4 0
52079.4 842.196 0
0    0    0

-485.737 79104.6 0
79104.6 572.987 0
0    0    0

-1611.98 79396.7 0
79396.7 -3718.87 0
0    0    0

5.95882 83717.9 0
83717.9 84.2749 0
0    0    0

2073.11 83666.7 0
83666.7 3629.42 0
0    0    0

1139.06 50533.6 0
50533.6 1263.99 0
0    0    0

599.358 55803.1 0
55803.1 299.816 0
0    0    0

422.529 32891.9 0
32891.9 191.559 0
0    0    0

1375.02 30302.7 0
30302.7 488.347 0
0    0    0

-633.965 48094.9 0
48094.9 365.068 0
0    0    0

-600.412 50258.5 0
50258.5 -1615.57 0
0    0    0

-673.156 43359.1 0
43359.1 -1752.49 0
0    0    0

-1609.57 47064.1 0
47064.1 567.272 0
0    0    0

-518.858 43621.8 0
43621.8 -1068.75 0
0    0    0

-1706.73 39748 0
39748 -2325.32 0
0    0    0

-1320.82 27113.8 0
27113.8 -384.263 0
0    0    0

-743.159 28672.2 0
28672.2 -132.03 0
0    0    0

-463.41 45915.7 0
45915.7 -1648.74 0
0    0    0

521.24 43890.1 0
43890.1 -127.791 0
0    0    0

-442.534 56667.9 0
56667.9 -531.804 0
0    0    0

-41.1075 54293.8 0
54293.8 404.858 0
0    0    0

-443.671 69120.7 0
69120.7 -407.725 0
0    0    0

-49.3001 66891.2 0
66891.2 512.475 0
0    0    0

160.274 64438 0
64438 68.6889 0
0    0    0

60.7857 54435.7 0
54435.7 -406.398 0
0    0    0

-621.488 57831.5 0
57831.5 -698.801 0
0    0    0

-188.615 60585.1 0
60585.1 278.641 0
0    0    0

507.953 57079.8 0
57079.8 577.17 0
0    0    0

-433.212 64190.8 0
64190.8 -573.988 0
0    0    0

19.9932 61924.9 0
61924.9 483.491 0
0    0    0

190.161 47622.1 0
47622.1 359.204 0
0    0    0

1175.69 51201.4 0
51201.4 3090.05 0
0    0    0

-1233.35 91319.1 0
91319.1 -2884.33 0
0    0    0

-574.279 40455.2 0
40455.2 -1935.97 0
0    0    0

-2476.19 86220.5 0
86220.5 -4112.01 0
0    0    0

-995.432 45377.4 0
45377.4 535.131 0
0    0    0

-1564.63 41827.3 0
41827.3 -1250.11 0
0    0    0

127.447 69327.4 0
69327.4 54.6201 0
0    0    0

-276.39 10747.5 0
10747.5 -118.453 0
0    0    0

1000.51 48334.9 0
48334.9 280.969 0
0    0    0

1034.63 41127 0
41127 -185.633 0
0    0    0

635.795 44206.1 0
44206.1 1483.52 0
0    0    0

27.3043 40692.8 0
40692.8 63.71 0
0    0    0

200.376 59468.4 0
59468.4 85.8754 0
0    0    0

-140.031 55567.7 0
55567.7 -326.739 0
0    0    0

-672.095 78288.3 0
78288.3 634.01 0
0    0    0

-414.084 20692.8 0
20692.8 -177.465 0
0    0    0

-1002.69 74259.7 0
74259.7 -2444.4 0
0    0    0

