# vtk DataFile Version 3.0
2D scalar data
ASCII
DATASET UNSTRUCTURED_GRID
POINTS 88 float
0.000000 0.000000 0
1.000000 0.000000 0
1.000000 1.000000 0
0.000000 1.000000 0
0.500000 0.500000 0
0.000000 0.500000 0
0.500000 0.000000 0
1.000000 0.500000 0
0.500000 1.000000 0
0.750000 0.250000 0
0.250000 0.750000 0
0.750000 0.750000 0
0.500000 0.250000 0
0.750000 0.000000 0
1.000000 0.250000 0
0.875000 0.375000 0
0.875000 0.125000 0
0.875000 0.250000 0
1.000000 0.375000 0
0.812500 0.562500 0
0.750000 0.125000 0
0.625000 0.187500 0
0.515625 0.125000 0
0.250000 0.000000 0
0.625000 0.000000 0
0.375000 0.000000 0
0.656250 0.093750 0
0.312500 0.187500 0
0.312500 0.083333 0
0.407652 0.135417 0
0.875000 0.000000 0
1.000000 0.125000 0
0.890625 0.484375 0
1.000000 0.750000 0
0.640625 0.609375 0
0.703125 0.421875 0
0.613839 0.321429 0
0.705212 0.330115 0
0.590473 0.432104 0
0.654316 0.509772 0
0.476906 0.375000 0
0.250000 0.481554 0
0.381582 0.292755 0
0.377417 0.458014 0
0.000000 0.250000 0
0.385208 0.635208 0
0.295879 0.373278 0
0.125696 0.365026 0
0.328333 0.548940 0
0.000000 0.750000 0
0.202686 0.615777 0
0.290234 0.660366 0
0.125000 0.718613 0
0.126679 0.513534 0
0.250000 1.000000 0
0.000000 0.875000 0
0.000000 0.625000 0
0.153535 0.869571 0
0.100962 0.612024 0
0.000000 0.375000 0
0.154067 0.207833 0
0.199692 0.102836 0
0.125000 0.000000 0
0.000000 0.125000 0
0.098089 0.098089 0
0.282603 0.875000 0
0.391641 0.779808 0
0.375000 1.000000 0
0.520939 0.701613 0
0.437500 0.893999 0
0.750000 1.000000 0
0.612338 0.862338 0
0.530762 0.910436 0
0.625000 1.000000 0
0.125000 1.000000 0
0.243199 0.274932 0
0.090326 0.277486 0
0.484846 0.603468 0
0.635362 0.726316 0
1.000000 0.625000 0
0.875000 0.687500 0
0.742188 0.643229 0
0.737338 0.875000 0
0.879376 0.834998 0
1.000000 0.875000 0
0.875000 1.000000 0
0.825573 0.916130 0
0.918597 0.918597 0

CELLS 142 568
3 35 37 15
3 27 75 60
3 48 45 51
3 50 41 48
3 6 22 29
3 26 22 24
3 32 35 15
3 66 65 10
3 14 15 17
3 13 16 20
3 53 50 58
3 74 55 57
3 72 73 8
3 11 83 82
3 29 42 27
3 12 21 36
3 26 20 21
3 17 16 14
3 15 18 32
3 7 32 18
3 31 14 16
3 30 1 16
3 9 16 17
3 15 9 17
3 15 14 18
3 34 39 81
3 80 79 33
3 21 20 9
3 16 9 20
3 12 22 21
3 21 37 36
3 28 23 25
3 13 20 26
3 22 26 21
3 28 25 29
3 22 6 24
3 12 42 29
3 13 26 24
3 12 36 40
3 61 23 28
3 25 6 29
3 61 27 60
3 12 29 22
3 27 28 29
3 16 13 30
3 16 1 31
3 79 32 7
3 35 32 19
3 34 78 68
3 79 80 19
3 38 40 36
3 39 19 81
3 39 4 38
3 37 21 9
3 38 36 35
3 15 37 9
3 35 36 37
3 39 38 35
3 38 4 40
3 19 39 35
3 4 39 34
3 43 40 4
3 12 40 42
3 43 48 41
3 44 76 59
3 43 42 40
3 46 42 43
3 77 48 4
3 43 41 46
3 68 77 34
3 76 75 47
3 68 66 45
3 47 46 41
3 42 46 75
3 47 41 53
3 76 60 75
3 4 48 43
3 45 66 51
3 52 50 10
3 49 52 57
3 52 56 58
3 10 50 51
3 48 51 50
3 55 49 57
3 58 5 53
3 47 53 5
3 41 50 53
3 65 57 10
3 65 54 57
3 52 10 57
3 52 49 56
3 55 74 3
3 52 58 50
3 5 58 56
3 64 0 62
3 47 5 59
3 61 28 27
3 61 64 62
3 62 23 61
3 60 44 63
3 64 60 63
3 60 64 61
3 0 64 63
3 10 51 66
3 67 54 65
3 45 77 68
3 65 69 67
3 78 34 81
3 69 65 66
3 71 72 68
3 68 69 66
3 8 67 69
3 82 71 11
3 82 83 86
3 8 69 72
3 68 72 69
3 71 82 73
3 42 75 27
3 71 73 72
3 57 54 74
3 47 75 46
3 59 76 47
3 44 60 76
3 48 77 45
3 34 77 4
3 11 71 78
3 71 68 78
3 80 33 83
3 32 79 19
3 81 80 11
3 80 81 19
3 78 81 11
3 80 83 11
3 73 82 70
3 85 87 2
3 86 70 82
3 87 86 83
3 83 33 84
3 84 87 83
3 70 86 85
3 2 87 84
3 86 87 85

CELL_TYPES 142
5
5
5
5
5
5
5
5
5
5
5
5
5
5
5
5
5
5
5
5
5
5
5
5
5
5
5
5
5
5
5
5
5
5
5
5
5
5
5
5
5
5
5
5
5
5
5
5
5
5
5
5
5
5
5
5
5
5
5
5
5
5
5
5
5
5
5
5
5
5
5
5
5
5
5
5
5
5
5
5
5
5
5
5
5
5
5
5
5
5
5
5
5
5
5
5
5
5
5
5
5
5
5
5
5
5
5
5
5
5
5
5
5
5
5
5
5
5
5
5
5
5
5
5
5
5
5
5
5
5
5
5
5
5
5
5
5
5
5
5
5
5

POINT_DATA 88
SCALARS pressure float 1
LOOKUP_TABLE default
0
0
0
0
0
0
0
0
0
0
0
0
0
0
0
0
0
0
0
0
0
0
0
0
0
0
0
0
0
0
0
0
0
0
0
0
0
0
0
0
0
0
0
0
0
0
0
0
0
0
0
0
0
0
0
0
0
0
0
0
0
0
0
0
0
0
0
0
0
0
0
0
0
0
0
0
0
0
0
0
0
0
0
0
0
0
0
0
VECTORS displacement float
0 0 0
0 3 0
2 3 0
2 0 0
0.495812 0.745002 0
0.5 0 0
0 0.75 0
0.5 3 0
2 0.75 0
0.131072 1.69005 0
1.12977 0.184439 0
1.12482 1.6895 0
0.125606 0.748706 0
0 1.6875 0
0.125 3 0
0.276938 2.30127 0
0.0285707 2.2948 0
0.128899 2.30153 0
0.28125 3 0
0.635911 1.98077 0
0.0301093 1.69136 0
0.0698652 1.17189 0
0.0296094 0.796971 0
0 0.1875 0
0 1.17187 0
0 0.421875 0
0.0200483 1.29339 0
0.0696354 0.294994 0
0.015119 0.295134 0
0.0328655 0.497627 0
0 2.29688 0
0.03125 3 0
0.471219 2.38189 0
1.125 3 0
0.748766 1.22458 0
0.352132 1.47852 0
0.208282 1.12836 0
0.220752 1.48921 0
0.372967 1.04744 0
0.522481 1.2743 0
0.281057 0.678079 0
0.464231 0.19217 0
0.1671 0.430692 0
0.420369 0.428818 0
0.125 0 0
0.809525 0.451999 0
0.284781 0.265004 0
0.265597 0.0504001 0
0.60399 0.321206 0
1.125 0 0
0.757229 0.129889 0
0.880702 0.257872 0
1.03271 0.0503346 0
0.527707 0.054493 0
2 0.1875 0
1.53125 0 0
0.78125 0 0
1.51233 0.0676016 0
0.748515 0.0378575 0
0.28125 0 0
0.0878609 0.0708693 0
0.0237766 0.124558 0
0 0.046875 0
0.03125 0 0
0.0198507 0.0366807 0
1.53111 0.238315 0
1.22176 0.4672 0
2 0.421875 0
0.984938 0.810365 0
1.60202 0.571173 0
2 1.6875 0
1.49066 1.12606 0
1.65825 0.848267 0
2 1.17187 0
2 0.046875 0
0.150702 0.184047 0
0.158867 0.0274148 0
0.731079 0.703072 0
1.06007 1.20967 0
0.78125 3 0
0.939968 2.30595 0
0.828984 1.65382 0
1.53283 1.63313 0
1.39437 2.32225 0
1.53125 3 0
2 2.29687 0
1.68347 2.05271 0
1.69123 2.53777 0
VECTORS displacementExact float
0 0 0
0 3 0
2 3 0
2 0 0
0.5 0.75 0
0.5 0 0
0 0.75 0
0.5 3 0
2 0.75 0
0.125 1.6875 0
1.125 0.1875 0
1.125 1.6875 0
0.125 0.75 0
0 1.6875 0
0.125 3 0
0.28125 2.29688 0
0.03125 2.29688 0
0.125 2.29688 0
0.28125 3 0
0.632813 1.98047 0
0.03125 1.6875 0
0.0703125 1.17188 0
0.03125 0.797607 0
0 0.1875 0
0 1.17188 0
0 0.421875 0
0.0175781 1.29199 0
0.0703125 0.292969 0
0.0138889 0.292969 0
0.0366753 0.498541 0
0 2.29688 0
0.03125 3 0
0.469238 2.37964 0
1.125 3 0
0.742676 1.2312 0
0.355957 1.48315 0
0.206633 1.1304 0
0.217951 1.49197 0
0.373429 1.04597 0
0.519735 1.28439 0
0.28125 0.682318 0
0.463789 0.1875 0
0.171411 0.436813 0
0.419554 0.427332 0
0.125 0 0
0.806978 0.445156 0
0.278672 0.262633 0
0.266488 0.0473983 0
0.602671 0.323407 0
1.125 0 0
0.758363 0.123244 0
0.872168 0.252708 0
1.03281 0.046875 0
0.527434 0.0481427 0
2 0.1875 0
1.53125 0 0
0.78125 0 0
1.51231 0.0707192 0
0.749147 0.0305801 0
0.28125 0 0
0.0863891 0.0712095 0
0.0211503 0.11963 0
0 0.046875 0
0.03125 0 0
0.0192428 0.0288643 0
1.53125 0.239593 0
1.2162 0.460148 0
2 0.421875 0
0.984521 0.814133 0
1.59847 0.574219 0
2 1.6875 0
1.48725 1.12487 0
1.65779 0.845126 0
2 1.17188 0
2 0.046875 0
0.151175 0.177438 0
0.153997 0.0244766 0
0.728346 0.705227 0
1.05507 1.21105 0
0.78125 3 0
0.945313 2.29688 0
0.827488 1.65253 0
1.53125 1.631 0
1.39444 2.31991 0
1.53125 3 0
2 2.29688 0
1.67859 2.04471 0
1.68764 2.53146 0
VECTORS error float
0 0 0
0 -4.03855e-12 0
9.95204e-13 1.49436e-12 0
-2.69251e-12 0 0
-0.00418809 -0.0049976 0
2.25042e-13 0 0
0 4.75509e-13 0
6.57807e-13 -3.72147e-13 0
1.69864e-12 3.86469e-13 0
0.0060718 0.00254952 0
0.00477223 -0.00306124 0
-0.000175666 0.0020041 0
0.000605707 -0.00129396 0
0 -4.03233e-13 0
1.55709e-14 3.70814e-13 0
-0.00431177 0.00439581 0
-0.00267927 -0.00207542 0
0.00389929 0.00465787 0
1.29341e-14 1.42109e-13 0
0.00309802 0.000303225 0
-0.00114071 0.00385839 0
-0.000447258 1.95795e-05 0
-0.00164059 -0.000636509 0
0 2.50633e-14 0
0 -1.38312e-12 0
0 3.85914e-13 0
0.00247014 0.00139483 0
-0.000677145 0.00202513 0
0.00123014 0.00216475 0
-0.00380989 -0.000914093 0
0 2.84661e-13 0
3.89272e-15 3.70814e-13 0
0.00198075 0.00224991 0
-1.15263e-12 -4.41425e-13 0
0.00608985 -0.00662201 0
-0.00382523 -0.00463206 0
0.00164952 -0.00203855 0
0.00280046 -0.00276454 0
-0.000461498 0.00146499 0
0.00274565 -0.010085 0
-0.000192559 -0.00423976 0
0.000441724 0.00467037 0
-0.00431115 -0.00612136 0
0.000815582 0.0014865 0
6.68632e-14 0 0
0.00254717 0.00684378 0
0.0061084 0.00237123 0
-0.0008906 0.00300181 0
0.00131941 -0.00220114 0
-2.94875e-13 0 0
-0.00113444 0.00664442 0
0.00853473 0.00516457 0
-0.000101793 0.0034596 0
0.000273115 0.00635023 0
1.0778e-12 1.94456e-13 0
1.525e-12 0 0
-4.06564e-13 0 0
2.09446e-05 -0.00311766 0
-0.000631979 0.00727742 0
-4.82947e-15 0 0
0.00147186 -0.000340201 0
0.00262629 0.00492756 0
0 1.50852e-14 0
1.68338e-14 0 0
0.000607856 0.00781646 0
-0.000138854 -0.00127865 0
0.00555541 0.00705208 0
-5.11813e-13 3.77143e-13 0
0.000416273 -0.00376796 0
0.00354859 -0.00304548 0
-2.77334e-13 4.583e-13 0
0.00340529 0.00118899 0
0.000464853 0.00314126 0
-5.50893e-13 -9.51683e-13 0
7.76268e-13 -6.63358e-15 0
-0.000472997 0.00660917 0
0.00487055 0.00293821 0
0.00273213 -0.00215464 0
0.00499639 -0.00138514 0
-1.69909e-12 9.05498e-13 0
-0.00534496 0.00907537 0
0.00149697 0.00129164 0
0.00158283 0.0021263 0
-7.70613e-05 0.00234941 0
4.98268e-13 -6.79012e-13 0
2.06501e-13 -2.62323e-12 0
0.00487619 0.00799486 0
0.00358894 0.00631117 0

CELL_DATA 142
TENSORS efStress float
-1769.83 62155.2 0
62155.2 -976.279 0
0    0    0

-2311.87 23242.2 0
23242.2 -5688.13 0
0    0    0

-1372.85 45309.5 0
45309.5 3511.22 0
0    0    0

-1173.34 37278.5 0
37278.5 2054.7 0
0    0    0

180.451 30129.7 0
30129.7 902.16 0
0    0    0

1001.02 37749.8 0
37749.8 3606.18 0
0    0    0

2350.21 65707 0
65707 2471.16 0
0    0    0

-2396.15 52342.5 0
52342.5 -3738.07 0
0    0    0

-1123.25 67720.5 0
67720.5 -541.294 0
0    0    0

32.2097 50684 0
50684 895.722 0
0    0    0

1102.33 31449.5 0
31449.5 2377.71 0
0    0    0

-629.596 41790.3 0
41790.3 -2071.82 0
0    0    0

930.445 71906.8 0
71906.8 2171.04 0
0    0    0

-1378.52 81217.1 0
81217.1 598.955 0
0    0    0

1903.96 29537.3 0
29537.3 -1463.76 0
0    0    0

1914.65 44027.7 0
44027.7 -459.977 0
0    0    0

-591.281 47197.4 0
47197.4 2808.91 0
0    0    0

-283.805 63903.7 0
63903.7 1417.41 0
0    0    0

285.234 73611.9 0
73611.9 -1634.07 0
0    0    0

459.912 74013 0
74013 197.105 0
0    0    0

750.195 63916 0
63916 321.512 0
0    0    0

-249.051 58535.7 0
58535.7 -581.118 0
0    0    0

199.691 56945 0
56945 1624.62 0
0    0    0

-639.752 60761.8 0
60761.8 -334.081 0
0    0    0

1207.3 68398.3 0
68398.3 517.413 0
0    0    0

2261.6 64764.6 0
64764.6 3201.66 0
0    0    0

3684.09 83024 0
83024 1578.89 0
0    0    0

2846.02 49581.8 0
49581.8 920.553 0
0    0    0

-587.862 56352.3 0
56352.3 -551.111 0
0    0    0

-1719.26 41649.9 0
41649.9 392.913 0
0    0    0

1387.13 49855 0
49855 708.536 0
0    0    0

-1719.72 20564.3 0
20564.3 -4012.68 0
0    0    0

1408.92 44756.1 0
44756.1 1485.74 0
0    0    0

-37.9497 40508.7 0
40508.7 -3695.34 0
0    0    0

2963.13 23267.2 0
23267.2 2792.68 0
0    0    0

-691.615 36118.8 0
36118.8 -1613.77 0
0    0    0

-1265.2 35387.1 0
35387.1 52.3251 0
0    0    0

-1183.08 43388.5 0
43388.5 -2760.51 0
0    0    0

-1008.1 45409 0
45409 876.823 0
0    0    0

685.847 17477.5 0
17477.5 4278.44 0
0    0    0

-1103.28 28677 0
28677 -2574.32 0
0    0    0

281.595 20221.3 0
20221.3 3248.67 0
0    0    0

955.676 35420.7 0
35420.7 -734.758 0
0    0    0

-3518.82 26521.9 0
26521.9 -1546.36 0
0    0    0

-249.051 51035.7 0
51035.7 -581.118 0
0    0    0

750.195 58916 0
58916 321.512 0
0    0    0

-2040.09 79013 0
79013 -874.324 0
0    0    0

-5332.05 69544.3 0
69544.3 -9063.85 0
0    0    0

3277.12 61490.9 0
61490.9 2240.92 0
0    0    0

-3595.6 79363.5 0
79363.5 -5535.74 0
0    0    0

1330.16 47722.4 0
47722.4 -578.53 0
0    0    0

-4035.44 68450.3 0
68450.3 -5275.83 0
0    0    0

3485.96 53041 0
53041 4553.11 0
0    0    0

-4138.05 53081 0
53081 -6005.9 0
0    0    0

-604.055 53110.4 0
53110.4 1977.73 0
0    0    0

3248.18 58808.1 0
58808.1 5546.42 0
0    0    0

-385.813 53835.1 0
53835.1 -924.384 0
0    0    0

-3465.26 57405 0
57405 -7456.15 0
0    0    0

-3188.67 50178.2 0
50178.2 -3429.28 0
0    0    0

4081.18 63934.1 0
63934.1 5525.4 0
0    0    0

591.933 57075.4 0
57075.4 -532.407 0
0    0    0

1951.1 42705.5 0
42705.5 2631.26 0
0    0    0

2590.96 39220 0
39220 -997.906 0
0    0    0

-1892.29 38568.9 0
38568.9 -6552.27 0
0    0    0

-189.844 15535.1 0
15535.1 -81.3617 0
0    0    0

-3550.22 40789.9 0
40789.9 -9.97764 0
0    0    0

2968.85 35035.4 0
35035.4 2366.12 0
0    0    0

-23.5161 47322.9 0
47322.9 -1312.4 0
0    0    0

415.35 35200.1 0
35200.1 3720.9 0
0    0    0

-1549.77 59338.4 0
59338.4 -4660.94 0
0    0    0

-3404.59 22545.5 0
22545.5 -5755.89 0
0    0    0

-3852.57 55019.2 0
55019.2 -2011.46 0
0    0    0

-923.493 29383.6 0
29383.6 -4268.96 0
0    0    0

-4265.74 31967.4 0
31967.4 -5864.85 0
0    0    0

-1690.85 28869.7 0
28869.7 -149.398 0
0    0    0

3486.11 20155.3 0
20155.3 10597.3 0
0    0    0

392.477 45036.8 0
45036.8 5205.43 0
0    0    0

409.139 48983.1 0
48983.1 575.997 0
0    0    0

3520.63 38098.4 0
38098.4 2393.84 0
0    0    0

2534.03 35783 0
35783 2129.77 0
0    0    0

1101.01 30412.3 0
30412.3 1374.17 0
0    0    0

-2130.51 43064.2 0
43064.2 -4705.35 0
0    0    0

3462.69 40173.5 0
40173.5 -184.291 0
0    0    0

-291.211 36903 0
36903 -124.805 0
0    0    0

-1533.91 26726.9 0
26726.9 -2230.19 0
0    0    0

1427.24 21922.8 0
21922.8 1318.23 0
0    0    0

814.586 32991.4 0
32991.4 -1866.98 0
0    0    0

1675.37 45269.5 0
45269.5 3203.15 0
0    0    0

-1337.4 50731.7 0
50731.7 -2312.24 0
0    0    0

-2173.46 42775.4 0
42775.4 -3583.44 0
0    0    0

-1673.92 31526.8 0
31526.8 -717.396 0
0    0    0

9.71259e-07 41250 0
41250 4.16254e-07 0
0    0    0

-1764.18 35770.9 0
35770.9 -3261.89 0
0    0    0

-1226.91 26249.7 0
26249.7 -525.819 0
0    0    0

-15.6882 5773.75 0
5773.75 -36.6059 0
0    0    0

501.726 21509.7 0
21509.7 215.026 0
0    0    0

460.502 20352.1 0
20352.1 159.061 0
0    0    0

2983.67 10690.4 0
10690.4 5040.86 0
0    0    0

-925.549 13562.1 0
13562.1 -2159.61 0
0    0    0

-1252.59 12099.9 0
12099.9 -536.825 0
0    0    0

3241.46 9986.64 0
9986.64 4416.56 0
0    0    0

-1644.69 14857.7 0
14857.7 -4499.22 0
0    0    0

-1666.89 6239.54 0
6239.54 -714.379 0
0    0    0

3120.07 47868.2 0
47868.2 3342.98 0
0    0    0

1237.91 56261.1 0
56261.1 2888.45 0
0    0    0

3384.01 51418.4 0
51418.4 5709.08 0
0    0    0

-2068.21 59180.9 0
59180.9 -4654.74 0
0    0    0

-2435.15 68634.7 0
68634.7 721.668 0
0    0    0

2565.15 54519.8 0
54519.8 2527.5 0
0    0    0

-4911.3 66489.5 0
66489.5 -1512.3 0
0    0    0

3259.45 58495.9 0
58495.9 -2174.26 0
0    0    0

2089.26 63795.2 0
63795.2 4874.93 0
0    0    0

-361.348 73252.9 0
73252.9 -1288.87 0
0    0    0

-701.055 84020.7 0
84020.7 -3986.42 0
0    0    0

-3378.82 67770.4 0
67770.4 -3514.09 0
0    0    0

1856.31 61863.9 0
61863.9 1998.13 0
0    0    0

-1931.82 77640.6 0
77640.6 -1990.92 0
0    0    0

1927.58 26920.8 0
26920.8 4553.54 0
0    0    0

4497.32 71051.6 0
71051.6 2457.76 0
0    0    0

1308.25 48639.8 0
48639.8 3052.58 0
0    0    0

3949.99 25913.7 0
25913.7 6025.91 0
0    0    0

519.381 16387.9 0
16387.9 3006.56 0
0    0    0

-2288.84 14516.6 0
14516.6 -8716.34 0
0    0    0

-2619.67 48796.1 0
48796.1 -4550.6 0
0    0    0

2219.61 56223.2 0
56223.2 3368.26 0
0    0    0

-1653.78 73179.5 0
73179.5 1881.63 0
0    0    0

-1253.21 66559.4 0
66559.4 -1197.62 0
0    0    0

-2960 86624.2 0
86624.2 -2839.94 0
0    0    0

5294.97 75228.8 0
75228.8 8731.92 0
0    0    0

-3540.8 76961.2 0
76961.2 -2251.23 0
0    0    0

3676.53 72692 0
72692 6593.11 0
0    0    0

157.574 69511.4 0
69511.4 878.621 0
0    0    0

1592.47 79928.6 0
79928.6 -324.405 0
0    0    0

256.925 78623.4 0
78623.4 599.491 0
0    0    0

798.928 94181.1 0
94181.1 1864.17 0
0    0    0

-2019.8 85191.5 0
85191.5 -2266.46 0
0    0    0

1619.87 87670 0
87670 4501.85 0
0    0    0

1995.47 88686.5 0
88686.5 855.202 0
0    0    0

-2805.91 92162.8 0
92162.8 -3166.55 0
0    0    0

574.318 86491.2 0
86491.2 1340.08 0
0    0    0

1508.71 94282.6 0
94282.6 646.589 0
0    0    0

-3055.3 90028.4 0
90028.4 -6003.88 0
0    0    0

