# vtk DataFile Version 3.0
2D scalar data
ASCII
DATASET UNSTRUCTURED_GRID
POINTS 15743 float
0.000000 0.000000 0
1.000000 0.000000 0
1.000000 1.000000 0
0.000000 1.000000 0
0.500000 0.500000 0
0.000000 0.500000 0
0.500000 0.000000 0
1.000000 0.500000 0
0.500000 1.000000 0
0.750000 0.250000 0
0.250000 0.750000 0
0.750000 0.750000 0
0.500000 0.250000 0
0.750000 0.000000 0
1.000000 0.250000 0
0.875000 0.375000 0
0.875000 0.125000 0
0.875000 0.250000 0
1.000000 0.375000 0
0.812500 0.562500 0
0.750000 0.125000 0
0.625000 0.187500 0
0.515625 0.125000 0
0.250000 0.000000 0
0.625000 0.000000 0
0.375000 0.000000 0
0.656250 0.093750 0
0.312500 0.187500 0
0.312500 0.083333 0
0.407652 0.135417 0
0.875000 0.000000 0
1.000000 0.125000 0
0.890625 0.484375 0
1.000000 0.750000 0
0.640625 0.609375 0
0.703125 0.421875 0
0.613839 0.321429 0
0.705212 0.330115 0
0.590473 0.432104 0
0.654316 0.509772 0
0.476906 0.375000 0
0.250000 0.481554 0
0.381582 0.292755 0
0.377417 0.458014 0
0.000000 0.250000 0
0.385208 0.635208 0
0.295879 0.373278 0
0.125696 0.365026 0
0.328333 0.548940 0
0.000000 0.750000 0
0.202686 0.615777 0
0.290234 0.660366 0
0.125000 0.718613 0
0.126679 0.513534 0
0.250000 1.000000 0
0.000000 0.875000 0
0.000000 0.625000 0
0.153535 0.869571 0
0.100962 0.612024 0
0.000000 0.375000 0
0.154067 0.207833 0
0.199692 0.102836 0
0.125000 0.000000 0
0.000000 0.125000 0
0.098089 0.098089 0
0.282603 0.875000 0
0.391641 0.779808 0
0.375000 1.000000 0
0.520939 0.701613 0
0.437500 0.893999 0
0.750000 1.000000 0
0.612338 0.862338 0
0.530762 0.910436 0
0.625000 1.000000 0
0.125000 1.000000 0
0.243199 0.274932 0
0.090326 0.277486 0
0.484846 0.603468 0
0.635362 0.726316 0
1.000000 0.625000 0
0.875000 0.687500 0
0.742188 0.643229 0
0.737338 0.875000 0
0.879376 0.834998 0
1.000000 0.875000 0
0.875000 1.000000 0
0.825573 0.916130 0
0.918597 0.918597 0
0.783433 0.377797 0
0.252489 0.557883 0
0.576778 0.068157 0
0.582250 0.135360 0
0.153329 0.573095 0
0.562500 1.000000 0
0.710750 0.568272 0
0.665935 0.258341 0
0.312500 0.000000 0
0.718750 0.062500 0
0.381599 0.070054 0
0.251114 0.064269 0
0.576942 0.508301 0
0.316284 0.483724 0
0.000000 0.312500 0
0.418868 0.540961 0
0.561808 0.630874 0
0.167116 0.297375 0
0.210718 0.370577 0
0.163556 0.439032 0
0.353947 0.709042 0
0.437241 0.700773 0
0.000000 0.687500 0
0.000000 0.562500 0
0.150237 0.656916 0
0.062500 0.000000 0
0.263414 0.135417 0
0.150789 0.059811 0
0.068469 0.182346 0
0.146935 0.142322 0
0.524212 0.806102 0
0.599020 0.932976 0
0.687500 1.000000 0
0.937500 1.000000 0
0.762812 0.935561 0
0.812500 1.000000 0
1.000000 0.937500 0
0.827265 0.312500 0
0.831070 0.437079 0
0.757487 0.492441 0
0.068319 0.550898 0
0.000000 0.062500 0
0.569858 0.752376 0
0.462834 0.768211 0
0.388311 0.213041 0
0.937500 0.421875 0
0.466670 0.182357 0
0.935268 0.562500 0
0.927193 0.635636 0
0.552436 0.366269 0
0.643022 0.385394 0
0.519504 0.431763 0
0.378514 0.375360 0
0.309996 0.302434 0
0.356018 0.917382 0
0.312500 1.000000 0
0.350304 0.842504 0
0.318384 0.776483 0
0.676974 0.669600 0
0.437500 1.000000 0
0.679143 0.803686 0
0.799479 0.692708 0
0.842218 0.762287 0
0.920798 0.752154 0
0.801080 0.829160 0
1.000000 0.812500 0
0.069449 0.675136 0
0.228587 0.201593 0
0.676167 0.923046 0
0.937500 0.312500 0
0.812500 0.062500 0
0.078508 0.921492 0
0.578659 0.251068 0
0.937500 0.187500 0
0.937500 0.062500 0
0.812500 0.187500 0
0.703125 0.187500 0
0.453293 0.306004 0
0.080310 0.805236 0
0.000000 0.812500 0
0.070510 0.439648 0
0.220077 0.824556 0
0.179769 0.765096 0
0.215879 0.924349 0
0.460550 0.068408 0
0.421549 0.092004 0
0.300633 0.825792 0
0.531250 0.960668 0
0.471574 0.945334 0
0.539410 0.191450 0
0.765625 0.046875 0
0.340318 0.041667 0
0.439128 0.246712 0
0.687500 0.000000 0
0.198844 0.156689 0
0.873884 0.592736 0
0.599695 0.366521 0
0.694513 0.619153 0
0.690045 0.375674 0
0.554829 0.465074 0
0.447783 0.441221 0
0.039836 0.281250 0
0.337940 0.344831 0
0.327378 0.424567 0
0.268379 0.425483 0
0.216925 0.439666 0
0.202670 0.700723 0
0.037657 0.781250 0
0.051543 0.626771 0
0.093750 0.044162 0
0.051062 0.074735 0
0.187500 0.000000 0
0.099292 0.145846 0
0.281250 0.941399 0
0.613798 0.666871 0
0.422502 0.744942 0
0.406250 0.949331 0
0.574758 0.891827 0
0.583559 0.810269 0
0.632072 0.817443 0
0.695087 0.726512 0
0.740169 0.697048 0
0.641095 0.955214 0
0.906250 0.964361 0
0.281961 0.518717 0
0.632360 0.137870 0
0.193949 0.519177 0
0.291787 0.041667 0
0.356141 0.753296 0
0.513912 0.754129 0
0.315589 0.135417 0
0.436076 0.828267 0
0.803413 0.955630 0
0.964361 0.906250 0
0.942776 0.845686 0
0.339224 0.249038 0
1.000000 0.562500 0
1.000000 0.687500 0
0.509434 0.325329 0
0.410819 0.335200 0
0.259885 0.329276 0
0.343750 0.963690 0
0.299592 0.723476 0
0.933752 0.694430 0
0.268125 0.180149 0
0.634383 0.903069 0
0.125394 0.773655 0
0.159862 0.815628 0
0.073904 0.495362 0
0.043310 0.843750 0
0.097848 0.859114 0
0.437500 0.000000 0
0.582945 0.205517 0
0.656250 0.041667 0
0.863835 0.535710 0
0.814702 0.504142 0
0.879720 0.640056 0
0.421693 0.487719 0
0.404826 0.417043 0
0.069074 0.732843 0
0.201497 0.049763 0
0.051560 0.126309 0
0.573303 0.700104 0
0.615288 0.771214 0
0.162936 0.485103 0
0.204446 0.566923 0
0.361621 0.115891 0
0.490902 0.859961 0
0.397604 0.861982 0
0.917493 0.802279 0
0.284291 0.236322 0
0.959487 0.602188 0
0.210902 0.320881 0
0.254460 0.697919 0
0.420545 0.043800 0
0.541209 0.853844 0
0.961985 0.781250 0
0.194821 0.246446 0
0.295914 0.600082 0
0.348466 0.597549 0
0.252408 0.626393 0
0.829616 0.389467 0
0.882382 0.319882 0
0.793170 0.778204 0
0.740951 0.812402 0
0.695313 0.132813 0
0.884496 0.430950 0
0.947329 0.478075 0
0.945313 0.367188 0
0.659513 0.561229 0
0.620687 0.274029 0
0.562500 0.000000 0
0.518638 0.056328 0
0.772289 0.435533 0
0.616257 0.475983 0
0.652545 0.437456 0
0.661259 0.307533 0
0.708124 0.514335 0
0.511913 0.649223 0
0.121357 0.315864 0
0.060940 0.345969 0
0.082852 0.391059 0
0.340958 0.660008 0
0.230992 0.875000 0
0.788938 0.879514 0
0.149504 0.937025 0
0.187500 1.000000 0
0.532701 0.557633 0
0.594033 0.568131 0
0.763044 0.590410 0
0.752768 0.541851 0
0.816342 0.627079 0
0.664063 0.212175 0
0.710584 0.280541 0
0.764822 0.311497 0
0.136845 0.256065 0
0.166710 0.390731 0
0.393338 0.682185 0
0.442595 0.643094 0
0.420036 0.594512 0
0.715553 0.956557 0
0.812500 0.251744 0
0.420496 0.179839 0
1.000000 0.437500 0
0.327563 0.881896 0
0.839047 0.716319 0
0.842005 0.808246 0
0.757813 0.195313 0
0.461590 0.128451 0
0.260778 0.797609 0
0.538884 0.283385 0
0.430215 0.377761 0
0.361194 0.168250 0
0.566731 0.321382 0
0.812500 0.125000 0
0.937500 0.250000 0
1.000000 0.187500 0
0.875000 0.062500 0
0.875000 0.187500 0
0.937500 0.125000 0
0.473838 0.549012 0
0.000000 0.937500 0
0.872836 0.889067 0
0.370798 0.513152 0
0.000000 0.187500 0
1.000000 0.312500 0
0.812500 0.000000 0
0.062500 1.000000 0
0.044547 0.955453 0
1.000000 0.062500 0
0.937500 0.000000 0
0.000000 0.437500 0
0.678851 0.863326 0
0.736495 0.387475 0
0.612249 0.042116 0
0.577798 0.032369 0
0.615585 0.083838 0
0.585985 0.101232 0
0.544658 0.094918 0
0.859989 0.406328 0
0.497989 0.966322 0
0.348241 0.206696 0
0.842212 0.350563 0
0.803398 0.343839 0
0.679425 0.533227 0
0.664063 0.167932 0
0.375076 0.035331 0
0.781250 0.000000 0
0.618557 0.230551 0
1.000000 0.593750 0
0.577433 0.663849 0
0.575904 0.396616 0
0.611430 0.402767 0
0.555017 0.425925 0
0.652366 0.473640 0
0.518375 0.468346 0
0.538773 0.501348 0
0.478607 0.466421 0
0.302515 0.337772 0
0.391184 0.721341 0
0.170253 0.344068 0
0.373046 0.329927 0
0.346697 0.304311 0
0.117180 0.461447 0
0.219611 0.658253 0
0.261407 0.592148 0
0.256798 0.907687 0
0.031247 0.661783 0
0.041364 0.383351 0
0.000000 0.406250 0
0.218750 0.000000 0
0.000000 0.093750 0
0.125606 0.177788 0
0.236025 0.160915 0
0.228409 0.125275 0
0.319641 0.932524 0
0.306997 0.965302 0
0.293852 0.908442 0
0.598091 0.727987 0
0.365137 0.880918 0
0.377280 0.966435 0
0.665044 0.892626 0
0.765760 0.847284 0
0.656250 1.000000 0
0.238653 0.306062 0
0.036578 0.318113 0
0.000000 0.343750 0
0.061697 0.233982 0
0.883786 0.774884 0
0.882262 0.730904 0
0.850892 0.619591 0
0.841792 0.661056 0
0.800611 0.735773 0
0.771296 0.714996 0
0.761092 0.900646 0
0.933566 0.883097 0
0.781250 1.000000 0
0.744666 0.283821 0
0.782985 0.277091 0
0.176242 0.548097 0
0.606166 0.159346 0
0.570997 0.961169 0
0.606637 0.968571 0
0.705831 0.234103 0
0.180269 0.075608 0
0.281250 0.000000 0
0.624047 0.538820 0
0.290713 0.555974 0
0.163712 0.238467 0
0.203893 0.478975 0
0.124864 0.412253 0
0.289502 0.110831 0
0.260263 0.212824 0
0.000000 0.156250 0
0.678192 0.963210 0
0.954006 0.954006 0
0.718750 1.000000 0
0.843750 1.000000 0
0.779381 0.561586 0
0.067641 0.590539 0
0.036449 0.570180 0
0.032501 0.527675 0
0.547807 0.724673 0
0.056568 0.037335 0
0.659864 0.348273 0
0.365327 0.412830 0
0.335974 0.385138 0
0.395548 0.820828 0
0.671312 0.593636 0
0.759121 0.783180 0
0.662288 0.833424 0
0.833247 0.863557 0
0.752232 0.084821 0
0.781250 0.106585 0
0.717228 0.101055 0
0.000000 0.968750 0
0.072394 0.769396 0
0.032402 0.813231 0
0.193353 0.856742 0
0.184435 0.897269 0
0.406250 0.000000 0
0.259418 0.839765 0
0.333650 0.809828 0
0.343750 0.000000 0
0.346959 0.076220 0
0.423566 0.215016 0
0.682292 0.067708 0
0.083206 0.314977 0
0.190511 0.416539 0
0.083164 0.642561 0
0.518737 0.878956 0
0.482046 0.902830 0
0.315762 0.517542 0
0.663084 0.125979 0
0.259785 0.031974 0
0.430980 0.861259 0
0.501040 0.288125 0
0.417444 0.299345 0
0.451710 0.345085 0
0.229795 0.722038 0
0.315799 0.688824 0
0.570200 0.170562 0
0.537038 0.154817 0
0.504488 0.175317 0
0.508258 0.213020 0
0.543904 0.231220 0
0.656250 0.000000 0
0.035545 0.745481 0
0.220470 0.076975 0
0.171499 0.031351 0
0.659189 0.763905 0
0.513608 0.836773 0
0.967634 0.569982 0
0.961104 0.524487 0
0.202656 0.283708 0
0.552859 0.822800 0
0.964405 0.817053 0
0.353095 0.629786 0
0.802263 0.414131 0
0.628036 0.576658 0
0.620728 0.443841 0
0.092423 0.358538 0
0.315399 0.632328 0
0.781719 0.519685 0
0.411750 0.654806 0
0.718179 0.913571 0
0.748099 0.966129 0
0.282476 0.767672 0
0.585546 0.288405 0
0.455253 0.404992 0
0.491544 0.408381 0
0.515519 0.377968 0
0.539042 0.337284 0
0.796875 0.031250 0
0.031250 1.000000 0
0.753335 0.350484 0
0.764382 0.404063 0
0.086326 0.466645 0
0.184705 0.668943 0
0.162213 0.702626 0
0.183786 0.730265 0
0.254829 0.662454 0
0.227315 0.592206 0
0.031664 0.100711 0
0.032741 0.249279 0
0.035694 0.204310 0
0.099641 0.212696 0
0.159955 0.518635 0
0.563269 0.925977 0
0.727892 0.209442 0
0.610161 0.508640 0
1.000000 0.968750 0
0.968750 1.000000 0
0.848638 0.955036 0
0.000000 0.593750 0
0.358607 0.787017 0
0.227612 0.030945 0
0.467508 0.271270 0
0.551526 0.126226 0
0.489818 0.145679 0
0.469732 0.221738 0
0.916060 0.521659 0
0.128242 0.225803 0
0.881733 0.933198 0
0.231727 0.239093 0
0.726563 0.156250 0
0.915793 0.454423 0
0.968750 0.335938 0
0.484209 0.036473 0
0.451269 0.030512 0
0.178444 0.129435 0
0.800918 0.465249 0
0.847977 0.567903 0
0.707816 0.652050 0
0.905378 0.282122 0
0.397750 0.253979 0
0.351919 0.482919 0
0.454902 0.581180 0
0.191681 0.208946 0
0.402728 0.513408 0
0.035199 0.469759 0
0.127044 0.034584 0
0.474690 0.675161 0
0.542581 0.775454 0
0.383084 0.568530 0
0.665296 0.704655 0
0.906216 0.398483 0
0.495279 0.089705 0
0.716886 0.467496 0
0.686093 0.485974 0
0.736106 0.436812 0
0.558781 0.589673 0
0.521256 0.593583 0
0.298262 0.449726 0
0.273898 0.295240 0
0.297606 0.407534 0
0.234571 0.403257 0
0.249753 0.367131 0
0.478083 0.723848 0
0.117495 0.069390 0
0.144575 0.100867 0
0.706438 0.833640 0
0.853557 0.497688 0
0.830258 0.533950 0
0.907964 0.351362 0
1.000000 0.468750 0
0.895652 0.559501 0
0.959842 0.730600 0
0.967563 0.697536 0
0.798649 0.595728 0
0.777748 0.628191 0
0.797900 0.657322 0
0.830641 0.594807 0
0.670913 0.407194 0
0.458425 0.509297 0
0.306412 0.265774 0
0.704762 0.692094 0
0.439904 0.963546 0
0.907128 0.667637 0
0.091543 0.704134 0
0.166287 0.173359 0
0.000000 0.843750 0
0.780273 0.157227 0
0.074684 0.836861 0
0.093097 0.525341 0
0.109715 0.566243 0
0.119688 0.813480 0
0.129128 0.846042 0
0.663508 0.636645 0
0.727459 0.601635 0
0.247356 0.449640 0
0.093750 0.000000 0
0.709118 0.769645 0
0.727444 0.726799 0
0.494916 0.784901 0
0.148896 0.745964 0
0.154964 0.784512 0
0.193022 0.799504 0
0.217620 0.770273 0
0.043964 0.890293 0
0.078129 0.887188 0
0.031741 0.922985 0
0.413270 0.452424 0
0.102271 0.746298 0
0.316464 0.222351 0
0.321299 0.580328 0
0.858727 0.287050 0
0.964650 0.446086 0
0.968750 0.398438 0
0.531250 0.000000 0
0.566669 0.543592 0
0.598471 0.610057 0
0.477937 0.638439 0
0.781926 0.226659 0
0.505999 0.534690 0
0.541420 0.671112 0
0.901134 0.865060 0
0.037332 0.161172 0
0.000000 0.031250 0
0.360832 0.544415 0
0.684479 0.451233 0
0.530887 0.623805 0
0.860823 0.460516 0
0.764796 0.671024 0
0.112376 0.669943 0
0.476108 0.820982 0
0.543331 0.032281 0
0.906250 0.218750 0
0.968750 0.218750 0
0.906250 0.031250 0
0.843750 0.218750 0
0.718750 0.000000 0
0.843750 0.031250 0
0.906250 0.093750 0
0.159958 0.615307 0
0.429755 0.789461 0
0.906250 0.156250 0
0.968750 0.093750 0
0.968750 0.031250 0
0.156250 1.000000 0
0.914216 0.597189 0
0.241987 0.958094 0
0.218750 1.000000 0
0.201797 0.962215 0
0.167294 0.966968 0
0.235313 0.520238 0
0.107915 0.957097 0
0.093750 1.000000 0
0.075909 0.968705 0
0.843750 0.156250 0
0.843750 0.093750 0
0.968750 0.281250 0
0.968750 0.156250 0
0.035762 0.421945 0
0.397612 0.907962 0
0.038702 0.703660 0
0.967023 0.653774 0
0.121231 0.901488 0
0.333244 0.616185 0
0.349420 0.613863 0
0.340069 0.606225 0
0.348255 0.605746 0
0.381071 0.602491 0
0.364997 0.607484 0
0.356408 0.608718 0
0.359289 0.598261 0
0.362478 0.620467 0
0.356475 0.616126 0
0.350716 0.621949 0
0.338383 0.629972 0
0.341933 0.619210 0
0.345712 0.627747 0
0.339234 0.612971 0
0.335701 0.623121 0
0.326829 0.630544 0
0.370727 0.597561 0
0.355633 0.571211 0
0.365196 0.600983 0
0.354719 0.585107 0
0.354223 0.592650 0
0.320870 0.600389 0
0.333363 0.645531 0
0.345709 0.640925 0
0.319092 0.618475 0
0.373231 0.605623 0
0.383065 0.618859 0
0.371115 0.615407 0
0.379901 0.610939 0
0.373188 0.628848 0
0.369491 0.622538 0
0.382797 0.585553 0
0.364468 0.589091 0
0.363036 0.578676 0
0.373894 0.588674 0
0.356035 0.578215 0
0.338618 0.578461 0
0.347352 0.580128 0
0.346115 0.588953 0
0.368925 0.565432 0
0.380724 0.593899 0
0.400377 0.594351 0
0.390601 0.591922 0
0.395522 0.609290 0
0.387944 0.612317 0
0.374767 0.576904 0
0.363404 0.570908 0
0.396064 0.577263 0
0.393677 0.600432 0
0.386825 0.598098 0
0.376896 0.582979 0
0.397249 0.586052 0
0.390136 0.582537 0
0.412646 0.579501 0
0.383593 0.577053 0
0.406823 0.587183 0
0.389909 0.572399 0
0.397769 0.550582 0
0.401381 0.564208 0
0.396831 0.569965 0
0.406043 0.572569 0
0.415267 0.587535 0
0.433906 0.577010 0
0.426220 0.585166 0
0.410188 0.596690 0
0.419460 0.559607 0
0.403461 0.580034 0
0.421275 0.623466 0
0.403361 0.603579 0
0.411031 0.564307 0
0.418097 0.609098 0
0.406295 0.555614 0
0.420291 0.571005 0
0.416406 0.601452 0
0.410575 0.606752 0
0.411139 0.618172 0
0.407462 0.543895 0
0.413228 0.572336 0
0.404164 0.549484 0
0.329549 0.606335 0
0.325542 0.613457 0
0.317006 0.609139 0
0.332566 0.592626 0
0.340510 0.595106 0
0.334545 0.600248 0
0.327683 0.597962 0
0.321136 0.590359 0
0.300862 0.617647 0
0.308394 0.600107 0
0.328048 0.585454 0
0.329632 0.576364 0
0.335750 0.585611 0
0.318241 0.563161 0
0.337665 0.562241 0
0.322125 0.571325 0
0.335740 0.570492 0
0.327992 0.563528 0
0.345772 0.568483 0
0.310089 0.615586 0
0.314574 0.602837 0
0.307023 0.585113 0
0.309286 0.572427 0
0.315499 0.569471 0
0.323389 0.556123 0
0.307080 0.549596 0
0.317632 0.546867 0
0.331956 0.556323 0
0.344435 0.545618 0
0.340564 0.553731 0
0.336264 0.546700 0
0.353355 0.554855 0
0.359947 0.561901 0
0.327557 0.531035 0
0.347169 0.551903 0
0.352688 0.545765 0
0.346990 0.560237 0
0.330060 0.539896 0
0.348959 0.523324 0
0.323855 0.543398 0
0.348753 0.534888 0
0.338181 0.532818 0
0.339545 0.540079 0
0.349582 0.573896 0
0.312325 0.624090 0
0.303653 0.608459 0
0.315006 0.585243 0
0.313379 0.593422 0
0.311110 0.579297 0
0.314147 0.555156 0
0.303461 0.561468 0
0.307578 0.556235 0
0.299185 0.553526 0
0.289692 0.536557 0
0.292463 0.546147 0
0.308349 0.532737 0
0.316491 0.537503 0
0.362136 0.553246 0
0.379523 0.546167 0
0.369963 0.547579 0
0.353046 0.564358 0
0.335124 0.518484 0
0.344412 0.529027 0
0.337925 0.525380 0
0.302150 0.602084 0
0.301701 0.592770 0
0.316604 0.575858 0
0.271126 0.547417 0
0.299873 0.538810 0
0.300471 0.546212 0
0.310984 0.542926 0
0.316884 0.527495 0
0.323331 0.536506 0
0.370810 0.530376 0
0.376223 0.556900 0
0.281702 0.582888 0
0.281947 0.549344 0
0.306224 0.538722 0
0.324774 0.521566 0
0.367873 0.538854 0
0.358786 0.534588 0
0.376990 0.537265 0
0.386907 0.522151 0
0.391144 0.538050 0
0.379947 0.528395 0
0.383932 0.540102 0
0.389738 0.546810 0
0.389145 0.558508 0
0.369244 0.554824 0
0.290645 0.589966 0
0.276183 0.566074 0
0.278313 0.538404 0
0.285731 0.542897 0
0.330936 0.524899 0
0.353903 0.539175 0
0.353604 0.529190 0
0.360290 0.519123 0
0.373726 0.521762 0
0.366300 0.524049 0
0.380532 0.514644 0
0.388003 0.530373 0
0.398678 0.524766 0
0.384258 0.552396 0
0.275118 0.556349 0
0.277164 0.544859 0
0.379868 0.486477 0
0.391506 0.511786 0
0.282939 0.557142 0
0.264166 0.562469 0
0.377700 0.500620 0
0.386708 0.515860 0
0.266972 0.554631 0
0.259780 0.556478 0
0.251939 0.535393 0
0.254095 0.546592 0
0.262596 0.547308 0
0.270938 0.561728 0
0.376546 0.508151 0
0.385086 0.505606 0
0.387000 0.494808 0
0.379849 0.493712 0
0.364214 0.492637 0
0.372245 0.490074 0
0.367260 0.502874 0
0.364493 0.479646 0
0.366581 0.486189 0
0.358713 0.486959 0
0.345413 0.501595 0
0.350571 0.492920 0
0.401125 0.475497 0
0.371488 0.497150 0
0.362252 0.510345 0
0.356871 0.501325 0
0.333364 0.488560 0
0.391789 0.483489 0
0.357425 0.494346 0
0.362573 0.498697 0
0.351361 0.510727 0
0.341321 0.493291 0
0.330224 0.503920 0
0.341891 0.483274 0
0.333923 0.496675 0
0.337897 0.503271 0
0.334648 0.510538 0
0.321612 0.494956 0
0.325234 0.512043 0
0.343013 0.509918 0
0.346603 0.516347 0
0.386573 0.487955 0
0.351210 0.504322 0
0.356702 0.507541 0
0.328882 0.471808 0
0.314982 0.505289 0
0.333654 0.479507 0
0.325494 0.483776 0
0.326799 0.490493 0
0.320932 0.476021 0
0.301708 0.469675 0
0.316319 0.457708 0
0.310597 0.475039 0
0.320871 0.466299 0
0.346271 0.465191 0
0.341349 0.473571 0
0.322625 0.504846 0
0.318425 0.511221 0
0.310377 0.465356 0
0.316178 0.471190 0
0.333189 0.456969 0
0.350827 0.473503 0
0.301978 0.459356 0
0.337020 0.465392 0
0.328576 0.463675 0
0.324698 0.456068 0
0.317118 0.439559 0
0.330325 0.443490 0
0.318912 0.448730 0
0.329561 0.450696 0
0.361938 0.462009 0
0.357230 0.477533 0
0.357956 0.469277 0
0.353840 0.462297 0
0.345517 0.451873 0
0.337787 0.447924 0
0.348017 0.458412 0
0.342237 0.431943 0
0.340502 0.458726 0
0.337846 0.439331 0
0.329912 0.433863 0
0.349136 0.441043 0
0.308326 0.451374 0
0.323246 0.443121 0
0.321094 0.431273 0
0.301638 0.427033 0
0.313771 0.418115 0
0.310863 0.431460 0
0.319541 0.423521 0
0.335220 0.427422 0
0.338458 0.406331 0
0.334736 0.416554 0
0.323935 0.413050 0
0.308991 0.458418 0
0.312417 0.445240 0
0.301740 0.438646 0
0.308762 0.424013 0
0.301539 0.416887 0
0.350241 0.416410 0
0.343264 0.422644 0
0.331077 0.409432 0
0.318950 0.394348 0
0.330423 0.397541 0
0.328291 0.418020 0
0.304124 0.445480 0
0.304539 0.432815 0
0.285201 0.422120 0
0.308566 0.408429 0
0.342462 0.413577 0
0.294180 0.422033 0
0.289808 0.434049 0
0.289605 0.413297 0
0.289741 0.427221 0
0.307904 0.415027 0
0.304200 0.394340 0
0.316321 0.410503 0
0.314465 0.401910 0
0.307091 0.401165 0
0.311575 0.395084 0
0.309360 0.380126 0
0.314493 0.387009 0
0.323034 0.401881 0
0.306935 0.387289 0
0.293831 0.386262 0
0.324216 0.374404 0
0.325186 0.385536 0
0.317589 0.379345 0
0.274261 0.411149 0
0.285211 0.398762 0
0.330761 0.390249 0
0.330363 0.379477 0
0.338676 0.363143 0
0.340958 0.374587 0
0.281572 0.414799 0
0.276413 0.421916 0
0.281250 0.406295 0
0.280604 0.430750 0
0.289903 0.405276 0
0.294769 0.396824 0
0.278873 0.450064 0
0.288821 0.392030 0
0.266290 0.384283 0
0.280460 0.379708 0
0.286276 0.384759 0
0.288230 0.376637 0
0.271892 0.396565 0
0.277609 0.388865 0
0.274315 0.352802 0
0.278187 0.399876 0
0.279448 0.365785 0
0.282137 0.372588 0
0.270415 0.373289 0
0.298327 0.391185 0
0.282254 0.440633 0
0.288725 0.458938 0
0.270685 0.389697 0
0.273565 0.382583 0
0.291286 0.443370 0
0.267149 0.440539 0
0.295440 0.456347 0
0.294833 0.464770 0
0.281887 0.490190 0
0.290262 0.478449 0
0.294642 0.472309 0
0.301254 0.481658 0
0.295145 0.437981 0
0.274725 0.436810 0
0.273750 0.444391 0
0.262988 0.459259 0
0.265992 0.450104 0
0.268166 0.433044 0
0.252490 0.434734 0
0.259804 0.429025 0
0.260096 0.436939 0
0.245303 0.417986 0
0.254041 0.443605 0
0.251101 0.425414 0
0.256222 0.452742 0
0.304096 0.475766 0
0.308807 0.482415 0
0.303622 0.496085 0
0.304377 0.488553 0
0.312469 0.493169 0
0.293268 0.491243 0
0.272454 0.457295 0
0.261203 0.444672 0
0.259402 0.412958 0
0.261485 0.420945 0
0.267213 0.415186 0
0.265906 0.404959 0
0.249598 0.466389 0
0.316128 0.498731 0
0.280596 0.458058 0
0.283506 0.469165 0
0.253186 0.417810 0
0.250511 0.399085 0
0.260262 0.393668 0
0.250977 0.408572 0
0.272840 0.404334 0
0.255132 0.460644 0
0.246875 0.458229 0
0.225937 0.469748 0
0.237460 0.465904 0
0.270243 0.470434 0
0.275874 0.464627 0
0.259527 0.470416 0
0.265308 0.398202 0
0.258125 0.402243 0
0.241654 0.409371 0
0.268791 0.463434 0
0.264862 0.484623 0
0.252331 0.473905 0
0.259092 0.478685 0
0.242162 0.474986 0
0.266596 0.477166 0
0.274813 0.483007 0
0.225393 0.421338 0
0.242543 0.401180 0
0.233132 0.381399 0
0.243495 0.388598 0
0.243432 0.468570 0
0.230869 0.496421 0
0.233639 0.473641 0
0.236135 0.485503 0
0.282937 0.482081 0
0.289173 0.485455 0
0.278060 0.475396 0
0.232045 0.413345 0
0.237144 0.430332 0
0.242714 0.482288 0
0.234248 0.421942 0
0.238458 0.416283 0
0.241293 0.424205 0
0.245171 0.431299 0
0.245252 0.440590 0
0.230808 0.448717 0
0.238842 0.453472 0
0.240436 0.459942 0
0.230258 0.458811 0
0.238326 0.445180 0
0.230513 0.438331 0
0.238357 0.437706 0
0.230883 0.465379 0
0.218070 0.453084 0
0.224182 0.443708 0
0.228283 0.429735 0
0.223384 0.435593 0
0.225323 0.453479 0
0.221233 0.461780 0
0.213748 0.471572 0
0.219473 0.468192 0
0.332930 0.636802 0
0.339975 0.636834 0
0.322344 0.641701 0
0.320300 0.626215 0
0.327490 0.622127 0
0.375495 0.569310 0
0.441810 0.592158 0
0.431304 0.564472 0
0.425763 0.577036 0
0.419802 0.581449 0
0.427251 0.570188 0
0.403856 0.612808 0
0.398681 0.627462 0
0.392266 0.620632 0
0.403497 0.620922 0
0.397589 0.616021 0
0.411051 0.631528 0
0.405533 0.627465 0
0.390461 0.628754 0
0.418432 0.616560 0
0.438037 0.611943 0
0.428730 0.616358 0
0.428898 0.604696 0
0.439765 0.627599 0
0.431684 0.610568 0
0.436192 0.620070 0
0.430059 0.627592 0
0.434905 0.636493 0
0.421540 0.634316 0
0.442826 0.635046 0
0.461716 0.622929 0
0.459039 0.639539 0
0.451166 0.627265 0
0.450379 0.639290 0
0.446353 0.618103 0
0.454877 0.633546 0
0.428312 0.651952 0
0.417340 0.628990 0
0.428409 0.634260 0
0.428999 0.643109 0
0.435802 0.648086 0
0.418892 0.646773 0
0.453171 0.664604 0
0.445962 0.654794 0
0.449536 0.647431 0
0.445378 0.624460 0
0.450334 0.604035 0
0.454261 0.619794 0
0.451784 0.612043 0
0.444931 0.609148 0
0.442214 0.600865 0
0.467611 0.605043 0
0.433861 0.596890 0
0.458851 0.606629 0
0.426596 0.597751 0
0.434157 0.588345 0
0.458131 0.593710 0
0.464709 0.614001 0
0.456124 0.600301 0
0.449169 0.595874 0
0.448882 0.587296 0
0.444774 0.577232 0
0.440980 0.584236 0
0.420356 0.655266 0
0.432788 0.673905 0
0.428399 0.663367 0
0.406900 0.643303 0
0.402104 0.635739 0
0.393306 0.646620 0
0.393618 0.636688 0
0.399542 0.642665 0
0.401600 0.652805 0
0.414587 0.639348 0
0.422530 0.641036 0
0.477032 0.613044 0
0.439500 0.569311 0
0.412069 0.647898 0
0.403633 0.669228 0
0.415447 0.666382 0
0.470674 0.610984 0
0.476238 0.604356 0
0.470962 0.592608 0
0.479699 0.595744 0
0.471505 0.599423 0
0.483455 0.571539 0
0.500116 0.587714 0
0.479241 0.583279 0
0.490776 0.593938 0
0.476972 0.589603 0
0.471469 0.621233 0
0.448312 0.545024 0
0.387641 0.662871 0
0.405319 0.660682 0
0.396683 0.663418 0
0.394778 0.672760 0
0.392625 0.655496 0
0.376423 0.649919 0
0.385294 0.650469 0
0.380386 0.657821 0
0.381314 0.642861 0
0.371668 0.678080 0
0.369854 0.640144 0
0.377139 0.635919 0
0.388295 0.641596 0
0.378099 0.668842 0
0.486444 0.625422 0
0.468356 0.632222 0
0.441631 0.556342 0
0.385189 0.676118 0
0.479660 0.620813 0
0.489116 0.614192 0
0.478641 0.629611 0
0.467270 0.625979 0
0.438047 0.562412 0
0.455394 0.564953 0
0.446644 0.564203 0
0.450435 0.571396 0
0.384980 0.669229 0
0.378240 0.675797 0
0.415218 0.550409 0
0.413069 0.556977 0
0.293938 0.573556 0
0.288174 0.565527 0
0.295517 0.562365 0
0.284687 0.574114 0
0.282285 0.568137 0
0.398958 0.541937 0
0.398351 0.533359 0
0.411427 0.529555 0
0.404256 0.529281 0
0.408166 0.520895 0
0.407583 0.536210 0
0.420182 0.506448 0
0.412339 0.512145 0
0.405266 0.495521 0
0.425158 0.521546 0
0.416607 0.522660 0
0.422078 0.531274 0
0.406488 0.504818 0
0.420253 0.514793 0
0.416068 0.534658 0
0.438825 0.531224 0
0.398036 0.506237 0
0.414115 0.499087 0
0.430476 0.539433 0
0.430443 0.528571 0
0.391790 0.501225 0
0.396221 0.492922 0
0.412669 0.489913 0
0.403465 0.485453 0
0.414261 0.476808 0
0.415927 0.483660 0
0.423768 0.497312 0
0.424302 0.537387 0
0.426924 0.550588 0
0.433442 0.555600 0
0.426760 0.558684 0
0.399289 0.499285 0
0.397256 0.486678 0
0.407381 0.479279 0
0.446613 0.487351 0
0.421028 0.553307 0
0.434190 0.490037 0
0.427456 0.491493 0
0.396761 0.558141 0
0.382251 0.561183 0
0.276957 0.603526 0
0.282630 0.529022 0
0.296637 0.522938 0
0.266237 0.527163 0
0.266985 0.537700 0
0.300302 0.530457 0
0.292699 0.529510 0
0.288764 0.522687 0
0.306867 0.522605 0
0.293005 0.507605 0
0.288926 0.514595 0
0.278228 0.504463 0
0.285248 0.507764 0
0.285245 0.498656 0
0.274858 0.524352 0
0.266280 0.512669 0
0.274007 0.515986 0
0.267743 0.519920 0
0.251733 0.519376 0
0.259803 0.517748 0
0.272478 0.508892 0
0.262091 0.498822 0
0.270570 0.500467 0
0.247772 0.495981 0
0.247017 0.488479 0
0.256336 0.488389 0
0.257263 0.507840 0
0.265207 0.505436 0
0.267707 0.492548 0
0.277432 0.496653 0
0.258957 0.539839 0
0.259266 0.531588 0
0.252428 0.527377 0
0.240995 0.530702 0
0.306701 0.511968 0
0.293394 0.499428 0
0.254324 0.500465 0
0.243898 0.508670 0
0.247824 0.502933 0
0.238840 0.500996 0
0.233569 0.509974 0
0.238044 0.493152 0
0.274448 0.490152 0
0.301576 0.517367 0
0.306864 0.503697 0
0.300515 0.507709 0
0.239358 0.514270 0
0.214663 0.518468 0
0.299650 0.501251 0
0.225218 0.516674 0
0.222927 0.535137 0
0.217570 0.503625 0
0.221299 0.525561 0
0.225102 0.507976 0
0.218083 0.511432 0
0.224439 0.500428 0
0.214929 0.488971 0
0.218177 0.495951 0
0.203967 0.508920 0
0.206316 0.497225 0
0.211421 0.507950 0
0.228509 0.523433 0
0.396401 0.517553 0
0.266169 0.577623 0
0.268376 0.569622 0
0.275432 0.575860 0
0.382552 0.471909 0
0.357996 0.450024 0
0.309122 0.438634 0
0.355581 0.428990 0
0.348343 0.427911 0
0.341814 0.395195 0
0.332633 0.370298 0
0.319619 0.354300 0
0.313073 0.366374 0
0.317378 0.372147 0
0.323891 0.363900 0
0.317531 0.360979 0
0.303277 0.353740 0
0.311401 0.355397 0
0.309198 0.345455 0
0.330850 0.355053 0
0.331257 0.363006 0
0.300989 0.345847 0
0.288783 0.353663 0
0.296042 0.351559 0
0.296713 0.362424 0
0.288478 0.366148 0
0.284211 0.359797 0
0.323165 0.326559 0
0.325035 0.357640 0
0.305427 0.362188 0
0.305225 0.371633 0
0.314085 0.334457 0
0.311213 0.373971 0
0.299789 0.368119 0
0.309074 0.338815 0
0.359945 0.364851 0
0.300181 0.401121 0
0.258617 0.375133 0
0.269008 0.362406 0
0.275620 0.359792 0
0.273158 0.367402 0
0.263644 0.368632 0
0.255420 0.348628 0
0.258718 0.358965 0
0.264726 0.351353 0
0.256904 0.365978 0
0.248344 0.356581 0
0.262947 0.340174 0
0.232669 0.364044 0
0.232683 0.335522 0
0.270638 0.344681 0
0.282075 0.344396 0
0.291710 0.342808 0
0.241708 0.362836 0
0.241032 0.373787 0
0.235364 0.349784 0
0.236376 0.357360 0
0.282896 0.319348 0
0.249699 0.376102 0
0.255153 0.384781 0
0.243763 0.380943 0
0.232401 0.372735 0
0.220921 0.378067 0
0.227636 0.377500 0
0.245248 0.346701 0
0.284973 0.331953 0
0.272622 0.332480 0
0.269272 0.338197 0
0.260576 0.381283 0
0.252936 0.391967 0
0.242109 0.353110 0
0.238311 0.341847 0
0.245652 0.329649 0
0.246038 0.338189 0
0.239893 0.334188 0
0.233609 0.320374 0
0.238493 0.326488 0
0.252877 0.333601 0
0.244946 0.316325 0
0.253080 0.341296 0
0.286097 0.338774 0
0.278457 0.337559 0
0.233192 0.392372 0
0.225052 0.386939 0
0.237017 0.386864 0
0.239869 0.394651 0
0.215026 0.403723 0
0.223825 0.397593 0
0.221808 0.411590 0
0.209260 0.388893 0
0.230337 0.398264 0
0.207477 0.422393 0
0.215021 0.429487 0
0.221695 0.427306 0
0.216316 0.419844 0
0.209350 0.412289 0
0.222093 0.404487 0
0.216840 0.385364 0
0.216179 0.393851 0
0.209594 0.379704 0
0.214799 0.375713 0
0.221389 0.366287 0
0.224845 0.355045 0
0.187713 0.383511 0
0.199056 0.383922 0
0.215481 0.410188 0
0.200250 0.415828 0
0.201045 0.400623 0
0.208576 0.397155 0
0.228654 0.407136 0
0.207440 0.404860 0
0.200610 0.408223 0
0.195513 0.457560 0
0.321662 0.634947 0
0.321888 0.660782 0
0.304380 0.647750 0
0.300376 0.633241 0
0.307748 0.630490 0
0.309558 0.639802 0
0.301678 0.625477 0
0.279352 0.625725 0
0.290483 0.622687 0
0.316214 0.638983 0
0.302066 0.640582 0
0.291779 0.647860 0
0.462701 0.653616 0
0.454339 0.654311 0
0.457308 0.647122 0
0.441368 0.665723 0
0.421333 0.662339 0
0.423438 0.671709 0
0.424282 0.689118 0
0.426355 0.680292 0
0.439071 0.686667 0
0.411708 0.681508 0
0.431385 0.686130 0
0.434748 0.693277 0
0.418797 0.678073 0
0.463893 0.585544 0
0.464260 0.573343 0
0.461339 0.579361 0
0.490685 0.580760 0
0.358638 0.654777 0
0.369206 0.658482 0
0.363269 0.632060 0
0.358254 0.642868 0
0.359167 0.626517 0
0.369328 0.633848 0
0.363391 0.638684 0
0.468676 0.642219 0
0.464014 0.647039 0
0.483393 0.610258 0
0.497411 0.604678 0
0.508672 0.624777 0
0.301363 0.569610 0
0.301286 0.578423 0
0.293613 0.582026 0
0.287477 0.579958 0
0.299810 0.585778 0
0.439888 0.540655 0
0.438187 0.548784 0
0.430788 0.473536 0
0.423576 0.478919 0
0.431486 0.481994 0
0.441807 0.476885 0
0.443530 0.503162 0
0.432815 0.510826 0
0.427197 0.514907 0
0.437610 0.520498 0
0.428019 0.504252 0
0.435769 0.503634 0
0.439221 0.496343 0
0.431924 0.497351 0
0.441975 0.512310 0
0.449860 0.508945 0
0.453505 0.524623 0
0.446260 0.519852 0
0.453848 0.516280 0
0.446155 0.527900 0
0.453997 0.535610 0
0.446779 0.537674 0
0.472729 0.529267 0
0.464578 0.520899 0
0.461177 0.546369 0
0.461400 0.529774 0
0.455060 0.542675 0
0.462008 0.538081 0
0.468504 0.542918 0
0.468927 0.535569 0
0.280580 0.593495 0
0.284496 0.588546 0
0.287773 0.597892 0
0.288793 0.610326 0
0.270796 0.595631 0
0.296462 0.611293 0
0.260255 0.610207 0
0.268828 0.586538 0
0.267638 0.604446 0
0.274723 0.582803 0
0.273399 0.615138 0
0.259061 0.601065 0
0.239958 0.608209 0
0.245007 0.592599 0
0.250338 0.606853 0
0.253273 0.594775 0
0.247537 0.599777 0
0.252533 0.580794 0
0.255463 0.587649 0
0.259927 0.581687 0
0.272752 0.608589 0
0.280592 0.611121 0
0.285311 0.617098 0
0.252604 0.616493 0
0.278876 0.619025 0
0.240482 0.621205 0
0.245862 0.612991 0
0.247513 0.621344 0
0.273009 0.532258 0
0.243664 0.522479 0
0.242165 0.543083 0
0.250803 0.511836 0
0.245740 0.516156 0
0.212661 0.480386 0
0.224645 0.481812 0
0.219174 0.476715 0
0.205751 0.488014 0
0.183839 0.493981 0
0.193392 0.485844 0
0.200000 0.484486 0
0.231778 0.532175 0
0.235650 0.526830 0
0.237322 0.537295 0
0.384531 0.479805 0
0.391823 0.473781 0
0.389488 0.461450 0
0.388148 0.468090 0
0.398027 0.466220 0
0.399855 0.452921 0
0.408520 0.467871 0
0.396340 0.459213 0
0.405002 0.459924 0
0.420771 0.466314 0
0.424157 0.472175 0
0.415016 0.470010 0
0.351287 0.447782 0
0.367968 0.453385 0
0.369989 0.461218 0
0.376556 0.466228 0
0.382605 0.462711 0
0.373421 0.475541 0
0.373502 0.482862 0
0.361723 0.455439 0
0.367509 0.438276 0
0.366103 0.471386 0
0.364933 0.445916 0
0.358287 0.439422 0
0.377675 0.445529 0
0.374646 0.451712 0
0.336818 0.399763 0
0.348486 0.384596 0
0.350700 0.403946 0
0.325945 0.344081 0
0.340122 0.353914 0
0.358081 0.344796 0
0.349621 0.360130 0
0.348015 0.347214 0
0.347773 0.325750 0
0.354714 0.352939 0
0.346908 0.353909 0
0.345227 0.336512 0
0.343786 0.342601 0
0.351733 0.340531 0
0.361331 0.333101 0
0.303548 0.319530 0
0.281636 0.351775 0
0.294093 0.333811 0
0.291252 0.324445 0
0.301697 0.328575 0
0.297834 0.323072 0
0.310654 0.325696 0
0.314625 0.313943 0
0.316756 0.328359 0
0.310231 0.319006 0
0.269188 0.319209 0
0.278555 0.326537 0
0.237634 0.313748 0
0.221991 0.308782 0
0.230563 0.308899 0
0.226561 0.288076 0
0.231271 0.297967 0
0.219687 0.297417 0
0.239861 0.287809 0
0.225627 0.294588 0
0.233271 0.290948 0
0.240445 0.297014 0
0.256918 0.291349 0
0.252064 0.304016 0
0.247904 0.291920 0
0.244989 0.302615 0
0.247441 0.282903 0
0.252752 0.297016 0
0.263709 0.300706 0
0.272033 0.264704 0
0.258379 0.271969 0
0.251241 0.275767 0
0.259011 0.281761 0
0.253547 0.285591 0
0.269378 0.276176 0
0.266524 0.288423 0
0.262914 0.276593 0
0.267236 0.295050 0
0.277061 0.284422 0
0.272788 0.289044 0
0.225979 0.344165 0
0.228880 0.349967 0
0.200396 0.346998 0
0.219232 0.332011 0
0.213495 0.348363 0
0.225206 0.336644 0
0.217394 0.340548 0
0.227497 0.327523 0
0.207685 0.340584 0
0.220695 0.349114 0
0.219685 0.322990 0
0.216900 0.315247 0
0.200413 0.303707 0
0.211346 0.305635 0
0.189742 0.327540 0
0.197251 0.336074 0
0.226331 0.361654 0
0.193965 0.367705 0
0.201496 0.374073 0
0.193615 0.377347 0
0.193044 0.393107 0
0.193276 0.386699 0
0.201419 0.392029 0
0.179666 0.394260 0
0.186097 0.390687 0
0.202682 0.467102 0
0.210863 0.460629 0
0.209190 0.466921 0
0.203150 0.459287 0
0.202543 0.444215 0
0.208474 0.451524 0
0.204444 0.433176 0
0.200702 0.451769 0
0.210364 0.443931 0
0.208771 0.428575 0
0.211177 0.435474 0
0.196098 0.426013 0
0.201126 0.422124 0
0.193880 0.437040 0
0.190281 0.447652 0
0.198079 0.432148 0
0.325178 0.651315 0
0.333645 0.654614 0
0.341991 0.649808 0
0.331611 0.665025 0
0.314217 0.652811 0
0.350982 0.648352 0
0.328452 0.659004 0
0.347671 0.683729 0
0.321321 0.675341 0
0.311220 0.646546 0
0.319126 0.647875 0
0.349830 0.657499 0
0.358554 0.670118 0
0.356180 0.662434 0
0.363850 0.664273 0
0.347265 0.669398 0
0.371238 0.665735 0
0.324450 0.668172 0
0.339222 0.667988 0
0.341835 0.676723 0
0.332411 0.690508 0
0.331610 0.675564 0
0.339080 0.684953 0
0.345286 0.697755 0
0.331842 0.683045 0
0.324338 0.687370 0
0.344233 0.690360 0
0.319080 0.682296 0
0.300365 0.676977 0
0.310815 0.675794 0
0.315017 0.667304 0
0.306553 0.684892 0
0.314667 0.660055 0
0.302503 0.664274 0
0.312515 0.682137 0
0.303755 0.704307 0
0.307959 0.669096 0
0.307726 0.694970 0
0.322456 0.705943 0
0.321493 0.696464 0
0.288532 0.692320 0
0.313304 0.702855 0
0.330680 0.700319 0
0.296593 0.686303 0
0.314574 0.696041 0
0.313370 0.717768 0
0.337532 0.696470 0
0.337113 0.718552 0
0.339247 0.707547 0
0.302267 0.690498 0
0.282613 0.675983 0
0.309555 0.710328 0
0.317043 0.711187 0
0.326743 0.715783 0
0.305107 0.717306 0
0.291361 0.678761 0
0.284738 0.684454 0
0.289440 0.669647 0
0.271583 0.695648 0
0.272236 0.683088 0
0.279623 0.691770 0
0.278740 0.681457 0
0.330190 0.708427 0
0.295362 0.665479 0
0.287875 0.635046 0
0.298142 0.654994 0
0.306442 0.655833 0
0.271963 0.651762 0
0.446935 0.661633 0
0.434430 0.667038 0
0.436024 0.657628 0
0.443506 0.676555 0
0.437031 0.679744 0
0.438990 0.671820 0
0.447737 0.670093 0
0.460362 0.677157 0
0.451913 0.677444 0
0.455936 0.671357 0
0.456798 0.696794 0
0.456452 0.686590 0
0.468929 0.686235 0
0.447785 0.691992 0
0.446980 0.683904 0
0.441518 0.695188 0
0.462835 0.691482 0
0.478722 0.703772 0
0.467087 0.702399 0
0.462611 0.683616 0
0.410858 0.673273 0
0.467825 0.560695 0
0.474079 0.574800 0
0.471260 0.582328 0
0.470049 0.568148 0
0.484171 0.578423 0
0.506928 0.560579 0
0.493118 0.587333 0
0.485310 0.588283 0
0.366525 0.649207 0
0.352660 0.637516 0
0.490818 0.607303 0
0.499056 0.596242 0
0.509959 0.593268 0
0.497471 0.622113 0
0.431973 0.546053 0
0.439452 0.484303 0
0.441382 0.458481 0
0.460992 0.474412 0
0.479424 0.505595 0
0.453847 0.554280 0
0.462151 0.554622 0
0.467055 0.549859 0
0.448145 0.557717 0
0.284306 0.604436 0
0.265887 0.626330 0
0.259125 0.621574 0
0.266332 0.618512 0
0.266812 0.611784 0
0.254731 0.569334 0
0.261499 0.572030 0
0.237651 0.644013 0
0.222022 0.615440 0
0.244956 0.536573 0
0.246248 0.551235 0
0.225313 0.556621 0
0.231511 0.547078 0
0.238555 0.564712 0
0.238659 0.549937 0
0.241298 0.557343 0
0.233236 0.558537 0
0.229336 0.539585 0
0.219893 0.546349 0
0.228775 0.488683 0
0.231471 0.480290 0
0.194314 0.500897 0
0.198326 0.493097 0
0.191131 0.494328 0
0.178349 0.477860 0
0.413879 0.461065 0
0.384652 0.424997 0
0.385671 0.451939 0
0.390050 0.438283 0
0.385249 0.444273 0
0.393913 0.446299 0
0.407628 0.434752 0
0.399291 0.438769 0
0.395200 0.428451 0
0.407243 0.444612 0
0.401188 0.432046 0
0.401796 0.424251 0
0.392860 0.416253 0
0.392605 0.453230 0
0.406516 0.451404 0
0.342371 0.388147 0
0.352511 0.373734 0
0.343951 0.401913 0
0.351716 0.394028 0
0.362991 0.400194 0
0.356056 0.399484 0
0.358404 0.407746 0
0.358004 0.415547 0
0.354781 0.421906 0
0.331716 0.348084 0
0.317675 0.346029 0
0.320350 0.338856 0
0.332593 0.334045 0
0.345810 0.367670 0
0.369975 0.341801 0
0.353011 0.332268 0
0.362601 0.314579 0
0.358083 0.323574 0
0.350857 0.314849 0
0.367332 0.322588 0
0.352178 0.321109 0
0.379423 0.310044 0
0.366535 0.329103 0
0.377658 0.320442 0
0.371479 0.314044 0
0.366084 0.298443 0
0.371975 0.305140 0
0.363797 0.306393 0
0.374379 0.297086 0
0.355920 0.299823 0
0.381987 0.301585 0
0.399456 0.296359 0
0.390069 0.296790 0
0.398341 0.318604 0
0.391282 0.309020 0
0.355687 0.308110 0
0.339200 0.277183 0
0.389096 0.331867 0
0.385955 0.316502 0
0.392493 0.315520 0
0.391808 0.323904 0
0.401522 0.329202 0
0.383883 0.325649 0
0.388369 0.303134 0
0.358465 0.280450 0
0.371411 0.283996 0
0.375053 0.290052 0
0.345462 0.290053 0
0.359828 0.290483 0
0.348816 0.296945 0
0.352763 0.286333 0
0.345898 0.281883 0
0.364239 0.284775 0
0.306046 0.310708 0
0.291936 0.298892 0
0.300511 0.302985 0
0.295238 0.312504 0
0.304081 0.284478 0
0.289852 0.317342 0
0.283172 0.307245 0
0.293999 0.305598 0
0.299886 0.293267 0
0.289294 0.286728 0
0.309729 0.292570 0
0.293200 0.292249 0
0.321171 0.278567 0
0.327997 0.297010 0
0.338409 0.297747 0
0.313464 0.283946 0
0.318259 0.297274 0
0.333918 0.287277 0
0.332870 0.313255 0
0.308279 0.275504 0
0.322243 0.288314 0
0.323399 0.307125 0
0.333465 0.293669 0
0.338268 0.306440 0
0.341798 0.314781 0
0.335681 0.323689 0
0.295041 0.274781 0
0.316670 0.268850 0
0.327636 0.282789 0
0.316879 0.304260 0
0.329998 0.327633 0
0.327743 0.319707 0
0.320011 0.319496 0
0.342250 0.321647 0
0.339830 0.330565 0
0.301848 0.271694 0
0.315094 0.275481 0
0.317586 0.247149 0
0.329490 0.268813 0
0.314368 0.257883 0
0.323088 0.271778 0
0.312536 0.263992 0
0.267284 0.326782 0
0.225265 0.302202 0
0.214514 0.286410 0
0.260543 0.311706 0
0.265710 0.269284 0
0.253892 0.248365 0
0.262038 0.257561 0
0.281195 0.272867 0
0.215308 0.358265 0
0.214693 0.365047 0
0.203682 0.361327 0
0.204476 0.368024 0
0.208092 0.354469 0
0.204399 0.313062 0
0.210981 0.312256 0
0.200037 0.323305 0
0.204847 0.319303 0
0.217695 0.303737 0
0.185335 0.345419 0
0.189099 0.404533 0
0.194195 0.399899 0
0.193187 0.474070 0
0.195756 0.443593 0
0.178703 0.437808 0
0.183936 0.426801 0
0.189818 0.423332 0
0.352485 0.676421 0
0.361890 0.679404 0
0.369288 0.697270 0
0.379053 0.688739 0
0.367946 0.687361 0
0.385574 0.684107 0
0.394091 0.701864 0
0.387701 0.694008 0
0.373954 0.684384 0
0.373045 0.691716 0
0.357213 0.693860 0
0.398382 0.691846 0
0.380412 0.706464 0
0.363991 0.692942 0
0.392229 0.688911 0
0.402584 0.683505 0
0.404331 0.676456 0
0.412749 0.703928 0
0.386390 0.701601 0
0.389918 0.711196 0
0.378614 0.698148 0
0.403733 0.700066 0
0.403586 0.714641 0
0.409087 0.691374 0
0.396082 0.715578 0
0.398966 0.708157 0
0.406384 0.707759 0
0.416354 0.688024 0
0.419153 0.697019 0
0.428036 0.699672 0
0.429929 0.722876 0
0.431340 0.711082 0
0.432106 0.704677 0
0.412430 0.697210 0
0.366334 0.672086 0
0.346882 0.705497 0
0.353553 0.701015 0
0.346383 0.715306 0
0.362716 0.704587 0
0.365466 0.730652 0
0.371526 0.705889 0
0.375083 0.719883 0
0.365705 0.714818 0
0.375572 0.712309 0
0.383121 0.716600 0
0.347524 0.733425 0
0.367470 0.722764 0
0.355230 0.723853 0
0.360369 0.710825 0
0.344408 0.724526 0
0.326644 0.736961 0
0.353763 0.716519 0
0.329467 0.726385 0
0.331087 0.720318 0
0.337019 0.726108 0
0.317754 0.728923 0
0.308709 0.726077 0
0.322499 0.722524 0
0.324262 0.730660 0
0.297502 0.748079 0
0.300953 0.735982 0
0.302817 0.729452 0
0.310680 0.735610 0
0.318609 0.736912 0
0.322505 0.756720 0
0.322568 0.746420 0
0.306131 0.744000 0
0.339253 0.748001 0
0.314498 0.744202 0
0.310029 0.755880 0
0.331166 0.744517 0
0.336626 0.736118 0
0.331810 0.754149 0
0.304254 0.751196 0
0.297706 0.765172 0
0.297652 0.756625 0
0.304118 0.760858 0
0.313792 0.766349 0
0.289193 0.760952 0
0.331297 0.732538 0
0.341214 0.731285 0
0.344253 0.761633 0
0.330842 0.768770 0
0.271211 0.749697 0
0.339350 0.755698 0
0.347352 0.751748 0
0.336430 0.763102 0
0.346678 0.742579 0
0.340235 0.741552 0
0.357566 0.738970 0
0.328776 0.761290 0
0.322385 0.767081 0
0.278909 0.757390 0
0.260395 0.769573 0
0.284087 0.744512 0
0.267856 0.760752 0
0.286238 0.752857 0
0.290527 0.747302 0
0.291033 0.737306 0
0.278754 0.749848 0
0.272485 0.756120 0
0.275032 0.764495 0
0.296613 0.741284 0
0.268446 0.722482 0
0.278343 0.732023 0
0.275158 0.741014 0
0.283656 0.737145 0
0.260459 0.739572 0
0.267562 0.742800 0
0.260620 0.750887 0
0.267896 0.732636 0
0.255740 0.745298 0
0.242061 0.734456 0
0.247721 0.741364 0
0.254499 0.760157 0
0.272854 0.727813 0
0.284310 0.713853 0
0.281028 0.722840 0
0.287524 0.729040 0
0.280177 0.703191 0
0.295001 0.713821 0
0.295131 0.730689 0
0.283753 0.697293 0
0.293408 0.701788 0
0.255026 0.753849 0
0.274940 0.715523 0
0.291352 0.721475 0
0.301593 0.711102 0
0.295817 0.694558 0
0.289639 0.708409 0
0.261954 0.709915 0
0.278766 0.709870 0
0.301663 0.697905 0
0.267445 0.715039 0
0.261969 0.688851 0
0.269402 0.667819 0
0.274496 0.674347 0
0.279763 0.664985 0
0.272869 0.660139 0
0.263766 0.660652 0
0.281621 0.654954 0
0.280043 0.643522 0
0.288362 0.653786 0
0.278026 0.649625 0
0.286006 0.628197 0
0.293535 0.629740 0
0.294054 0.640165 0
0.287160 0.642311 0
0.486115 0.688141 0
0.473861 0.694984 0
0.467482 0.695958 0
0.477526 0.687154 0
0.473760 0.681713 0
0.482747 0.679587 0
0.489386 0.657956 0
0.483822 0.668083 0
0.482450 0.695971 0
0.501500 0.700116 0
0.492446 0.695877 0
0.477898 0.651578 0
0.491392 0.709920 0
0.486963 0.702919 0
0.475213 0.645000 0
0.494585 0.703099 0
0.471664 0.713596 0
0.462726 0.566084 0
0.496464 0.568784 0
0.512928 0.576508 0
0.515166 0.609262 0
0.490999 0.620573 0
0.497804 0.613394 0
0.505851 0.608664 0
0.510969 0.601784 0
0.503832 0.601551 0
0.519489 0.601919 0
0.541115 0.602150 0
0.527570 0.611621 0
0.530325 0.599862 0
0.521791 0.608218 0
0.510042 0.616234 0
0.519686 0.622162 0
0.503192 0.617966 0
0.537983 0.579111 0
0.534443 0.607029 0
0.531483 0.588501 0
0.527771 0.593862 0
0.537035 0.594806 0
0.548186 0.593416 0
0.499507 0.638430 0
0.438564 0.467753 0
0.429895 0.464217 0
0.451136 0.466510 0
0.423210 0.456026 0
0.444592 0.464521 0
0.423619 0.439383 0
0.432572 0.455208 0
0.420628 0.447636 0
0.415101 0.440965 0
0.429842 0.446307 0
0.440182 0.448219 0
0.436152 0.434378 0
0.440269 0.440686 0
0.430805 0.439183 0
0.451785 0.478640 0
0.447673 0.472777 0
0.454499 0.472412 0
0.469524 0.510844 0
0.242431 0.633026 0
0.232281 0.615027 0
0.238909 0.614760 0
0.227725 0.629458 0
0.226710 0.604288 0
0.227401 0.621421 0
0.234005 0.625180 0
0.226979 0.610963 0
0.247264 0.564850 0
0.242743 0.575187 0
0.225498 0.549958 0
0.212447 0.556844 0
0.203608 0.535927 0
0.211107 0.528446 0
0.217377 0.531154 0
0.201290 0.526104 0
0.186689 0.534735 0
0.202481 0.517489 0
0.195334 0.532694 0
0.189305 0.526482 0
0.173690 0.526073 0
0.181438 0.528530 0
0.176806 0.537773 0
0.181348 0.515364 0
0.186880 0.519812 0
0.179257 0.521962 0
0.170427 0.515533 0
0.208852 0.514500 0
0.208264 0.521810 0
0.183926 0.543339 0
0.195546 0.544357 0
0.190025 0.540552 0
0.153104 0.541655 0
0.166777 0.522438 0
0.157799 0.530523 0
0.160663 0.501799 0
0.175709 0.503871 0
0.165383 0.542326 0
0.163193 0.510339 0
0.167988 0.504274 0
0.167310 0.494201 0
0.175818 0.510947 0
0.172149 0.542696 0
0.172757 0.485982 0
0.181274 0.485859 0
0.186637 0.479364 0
0.175570 0.493761 0
0.201307 0.502302 0
0.194866 0.510052 0
0.185592 0.506018 0
0.181627 0.500449 0
0.188186 0.512733 0
0.178228 0.460351 0
0.378077 0.434214 0
0.388465 0.431187 0
0.391179 0.422899 0
0.379426 0.411867 0
0.400564 0.390587 0
0.347008 0.377872 0
0.352933 0.366535 0
0.365363 0.376938 0
0.359363 0.386140 0
0.354590 0.380681 0
0.373453 0.388770 0
0.366953 0.384532 0
0.372334 0.379442 0
0.366265 0.392690 0
0.375256 0.400624 0
0.359233 0.393190 0
0.332160 0.340978 0
0.325321 0.333523 0
0.338401 0.337884 0
0.363176 0.339912 0
0.367497 0.354430 0
0.361425 0.350946 0
0.403120 0.307693 0
0.380199 0.338112 0
0.373827 0.336463 0
0.379821 0.331224 0
0.397028 0.352630 0
0.378741 0.350080 0
0.367584 0.335355 0
0.390444 0.343249 0
0.376448 0.343727 0
0.386705 0.337921 0
0.367770 0.291257 0
0.276104 0.313138 0
0.268421 0.311361 0
0.274668 0.304230 0
0.268370 0.305014 0
0.282727 0.298004 0
0.280022 0.291160 0
0.330721 0.304351 0
0.331584 0.276202 0
0.342865 0.263114 0
0.347882 0.271933 0
0.340845 0.270100 0
0.369515 0.253788 0
0.351808 0.277888 0
0.357042 0.260885 0
0.358426 0.270618 0
0.366852 0.275430 0
0.350374 0.264678 0
0.348658 0.254107 0
0.367292 0.264392 0
0.341599 0.255933 0
0.334048 0.260966 0
0.324054 0.260408 0
0.355348 0.230341 0
0.359024 0.249859 0
0.363717 0.258107 0
0.383576 0.262270 0
0.320579 0.253896 0
0.328560 0.246317 0
0.349363 0.241481 0
0.355007 0.254828 0
0.375063 0.260486 0
0.377219 0.271398 0
0.332483 0.253200 0
0.322147 0.234518 0
0.346060 0.247629 0
0.337005 0.235481 0
0.370730 0.270057 0
0.393949 0.278879 0
0.373567 0.277352 0
0.383659 0.279444 0
0.322703 0.241858 0
0.329403 0.237659 0
0.335151 0.242745 0
0.342127 0.240657 0
0.345872 0.231827 0
0.394384 0.288349 0
0.386157 0.270845 0
0.393989 0.263811 0
0.335041 0.218129 0
0.330583 0.227421 0
0.348781 0.219424 0
0.411166 0.282833 0
0.389743 0.256552 0
0.380263 0.250532 0
0.393680 0.271344 0
0.408282 0.268171 0
0.402080 0.274815 0
0.400726 0.267335 0
0.409519 0.275542 0
0.431137 0.268125 0
0.421952 0.276565 0
0.339304 0.225890 0
0.341848 0.219441 0
0.322842 0.226782 0
0.324990 0.216885 0
0.349846 0.226216 0
0.403607 0.288120 0
0.400461 0.281741 0
0.411940 0.291988 0
0.420596 0.286646 0
0.408434 0.300348 0
0.311524 0.205262 0
0.332021 0.201306 0
0.417361 0.281079 0
0.316531 0.213073 0
0.321930 0.204101 0
0.330922 0.210186 0
0.339232 0.206707 0
0.343743 0.212416 0
0.315825 0.196590 0
0.327336 0.187226 0
0.325064 0.195802 0
0.319964 0.189862 0
0.297841 0.249178 0
0.294580 0.261373 0
0.209545 0.295465 0
0.215327 0.292747 0
0.206483 0.301252 0
0.207777 0.288604 0
0.198339 0.293349 0
0.183545 0.301698 0
0.180919 0.279762 0
0.192308 0.299943 0
0.190468 0.313511 0
0.185820 0.290301 0
0.189045 0.306410 0
0.191710 0.293341 0
0.197345 0.310541 0
0.213863 0.261897 0
0.258699 0.305219 0
0.260488 0.320501 0
0.252635 0.324370 0
0.252247 0.312334 0
0.248280 0.261542 0
0.251809 0.268228 0
0.255820 0.261836 0
0.252293 0.255468 0
0.239007 0.251052 0
0.246583 0.250451 0
0.246262 0.235477 0
0.248386 0.242922 0
0.239991 0.241292 0
0.269316 0.242909 0
0.258848 0.237847 0
0.276142 0.277576 0
0.284146 0.280440 0
0.193337 0.356158 0
0.200618 0.354469 0
0.207325 0.330411 0
0.212758 0.335084 0
0.213790 0.327401 0
0.203632 0.335635 0
0.196448 0.329210 0
0.193185 0.343159 0
0.190814 0.349687 0
0.186971 0.336340 0
0.178267 0.339459 0
0.162402 0.321144 0
0.168555 0.331843 0
0.171873 0.337612 0
0.193667 0.410082 0
0.199982 0.473376 0
0.194443 0.465828 0
0.184498 0.468530 0
0.187052 0.460079 0
0.182393 0.452235 0
0.169421 0.450704 0
0.183098 0.444370 0
0.175622 0.453887 0
0.175079 0.444988 0
0.186295 0.437476 0
0.171136 0.438493 0
0.175251 0.469127 0
0.168305 0.476507 0
0.167258 0.461522 0
0.167740 0.469018 0
0.142211 0.466898 0
0.155133 0.466066 0
0.157965 0.476023 0
0.157505 0.453947 0
0.160907 0.469805 0
0.141866 0.490738 0
0.149102 0.473163 0
0.164273 0.455300 0
0.151713 0.485347 0
0.137724 0.478755 0
0.157261 0.482309 0
0.142309 0.473713 0
0.145227 0.480971 0
0.450341 0.715115 0
0.447712 0.704362 0
0.450267 0.698192 0
0.418937 0.715580 0
0.411343 0.713785 0
0.411182 0.731419 0
0.408388 0.722576 0
0.399669 0.723589 0
0.417332 0.724613 0
0.387971 0.750602 0
0.423253 0.721006 0
0.421340 0.734415 0
0.391783 0.736213 0
0.393778 0.728685 0
0.402116 0.732371 0
0.381939 0.729576 0
0.408079 0.745517 0
0.381025 0.722951 0
0.373598 0.728519 0
0.407285 0.737951 0
0.415120 0.740953 0
0.398909 0.742655 0
0.376046 0.742645 0
0.371266 0.736198 0
0.378451 0.735866 0
0.365945 0.745139 0
0.438062 0.737896 0
0.399918 0.755545 0
0.391392 0.743809 0
0.383648 0.744166 0
0.364552 0.738256 0
0.374462 0.757932 0
0.378404 0.750615 0
0.370716 0.751194 0
0.364418 0.759106 0
0.358623 0.746309 0
0.351914 0.746803 0
0.429133 0.738882 0
0.428571 0.730832 0
0.401992 0.748898 0
0.385079 0.737493 0
0.363287 0.751915 0
0.371380 0.775116 0
0.354792 0.764017 0
0.370321 0.766057 0
0.384166 0.767995 0
0.361687 0.771658 0
0.376843 0.769886 0
0.382645 0.777230 0
0.350572 0.758186 0
0.346259 0.777249 0
0.339345 0.771565 0
0.332029 0.787512 0
0.332495 0.778074 0
0.361367 0.765015 0
0.364126 0.780135 0
0.375993 0.795305 0
0.355202 0.778633 0
0.368275 0.789116 0
0.351741 0.771416 0
0.339707 0.783160 0
0.348831 0.786686 0
0.324858 0.782428 0
0.317963 0.799751 0
0.323512 0.791926 0
0.325756 0.774472 0
0.384387 0.788132 0
0.353071 0.806018 0
0.332424 0.798700 0
0.309630 0.787962 0
0.316991 0.784498 0
0.376238 0.787093 0
0.370960 0.782260 0
0.405475 0.799187 0
0.353416 0.795811 0
0.364836 0.801312 0
0.341046 0.793264 0
0.325176 0.798986 0
0.315873 0.792389 0
0.389957 0.803148 0
0.396248 0.791146 0
0.357917 0.801073 0
0.362158 0.793974 0
0.369141 0.795943 0
0.347537 0.793051 0
0.341378 0.803345 0
0.384415 0.796663 0
0.389621 0.792381 0
0.348125 0.800742 0
0.316577 0.751692 0
0.316043 0.759630 0
0.355075 0.731616 0
0.261288 0.757983 0
0.239113 0.776346 0
0.268923 0.689213 0
0.263108 0.697438 0
0.268978 0.704273 0
0.259100 0.703359 0
0.244916 0.713434 0
0.253066 0.709886 0
0.257475 0.720190 0
0.261733 0.727211 0
0.252275 0.731860 0
0.244875 0.724133 0
0.258783 0.733153 0
0.253804 0.738436 0
0.236728 0.727457 0
0.220060 0.745690 0
0.225842 0.734241 0
0.234361 0.746537 0
0.230046 0.728861 0
0.240193 0.741759 0
0.232714 0.738579 0
0.227345 0.743839 0
0.237936 0.718757 0
0.225485 0.699607 0
0.234680 0.707251 0
0.231441 0.714381 0
0.213720 0.714579 0
0.222603 0.716487 0
0.215715 0.726917 0
0.219921 0.707343 0
0.217124 0.720358 0
0.227306 0.708202 0
0.250124 0.718803 0
0.210663 0.705683 0
0.213674 0.691911 0
0.217153 0.699483 0
0.209731 0.698264 0
0.242119 0.680056 0
0.262106 0.677070 0
0.268697 0.677510 0
0.260726 0.668638 0
0.251502 0.674477 0
0.255067 0.682880 0
0.254601 0.690393 0
0.267568 0.639370 0
0.256646 0.648400 0
0.258125 0.655736 0
0.264168 0.650700 0
0.278947 0.634653 0
0.274380 0.639719 0
0.272793 0.629901 0
0.508783 0.675203 0
0.496081 0.679276 0
0.489471 0.681879 0
0.490027 0.673597 0
0.495653 0.687881 0
0.504605 0.684014 0
0.520133 0.685981 0
0.502746 0.692005 0
0.511749 0.689887 0
0.513158 0.681961 0
0.518717 0.693891 0
0.524669 0.669713 0
0.511270 0.700215 0
0.520483 0.677312 0
0.532336 0.678888 0
0.525908 0.681873 0
0.535849 0.694870 0
0.527837 0.690697 0
0.535025 0.686674 0
0.528675 0.698864 0
0.555800 0.688727 0
0.539882 0.710553 0
0.545206 0.689791 0
0.535810 0.703240 0
0.547596 0.701467 0
0.527240 0.712802 0
0.526751 0.705709 0
0.533173 0.709498 0
0.542444 0.680628 0
0.542726 0.696382 0
0.551047 0.694678 0
0.561910 0.698480 0
0.555338 0.674426 0
0.549912 0.683375 0
0.547791 0.675239 0
0.480823 0.659844 0
0.471109 0.658631 0
0.466163 0.668142 0
0.470364 0.651119 0
0.475068 0.666426 0
0.464008 0.660980 0
0.467409 0.675318 0
0.457621 0.659897 0
0.472475 0.706730 0
0.481846 0.713463 0
0.476807 0.717512 0
0.490635 0.573354 0
0.500069 0.577906 0
0.505757 0.570385 0
0.507104 0.582776 0
0.516266 0.585449 0
0.525551 0.576889 0
0.524011 0.586295 0
0.519162 0.579274 0
0.525928 0.618612 0
0.523115 0.637794 0
0.560106 0.610287 0
0.546310 0.616256 0
0.541696 0.609946 0
0.550990 0.605334 0
0.537525 0.617837 0
0.552930 0.612629 0
0.559534 0.620698 0
0.547286 0.599917 0
0.555896 0.598006 0
0.579327 0.616565 0
0.549638 0.628253 0
0.539975 0.627238 0
0.568879 0.615991 0
0.556327 0.626757 0
0.545305 0.622994 0
0.542564 0.649114 0
0.532321 0.633755 0
0.573641 0.599068 0
0.564893 0.596455 0
0.567114 0.604968 0
0.560356 0.603339 0
0.575816 0.608033 0
0.587920 0.600350 0
0.585059 0.609218 0
0.580563 0.602135 0
0.573496 0.627305 0
0.543743 0.637884 0
0.531840 0.645170 0
0.591958 0.606548 0
0.591125 0.619862 0
0.566262 0.624536 0
0.573867 0.620554 0
0.538821 0.633636 0
0.529285 0.639345 0
0.585904 0.615787 0
0.541751 0.587215 0
0.551831 0.577600 0
0.549675 0.585431 0
0.545082 0.579954 0
0.543084 0.566468 0
0.494075 0.630822 0
0.486011 0.634641 0
0.485968 0.645032 0
0.501794 0.628815 0
0.491825 0.639860 0
0.497660 0.649859 0
0.485078 0.652181 0
0.453841 0.453284 0
0.446286 0.452706 0
0.463415 0.514083 0
0.479937 0.518523 0
0.233954 0.635872 0
0.224021 0.645293 0
0.230615 0.642298 0
0.212164 0.604735 0
0.235576 0.598676 0
0.233597 0.605359 0
0.229163 0.598355 0
0.236229 0.589334 0
0.241319 0.601810 0
0.227209 0.576607 0
0.227110 0.566534 0
0.243218 0.583979 0
0.235076 0.580591 0
0.228205 0.584400 0
0.234420 0.572126 0
0.209624 0.586237 0
0.219112 0.587318 0
0.215863 0.571681 0
0.218986 0.562887 0
0.211565 0.564358 0
0.218743 0.597265 0
0.222634 0.571615 0
0.219322 0.579118 0
0.219437 0.604508 0
0.209422 0.595688 0
0.199656 0.603587 0
0.206143 0.601621 0
0.249742 0.574318 0
0.218824 0.553479 0
0.208528 0.546174 0
0.200387 0.555486 0
0.186836 0.556623 0
0.183041 0.550494 0
0.138472 0.528928 0
0.163341 0.559272 0
0.159473 0.537785 0
0.166854 0.532260 0
0.374135 0.439738 0
0.368610 0.425365 0
0.363795 0.419929 0
0.385115 0.417207 0
0.399658 0.404305 0
0.359715 0.372211 0
0.386799 0.392804 0
0.372093 0.408192 0
0.371827 0.365515 0
0.396659 0.303522 0
0.414721 0.319277 0
0.413089 0.309310 0
0.396641 0.336744 0
0.398425 0.344648 0
0.404084 0.339218 0
0.387777 0.352121 0
0.391593 0.367108 0
0.381152 0.360426 0
0.392038 0.359015 0
0.373941 0.358301 0
0.379106 0.367764 0
0.369531 0.237774 0
0.359383 0.239686 0
0.355097 0.244628 0
0.353662 0.236612 0
0.363276 0.232461 0
0.376326 0.223437 0
0.371009 0.229696 0
0.363111 0.217600 0
0.356894 0.222547 0
0.384816 0.236037 0
0.368853 0.222477 0
0.376952 0.234958 0
0.390607 0.245495 0
0.379928 0.242464 0
0.365638 0.244999 0
0.373324 0.246779 0
0.419703 0.264900 0
0.436366 0.297301 0
0.429113 0.311804 0
0.434302 0.283358 0
0.420692 0.313182 0
0.423704 0.305175 0
0.426628 0.295759 0
0.431806 0.304085 0
0.442437 0.306306 0
0.426813 0.282350 0
0.431479 0.275999 0
0.429718 0.289096 0
0.449185 0.271285 0
0.439813 0.271692 0
0.420390 0.293335 0
0.448399 0.325378 0
0.439882 0.259191 0
0.444923 0.281241 0
0.448111 0.315000 0
0.437318 0.265428 0
0.441044 0.289484 0
0.455759 0.291374 0
0.448707 0.288056 0
0.456854 0.279896 0
0.448489 0.297671 0
0.438827 0.278361 0
0.437419 0.320490 0
0.425840 0.324198 0
0.450573 0.277769 0
0.442356 0.299811 0
0.440667 0.313659 0
0.444079 0.320305 0
0.304736 0.256129 0
0.301188 0.261714 0
0.298128 0.255788 0
0.307538 0.246455 0
0.312245 0.251397 0
0.298937 0.234455 0
0.313142 0.238405 0
0.301060 0.242015 0
0.291679 0.242104 0
0.315040 0.230427 0
0.307064 0.232744 0
0.299597 0.217429 0
0.307565 0.213310 0
0.301406 0.226025 0
0.290600 0.227436 0
0.309186 0.225216 0
0.305776 0.219617 0
0.280713 0.248505 0
0.289119 0.252868 0
0.291576 0.234738 0
0.274276 0.222529 0
0.284924 0.243125 0
0.277156 0.240416 0
0.270275 0.232348 0
0.283761 0.262315 0
0.281611 0.227736 0
0.265595 0.237247 0
0.263099 0.223699 0
0.289728 0.268251 0
0.296403 0.267809 0
0.288197 0.274923 0
0.278533 0.266632 0
0.282494 0.255353 0
0.277284 0.233339 0
0.269001 0.226104 0
0.192935 0.320672 0
0.176682 0.294403 0
0.168210 0.284017 0
0.178898 0.287111 0
0.170354 0.290916 0
0.191910 0.281060 0
0.196238 0.286622 0
0.211051 0.274237 0
0.262709 0.248761 0
0.271764 0.252327 0
0.268858 0.258582 0
0.197007 0.361749 0
0.175075 0.362943 0
0.182064 0.355269 0
0.182460 0.372572 0
0.172474 0.353554 0
0.177599 0.347422 0
0.183817 0.363885 0
0.189152 0.372358 0
0.150417 0.364720 0
0.190276 0.362115 0
0.157823 0.351982 0
0.165424 0.350202 0
0.164013 0.361296 0
0.177108 0.319805 0
0.180504 0.310815 0
0.185069 0.319377 0
0.179978 0.329302 0
0.168946 0.311585 0
0.174245 0.303662 0
0.173281 0.326143 0
0.174901 0.313835 0
0.162042 0.447103 0
0.148152 0.458408 0
0.154483 0.459647 0
0.148578 0.465030 0
0.132030 0.453450 0
0.144797 0.439689 0
0.154250 0.441463 0
0.139291 0.458531 0
0.129130 0.466770 0
0.140742 0.448729 0
0.132487 0.460525 0
0.124622 0.457481 0
0.107745 0.434776 0
0.121212 0.442391 0
0.125054 0.449453 0
0.114095 0.450840 0
0.132516 0.440816 0
0.149675 0.449565 0
0.101132 0.460361 0
0.112426 0.442213 0
0.102480 0.448612 0
0.105044 0.441668 0
0.087858 0.439268 0
0.096189 0.442344 0
0.087529 0.452981 0
0.094785 0.450045 0
0.138859 0.442455 0
0.109354 0.457971 0
0.157490 0.492865 0
0.148410 0.501120 0
0.154153 0.508372 0
0.140808 0.513040 0
0.146672 0.508396 0
0.149684 0.518223 0
0.149513 0.493016 0
0.154679 0.498894 0
0.154970 0.514682 0
0.154604 0.523804 0
0.148026 0.531051 0
0.141924 0.521320 0
0.132220 0.521504 0
0.153146 0.535117 0
0.133786 0.514504 0
0.132056 0.500659 0
0.140173 0.502999 0
0.134514 0.507382 0
0.137678 0.496407 0
0.116099 0.541424 0
0.126080 0.533019 0
0.131457 0.528491 0
0.121388 0.523123 0
0.116337 0.531578 0
0.106000 0.508377 0
0.102647 0.536173 0
0.115654 0.513705 0
0.110325 0.536359 0
0.121215 0.516773 0
0.105231 0.521182 0
0.108899 0.528394 0
0.100782 0.527982 0
0.113379 0.521578 0
0.117420 0.499091 0
0.108663 0.514962 0
0.121063 0.506945 0
0.113350 0.505751 0
0.124671 0.500500 0
0.123875 0.485232 0
0.132748 0.488383 0
0.122373 0.492965 0
0.130357 0.481048 0
0.132112 0.473705 0
0.460800 0.711504 0
0.439785 0.718073 0
0.433309 0.717299 0
0.440012 0.709203 0
0.448488 0.728816 0
0.438499 0.727948 0
0.446456 0.721565 0
0.422960 0.707325 0
0.415888 0.760206 0
0.408835 0.754681 0
0.415462 0.749521 0
0.390929 0.760362 0
0.382900 0.757757 0
0.378794 0.763283 0
0.393449 0.754270 0
0.401719 0.769703 0
0.405052 0.762085 0
0.397723 0.763416 0
0.392845 0.770931 0
0.395714 0.748392 0
0.345506 0.768431 0
0.305893 0.776035 0
0.304599 0.768494 0
0.312022 0.779506 0
0.367678 0.825473 0
0.376814 0.810196 0
0.372708 0.803214 0
0.382091 0.804259 0
0.387432 0.813671 0
0.397435 0.810507 0
0.382356 0.827608 0
0.398035 0.802418 0
0.416762 0.819374 0
0.387624 0.821634 0
0.378791 0.819154 0
0.375143 0.825671 0
0.372769 0.848911 0
0.371108 0.837000 0
0.369884 0.816422 0
0.367160 0.808934 0
0.405970 0.817401 0
0.357204 0.818126 0
0.399826 0.816277 0
0.406287 0.808278 0
0.420848 0.802396 0
0.412674 0.803126 0
0.417457 0.810561 0
0.433430 0.812407 0
0.411138 0.813014 0
0.424970 0.815588 0
0.426854 0.807759 0
0.431771 0.820834 0
0.429462 0.798794 0
0.423231 0.830744 0
0.423454 0.823092 0
0.429223 0.827273 0
0.363877 0.819752 0
0.456663 0.794976 0
0.406034 0.835154 0
0.442733 0.794539 0
0.403118 0.826288 0
0.435341 0.794307 0
0.438742 0.803817 0
0.410390 0.823721 0
0.393214 0.834458 0
0.389385 0.828496 0
0.449442 0.802922 0
0.399760 0.832305 0
0.449663 0.795869 0
0.449354 0.778757 0
0.452122 0.787266 0
0.443212 0.785460 0
0.460949 0.779689 0
0.432581 0.769553 0
0.460174 0.787717 0
0.439842 0.776206 0
0.477466 0.785334 0
0.468537 0.784473 0
0.474113 0.773386 0
0.471559 0.799853 0
0.473474 0.780010 0
0.465048 0.794553 0
0.472667 0.791843 0
0.486487 0.797010 0
0.478704 0.796759 0
0.482192 0.809384 0
0.477543 0.803874 0
0.467951 0.811684 0
0.461321 0.803996 0
0.395719 0.827276 0
0.435198 0.783138 0
0.447346 0.760729 0
0.467748 0.805156 0
0.455581 0.801248 0
0.446621 0.769935 0
0.439737 0.764762 0
0.454392 0.765915 0
0.429097 0.756610 0
0.464097 0.745351 0
0.456960 0.773140 0
0.433035 0.762491 0
0.423915 0.765451 0
0.422500 0.752641 0
0.431153 0.747750 0
0.461440 0.756669 0
0.454359 0.758581 0
0.447133 0.747512 0
0.423108 0.778363 0
0.428360 0.782757 0
0.415601 0.789780 0
0.416239 0.796914 0
0.422748 0.792737 0
0.421551 0.785515 0
0.426087 0.772068 0
0.414344 0.771334 0
0.413563 0.780653 0
0.408349 0.768065 0
0.405695 0.787201 0
0.409406 0.793264 0
0.402628 0.793140 0
0.398632 0.783572 0
0.398105 0.776177 0
0.406375 0.776548 0
0.248884 0.770227 0
0.244532 0.702505 0
0.251055 0.703587 0
0.241156 0.708094 0
0.235670 0.696707 0
0.231569 0.701640 0
0.226758 0.684740 0
0.244774 0.692464 0
0.228943 0.692415 0
0.221281 0.693001 0
0.235646 0.686358 0
0.216387 0.736650 0
0.197182 0.749719 0
0.200200 0.732878 0
0.208188 0.745247 0
0.208873 0.732279 0
0.210082 0.738845 0
0.203762 0.721366 0
0.209098 0.725520 0
0.201752 0.711122 0
0.206996 0.715412 0
0.190574 0.718634 0
0.197742 0.717227 0
0.195658 0.725573 0
0.191755 0.733065 0
0.188701 0.725337 0
0.196151 0.740844 0
0.203044 0.739335 0
0.189385 0.704791 0
0.194238 0.710556 0
0.248113 0.642031 0
0.242208 0.639462 0
0.250447 0.634263 0
0.259175 0.632259 0
0.256379 0.640089 0
0.245724 0.654132 0
0.243721 0.647451 0
0.240478 0.666616 0
0.244259 0.672974 0
0.248177 0.666341 0
0.272449 0.622569 0
0.533036 0.670513 0
0.530015 0.657956 0
0.529365 0.664754 0
0.552008 0.713031 0
0.535455 0.722322 0
0.569355 0.687025 0
0.531170 0.581340 0
0.519596 0.564901 0
0.513190 0.568940 0
0.516005 0.631162 0
0.524357 0.629325 0
0.514182 0.640243 0
0.506386 0.643050 0
0.508185 0.634316 0
0.572775 0.645867 0
0.554004 0.637545 0
0.563705 0.640994 0
0.549085 0.644121 0
0.555064 0.658685 0
0.550682 0.666635 0
0.550107 0.652211 0
0.557384 0.647182 0
0.542611 0.659733 0
0.569364 0.634696 0
0.544509 0.665684 0
0.536933 0.654449 0
0.538713 0.643033 0
0.522026 0.647931 0
0.528235 0.651179 0
0.518313 0.659086 0
0.517486 0.652615 0
0.583162 0.625600 0
0.602129 0.643527 0
0.594362 0.632747 0
0.590183 0.626948 0
0.533226 0.569842 0
0.539614 0.572419 0
0.525696 0.569344 0
0.526478 0.561861 0
0.519914 0.545506 0
0.524982 0.552966 0
0.514931 0.554343 0
0.536590 0.563581 0
0.520574 0.558160 0
0.513804 0.561151 0
0.503359 0.547746 0
0.511642 0.546665 0
0.506775 0.541642 0
0.507786 0.553428 0
0.502339 0.662918 0
0.498366 0.670774 0
0.491995 0.665682 0
0.462836 0.462014 0
0.472508 0.521328 0
0.476575 0.512182 0
0.492096 0.511566 0
0.484346 0.512123 0
0.489267 0.532572 0
0.496925 0.539222 0
0.479637 0.537731 0
0.488757 0.552078 0
0.481320 0.529306 0
0.487997 0.541769 0
0.481008 0.545566 0
0.495248 0.547179 0
0.497543 0.556968 0
0.500533 0.563199 0
0.488912 0.562137 0
0.478355 0.561611 0
0.480517 0.553727 0
0.473518 0.556236 0
0.483465 0.565260 0
0.477145 0.568507 0
0.207132 0.576554 0
0.212713 0.580280 0
0.189546 0.586241 0
0.194720 0.574826 0
0.199586 0.590750 0
0.201302 0.572990 0
0.190648 0.597217 0
0.197126 0.582796 0
0.193256 0.591412 0
0.197430 0.597181 0
0.168042 0.593943 0
0.203918 0.582543 0
0.179753 0.592768 0
0.186381 0.592102 0
0.202379 0.542821 0
0.212093 0.538157 0
0.206788 0.552867 0
0.193268 0.551965 0
0.194286 0.564090 0
0.200362 0.561934 0
0.167634 0.551193 0
0.175578 0.559766 0
0.157406 0.550938 0
0.169546 0.557389 0
0.183717 0.567185 0
0.159105 0.544512 0
0.151633 0.561329 0
0.181970 0.560927 0
0.188157 0.562755 0
0.190171 0.569633 0
0.183421 0.577695 0
0.156996 0.557510 0
0.189898 0.579520 0
0.181843 0.585293 0
0.371195 0.432088 0
0.363194 0.431514 0
0.376653 0.426132 0
0.373362 0.418090 0
0.399155 0.411927 0
0.379165 0.393965 0
0.385448 0.403238 0
0.392262 0.407644 0
0.379445 0.405465 0
0.392918 0.398901 0
0.366099 0.361364 0
0.409836 0.326520 0
0.406528 0.319019 0
0.418045 0.326788 0
0.407445 0.312568 0
0.355216 0.212775 0
0.367407 0.191748 0
0.359273 0.201080 0
0.354888 0.206110 0
0.362892 0.225697 0
0.386771 0.250757 0
0.406289 0.229393 0
0.424425 0.270039 0
0.416098 0.271644 0
0.410778 0.255314 0
0.428234 0.256536 0
0.459594 0.251739 0
0.458346 0.270847 0
0.453280 0.260921 0
0.471491 0.287083 0
0.430494 0.318798 0
0.268007 0.216612 0
0.272119 0.198393 0
0.267902 0.207015 0
0.283912 0.209503 0
0.276387 0.214013 0
0.285819 0.219006 0
0.276460 0.205600 0
0.292089 0.212805 0
0.294864 0.194159 0
0.300101 0.204640 0
0.284871 0.198607 0
0.292972 0.220520 0
0.305357 0.195266 0
0.292351 0.201964 0
0.283800 0.182753 0
0.305985 0.201779 0
0.299735 0.198274 0
0.287241 0.190484 0
0.278597 0.192369 0
0.269752 0.189352 0
0.275611 0.183571 0
0.253976 0.196629 0
0.263204 0.195897 0
0.259197 0.203920 0
0.257740 0.185547 0
0.243316 0.210337 0
0.263158 0.189304 0
0.250304 0.204773 0
0.251513 0.213462 0
0.240049 0.199063 0
0.243144 0.223100 0
0.247115 0.198436 0
0.245565 0.216750 0
0.254055 0.228694 0
0.261130 0.230820 0
0.252837 0.235163 0
0.247180 0.228665 0
0.255500 0.220625 0
0.186014 0.283801 0
0.188429 0.263337 0
0.209448 0.281272 0
0.199689 0.272622 0
0.227194 0.271425 0
0.175648 0.382573 0
0.150461 0.335130 0
0.159808 0.340813 0
0.150869 0.344985 0
0.159129 0.331402 0
0.148000 0.354792 0
0.127159 0.341032 0
0.154374 0.358498 0
0.138027 0.362478 0
0.139428 0.340524 0
0.144719 0.360849 0
0.146127 0.340246 0
0.143091 0.348032 0
0.151437 0.306617 0
0.124906 0.427548 0
0.137026 0.545364 0
0.134027 0.536999 0
0.142938 0.538524 0
0.126360 0.544468 0
0.146630 0.550294 0
0.122449 0.538836 0
0.130046 0.564535 0
0.117639 0.555051 0
0.146894 0.543747 0
0.130930 0.554001 0
0.119757 0.547911 0
0.139042 0.553257 0
0.124620 0.558775 0
0.120136 0.568434 0
0.115988 0.562283 0
0.134114 0.589417 0
0.110150 0.590054 0
0.129392 0.577415 0
0.112664 0.578098 0
0.126799 0.570827 0
0.120993 0.576915 0
0.114060 0.571457 0
0.096060 0.514206 0
0.118830 0.473817 0
0.108220 0.469405 0
0.129179 0.494340 0
0.453924 0.708541 0
0.459008 0.723263 0
0.288395 0.788066 0
0.361923 0.844352 0
0.359470 0.810593 0
0.356017 0.830955 0
0.344863 0.815579 0
0.340543 0.810197 0
0.432567 0.844614 0
0.430309 0.836057 0
0.414329 0.831768 0
0.419770 0.843414 0
0.412697 0.839625 0
0.419384 0.836501 0
0.426388 0.841668 0
0.409636 0.853831 0
0.404119 0.845210 0
0.413207 0.847167 0
0.421801 0.854581 0
0.400642 0.853510 0
0.386381 0.853177 0
0.393456 0.855714 0
0.393275 0.845086 0
0.382209 0.842640 0
0.384973 0.835150 0
0.377690 0.833452 0
0.398757 0.839832 0
0.387092 0.846801 0
0.485977 0.776501 0
0.466668 0.774735 0
0.503363 0.809799 0
0.475515 0.813276 0
0.456985 0.829531 0
0.455090 0.816073 0
0.443538 0.818982 0
0.460637 0.811289 0
0.441314 0.811344 0
0.480710 0.755223 0
0.439119 0.745986 0
0.439179 0.755382 0
0.445824 0.754143 0
0.455996 0.749420 0
0.453691 0.738590 0
0.254460 0.766736 0
0.255422 0.783661 0
0.236595 0.761464 0
0.226443 0.755553 0
0.247749 0.685340 0
0.207663 0.759735 0
0.262245 0.643948 0
0.232897 0.656085 0
0.544873 0.717036 0
0.546626 0.708461 0
0.555794 0.704963 0
0.568205 0.715709 0
0.560484 0.712086 0
0.567634 0.706888 0
0.559643 0.723917 0
0.537212 0.746710 0
0.515002 0.731668 0
0.568292 0.694481 0
0.565792 0.654864 0
0.564362 0.647987 0
0.515234 0.668142 0
0.507841 0.667864 0
0.510054 0.659870 0
0.503696 0.655064 0
0.496826 0.657922 0
0.580954 0.637263 0
0.579109 0.630873 0
0.605623 0.623070 0
0.598069 0.625670 0
0.598689 0.617875 0
0.604985 0.633487 0
0.599381 0.637319 0
0.590144 0.645121 0
0.628395 0.629693 0
0.616262 0.628950 0
0.609545 0.628538 0
0.614849 0.641720 0
0.608088 0.639796 0
0.519342 0.572278 0
0.455549 0.460523 0
0.469298 0.469311 0
0.479581 0.485996 0
0.470277 0.480219 0
0.475924 0.474215 0
0.467256 0.495467 0
0.471636 0.488412 0
0.478218 0.495785 0
0.460349 0.486291 0
0.454624 0.497396 0
0.454351 0.504040 0
0.462335 0.502059 0
0.446967 0.496219 0
0.490160 0.492459 0
0.472567 0.501459 0
0.453377 0.485476 0
0.458081 0.480211 0
0.485780 0.499834 0
0.492900 0.499075 0
0.483466 0.491527 0
0.178431 0.611568 0
0.189403 0.608533 0
0.193159 0.603220 0
0.218427 0.539936 0
0.158548 0.566338 0
0.168040 0.578464 0
0.175831 0.580082 0
0.168771 0.568114 0
0.161368 0.573909 0
0.170497 0.586203 0
0.155999 0.586826 0
0.156735 0.579558 0
0.144329 0.581973 0
0.163152 0.584275 0
0.176219 0.567237 0
0.345834 0.188323 0
0.343725 0.197943 0
0.336377 0.191291 0
0.352447 0.194813 0
0.357774 0.182772 0
0.359967 0.193473 0
0.352847 0.187791 0
0.337306 0.197650 0
0.374258 0.205930 0
0.373627 0.214880 0
0.380582 0.210873 0
0.382595 0.218558 0
0.394089 0.224747 0
0.384304 0.227221 0
0.403238 0.242109 0
0.412802 0.262378 0
0.403751 0.259651 0
0.435117 0.253217 0
0.426365 0.263162 0
0.419490 0.256150 0
0.416319 0.243396 0
0.427842 0.244240 0
0.415653 0.250333 0
0.408275 0.247989 0
0.424119 0.250513 0
0.463810 0.261399 0
0.458390 0.264568 0
0.479704 0.248713 0
0.477284 0.261980 0
0.470055 0.252924 0
0.470424 0.264550 0
0.466521 0.237366 0
0.476714 0.255022 0
0.489358 0.257152 0
0.465569 0.245763 0
0.473641 0.242425 0
0.476244 0.231221 0
0.446064 0.264060 0
0.447561 0.252465 0
0.451381 0.237809 0
0.459044 0.240771 0
0.452634 0.245961 0
0.445687 0.242856 0
0.436859 0.227162 0
0.437807 0.236959 0
0.453720 0.254461 0
0.444974 0.231321 0
0.450880 0.209805 0
0.457065 0.225787 0
0.445681 0.219947 0
0.460027 0.233019 0
0.452029 0.230761 0
0.464431 0.226993 0
0.434154 0.242420 0
0.427294 0.233031 0
0.469530 0.231363 0
0.462814 0.286256 0
0.464617 0.278593 0
0.254461 0.166550 0
0.235668 0.206442 0
0.220385 0.221161 0
0.226507 0.212224 0
0.231744 0.222376 0
0.237234 0.216072 0
0.209423 0.207088 0
0.226392 0.218710 0
0.217147 0.212378 0
0.218407 0.202254 0
0.223773 0.206170 0
0.201909 0.182355 0
0.222222 0.182303 0
0.208155 0.193965 0
0.222902 0.192774 0
0.211542 0.200260 0
0.215097 0.188024 0
0.216210 0.194982 0
0.207886 0.186625 0
0.234842 0.186740 0
0.230934 0.193838 0
0.227586 0.187212 0
0.237459 0.231113 0
0.187317 0.272759 0
0.193459 0.268707 0
0.199604 0.257911 0
0.198121 0.278981 0
0.206331 0.266671 0
0.199466 0.264979 0
0.218534 0.269452 0
0.220919 0.278973 0
0.220800 0.285347 0
0.181952 0.379546 0
0.173952 0.389690 0
0.161769 0.376343 0
0.172124 0.372852 0
0.177190 0.368967 0
0.168638 0.379615 0
0.165110 0.369151 0
0.156924 0.369720 0
0.158135 0.363544 0
0.137046 0.388847 0
0.145548 0.377790 0
0.149994 0.372004 0
0.141656 0.370198 0
0.134944 0.378433 0
0.133055 0.369529 0
0.140526 0.382725 0
0.152616 0.390006 0
0.109907 0.388907 0
0.123470 0.386169 0
0.124303 0.375568 0
0.130815 0.384686 0
0.115204 0.380187 0
0.116578 0.386991 0
0.121547 0.399351 0
0.129165 0.393904 0
0.097865 0.375623 0
0.143021 0.406829 0
0.130564 0.403910 0
0.105857 0.380478 0
0.154225 0.422334 0
0.166470 0.426448 0
0.124057 0.405583 0
0.100859 0.411774 0
0.111965 0.406831 0
0.134992 0.413054 0
0.096397 0.390210 0
0.109767 0.365036 0
0.156722 0.431895 0
0.136484 0.406687 0
0.139946 0.397867 0
0.144765 0.417370 0
0.129356 0.419888 0
0.136979 0.429440 0
0.131310 0.426146 0
0.137416 0.420806 0
0.098803 0.383084 0
0.087641 0.380698 0
0.117734 0.369337 0
0.110314 0.373391 0
0.103221 0.369660 0
0.094560 0.367267 0
0.101605 0.360427 0
0.090534 0.373691 0
0.067731 0.368376 0
0.078697 0.372904 0
0.084829 0.365023 0
0.159813 0.425981 0
0.163378 0.432362 0
0.133639 0.398379 0
0.144687 0.391367 0
0.147630 0.384738 0
0.155650 0.382141 0
0.150213 0.399783 0
0.159772 0.388249 0
0.160105 0.398253 0
0.145921 0.426662 0
0.102133 0.334592 0
0.113282 0.349280 0
0.075817 0.364336 0
0.066811 0.356422 0
0.069703 0.362212 0
0.154304 0.410688 0
0.170862 0.401038 0
0.142978 0.432970 0
0.099486 0.347461 0
0.109134 0.356625 0
0.102864 0.353565 0
0.119137 0.357430 0
0.115961 0.363092 0
0.151259 0.416490 0
0.149516 0.406264 0
0.122435 0.348883 0
0.132817 0.349784 0
0.133394 0.343206 0
0.138940 0.354688 0
0.127691 0.356674 0
0.132701 0.326502 0
0.133291 0.334844 0
0.141958 0.330040 0
0.141876 0.316377 0
0.151140 0.323202 0
0.139259 0.323224 0
0.157319 0.325173 0
0.148340 0.329026 0
0.159358 0.312040 0
0.156046 0.318208 0
0.159805 0.302892 0
0.147272 0.286002 0
0.166854 0.304632 0
0.157149 0.291768 0
0.152907 0.298659 0
0.126043 0.435713 0
0.116949 0.434174 0
0.111474 0.421128 0
0.111962 0.428595 0
0.141706 0.568766 0
0.134502 0.571601 0
0.140353 0.575899 0
0.088770 0.579317 0
0.098309 0.520766 0
0.076358 0.514924 0
0.092222 0.496272 0
0.121811 0.467124 0
0.096901 0.470978 0
0.459692 0.703728 0
0.456815 0.716913 0
0.465147 0.718182 0
0.468398 0.728360 0
0.471208 0.721855 0
0.479494 0.739527 0
0.460202 0.732263 0
0.454981 0.728376 0
0.467576 0.737192 0
0.460662 0.739250 0
0.474510 0.733384 0
0.472415 0.744077 0
0.479563 0.747417 0
0.498196 0.743310 0
0.489877 0.749888 0
0.489068 0.740316 0
0.501241 0.755711 0
0.485005 0.731128 0
0.496888 0.750205 0
0.490819 0.762050 0
0.490111 0.721100 0
0.487413 0.756196 0
0.484583 0.724599 0
0.487915 0.715185 0
0.298996 0.784745 0
0.368701 0.843407 0
0.360508 0.862901 0
0.364020 0.832836 0
0.356886 0.838572 0
0.351784 0.813217 0
0.349582 0.823890 0
0.346306 0.833338 0
0.320053 0.850245 0
0.334550 0.843921 0
0.342191 0.840588 0
0.430130 0.852780 0
0.414564 0.874176 0
0.380028 0.849598 0
0.375850 0.864441 0
0.375723 0.856395 0
0.386537 0.863877 0
0.368494 0.860534 0
0.367717 0.870874 0
0.362123 0.853696 0
0.382201 0.858589 0
0.382040 0.880187 0
0.348659 0.856077 0
0.341701 0.849888 0
0.355200 0.849170 0
0.368656 0.853996 0
0.373465 0.877705 0
0.379765 0.871991 0
0.355824 0.857334 0
0.333961 0.865596 0
0.339997 0.858809 0
0.348024 0.872026 0
0.350934 0.864155 0
0.329562 0.855605 0
0.341980 0.866651 0
0.337944 0.877274 0
0.357931 0.872477 0
0.327650 0.847882 0
0.318422 0.831602 0
0.326452 0.837805 0
0.335586 0.832046 0
0.334772 0.850922 0
0.317516 0.841074 0
0.332824 0.837788 0
0.327085 0.828687 0
0.317886 0.815681 0
0.322457 0.807738 0
0.335072 0.820910 0
0.320538 0.823561 0
0.328779 0.804903 0
0.310650 0.825258 0
0.326859 0.817048 0
0.341698 0.826448 0
0.294546 0.852362 0
0.306231 0.836575 0
0.305876 0.829914 0
0.313052 0.835868 0
0.486194 0.785227 0
0.490777 0.791008 0
0.504186 0.795638 0
0.495540 0.798948 0
0.498105 0.791518 0
0.501898 0.802610 0
0.513345 0.802505 0
0.489512 0.804992 0
0.492530 0.822201 0
0.489823 0.813807 0
0.495817 0.809183 0
0.498984 0.816907 0
0.484424 0.820182 0
0.513936 0.821216 0
0.503451 0.828934 0
0.483608 0.840731 0
0.507060 0.816980 0
0.499149 0.823689 0
0.486147 0.830541 0
0.514983 0.811818 0
0.495595 0.838306 0
0.474247 0.832988 0
0.509669 0.807952 0
0.489025 0.836670 0
0.480784 0.834616 0
0.465226 0.822302 0
0.470216 0.817924 0
0.471241 0.826375 0
0.465250 0.833089 0
0.452944 0.850295 0
0.442009 0.855872 0
0.457224 0.840353 0
0.437089 0.850410 0
0.444466 0.839994 0
0.437165 0.838825 0
0.458116 0.822509 0
0.449851 0.824779 0
0.449404 0.833182 0
0.442848 0.826068 0
0.470254 0.851855 0
0.469848 0.841913 0
0.450753 0.843459 0
0.444711 0.848489 0
0.461854 0.848238 0
0.477181 0.846593 0
0.476349 0.839812 0
0.486686 0.850562 0
0.463740 0.839486 0
0.499456 0.850479 0
0.479130 0.859596 0
0.476811 0.853296 0
0.493090 0.853335 0
0.492663 0.845540 0
0.485105 0.856916 0
0.449194 0.810817 0
0.472305 0.762449 0
0.445813 0.739670 0
0.254963 0.775577 0
0.247237 0.780071 0
0.232459 0.801582 0
0.237979 0.789543 0
0.240911 0.783148 0
0.245352 0.758134 0
0.243088 0.765358 0
0.238591 0.753535 0
0.227163 0.765989 0
0.219320 0.761288 0
0.212929 0.764732 0
0.200012 0.780421 0
0.207895 0.773749 0
0.218880 0.753450 0
0.230344 0.760526 0
0.234626 0.769451 0
0.226592 0.779587 0
0.233223 0.783493 0
0.223658 0.792150 0
0.228511 0.772856 0
0.195373 0.766948 0
0.215928 0.780881 0
0.200312 0.772783 0
0.202855 0.765621 0
0.197732 0.758486 0
0.188238 0.760399 0
0.220772 0.776215 0
0.221851 0.785103 0
0.207937 0.781791 0
0.202091 0.792004 0
0.175228 0.746925 0
0.184445 0.741131 0
0.190422 0.746006 0
0.190750 0.753418 0
0.181391 0.753992 0
0.174950 0.736254 0
0.181907 0.747322 0
0.162227 0.741925 0
0.169711 0.719012 0
0.180152 0.719335 0
0.169765 0.741729 0
0.175167 0.727061 0
0.165171 0.731424 0
0.175322 0.706536 0
0.184903 0.712148 0
0.168597 0.725641 0
0.152399 0.733506 0
0.175093 0.713933 0
0.166734 0.710466 0
0.155206 0.719273 0
0.157627 0.710494 0
0.162416 0.716762 0
0.140289 0.710436 0
0.148992 0.700190 0
0.148950 0.712824 0
0.155164 0.703787 0
0.143510 0.724360 0
0.146035 0.706497 0
0.143106 0.717119 0
0.134331 0.721241 0
0.159269 0.735433 0
0.157874 0.727193 0
0.150571 0.726390 0
0.133657 0.738290 0
0.131690 0.712740 0
0.113652 0.698939 0
0.121292 0.707642 0
0.162758 0.723115 0
0.136520 0.729865 0
0.144270 0.732515 0
0.124624 0.730521 0
0.147618 0.738883 0
0.130386 0.726832 0
0.204672 0.752373 0
0.211883 0.751501 0
0.213864 0.757715 0
0.239908 0.659032 0
0.227961 0.667632 0
0.553459 0.720134 0
0.577211 0.733674 0
0.539578 0.734282 0
0.523868 0.724017 0
0.559279 0.653550 0
0.575080 0.654864 0
0.581584 0.648404 0
0.590599 0.659107 0
0.582649 0.657682 0
0.587947 0.652193 0
0.597800 0.652379 0
0.609939 0.652831 0
0.601874 0.663957 0
0.603970 0.649912 0
0.597300 0.659061 0
0.563858 0.666405 0
0.557296 0.667970 0
0.574433 0.639254 0
0.588557 0.637674 0
0.585652 0.631747 0
0.620317 0.609048 0
0.621917 0.636038 0
0.642505 0.650576 0
0.627409 0.650107 0
0.622449 0.643937 0
0.633455 0.640168 0
0.618755 0.651985 0
0.625573 0.662524 0
0.614979 0.658996 0
0.624150 0.655970 0
0.607771 0.659746 0
0.448822 0.459099 0
0.460475 0.493384 0
0.493256 0.475504 0
0.484736 0.472890 0
0.486824 0.481278 0
0.480372 0.479292 0
0.174751 0.601863 0
0.174122 0.595594 0
0.182968 0.600458 0
0.168458 0.609799 0
0.183067 0.606980 0
0.157469 0.602154 0
0.166664 0.601913 0
0.161401 0.608222 0
0.196800 0.610768 0
0.145845 0.594785 0
0.367802 0.200303 0
0.365851 0.209058 0
0.406077 0.211551 0
0.397715 0.246759 0
0.394925 0.236350 0
0.390425 0.230843 0
0.401958 0.235078 0
0.410417 0.237029 0
0.417281 0.228384 0
0.419794 0.236082 0
0.411008 0.220414 0
0.425385 0.224033 0
0.418576 0.220715 0
0.402287 0.221560 0
0.395674 0.216686 0
0.414999 0.212392 0
0.412122 0.195165 0
0.422795 0.202236 0
0.411274 0.204160 0
0.420793 0.208770 0
0.396078 0.198997 0
0.416520 0.200117 0
0.422147 0.190691 0
0.404556 0.198989 0
0.395473 0.207832 0
0.384270 0.199637 0
0.390376 0.203045 0
0.375861 0.195645 0
0.414198 0.186348 0
0.400305 0.185749 0
0.407110 0.189332 0
0.400312 0.193050 0
0.389444 0.189410 0
0.443540 0.181887 0
0.382574 0.192357 0
0.378827 0.174145 0
0.382569 0.182867 0
0.431768 0.183677 0
0.374759 0.186917 0
0.366772 0.182772 0
0.362274 0.176167 0
0.373542 0.179495 0
0.370130 0.170839 0
0.393256 0.173118 0
0.425136 0.184685 0
0.373593 0.142169 0
0.390774 0.181129 0
0.386161 0.175310 0
0.369522 0.156221 0
0.385135 0.159408 0
0.387553 0.167236 0
0.367375 0.163632 0
0.376425 0.162238 0
0.490024 0.246649 0
0.493725 0.252156 0
0.485657 0.251644 0
0.500902 0.230789 0
0.497719 0.240266 0
0.487147 0.235350 0
0.481471 0.240943 0
0.491266 0.240317 0
0.505004 0.268940 0
0.498754 0.260958 0
0.488677 0.275287 0
0.491121 0.266299 0
0.497087 0.272748 0
0.504933 0.278927 0
0.495126 0.281449 0
0.485987 0.295502 0
0.485430 0.285142 0
0.482734 0.268845 0
0.484297 0.262008 0
0.522840 0.274061 0
0.492601 0.289951 0
0.479096 0.290677 0
0.472010 0.308131 0
0.465844 0.297853 0
0.477552 0.300216 0
0.517462 0.289653 0
0.513206 0.273992 0
0.462426 0.319796 0
0.491511 0.315289 0
0.497805 0.302867 0
0.493097 0.297258 0
0.487209 0.305825 0
0.471171 0.301646 0
0.472688 0.294394 0
0.509494 0.286280 0
0.516175 0.281594 0
0.509066 0.298391 0
0.506365 0.292233 0
0.454390 0.320019 0
0.458207 0.312670 0
0.461586 0.305034 0
0.465933 0.312907 0
0.477987 0.321991 0
0.470400 0.319519 0
0.456683 0.299053 0
0.468628 0.337838 0
0.466716 0.328408 0
0.457181 0.329168 0
0.493691 0.308588 0
0.505811 0.312964 0
0.479707 0.307623 0
0.476296 0.314501 0
0.483949 0.314011 0
0.475912 0.331453 0
0.449302 0.335358 0
0.490193 0.329625 0
0.486479 0.322055 0
0.482799 0.328556 0
0.430213 0.345245 0
0.425204 0.335308 0
0.415280 0.350333 0
0.405978 0.350083 0
0.411108 0.343339 0
0.417984 0.339021 0
0.439211 0.331240 0
0.440942 0.342589 0
0.410146 0.368195 0
0.401109 0.363572 0
0.433038 0.326745 0
0.442960 0.336475 0
0.410404 0.358600 0
0.403004 0.356633 0
0.426043 0.362253 0
0.417484 0.363591 0
0.420719 0.356241 0
0.423084 0.371364 0
0.423039 0.348647 0
0.430078 0.354227 0
0.416248 0.386159 0
0.421941 0.379813 0
0.412777 0.377319 0
0.416222 0.371385 0
0.407329 0.384560 0
0.396148 0.378821 0
0.400630 0.383851 0
0.392554 0.386535 0
0.383272 0.383790 0
0.398513 0.371159 0
0.387585 0.375798 0
0.405549 0.374462 0
0.385461 0.369549 0
0.434984 0.215868 0
0.430035 0.208027 0
0.429039 0.218604 0
0.433679 0.196050 0
0.440636 0.206818 0
0.429470 0.201312 0
0.444420 0.212898 0
0.449575 0.195224 0
0.447374 0.202770 0
0.440636 0.199186 0
0.440472 0.190265 0
0.453975 0.217795 0
0.461989 0.219227 0
0.471933 0.201758 0
0.468767 0.211521 0
0.459839 0.210502 0
0.456833 0.201435 0
0.488503 0.212526 0
0.459641 0.190808 0
0.464332 0.203981 0
0.466102 0.195929 0
0.478770 0.209370 0
0.451641 0.186255 0
0.480631 0.220216 0
0.474505 0.216133 0
0.491714 0.223687 0
0.475691 0.224623 0
0.487106 0.218970 0
0.259127 0.175526 0
0.245908 0.178803 0
0.248171 0.188517 0
0.253173 0.179808 0
0.241875 0.184863 0
0.225107 0.230727 0
0.231347 0.228873 0
0.215724 0.244956 0
0.222759 0.239387 0
0.227591 0.249806 0
0.210924 0.231661 0
0.222239 0.245958 0
0.219878 0.254888 0
0.218166 0.233494 0
0.229205 0.260649 0
0.206529 0.219597 0
0.221682 0.262398 0
0.232847 0.254565 0
0.238691 0.262195 0
0.210424 0.213909 0
0.243136 0.256745 0
0.243871 0.267528 0
0.235778 0.270526 0
0.235315 0.279760 0
0.228035 0.280863 0
0.191145 0.254710 0
0.173163 0.253792 0
0.182578 0.245949 0
0.182035 0.256584 0
0.188601 0.248628 0
0.174920 0.267857 0
0.175898 0.260593 0
0.182274 0.267387 0
0.175147 0.429371 0
0.175199 0.414872 0
0.172761 0.422113 0
0.164263 0.415220 0
0.162104 0.406756 0
0.155919 0.403724 0
0.169795 0.408970 0
0.112536 0.397685 0
0.117947 0.393619 0
0.103729 0.395541 0
0.093369 0.402080 0
0.097247 0.396748 0
0.101873 0.403583 0
0.089448 0.387820 0
0.089159 0.395569 0
0.078126 0.382587 0
0.060062 0.398219 0
0.075609 0.407855 0
0.081052 0.400242 0
0.070473 0.377278 0
0.070715 0.392276 0
0.085965 0.409507 0
0.055247 0.377095 0
0.076520 0.389038 0
0.072882 0.400153 0
0.086927 0.403062 0
0.093559 0.409674 0
0.093119 0.424935 0
0.095299 0.417361 0
0.102797 0.425445 0
0.094671 0.433637 0
0.062889 0.374741 0
0.063711 0.384888 0
0.078615 0.422289 0
0.086711 0.418990 0
0.104612 0.418215 0
0.101385 0.432171 0
0.070919 0.384483 0
0.063587 0.392019 0
0.051800 0.389418 0
0.079858 0.414500 0
0.080214 0.350251 0
0.080819 0.358169 0
0.074139 0.354697 0
0.071370 0.344540 0
0.066748 0.349582 0
0.063264 0.324144 0
0.084781 0.333473 0
0.064798 0.335343 0
0.079833 0.341137 0
0.073019 0.336416 0
0.090258 0.342439 0
0.065664 0.341671 0
0.093437 0.334341 0
0.090132 0.323702 0
0.097615 0.340369 0
0.091899 0.350413 0
0.179828 0.403578 0
0.183721 0.411252 0
0.183114 0.419036 0
0.107180 0.342336 0
0.116457 0.330774 0
0.116493 0.340306 0
0.109922 0.335033 0
0.125258 0.331219 0
0.121207 0.324075 0
0.122081 0.336925 0
0.149367 0.314152 0
0.157284 0.280193 0
0.148699 0.567758 0
0.137759 0.561460 0
0.144667 0.558339 0
0.135598 0.581903 0
0.100878 0.581863 0
0.086319 0.517575 0
0.084194 0.505517 0
0.089433 0.510810 0
0.096758 0.504679 0
0.082459 0.512039 0
0.090318 0.502726 0
0.105152 0.494722 0
0.107658 0.501421 0
0.113079 0.487147 0
0.098992 0.498046 0
0.112246 0.494211 0
0.101299 0.482755 0
0.097483 0.489999 0
0.083662 0.483750 0
0.089697 0.488811 0
0.083093 0.495204 0
0.078394 0.489229 0
0.057261 0.478464 0
0.066954 0.485562 0
0.117589 0.481187 0
0.106125 0.487805 0
0.093759 0.463574 0
0.102104 0.466900 0
0.506688 0.747799 0
0.506659 0.737576 0
0.517248 0.743034 0
0.496696 0.731451 0
0.513053 0.747821 0
0.513176 0.737933 0
0.500123 0.737042 0
0.490774 0.734069 0
0.505895 0.727653 0
0.498583 0.722980 0
0.509410 0.714096 0
0.500825 0.710178 0
0.505444 0.720302 0
0.514717 0.721857 0
0.515109 0.707794 0
0.507561 0.706783 0
0.495948 0.715921 0
0.520704 0.716951 0
0.509815 0.772849 0
0.507403 0.784343 0
0.482088 0.767161 0
0.489381 0.769605 0
0.500151 0.767741 0
0.478792 0.761493 0
0.497590 0.761445 0
0.508921 0.762845 0
0.501396 0.777082 0
0.493715 0.776032 0
0.507761 0.756393 0
0.305408 0.782736 0
0.290556 0.776383 0
0.298047 0.773275 0
0.290166 0.768642 0
0.415160 0.863262 0
0.415565 0.856692 0
0.423094 0.862451 0
0.405973 0.868234 0
0.405308 0.860397 0
0.399953 0.886118 0
0.394821 0.874435 0
0.387106 0.874368 0
0.405539 0.878043 0
0.399006 0.868833 0
0.399070 0.879537 0
0.390713 0.884009 0
0.392748 0.896393 0
0.394255 0.889786 0
0.330025 0.873457 0
0.307243 0.871390 0
0.318432 0.874654 0
0.319431 0.862462 0
0.326142 0.866596 0
0.322787 0.856508 0
0.350263 0.888630 0
0.352631 0.879858 0
0.358398 0.886120 0
0.344613 0.882399 0
0.373385 0.898570 0
0.335675 0.896180 0
0.367285 0.890668 0
0.336053 0.886636 0
0.375525 0.886641 0
0.359387 0.903070 0
0.356599 0.894729 0
0.363588 0.897029 0
0.346639 0.902696 0
0.349369 0.895899 0
0.342632 0.891381 0
0.291093 0.837589 0
0.511545 0.828948 0
0.494301 0.830251 0
0.504633 0.837903 0
0.510417 0.847637 0
0.500354 0.843495 0
0.444781 0.875530 0
0.507160 0.866029 0
0.484360 0.880959 0
0.455050 0.807809 0
0.469515 0.768529 0
0.465559 0.762027 0
0.470229 0.753250 0
0.243179 0.748162 0
0.231354 0.793791 0
0.216395 0.807748 0
0.191137 0.787992 0
0.212879 0.791400 0
0.207289 0.788200 0
0.217773 0.798900 0
0.225254 0.799482 0
0.207150 0.801777 0
0.207686 0.795303 0
0.202138 0.819679 0
0.200333 0.799111 0
0.200205 0.809485 0
0.208440 0.809922 0
0.214633 0.816942 0
0.180927 0.818420 0
0.210062 0.825964 0
0.208000 0.816552 0
0.191691 0.816379 0
0.218620 0.850534 0
0.194504 0.837442 0
0.197801 0.815221 0
0.184397 0.807314 0
0.216775 0.837401 0
0.200728 0.829595 0
0.188235 0.827560 0
0.192298 0.808424 0
0.185625 0.813792 0
0.215777 0.830298 0
0.208016 0.835010 0
0.209981 0.845052 0
0.187002 0.821055 0
0.195162 0.823577 0
0.194127 0.830752 0
0.216633 0.844117 0
0.207272 0.858869 0
0.202185 0.841364 0
0.202509 0.850761 0
0.211321 0.852488 0
0.200363 0.857474 0
0.199378 0.880165 0
0.195653 0.868637 0
0.193567 0.847070 0
0.169650 0.851379 0
0.182046 0.851653 0
0.188777 0.851802 0
0.184616 0.841340 0
0.187749 0.834798 0
0.176000 0.844670 0
0.159115 0.835048 0
0.166380 0.841924 0
0.152173 0.852131 0
0.171738 0.828987 0
0.180192 0.830656 0
0.178263 0.837713 0
0.177050 0.824327 0
0.168485 0.819921 0
0.157286 0.844257 0
0.166585 0.834431 0
0.162167 0.826473 0
0.170178 0.805713 0
0.160931 0.852221 0
0.166553 0.864869 0
0.156465 0.860568 0
0.165852 0.857607 0
0.176029 0.860289 0
0.142913 0.840521 0
0.147001 0.825904 0
0.154495 0.828572 0
0.150512 0.836299 0
0.153169 0.820438 0
0.137977 0.809509 0
0.144339 0.816688 0
0.166792 0.812514 0
0.175132 0.812422 0
0.159836 0.866643 0
0.168291 0.885044 0
0.160945 0.877277 0
0.175799 0.853714 0
0.185024 0.860142 0
0.191185 0.863331 0
0.181487 0.876032 0
0.187748 0.870760 0
0.190034 0.879827 0
0.179881 0.867771 0
0.171617 0.873665 0
0.149477 0.844783 0
0.130641 0.825636 0
0.151280 0.804128 0
0.160702 0.805239 0
0.152372 0.812266 0
0.145528 0.809042 0
0.146514 0.898282 0
0.194878 0.875253 0
0.194314 0.890820 0
0.181818 0.886809 0
0.173075 0.866969 0
0.175110 0.880862 0
0.167337 0.878590 0
0.164981 0.871629 0
0.135499 0.818114 0
0.138824 0.825591 0
0.126967 0.817934 0
0.142651 0.832568 0
0.128066 0.807964 0
0.133446 0.836852 0
0.157124 0.795072 0
0.147070 0.883203 0
0.194546 0.884400 0
0.187372 0.890977 0
0.173957 0.894334 0
0.111543 0.791992 0
0.135928 0.790093 0
0.141901 0.798974 0
0.136213 0.843762 0
0.173045 0.786314 0
0.152885 0.877612 0
0.157339 0.888063 0
0.180033 0.892813 0
0.171982 0.921551 0
0.118018 0.801825 0
0.134063 0.802053 0
0.146141 0.789673 0
0.163724 0.788221 0
0.162009 0.883628 0
0.164751 0.893577 0
0.168232 0.907598 0
0.156047 0.897538 0
0.168857 0.900000 0
0.177683 0.904551 0
0.121597 0.807260 0
0.140447 0.775603 0
0.152550 0.790506 0
0.170129 0.795794 0
0.152550 0.914183 0
0.196417 0.915151 0
0.175253 0.913192 0
0.186076 0.911573 0
0.147056 0.781116 0
0.139632 0.783298 0
0.129867 0.782383 0
0.155773 0.763948 0
0.149446 0.771533 0
0.149063 0.797051 0
0.181448 0.794087 0
0.163453 0.798558 0
0.151861 0.905348 0
0.160272 0.904830 0
0.184891 0.904463 0
0.186492 0.927104 0
0.180820 0.920190 0
0.132827 0.775356 0
0.133157 0.756821 0
0.131044 0.766054 0
0.124784 0.792617 0
0.126416 0.800292 0
0.118383 0.782759 0
0.165698 0.774135 0
0.175378 0.792220 0
0.176660 0.800721 0
0.189206 0.919260 0
0.144325 0.760829 0
0.114346 0.759543 0
0.129756 0.788708 0
0.124036 0.779862 0
0.167210 0.781528 0
0.176669 0.775742 0
0.157707 0.771992 0
0.160091 0.779075 0
0.178106 0.806860 0
0.149335 0.765009 0
0.137370 0.762643 0
0.121803 0.765086 0
0.153175 0.777552 0
0.110785 0.772121 0
0.123327 0.755248 0
0.114957 0.766509 0
0.114150 0.747595 0
0.129615 0.747453 0
0.116985 0.753524 0
0.139217 0.746216 0
0.124549 0.739745 0
0.121878 0.747019 0
0.140606 0.739329 0
0.144228 0.752664 0
0.153835 0.754382 0
0.156530 0.747143 0
0.165970 0.754779 0
0.173686 0.754491 0
0.159786 0.758156 0
0.167252 0.764477 0
0.171881 0.770176 0
0.104834 0.719316 0
0.131630 0.690862 0
0.138405 0.699073 0
0.134379 0.705578 0
0.226764 0.660292 0
0.225015 0.652861 0
0.231070 0.649305 0
0.233913 0.663348 0
0.234789 0.674131 0
0.232129 0.680461 0
0.211225 0.674126 0
0.569934 0.726082 0
0.565528 0.721486 0
0.584603 0.718307 0
0.577406 0.710685 0
0.563836 0.739212 0
0.578724 0.724940 0
0.588250 0.727462 0
0.563509 0.731079 0
0.569883 0.734896 0
0.575107 0.743643 0
0.552510 0.735594 0
0.575458 0.718054 0
0.567954 0.745287 0
0.552913 0.753127 0
0.559180 0.746801 0
0.561501 0.755368 0
0.550443 0.744413 0
0.557223 0.740377 0
0.575603 0.781584 0
0.553849 0.767114 0
0.544727 0.750740 0
0.545668 0.738642 0
0.570528 0.767413 0
0.555715 0.759964 0
0.563226 0.763481 0
0.533725 0.762235 0
0.569860 0.759910 0
0.593565 0.761578 0
0.581578 0.762647 0
0.537627 0.754958 0
0.545649 0.761155 0
0.525813 0.753307 0
0.592292 0.744173 0
0.521427 0.766769 0
0.580055 0.752562 0
0.546367 0.768788 0
0.538407 0.768674 0
0.528608 0.779381 0
0.529648 0.770121 0
0.535034 0.775425 0
0.583812 0.740274 0
0.592771 0.735213 0
0.514360 0.767401 0
0.576422 0.758268 0
0.587086 0.756657 0
0.586732 0.749182 0
0.595192 0.752710 0
0.607466 0.759544 0
0.600171 0.758207 0
0.584238 0.733246 0
0.540941 0.727121 0
0.529122 0.719482 0
0.530753 0.730633 0
0.532320 0.739340 0
0.529495 0.746523 0
0.523614 0.736412 0
0.523870 0.743029 0
0.521441 0.730167 0
0.601155 0.692754 0
0.591468 0.704616 0
0.585542 0.710211 0
0.582666 0.701230 0
0.579122 0.691212 0
0.590517 0.693954 0
0.579231 0.677472 0
0.596450 0.698799 0
0.617490 0.710318 0
0.607902 0.702857 0
0.584228 0.695041 0
0.576296 0.684319 0
0.594249 0.679293 0
0.595156 0.687329 0
0.586024 0.684290 0
0.561611 0.660096 0
0.569962 0.661495 0
0.565746 0.676945 0
0.562083 0.683942 0
0.571648 0.670449 0
0.556121 0.681020 0
0.622903 0.619939 0
0.647103 0.627114 0
0.635032 0.647935 0
0.635473 0.658582 0
0.655012 0.668652 0
0.646500 0.661176 0
0.641678 0.656941 0
0.502900 0.486025 0
0.494837 0.483735 0
0.141488 0.588805 0
0.154014 0.594751 0
0.160908 0.592267 0
0.128607 0.616952 0
0.402193 0.205648 0
0.390001 0.196114 0
0.380718 0.167568 0
0.499848 0.321424 0
0.493243 0.323433 0
0.498685 0.314273 0
0.506193 0.319565 0
0.500932 0.332485 0
0.503300 0.326669 0
0.505248 0.305188 0
0.532037 0.311992 0
0.519194 0.316048 0
0.513893 0.308470 0
0.523519 0.307380 0
0.517851 0.300378 0
0.531190 0.295375 0
0.525354 0.300099 0
0.533027 0.303611 0
0.551192 0.310006 0
0.541392 0.308848 0
0.547955 0.295347 0
0.539577 0.297827 0
0.537106 0.290708 0
0.527588 0.284521 0
0.544638 0.323432 0
0.547023 0.303239 0
0.522536 0.280507 0
0.545566 0.315572 0
0.555683 0.320172 0
0.537525 0.318607 0
0.536272 0.328109 0
0.527839 0.321059 0
0.521736 0.337502 0
0.519262 0.325892 0
0.530358 0.334900 0
0.524434 0.330859 0
0.513919 0.333099 0
0.529833 0.327243 0
0.433407 0.337404 0
0.443531 0.355895 0
0.435921 0.362192 0
0.454005 0.376302 0
0.431333 0.369341 0
0.442991 0.371775 0
0.436382 0.374296 0
0.442200 0.391868 0
0.437581 0.383648 0
0.427585 0.390602 0
0.427336 0.383861 0
0.443703 0.363850 0
0.447389 0.383543 0
0.434953 0.390532 0
0.431477 0.412566 0
0.431370 0.401258 0
0.442432 0.378690 0
0.462080 0.390323 0
0.452237 0.392345 0
0.455813 0.384597 0
0.465596 0.378121 0
0.458435 0.397550 0
0.475439 0.401592 0
0.467418 0.397547 0
0.477088 0.388346 0
0.466399 0.409544 0
0.473897 0.394674 0
0.462928 0.403207 0
0.446828 0.400318 0
0.444925 0.413677 0
0.438997 0.399114 0
0.441881 0.406428 0
0.448790 0.407790 0
0.439162 0.220977 0
0.483759 0.227839 0
0.498306 0.215748 0
0.505441 0.222261 0
0.498699 0.224145 0
0.525470 0.223317 0
0.515587 0.220304 0
0.524831 0.203674 0
0.516055 0.236485 0
0.517863 0.210685 0
0.507846 0.243027 0
0.509822 0.230064 0
0.505822 0.236087 0
0.518545 0.228315 0
0.527620 0.213415 0
0.523705 0.254504 0
0.521887 0.217354 0
0.538405 0.205057 0
0.537485 0.220742 0
0.518094 0.264054 0
0.517373 0.246559 0
0.531341 0.207080 0
0.532153 0.197601 0
0.536810 0.212833 0
0.560589 0.213657 0
0.548769 0.211233 0
0.530895 0.219311 0
0.511782 0.267121 0
0.510112 0.255655 0
0.531074 0.239644 0
0.524307 0.234536 0
0.533178 0.229819 0
0.523795 0.242252 0
0.517538 0.187431 0
0.506020 0.261706 0
0.506786 0.249735 0
0.516777 0.253529 0
0.538998 0.227020 0
0.547885 0.221603 0
0.537832 0.235953 0
0.555141 0.251896 0
0.547808 0.242490 0
0.523436 0.194542 0
0.510636 0.199157 0
0.529575 0.183449 0
0.516203 0.194539 0
0.529664 0.190744 0
0.543319 0.215991 0
0.553769 0.216882 0
0.565631 0.233141 0
0.557023 0.226965 0
0.517208 0.203066 0
0.510821 0.206324 0
0.497343 0.202155 0
0.503157 0.207229 0
0.566783 0.222448 0
0.556314 0.237041 0
0.550168 0.228181 0
0.495044 0.209148 0
0.486564 0.201920 0
0.560019 0.220636 0
0.572570 0.211793 0
0.588527 0.230199 0
0.565211 0.245218 0
0.555039 0.244414 0
0.549408 0.235624 0
0.479246 0.202066 0
0.482589 0.186066 0
0.482755 0.194450 0
0.474285 0.193574 0
0.494421 0.190025 0
0.468606 0.189236 0
0.474725 0.183801 0
0.489842 0.195543 0
0.474534 0.161677 0
0.482187 0.172674 0
0.480240 0.179434 0
0.491580 0.179039 0
0.567040 0.215689 0
0.576727 0.228928 0
0.562643 0.239083 0
0.570109 0.228215 0
0.493357 0.231056 0
0.205488 0.248726 0
0.211746 0.253995 0
0.199365 0.251281 0
0.202148 0.238264 0
0.206776 0.259366 0
0.209965 0.239521 0
0.200825 0.244451 0
0.189193 0.234035 0
0.201495 0.228263 0
0.194740 0.239002 0
0.195657 0.219078 0
0.201381 0.211752 0
0.193384 0.226971 0
0.173632 0.220031 0
0.184672 0.220187 0
0.199301 0.200776 0
0.179016 0.229696 0
0.179309 0.209037 0
0.189752 0.215549 0
0.197560 0.206791 0
0.179106 0.223314 0
0.179211 0.215949 0
0.233778 0.246039 0
0.213042 0.224057 0
0.172610 0.243556 0
0.176702 0.248467 0
0.171744 0.234745 0
0.162873 0.226129 0
0.179471 0.238113 0
0.165657 0.232137 0
0.048571 0.359790 0
0.057473 0.365596 0
0.048386 0.369802 0
0.057321 0.356102 0
0.047206 0.377785 0
0.023326 0.364330 0
0.036400 0.364572 0
0.040012 0.372643 0
0.029715 0.372407 0
0.043477 0.364703 0
0.029839 0.365743 0
0.034721 0.378751 0
0.024499 0.400607 0
0.031466 0.390547 0
0.015175 0.377343 0
0.024699 0.381512 0
0.021567 0.372287 0
0.030778 0.384010 0
0.000000 0.390625 0
0.014889 0.390958 0
0.017844 0.384209 0
0.023173 0.390563 0
0.043462 0.405524 0
0.056601 0.384117 0
0.045937 0.334508 0
0.076381 0.324873 0
0.102482 0.306787 0
0.161373 0.286029 0
0.153928 0.285942 0
0.144737 0.270101 0
0.165751 0.273523 0
0.163768 0.261520 0
0.173606 0.275983 0
0.163640 0.279553 0
0.155638 0.269394 0
0.168043 0.266979 0
0.174471 0.282394 0
0.159524 0.274327 0
0.150573 0.275691 0
0.149440 0.258220 0
0.149897 0.265272 0
0.142245 0.262265 0
0.107839 0.583326 0
0.095798 0.596958 0
0.097165 0.569452 0
0.074305 0.505247 0
0.079375 0.500816 0
0.052572 0.514912 0
0.064466 0.512390 0
0.070976 0.511009 0
0.063516 0.500734 0
0.069964 0.500472 0
0.103272 0.475308 0
0.111031 0.476787 0
0.088757 0.475784 0
0.095647 0.478156 0
0.070808 0.470132 0
0.079672 0.473308 0
0.072703 0.478801 0
0.064994 0.478071 0
0.513853 0.792286 0
0.518096 0.782250 0
0.518534 0.774245 0
0.520944 0.797761 0
0.540227 0.795015 0
0.536773 0.785447 0
0.530910 0.798666 0
0.511968 0.779301 0
0.525557 0.788897 0
0.533663 0.791977 0
0.541242 0.811317 0
0.519129 0.788601 0
0.538112 0.803329 0
0.532262 0.810229 0
0.524228 0.817605 0
0.523808 0.829899 0
0.521392 0.811857 0
0.520564 0.823634 0
0.493940 0.756031 0
0.292565 0.782796 0
0.277843 0.780073 0
0.276080 0.772348 0
0.266902 0.778506 0
0.268521 0.769361 0
0.405648 0.897776 0
0.411129 0.887878 0
0.405965 0.884307 0
0.310154 0.894467 0
0.314252 0.868174 0
0.305660 0.858696 0
0.309234 0.848300 0
0.313509 0.855582 0
0.311520 0.862017 0
0.302274 0.851720 0
0.297727 0.843829 0
0.298606 0.836248 0
0.384118 0.906829 0
0.384179 0.891442 0
0.385445 0.899140 0
0.391143 0.904083 0
0.377565 0.893163 0
0.352831 0.909079 0
0.335909 0.920338 0
0.345632 0.916606 0
0.337134 0.908999 0
0.339431 0.914983 0
0.526666 0.846510 0
0.440200 0.866151 0
0.437368 0.860354 0
0.452547 0.863025 0
0.459152 0.856860 0
0.467236 0.872141 0
0.461125 0.865595 0
0.467092 0.859656 0
0.456360 0.876168 0
0.455329 0.869343 0
0.429569 0.877151 0
0.428119 0.869014 0
0.435195 0.871951 0
0.422349 0.874240 0
0.422038 0.885419 0
0.447354 0.868464 0
0.500232 0.859778 0
0.506370 0.854585 0
0.519261 0.857442 0
0.513272 0.853953 0
0.518588 0.847747 0
0.484713 0.869551 0
0.496433 0.870953 0
0.495657 0.864456 0
0.197786 0.786799 0
0.195442 0.793197 0
0.189118 0.776637 0
0.187247 0.768596 0
0.207659 0.871123 0
0.218131 0.895609 0
0.149735 0.890851 0
0.099784 0.810385 0
0.182317 0.784719 0
0.182750 0.778181 0
0.188378 0.794354 0
0.118047 0.794757 0
0.142473 0.768277 0
0.136230 0.769882 0
0.117857 0.775103 0
0.107949 0.782179 0
0.112975 0.785903 0
0.093553 0.793016 0
0.091494 0.772110 0
0.102393 0.789779 0
0.101138 0.774830 0
0.104634 0.800531 0
0.094855 0.782884 0
0.099975 0.760495 0
0.107402 0.763662 0
0.101334 0.767599 0
0.111532 0.799048 0
0.110140 0.809355 0
0.095458 0.802135 0
0.099644 0.795962 0
0.101344 0.781469 0
0.077798 0.785842 0
0.089304 0.810622 0
0.086956 0.799153 0
0.077702 0.795714 0
0.085146 0.790593 0
0.085827 0.781482 0
0.078010 0.776662 0
0.082413 0.767456 0
0.084772 0.774445 0
0.095006 0.830992 0
0.077004 0.820961 0
0.055949 0.806792 0
0.073994 0.750823 0
0.090642 0.762584 0
0.094760 0.820077 0
0.081370 0.813669 0
0.085923 0.821349 0
0.081093 0.829677 0
0.067969 0.803499 0
0.073290 0.810401 0
0.063879 0.812155 0
0.075837 0.760337 0
0.093199 0.752115 0
0.094620 0.813856 0
0.109266 0.824492 0
0.118811 0.823089 0
0.088246 0.828261 0
0.087004 0.841400 0
0.074514 0.801706 0
0.069758 0.817576 0
0.069321 0.827959 0
0.049306 0.825161 0
0.100340 0.753270 0
0.107536 0.755975 0
0.084151 0.755452 0
0.087951 0.733948 0
0.101066 0.825395 0
0.104352 0.817555 0
0.112466 0.817084 0
0.120224 0.836249 0
0.081738 0.836703 0
0.058986 0.840253 0
0.054949 0.816816 0
0.107933 0.749489 0
0.093275 0.742252 0
0.126710 0.839296 0
0.126284 0.831778 0
0.114974 0.830157 0
0.105535 0.843600 0
0.103755 0.834386 0
0.111952 0.838070 0
0.116779 0.850159 0
0.120663 0.843739 0
0.112285 0.844945 0
0.107023 0.854023 0
0.066255 0.835873 0
0.057931 0.830279 0
0.043639 0.815248 0
0.082264 0.743454 0
0.100717 0.731622 0
0.112853 0.735038 0
0.119626 0.735093 0
0.096499 0.840566 0
0.121225 0.875631 0
0.098729 0.849889 0
0.087220 0.853444 0
0.093715 0.854065 0
0.049848 0.836177 0
0.056042 0.823636 0
0.062455 0.819598 0
0.048909 0.818812 0
0.049956 0.811256 0
0.043525 0.796369 0
0.048503 0.803051 0
0.038609 0.805226 0
0.058533 0.790384 0
0.055542 0.798321 0
0.065928 0.780197 0
0.050425 0.791861 0
0.063477 0.796779 0
0.071277 0.776063 0
0.042919 0.787906 0
0.051603 0.775634 0
0.053164 0.783903 0
0.045456 0.780493 0
0.058546 0.778606 0
0.059958 0.765712 0
0.064201 0.772436 0
0.088238 0.747145 0
0.094812 0.735408 0
0.108917 0.868250 0
0.063018 0.826135 0
0.038503 0.811553 0
0.000000 0.781250 0
0.028160 0.793634 0
0.034815 0.788904 0
0.070175 0.790705 0
0.069925 0.797159 0
0.071339 0.784122 0
0.065964 0.757314 0
0.105176 0.861508 0
0.115330 0.860283 0
0.035374 0.797637 0
0.027052 0.804131 0
0.067091 0.764467 0
0.050333 0.752482 0
0.062161 0.744398 0
0.125792 0.856615 0
0.117215 0.868365 0
0.127938 0.867186 0
0.016115 0.816684 0
0.000000 0.796875 0
0.057345 0.757497 0
0.047206 0.764264 0
0.057359 0.750067 0
0.053791 0.763151 0
0.040673 0.771768 0
0.066744 0.750067 0
0.071260 0.741908 0
0.119608 0.855730 0
0.122109 0.862866 0
0.139815 0.859273 0
0.135023 0.852212 0
0.142485 0.848954 0
0.134244 0.879089 0
0.143122 0.872775 0
0.023681 0.812236 0
0.014337 0.797481 0
0.018360 0.805269 0
0.007934 0.805722 0
0.047157 0.770818 0
0.018829 0.770042 0
0.025092 0.780939 0
0.034059 0.759415 0
0.132261 0.860806 0
0.137453 0.867008 0
0.148175 0.859475 0
0.144545 0.865706 0
0.128490 0.874516 0
0.141196 0.879466 0
0.137096 0.890784 0
0.022009 0.798291 0
0.019129 0.788830 0
0.013352 0.810212 0
0.000000 0.804688 0
0.007113 0.798477 0
0.000000 0.789063 0
0.009519 0.785156 0
0.031548 0.774087 0
0.039712 0.764336 0
0.042147 0.755832 0
0.035861 0.752561 0
0.017914 0.751508 0
0.026781 0.753838 0
0.043573 0.747642 0
0.025381 0.763204 0
0.045312 0.725188 0
0.042334 0.736252 0
0.052082 0.740728 0
0.000000 0.765625 0
0.012801 0.790977 0
0.024577 0.773986 0
0.032039 0.766620 0
0.016118 0.760886 0
0.045761 0.741641 0
0.050011 0.732386 0
0.059825 0.720845 0
0.059498 0.734460 0
0.053211 0.725164 0
0.049221 0.712209 0
0.053283 0.718050 0
0.008495 0.774101 0
0.006131 0.791825 0
0.008634 0.754592 0
0.063288 0.727739 0
0.077644 0.716211 0
0.069231 0.720437 0
0.006116 0.779896 0
0.011734 0.767163 0
0.000000 0.757813 0
0.065170 0.701866 0
0.060278 0.710730 0
0.077669 0.726748 0
0.069964 0.710294 0
0.071152 0.726665 0
0.089039 0.721453 0
0.093963 0.727587 0
0.096909 0.720179 0
0.091709 0.712999 0
0.084879 0.715490 0
0.102020 0.708371 0
0.078633 0.699786 0
0.080493 0.708140 0
0.072298 0.703389 0
0.154426 0.740475 0
0.173671 0.761547 0
0.114812 0.715944 0
0.120784 0.713926 0
0.118053 0.724353 0
0.108134 0.712633 0
0.108919 0.704991 0
0.100764 0.693736 0
0.106460 0.698191 0
0.114522 0.709038 0
0.123882 0.697663 0
0.131079 0.699038 0
0.117017 0.684265 0
0.110887 0.690582 0
0.118585 0.691919 0
0.106165 0.679868 0
0.124725 0.686673 0
0.138133 0.672354 0
0.132935 0.680924 0
0.104252 0.687108 0
0.086541 0.682021 0
0.094868 0.686403 0
0.125321 0.670444 0
0.123053 0.678486 0
0.115650 0.676795 0
0.148342 0.684408 0
0.091701 0.694986 0
0.085929 0.699462 0
0.081880 0.690589 0
0.095675 0.674765 0
0.131326 0.674087 0
0.144453 0.692472 0
0.140027 0.685368 0
0.143415 0.678230 0
0.148696 0.668172 0
0.070498 0.691742 0
0.076559 0.682143 0
0.092707 0.680406 0
0.076461 0.693847 0
0.068162 0.683553 0
0.047674 0.676111 0
0.058659 0.677792 0
0.218381 0.667755 0
0.223276 0.675899 0
0.217460 0.683296 0
0.553993 0.728482 0
0.588749 0.775321 0
0.579192 0.772305 0
0.520222 0.758931 0
0.526638 0.761956 0
0.628115 0.687535 0
0.635920 0.674107 0
0.632862 0.666426 0
0.641136 0.667581 0
0.605163 0.716268 0
0.594693 0.715375 0
0.600565 0.708344 0
0.599500 0.720844 0
0.590888 0.721107 0
0.592982 0.669099 0
0.587150 0.675000 0
0.581327 0.670265 0
0.585557 0.664348 0
0.605424 0.675285 0
0.603545 0.684082 0
0.616335 0.682215 0
0.609593 0.680775 0
0.624181 0.673884 0
0.611059 0.690818 0
0.598509 0.673588 0
0.619795 0.690256 0
0.628034 0.701367 0
0.615942 0.698532 0
0.625768 0.694437 0
0.614112 0.704767 0
0.606965 0.696178 0
0.622495 0.626591 0
0.614058 0.620373 0
0.607273 0.613690 0
0.614445 0.613195 0
0.630420 0.612402 0
0.624332 0.613848 0
0.638307 0.620274 0
0.636503 0.614194 0
0.630605 0.620104 0
0.638166 0.631432 0
0.647516 0.639377 0
0.640653 0.642751 0
0.644598 0.633337 0
0.657814 0.650859 0
0.498081 0.492313 0
0.134610 0.603834 0
0.489442 0.354038 0
0.484304 0.341771 0
0.508608 0.351666 0
0.513481 0.343017 0
0.476539 0.339515 0
0.468626 0.357341 0
0.470693 0.347590 0
0.455906 0.359608 0
0.502973 0.342795 0
0.478831 0.354410 0
0.478628 0.346818 0
0.461450 0.344453 0
0.507246 0.336591 0
0.498873 0.351624 0
0.493805 0.339253 0
0.484526 0.365328 0
0.457264 0.337383 0
0.457011 0.351421 0
0.450626 0.354727 0
0.461869 0.356244 0
0.503674 0.367021 0
0.492652 0.346949 0
0.487857 0.335993 0
0.475762 0.362955 0
0.478901 0.368734 0
0.466320 0.367616 0
0.484287 0.358508 0
0.463088 0.334052 0
0.464639 0.350243 0
0.503711 0.358563 0
0.494531 0.362752 0
0.470315 0.373168 0
0.460541 0.372495 0
0.453417 0.367780 0
0.459838 0.365270 0
0.524754 0.291486 0
0.532437 0.276012 0
0.548546 0.268433 0
0.541576 0.274527 0
0.534927 0.262475 0
0.554278 0.282022 0
0.536099 0.269688 0
0.527964 0.267309 0
0.546415 0.280836 0
0.528145 0.260138 0
0.534471 0.250585 0
0.551273 0.275286 0
0.571333 0.270376 0
0.561749 0.274651 0
0.549377 0.287859 0
0.561963 0.262252 0
0.571906 0.284541 0
0.561804 0.294097 0
0.554702 0.292748 0
0.556602 0.302120 0
0.564751 0.268502 0
0.568797 0.277573 0
0.562937 0.284365 0
0.571924 0.306357 0
0.564931 0.301823 0
0.571800 0.294547 0
0.563412 0.311825 0
0.577838 0.289607 0
0.583571 0.301051 0
0.561530 0.317833 0
0.557642 0.308632 0
0.559087 0.340129 0
0.445207 0.348664 0
0.437351 0.350653 0
0.416849 0.407050 0
0.469111 0.385741 0
0.474844 0.381703 0
0.479253 0.415042 0
0.456748 0.417252 0
0.435133 0.406877 0
0.549036 0.199001 0
0.519269 0.172480 0
0.546578 0.172592 0
0.502595 0.194473 0
0.502562 0.184798 0
0.509439 0.189590 0
0.511458 0.180894 0
0.511774 0.173355 0
0.503552 0.157331 0
0.514243 0.161967 0
0.505946 0.166224 0
0.518953 0.180019 0
0.495748 0.169252 0
0.496125 0.183724 0
0.497649 0.175843 0
0.489302 0.172288 0
0.487248 0.159565 0
0.489366 0.185472 0
0.575335 0.220194 0
0.580828 0.213730 0
0.583291 0.223404 0
0.581540 0.239662 0
0.199099 0.191353 0
0.183192 0.181446 0
0.192432 0.184333 0
0.183840 0.195606 0
0.191946 0.169655 0
0.186088 0.188408 0
0.191640 0.194093 0
0.189035 0.201527 0
0.189627 0.177079 0
0.197584 0.175490 0
0.201263 0.166294 0
0.217632 0.157063 0
0.208187 0.159443 0
0.215970 0.170403 0
0.213088 0.179092 0
0.207482 0.172410 0
0.210464 0.166069 0
0.186002 0.227415 0
0.166639 0.209457 0
0.145487 0.233508 0
0.041882 0.394469 0
0.050473 0.398942 0
0.055546 0.330906 0
0.057495 0.338705 0
0.047094 0.322979 0
0.048465 0.347314 0
0.049362 0.329029 0
0.055236 0.322766 0
0.063539 0.298468 0
0.061339 0.311284 0
0.060181 0.318032 0
0.070448 0.316321 0
0.055018 0.349567 0
0.069905 0.323031 0
0.069656 0.330144 0
0.070102 0.306191 0
0.077081 0.318054 0
0.063591 0.305074 0
0.045460 0.302012 0
0.054813 0.301841 0
0.079641 0.291435 0
0.049911 0.289664 0
0.072649 0.297376 0
0.083373 0.302910 0
0.076413 0.303240 0
0.050040 0.296687 0
0.083078 0.322190 0
0.078070 0.331626 0
0.093974 0.313541 0
0.089019 0.317474 0
0.087890 0.309007 0
0.106460 0.320534 0
0.109629 0.327440 0
0.114424 0.319845 0
0.109745 0.312134 0
0.121343 0.288778 0
0.135308 0.299523 0
0.113493 0.299438 0
0.126004 0.270957 0
0.144209 0.301167 0
0.109319 0.305107 0
0.118204 0.307278 0
0.133129 0.264752 0
0.143724 0.308877 0
0.141178 0.292663 0
0.123630 0.298682 0
0.128936 0.308209 0
0.136219 0.311005 0
0.148349 0.293106 0
0.131361 0.290204 0
0.101651 0.314476 0
0.098289 0.322083 0
0.097942 0.329035 0
0.135563 0.274741 0
0.118238 0.294712 0
0.104530 0.285697 0
0.110444 0.291633 0
0.100204 0.295921 0
0.092417 0.300931 0
0.086500 0.295549 0
0.087385 0.286299 0
0.129277 0.301778 0
0.127577 0.280888 0
0.138309 0.268781 0
0.142835 0.278898 0
0.135630 0.283061 0
0.095662 0.306931 0
0.095896 0.284242 0
0.162166 0.249997 0
0.166079 0.244653 0
0.101519 0.590481 0
0.092322 0.588122 0
0.080806 0.597753 0
0.081805 0.587246 0
0.088169 0.594857 0
0.075432 0.591942 0
0.070879 0.570624 0
0.078629 0.577432 0
0.072880 0.583773 0
0.083744 0.563795 0
0.084884 0.572000 0
0.078133 0.568757 0
0.072123 0.560433 0
0.090266 0.567070 0
0.094363 0.550783 0
0.090502 0.558470 0
0.081333 0.549052 0
0.101411 0.559136 0
0.109501 0.556998 0
0.106238 0.546532 0
0.087548 0.552174 0
0.053755 0.563362 0
0.075343 0.553622 0
0.077081 0.532245 0
0.102913 0.565786 0
0.095711 0.562822 0
0.101473 0.551933 0
0.098431 0.543436 0
0.092743 0.535279 0
0.089321 0.543473 0
0.084364 0.536592 0
0.084666 0.527811 0
0.076613 0.541305 0
0.077097 0.523569 0
0.062020 0.527879 0
0.069081 0.519901 0
0.067741 0.536304 0
0.063359 0.564535 0
0.070158 0.527968 0
0.069506 0.543543 0
0.048260 0.543378 0
0.058892 0.542296 0
0.058064 0.578761 0
0.064888 0.582996 0
0.064898 0.575364 0
0.059595 0.555446 0
0.052614 0.533386 0
0.060465 0.535090 0
0.057752 0.570546 0
0.047019 0.575068 0
0.066112 0.557305 0
0.049178 0.553873 0
0.061648 0.548742 0
0.053247 0.539607 0
0.041441 0.534462 0
0.053520 0.524147 0
0.059623 0.518855 0
0.046469 0.528120 0
0.043419 0.562499 0
0.054115 0.548154 0
0.047326 0.537027 0
0.048169 0.567939 0
0.000000 0.531250 0
0.022022 0.550084 0
0.035912 0.549746 0
0.043390 0.549092 0
0.040209 0.555802 0
0.039022 0.542229 0
0.028784 0.542394 0
0.028953 0.549361 0
0.026759 0.561909 0
0.032511 0.556712 0
0.014468 0.536625 0
0.036193 0.562945 0
0.020612 0.542026 0
0.023616 0.532415 0
0.000000 0.515625 0
0.030732 0.535058 0
0.019256 0.513545 0
0.023976 0.522393 0
0.010841 0.523717 0
0.036077 0.510254 0
0.017825 0.527190 0
0.016945 0.520200 0
0.009554 0.513906 0
0.032258 0.518548 0
0.027560 0.511358 0
0.042701 0.518331 0
0.018567 0.494064 0
0.021111 0.503727 0
0.000000 0.507813 0
0.045184 0.509540 0
0.039064 0.489932 0
0.054224 0.504874 0
0.039888 0.500434 0
0.039572 0.525155 0
0.010653 0.501314 0
0.060665 0.506833 0
0.053810 0.491447 0
0.030538 0.502301 0
0.047168 0.502293 0
0.014710 0.507601 0
0.066973 0.506077 0
0.056764 0.498076 0
0.061870 0.491828 0
0.058124 0.485644 0
0.095649 0.576666 0
0.536324 0.824172 0
0.536035 0.816693 0
0.544478 0.819662 0
0.283273 0.775036 0
0.270798 0.790289 0
0.398816 0.900648 0
0.424546 0.920947 0
0.317086 0.885727 0
0.293957 0.866601 0
0.304576 0.843246 0
0.344322 0.909519 0
0.317769 0.912641 0
0.339493 0.902238 0
0.522327 0.838705 0
0.534252 0.836183 0
0.528867 0.840177 0
0.536878 0.845350 0
0.548915 0.836942 0
0.545949 0.828494 0
0.541678 0.834738 0
0.546237 0.845929 0
0.541832 0.841199 0
0.580038 0.851109 0
0.563496 0.846180 0
0.554902 0.843619 0
0.560520 0.832558 0
0.555204 0.858304 0
0.560766 0.839640 0
0.576245 0.835557 0
0.569135 0.839986 0
0.553187 0.830698 0
0.552234 0.851019 0
0.576417 0.843754 0
0.571080 0.850951 0
0.575202 0.871183 0
0.563283 0.854931 0
0.575389 0.860609 0
0.563645 0.867162 0
0.561121 0.861116 0
0.593759 0.863711 0
0.570593 0.865813 0
0.585033 0.859441 0
0.585402 0.869737 0
0.579666 0.865974 0
0.604891 0.887957 0
0.581889 0.881654 0
0.596939 0.876930 0
0.580931 0.874895 0
0.588767 0.877231 0
0.592011 0.889837 0
0.588304 0.884071 0
0.583436 0.891276 0
0.591336 0.912086 0
0.589458 0.900894 0
0.592643 0.870972 0
0.449245 0.856551 0
0.473142 0.865830 0
0.467933 0.890722 0
0.449889 0.888213 0
0.415464 0.881684 0
0.431543 0.886513 0
0.437602 0.880347 0
0.444576 0.882982 0
0.476591 0.875008 0
0.475408 0.884599 0
0.483609 0.891937 0
0.466598 0.881468 0
0.475384 0.896316 0
0.499999 0.887544 0
0.459219 0.887256 0
0.459030 0.919702 0
0.491051 0.886932 0
0.492534 0.878536 0
0.494687 0.899491 0
0.490359 0.893938 0
0.454035 0.882680 0
0.469142 0.909362 0
0.474483 0.903901 0
0.465290 0.900253 0
0.458089 0.908667 0
0.455495 0.896912 0
0.461894 0.894180 0
0.459134 0.902273 0
0.446299 0.896683 0
0.437281 0.910482 0
0.439785 0.902272 0
0.448719 0.906093 0
0.451366 0.914798 0
0.442399 0.937253 0
0.444478 0.912138 0
0.443582 0.924707 0
0.451549 0.922954 0
0.461056 0.934596 0
0.457944 0.927435 0
0.451522 0.934483 0
0.456106 0.949965 0
0.445550 0.931221 0
0.456206 0.941515 0
0.464246 0.941991 0
0.447373 0.945636 0
0.447562 0.956227 0
0.431358 0.949470 0
0.468750 1.000000 0
0.438771 0.945072 0
0.439012 0.953924 0
0.460205 0.977122 0
0.451562 0.968079 0
0.446792 0.963088 0
0.456705 0.959742 0
0.465823 0.954276 0
0.460723 0.967975 0
0.479644 0.973635 0
0.469509 0.973061 0
0.462594 0.948447 0
0.481249 0.957876 0
0.469262 0.963355 0
0.473822 0.986662 0
0.474177 0.953329 0
0.463308 0.960419 0
0.474254 0.979041 0
0.466635 0.982432 0
0.466197 0.991396 0
0.453125 1.000000 0
0.460938 1.000000 0
0.202636 0.865149 0
0.220211 0.864593 0
0.214858 0.859208 0
0.213119 0.866290 0
0.218523 0.877894 0
0.206822 0.890234 0
0.080562 0.749869 0
0.105314 0.738555 0
0.108462 0.727372 0
0.084747 0.870874 0
0.077727 0.847590 0
0.067487 0.846141 0
0.073141 0.843095 0
0.070394 0.862501 0
0.054295 0.856107 0
0.071619 0.853845 0
0.079567 0.859385 0
0.063231 0.857073 0
0.059546 0.849344 0
0.050908 0.848057 0
0.080854 0.853143 0
0.088084 0.862457 0
0.077167 0.867379 0
0.077186 0.877306 0
0.052771 0.841903 0
0.060604 0.883875 0
0.057311 0.870022 0
0.058117 0.862563 0
0.069847 0.882993 0
0.064481 0.875635 0
0.064777 0.867871 0
0.071375 0.872354 0
0.064454 0.786905 0
0.123626 0.850119 0
0.134377 0.903863 0
0.142955 0.906530 0
0.132599 0.924705 0
0.135779 0.914479 0
0.144174 0.914844 0
0.149218 0.925363 0
0.121627 0.915685 0
0.128276 0.910069 0
0.128949 0.917962 0
0.125032 0.887531 0
0.000000 0.718750 0
0.016286 0.778752 0
0.000000 0.773438 0
0.006470 0.761793 0
0.079366 0.735266 0
0.084884 0.727386 0
0.098793 0.701277 0
0.119891 0.643264 0
0.133933 0.656598 0
0.132728 0.665357 0
0.141533 0.662106 0
0.103768 0.671462 0
0.093220 0.657187 0
0.096681 0.665664 0
0.081809 0.666790 0
0.107684 0.656227 0
0.089491 0.669476 0
0.106916 0.664150 0
0.100612 0.659114 0
0.083369 0.674656 0
0.087716 0.662227 0
0.076925 0.654364 0
0.076308 0.671968 0
0.067942 0.662862 0
0.166778 0.664915 0
0.057064 0.691141 0
0.063881 0.689202 0
0.054306 0.701652 0
0.059822 0.697482 0
0.054306 0.708155 0
0.045350 0.693685 0
0.051854 0.695391 0
0.588039 0.767357 0
0.607070 0.668550 0
0.629943 0.679615 0
0.623399 0.682275 0
0.616315 0.674337 0
0.620795 0.667704 0
0.648163 0.616675 0
0.655823 0.601222 0
0.660356 0.623187 0
0.649526 0.607725 0
0.660207 0.611768 0
0.653660 0.612933 0
0.652924 0.622432 0
0.655484 0.631573 0
0.655835 0.639901 0
0.650103 0.653765 0
0.648641 0.646601 0
0.656786 0.659814 0
0.670678 0.656871 0
0.665383 0.666137 0
0.663240 0.656018 0
0.667233 0.646385 0
0.672344 0.663969 0
0.664564 0.685394 0
0.660655 0.644688 0
0.682909 0.634808 0
0.662200 0.675647 0
0.673463 0.638420 0
0.669686 0.672865 0
0.648518 0.684126 0
0.644807 0.675862 0
0.638297 0.685714 0
0.635519 0.695083 0
0.647967 0.669507 0
0.653278 0.677024 0
0.656571 0.684377 0
0.659250 0.695240 0
0.670188 0.627983 0
0.683038 0.649301 0
0.682626 0.660233 0
0.642278 0.710734 0
0.676339 0.631785 0
0.680434 0.618286 0
0.682808 0.626377 0
0.676088 0.623955 0
0.670319 0.615033 0
0.687355 0.620649 0
0.663318 0.629592 0
0.674791 0.649711 0
0.680276 0.642079 0
0.694922 0.655223 0
0.636557 0.703920 0
0.647365 0.698170 0
0.630486 0.714825 0
0.640840 0.698937 0
0.635601 0.710531 0
0.638701 0.718472 0
0.657714 0.722565 0
0.646900 0.726595 0
0.667275 0.621478 0
0.668229 0.604214 0
0.687642 0.654949 0
0.644329 0.690852 0
0.666297 0.610198 0
0.661461 0.605062 0
0.663135 0.596546 0
0.648423 0.581594 0
0.654198 0.590626 0
0.642883 0.596722 0
0.648759 0.600682 0
0.683821 0.603020 0
0.689101 0.611130 0
0.664947 0.577390 0
0.664342 0.586997 0
0.646220 0.589366 0
0.633591 0.588073 0
0.640437 0.583528 0
0.633776 0.580924 0
0.641568 0.564442 0
0.640343 0.573946 0
0.632718 0.601436 0
0.677629 0.609655 0
0.675800 0.600682 0
0.705399 0.594747 0
0.657002 0.582471 0
0.653807 0.571324 0
0.632606 0.568118 0
0.634529 0.607539 0
0.626953 0.605952 0
0.702360 0.608022 0
0.658473 0.576018 0
0.646545 0.569915 0
0.650301 0.561499 0
0.640369 0.546460 0
0.643347 0.555293 0
0.613318 0.563288 0
0.696321 0.612096 0
0.694001 0.602145 0
0.629870 0.554917 0
0.655876 0.546151 0
0.654703 0.554412 0
0.622356 0.568125 0
0.687417 0.585197 0
0.682265 0.593431 0
0.701211 0.600773 0
0.636678 0.552623 0
0.630514 0.545582 0
0.634828 0.560774 0
0.627246 0.562166 0
0.648171 0.548748 0
0.691385 0.593409 0
0.699305 0.584518 0
0.693502 0.587322 0
0.137966 0.596501 0
0.492898 0.379761 0
0.484040 0.382297 0
0.486420 0.373874 0
0.492203 0.394070 0
0.483112 0.396251 0
0.494633 0.371345 0
0.490120 0.386797 0
0.489082 0.401097 0
0.482965 0.407222 0
0.483828 0.389458 0
0.527581 0.248406 0
0.539642 0.244071 0
0.544670 0.253373 0
0.549370 0.248834 0
0.550915 0.259794 0
0.555405 0.265670 0
0.543116 0.262300 0
0.538365 0.256389 0
0.563613 0.253740 0
0.570830 0.250682 0
0.573376 0.242443 0
0.574273 0.260448 0
0.575683 0.235842 0
0.567768 0.258961 0
0.597906 0.265781 0
0.586673 0.260530 0
0.580492 0.257640 0
0.580426 0.267670 0
0.578645 0.277358 0
0.589439 0.269253 0
0.599294 0.281228 0
0.596216 0.273719 0
0.608473 0.272181 0
0.590203 0.280570 0
0.583596 0.281944 0
0.576245 0.300406 0
0.584818 0.319224 0
0.552853 0.330923 0
0.425233 0.406971 0
0.420956 0.398003 0
0.409442 0.398232 0
0.407477 0.391536 0
0.420810 0.391203 0
0.415254 0.400870 0
0.474137 0.409227 0
0.475412 0.440054 0
0.459422 0.410705 0
0.468593 0.422187 0
0.447372 0.426924 0
0.444509 0.434161 0
0.556149 0.205276 0
0.564620 0.188504 0
0.565486 0.205697 0
0.558197 0.195785 0
0.574186 0.202750 0
0.567384 0.196983 0
0.550187 0.187623 0
0.552279 0.193582 0
0.545436 0.205042 0
0.541687 0.198459 0
0.539873 0.180835 0
0.535696 0.185970 0
0.531884 0.170953 0
0.547623 0.180290 0
0.558672 0.174872 0
0.543655 0.186317 0
0.533605 0.177732 0
0.525914 0.176534 0
0.515891 0.143519 0
0.481605 0.164918 0
0.479278 0.150909 0
0.495710 0.160713 0
0.492402 0.153338 0
0.582269 0.232889 0
0.165329 0.217923 0
0.154166 0.219053 0
0.159824 0.212737 0
0.162575 0.191446 0
0.172644 0.199309 0
0.175281 0.188821 0
0.177406 0.194930 0
0.169509 0.192945 0
0.173820 0.179324 0
0.167629 0.184857 0
0.180585 0.170180 0
0.179412 0.176386 0
0.173488 0.172004 0
0.165994 0.151990 0
0.168000 0.162649 0
0.145787 0.164590 0
0.181351 0.154618 0
0.156515 0.159292 0
0.173184 0.156155 0
0.178565 0.162281 0
0.187823 0.161309 0
0.163111 0.158051 0
0.160511 0.166944 0
0.152509 0.179956 0
0.153123 0.165933 0
0.155909 0.173080 0
0.160905 0.179828 0
0.173397 0.165769 0
0.190501 0.152242 0
0.194920 0.162785 0
0.182876 0.141683 0
0.175765 0.147402 0
0.174026 0.137959 0
0.205791 0.133608 0
0.184632 0.148447 0
0.168167 0.143920 0
0.157384 0.145344 0
0.209887 0.146257 0
0.149834 0.151875 0
0.157868 0.124090 0
0.163687 0.133657 0
0.211633 0.153184 0
0.199189 0.145993 0
0.191220 0.143127 0
0.197814 0.137308 0
0.194560 0.119843 0
0.198417 0.128160 0
0.188642 0.132109 0
0.212440 0.116603 0
0.206988 0.124274 0
0.149602 0.158802 0
0.162217 0.140408 0
0.153783 0.135036 0
0.170888 0.130925 0
0.204299 0.151512 0
0.204665 0.140960 0
0.182459 0.134908 0
0.185565 0.123064 0
0.203042 0.115696 0
0.217638 0.126071 0
0.132956 0.122323 0
0.158192 0.130446 0
0.185148 0.107725 0
0.171766 0.115483 0
0.173312 0.123317 0
0.165658 0.125069 0
0.195403 0.110820 0
0.208587 0.107385 0
0.222405 0.117293 0
0.224090 0.140129 0
0.219250 0.147982 0
0.231147 0.149897 0
0.224449 0.153593 0
0.225595 0.146475 0
0.211565 0.129605 0
0.218339 0.134259 0
0.212107 0.138845 0
0.225902 0.132601 0
0.244591 0.134904 0
0.235488 0.131790 0
0.217861 0.141707 0
0.142039 0.130859 0
0.187869 0.115326 0
0.179835 0.117146 0
0.211381 0.090950 0
0.253738 0.099974 0
0.237159 0.141764 0
0.231017 0.137814 0
0.146996 0.135519 0
0.207403 0.098729 0
0.245786 0.116554 0
0.251691 0.150052 0
0.242702 0.125567 0
0.234028 0.114799 0
0.241410 0.151196 0
0.255681 0.124975 0
0.239353 0.119387 0
0.228794 0.118737 0
0.245768 0.143590 0
0.253923 0.138063 0
0.247509 0.159236 0
0.235787 0.154432 0
0.249365 0.129079 0
0.235273 0.124919 0
0.257307 0.131855 0
0.261141 0.145609 0
0.244712 0.168856 0
0.241396 0.157539 0
0.260734 0.157015 0
0.254818 0.144432 0
0.289502 0.146583 0
0.250813 0.172887 0
0.234863 0.175086 0
0.229276 0.179980 0
0.225959 0.170556 0
0.224507 0.162136 0
0.217917 0.163872 0
0.254380 0.159665 0
0.258004 0.151207 0
0.269157 0.167071 0
0.278676 0.172860 0
0.275413 0.143442 0
0.241270 0.174315 0
0.220889 0.175411 0
0.232967 0.167798 0
0.265909 0.173394 0
0.267857 0.141757 0
0.269572 0.151849 0
0.280612 0.153286 0
0.268072 0.159425 0
0.277125 0.162040 0
0.275464 0.149710 0
0.296407 0.164797 0
0.286363 0.166237 0
0.290136 0.156809 0
0.292845 0.175699 0
0.294659 0.184841 0
0.283750 0.159722 0
0.285918 0.173493 0
0.291937 0.169370 0
0.304785 0.178081 0
0.303852 0.186714 0
0.298322 0.179363 0
0.155458 0.232830 0
0.154496 0.243100 0
0.150012 0.226392 0
0.139170 0.224494 0
0.150771 0.237571 0
0.143431 0.246534 0
0.154018 0.251346 0
0.156972 0.258274 0
0.134799 0.234277 0
0.130953 0.202157 0
0.134057 0.228077 0
0.139913 0.230694 0
0.140539 0.239403 0
0.129718 0.245744 0
0.132407 0.214302 0
0.125436 0.256323 0
0.123596 0.236172 0
0.133222 0.221102 0
0.125891 0.263633 0
0.107886 0.267574 0
0.117288 0.267429 0
0.101756 0.275811 0
0.128691 0.232229 0
0.116596 0.278620 0
0.111837 0.284331 0
0.112399 0.255299 0
0.122746 0.276563 0
0.109554 0.275215 0
0.112507 0.262306 0
0.037964 0.389081 0
0.045211 0.388743 0
0.034472 0.401169 0
0.034985 0.411565 0
0.029717 0.396778 0
0.017170 0.418117 0
0.029161 0.406642 0
0.026425 0.415786 0
0.019775 0.408918 0
0.000000 0.421875 0
0.014841 0.400616 0
0.009432 0.410958 0
0.000000 0.398438 0
0.007361 0.394531 0
0.008521 0.419704 0
0.015624 0.434043 0
0.000000 0.429688 0
0.014121 0.425859 0
0.007330 0.433594 0
0.025677 0.427968 0
0.006395 0.426518 0
0.000000 0.414063 0
0.007367 0.403293 0
0.022991 0.421689 0
0.038418 0.327931 0
0.016501 0.326957 0
0.027574 0.324882 0
0.033750 0.323724 0
0.039127 0.353632 0
0.033692 0.340922 0
0.038572 0.335342 0
0.041599 0.342914 0
0.030298 0.333029 0
0.050381 0.340283 0
0.045535 0.312554 0
0.053558 0.313422 0
0.042885 0.318279 0
0.050234 0.307203 0
0.038861 0.292657 0
0.063287 0.263407 0
0.093460 0.291775 0
0.166501 0.255267 0
0.081904 0.556759 0
0.104927 0.574208 0
0.029412 0.599266 0
0.013340 0.560423 0
0.007021 0.507341 0
0.046080 0.494170 0
0.528636 0.823910 0
0.262213 0.789055 0
0.271780 0.783429 0
0.279547 0.788785 0
0.285706 0.809786 0
0.284801 0.798647 0
0.412522 0.911461 0
0.424525 0.902035 0
0.432190 0.899918 0
0.426288 0.893485 0
0.416751 0.895975 0
0.417255 0.889625 0
0.416556 0.904243 0
0.422854 0.911493 0
0.408910 0.904707 0
0.410755 0.894138 0
0.429848 0.907852 0
0.431148 0.915999 0
0.438787 0.918323 0
0.433128 0.927566 0
0.432525 0.937423 0
0.321151 0.880603 0
0.325505 0.892510 0
0.323338 0.886584 0
0.327238 0.903633 0
0.317822 0.893430 0
0.315216 0.903028 0
0.329416 0.897597 0
0.321417 0.899559 0
0.321061 0.906622 0
0.327802 0.914219 0
0.305787 0.910678 0
0.326366 0.924551 0
0.330868 0.908748 0
0.306765 0.902248 0
0.300525 0.905795 0
0.290743 0.890875 0
0.294102 0.899339 0
0.275420 0.903383 0
0.300598 0.891863 0
0.285257 0.903652 0
0.312219 0.908970 0
0.339781 0.942023 0
0.316221 0.922816 0
0.300915 0.898699 0
0.296876 0.879340 0
0.307529 0.885265 0
0.280532 0.922237 0
0.280597 0.894085 0
0.335203 0.931652 0
0.321990 0.918488 0
0.299776 0.934065 0
0.296172 0.886364 0
0.288120 0.882196 0
0.278089 0.884173 0
0.312594 0.879563 0
0.285361 0.913572 0
0.287055 0.896858 0
0.332624 0.925812 0
0.343857 0.926513 0
0.327432 0.932273 0
0.309502 0.930639 0
0.284043 0.887940 0
0.256798 0.868000 0
0.295921 0.921460 0
0.275170 0.913570 0
0.350408 0.922574 0
0.371545 0.939786 0
0.362195 0.929684 0
0.357329 0.924425 0
0.342755 0.934514 0
0.352818 0.933481 0
0.311481 0.948204 0
0.323933 0.944721 0
0.269019 0.874013 0
0.292243 0.915371 0
0.306150 0.920962 0
0.280199 0.908597 0
0.260148 0.928856 0
0.266740 0.908267 0
0.360988 0.940179 0
0.313170 0.939120 0
0.319927 0.939277 0
0.304363 0.942181 0
0.275611 0.877257 0
0.302929 0.927497 0
0.300782 0.916003 0
0.312089 0.916983 0
0.269530 0.923052 0
0.262720 0.891653 0
0.268339 0.883715 0
0.366098 0.935450 0
0.378176 0.923071 0
0.374016 0.931094 0
0.367502 0.919892 0
0.392693 0.935687 0
0.382193 0.938116 0
0.366815 0.954746 0
0.350674 0.944428 0
0.300156 0.954371 0
0.292753 0.943389 0
0.275725 0.932011 0
0.259942 0.918039 0
0.267951 0.915694 0
0.271364 0.895034 0
0.264425 0.900034 0
0.255822 0.880812 0
0.385647 0.929135 0
0.390745 0.951180 0
0.366506 0.946421 0
0.357899 0.950909 0
0.348225 0.938264 0
0.354689 0.939531 0
0.304623 0.949092 0
0.309097 0.956715 0
0.325407 0.965254 0
0.316196 0.963001 0
0.275258 0.925712 0
0.265066 0.944605 0
0.267856 0.930831 0
0.270716 0.938580 0
0.262205 0.936856 0
0.250215 0.945684 0
0.257485 0.943001 0
0.263251 0.923387 0
0.238293 0.923861 0
0.261540 0.911900 0
0.272999 0.888534 0
0.262962 0.878464 0
0.388716 0.917719 0
0.388871 0.943076 0
0.398566 0.943409 0
0.378574 0.949816 0
0.357332 0.964503 0
0.348227 0.954424 0
0.323007 0.955106 0
0.315832 0.954013 0
0.316500 0.981716 0
0.249841 0.923641 0
0.250275 0.934658 0
0.384638 0.922743 0
0.395456 0.925652 0
0.412502 0.933272 0
0.398620 0.951285 0
0.406250 1.000000 0
0.394460 0.968029 0
0.394577 0.959169 0
0.408450 0.963784 0
0.386218 0.963489 0
0.400780 0.963682 0
0.404704 0.956960 0
0.377517 0.943079 0
0.360211 0.957814 0
0.367435 0.964720 0
0.350706 0.961336 0
0.344145 0.948127 0
0.333430 0.951175 0
0.318798 0.972319 0
0.256376 0.923517 0
0.251607 0.914918 0
0.243956 0.917910 0
0.228895 0.909248 0
0.235371 0.915411 0
0.227062 0.923013 0
0.242456 0.901482 0
0.228455 0.916194 0
0.248493 0.907204 0
0.236834 0.907389 0
0.252674 0.896746 0
0.230242 0.897117 0
0.234529 0.940085 0
0.244174 0.929382 0
0.242458 0.937532 0
0.236245 0.931935 0
0.397666 0.916945 0
0.404433 0.912412 0
0.406501 0.923821 0
0.423150 0.931630 0
0.407021 0.940385 0
0.419431 0.944281 0
0.413942 0.940051 0
0.379537 0.958251 0
0.373686 0.954647 0
0.384331 0.953431 0
0.343750 1.000000 0
0.361960 0.984345 0
0.327124 0.950239 0
0.340082 0.956203 0
0.334502 0.963579 0
0.338907 0.981845 0
0.339024 0.972153 0
0.309241 0.974961 0
0.257802 0.901061 0
0.416732 0.925359 0
0.417474 0.917548 0
0.426956 0.926695 0
0.401593 0.932739 0
0.425038 0.939057 0
0.373109 0.961265 0
0.362186 0.973832 0
0.327717 0.979479 0
0.350023 0.972745 0
0.281250 1.000000 0
0.374249 0.979350 0
0.321587 0.977980 0
0.334099 0.976940 0
0.331012 0.970160 0
0.356313 0.970961 0
0.344275 0.977063 0
0.352547 0.982090 0
0.296875 1.000000 0
0.284610 0.975592 0
0.367027 0.979195 0
0.370793 0.972058 0
0.385083 0.975079 0
0.359375 1.000000 0
0.303953 0.987923 0
0.296861 0.972746 0
0.383091 0.969034 0
0.355320 0.991289 0
0.309051 0.982443 0
0.313614 0.990664 0
0.300996 0.980059 0
0.292145 0.980238 0
0.282335 0.987714 0
0.285803 0.982090 0
0.303526 0.971198 0
0.351563 1.000000 0
0.345597 0.989202 0
0.328125 1.000000 0
0.335209 0.991928 0
0.320313 1.000000 0
0.341312 0.994026 0
0.335938 1.000000 0
0.324649 0.989805 0
0.332360 0.985164 0
0.329319 0.993903 0
0.301816 0.865621 0
0.300039 0.872730 0
0.304817 0.878381 0
0.297075 0.859598 0
0.568858 0.818125 0
0.565205 0.881295 0
0.597834 0.884666 0
0.599697 0.897435 0
0.596695 0.905433 0
0.615776 0.908032 0
0.606532 0.904562 0
0.593511 0.896006 0
0.608326 0.896002 0
0.625603 0.883870 0
0.615680 0.888107 0
0.606139 0.919659 0
0.599936 0.913529 0
0.596592 0.923116 0
0.610457 0.875683 0
0.604194 0.880242 0
0.610863 0.882822 0
0.618556 0.878803 0
0.617354 0.869850 0
0.638653 0.850196 0
0.626453 0.858343 0
0.620042 0.862624 0
0.624841 0.895825 0
0.608947 0.912178 0
0.603288 0.926696 0
0.628372 0.932761 0
0.613736 0.938388 0
0.607053 0.933846 0
0.580594 0.932285 0
0.622207 0.889656 0
0.616588 0.896325 0
0.589906 0.929992 0
0.612788 0.901943 0
0.582605 0.920398 0
0.589395 0.922806 0
0.505970 0.877582 0
0.513956 0.900904 0
0.495648 0.928724 0
0.463316 0.913779 0
0.477015 0.925797 0
0.467556 0.927514 0
0.471396 0.918386 0
0.479565 0.912555 0
0.471401 0.936010 0
0.465448 0.921256 0
0.490763 0.910233 0
0.485940 0.940405 0
0.482123 0.948745 0
0.478469 0.942029 0
0.480562 0.933661 0
0.497555 0.950765 0
0.486489 0.926255 0
0.489278 0.954038 0
0.491036 0.946382 0
0.495867 0.958597 0
0.494871 0.937952 0
0.488232 0.964849 0
0.488827 0.933431 0
0.521522 0.935550 0
0.507985 0.934410 0
0.500786 0.933803 0
0.503626 0.943133 0
0.484597 0.908660 0
0.482048 0.919900 0
0.493230 0.919472 0
0.480363 0.965747 0
0.514086 0.942910 0
0.511587 0.958432 0
0.503749 0.960585 0
0.487500 0.916053 0
0.504726 0.911454 0
0.474050 0.968089 0
0.514663 0.936056 0
0.514648 0.921754 0
0.504884 0.924520 0
0.526535 0.948051 0
0.506278 0.951473 0
0.497523 0.913377 0
0.499351 0.905771 0
0.504553 0.897035 0
0.511140 0.927989 0
0.508296 0.917944 0
0.516628 0.911252 0
0.521394 0.942857 0
0.517854 0.951503 0
0.507096 0.904215 0
0.498575 0.894065 0
0.511486 0.887870 0
0.523300 0.904010 0
0.524114 0.918101 0
0.524647 0.955946 0
0.505658 0.890666 0
0.521888 0.892650 0
0.542608 0.927426 0
0.521996 0.926703 0
0.532385 0.924699 0
0.519888 0.898667 0
0.531280 0.917601 0
0.534420 0.937599 0
0.536260 0.930698 0
0.528371 0.931543 0
0.444109 0.983854 0
0.223677 0.871790 0
0.209105 0.880761 0
0.216059 0.886701 0
0.226728 0.884937 0
0.225211 0.878403 0
0.241641 0.885453 0
0.234284 0.882296 0
0.235125 0.890487 0
0.242608 0.893439 0
0.206803 0.904857 0
0.216871 0.911974 0
0.084352 0.847471 0
0.139037 0.898009 0
0.160461 0.922627 0
0.161643 0.913715 0
0.168522 0.915377 0
0.140657 0.931407 0
0.140982 0.922821 0
0.146962 0.931252 0
0.132257 0.954411 0
0.127111 0.939497 0
0.138976 0.943829 0
0.132460 0.933067 0
0.142675 0.938005 0
0.131958 0.885842 0
0.129228 0.895970 0
0.106004 0.887059 0
0.022238 0.724910 0
0.119246 0.659932 0
0.127008 0.660107 0
0.123314 0.651743 0
0.115158 0.652797 0
0.075667 0.662031 0
0.062407 0.669771 0
0.049838 0.654030 0
0.057895 0.660485 0
0.053143 0.668533 0
0.063492 0.645243 0
0.041883 0.666170 0
0.064659 0.654320 0
0.057317 0.650650 0
0.070812 0.648916 0
0.070783 0.656868 0
0.048109 0.640239 0
0.077771 0.647261 0
0.086067 0.651335 0
0.055813 0.642702 0
0.099539 0.642012 0
0.101217 0.650491 0
0.050200 0.646981 0
0.037182 0.649847 0
0.054155 0.634609 0
0.091432 0.644693 0
0.109373 0.644471 0
0.072632 0.624095 0
0.072872 0.636195 0
0.062352 0.627522 0
0.069604 0.642193 0
0.062889 0.636385 0
0.082994 0.657371 0
0.094527 0.650625 0
0.108417 0.627406 0
0.058272 0.608069 0
0.069459 0.602779 0
0.068963 0.630220 0
0.106246 0.636087 0
0.116087 0.633936 0
0.064526 0.616912 0
0.114205 0.640143 0
0.118879 0.622888 0
0.132284 0.632769 0
0.130933 0.643738 0
0.066504 0.622845 0
0.057376 0.620975 0
0.065752 0.609412 0
0.078701 0.612298 0
0.071481 0.614199 0
0.088411 0.606279 0
0.114761 0.627724 0
0.124376 0.635995 0
0.125630 0.627763 0
0.157208 0.663604 0
0.160224 0.677180 0
0.151753 0.676634 0
0.156375 0.670912 0
0.052121 0.683781 0
0.046743 0.704513 0
0.023277 0.686177 0
0.670255 0.694822 0
0.678876 0.683613 0
0.675863 0.676886 0
0.671517 0.682871 0
0.664876 0.698276 0
0.664629 0.691786 0
0.685324 0.708588 0
0.675861 0.703816 0
0.681146 0.694278 0
0.673696 0.719877 0
0.675851 0.697578 0
0.675469 0.689912 0
0.692320 0.686326 0
0.687886 0.674991 0
0.682956 0.701514 0
0.695744 0.701168 0
0.671144 0.711357 0
0.678954 0.713660 0
0.665130 0.717800 0
0.688147 0.718671 0
0.685010 0.687882 0
0.690263 0.694617 0
0.697269 0.691954 0
0.684634 0.667834 0
0.696303 0.666851 0
0.690075 0.662280 0
0.695098 0.711288 0
0.681915 0.731179 0
0.691308 0.705965 0
0.695788 0.718901 0
0.713969 0.713417 0
0.707179 0.723787 0
0.704315 0.714291 0
0.687558 0.726184 0
0.680324 0.723696 0
0.708184 0.703266 0
0.701551 0.707130 0
0.708763 0.709660 0
0.655223 0.704475 0
0.657087 0.713435 0
0.650044 0.718506 0
0.650020 0.710231 0
0.663503 0.711206 0
0.619192 0.726398 0
0.608578 0.726345 0
0.606081 0.740416 0
0.605432 0.750077 0
0.598566 0.740015 0
0.613923 0.718916 0
0.622585 0.718412 0
0.629071 0.722206 0
0.604221 0.732829 0
0.613844 0.734536 0
0.599175 0.746973 0
0.627334 0.737576 0
0.628515 0.729926 0
0.621161 0.733519 0
0.620883 0.751710 0
0.618691 0.742579 0
0.612890 0.753427 0
0.611803 0.745870 0
0.618844 0.761679 0
0.612387 0.764702 0
0.602012 0.773226 0
0.599914 0.765861 0
0.594906 0.771269 0
0.639135 0.760637 0
0.628855 0.758534 0
0.631105 0.747837 0
0.630967 0.774391 0
0.627054 0.752570 0
0.624564 0.745998 0
0.640584 0.738530 0
0.634199 0.734719 0
0.635084 0.754259 0
0.623899 0.768995 0
0.631598 0.766238 0
0.652338 0.691183 0
0.614165 0.590468 0
0.623583 0.595712 0
0.610852 0.601874 0
0.599651 0.597122 0
0.611826 0.576937 0
0.623075 0.585546 0
0.630647 0.594591 0
0.616511 0.597333 0
0.605061 0.606570 0
0.615318 0.570413 0
0.619936 0.577081 0
0.615771 0.583223 0
0.639451 0.602637 0
0.692369 0.567478 0
0.713982 0.582703 0
0.591565 0.248261 0
0.598751 0.296944 0
0.613815 0.251439 0
0.612684 0.285632 0
0.580785 0.310371 0
0.593928 0.309223 0
0.575514 0.318118 0
0.587602 0.312611 0
0.577976 0.337091 0
0.570350 0.313266 0
0.574166 0.327939 0
0.584075 0.329183 0
0.568086 0.335840 0
0.598952 0.325287 0
0.593320 0.318910 0
0.591289 0.326379 0
0.597986 0.345928 0
0.596501 0.335515 0
0.604219 0.314959 0
0.560842 0.332227 0
0.608916 0.333082 0
0.587730 0.342078 0
0.597826 0.314330 0
0.567013 0.328556 0
0.603785 0.339789 0
0.630212 0.354691 0
0.618045 0.345383 0
0.611717 0.340541 0
0.623162 0.332138 0
0.608180 0.351721 0
0.618668 0.338013 0
0.630328 0.342276 0
0.602152 0.331461 0
0.606850 0.325110 0
0.584701 0.335971 0
0.593911 0.341197 0
0.587930 0.357130 0
0.590491 0.332889 0
0.590770 0.349565 0
0.598659 0.356240 0
0.570828 0.353177 0
0.580441 0.349398 0
0.601933 0.350848 0
0.606578 0.360635 0
0.618525 0.358182 0
0.612061 0.357020 0
0.593730 0.361929 0
0.585041 0.379388 0
0.591102 0.371513 0
0.566890 0.344915 0
0.557788 0.354323 0
0.564094 0.351317 0
0.578555 0.358717 0
0.581184 0.342849 0
0.604649 0.384940 0
0.611406 0.373247 0
0.613923 0.365222 0
0.606747 0.367800 0
0.601641 0.375873 0
0.629107 0.374392 0
0.620396 0.371660 0
0.627452 0.364418 0
0.620230 0.387440 0
0.617148 0.379516 0
0.624889 0.381066 0
0.612488 0.385891 0
0.634184 0.382271 0
0.614790 0.394506 0
0.633113 0.402984 0
0.604584 0.395168 0
0.622276 0.402366 0
0.584513 0.365425 0
0.566790 0.366969 0
0.564068 0.359380 0
0.575740 0.367217 0
0.571402 0.361032 0
0.559681 0.365237 0
0.581395 0.372534 0
0.570512 0.382720 0
0.573622 0.375135 0
0.557869 0.378456 0
0.565639 0.376292 0
0.594533 0.383263 0
0.624973 0.358459 0
0.647960 0.364981 0
0.635462 0.392721 0
0.628389 0.388514 0
0.623437 0.394603 0
0.593453 0.412079 0
0.626519 0.423291 0
0.595121 0.376716 0
0.598611 0.390016 0
0.594593 0.400711 0
0.585889 0.390874 0
0.637778 0.362092 0
0.641960 0.374334 0
0.629950 0.396860 0
0.627147 0.412271 0
0.602774 0.403681 0
0.588319 0.384920 0
0.646357 0.351244 0
0.633794 0.368490 0
0.635540 0.375822 0
0.641722 0.367580 0
0.627508 0.405943 0
0.646507 0.418147 0
0.613542 0.417023 0
0.607879 0.410577 0
0.601743 0.421679 0
0.600593 0.410633 0
0.606806 0.417231 0
0.644314 0.358445 0
0.638256 0.352836 0
0.635890 0.418297 0
0.650103 0.401473 0
0.617099 0.409211 0
0.621330 0.417467 0
0.629685 0.417943 0
0.634751 0.410595 0
0.641862 0.405083 0
0.643066 0.396622 0
0.648900 0.409938 0
0.641870 0.412438 0
0.659731 0.407159 0
0.641370 0.430352 0
0.641268 0.423125 0
0.633934 0.426843 0
0.632555 0.439400 0
0.551013 0.324691 0
0.548830 0.340362 0
0.545634 0.333423 0
0.554107 0.346830 0
0.408056 0.406916 0
0.402266 0.397588 0
0.466317 0.449427 0
0.464025 0.416468 0
0.480207 0.427990 0
0.449565 0.419669 0
0.458915 0.428735 0
0.452887 0.434565 0
0.462967 0.438955 0
0.458474 0.446165 0
0.467633 0.431193 0
0.473322 0.427246 0
0.469365 0.437518 0
0.524580 0.163483 0
0.518902 0.166197 0
0.520800 0.153255 0
0.533106 0.162452 0
0.528788 0.155398 0
0.543331 0.162888 0
0.531792 0.139196 0
0.532390 0.147687 0
0.524552 0.143973 0
0.547976 0.142322 0
0.520722 0.134188 0
0.540937 0.147195 0
0.540277 0.138723 0
0.550674 0.153739 0
0.535132 0.122779 0
0.547301 0.133733 0
0.535614 0.131426 0
0.542943 0.126338 0
0.528123 0.132566 0
0.545345 0.110712 0
0.541940 0.118186 0
0.511686 0.153218 0
0.502341 0.144839 0
0.505381 0.150849 0
0.539477 0.169573 0
0.554347 0.164597 0
0.543984 0.155890 0
0.548397 0.166588 0
0.566929 0.179383 0
0.584013 0.186888 0
0.581114 0.196067 0
0.573826 0.190193 0
0.577587 0.178318 0
0.577738 0.184899 0
0.587192 0.161775 0
0.590931 0.175006 0
0.579977 0.168646 0
0.584960 0.179484 0
0.587132 0.168936 0
0.597303 0.165439 0
0.611291 0.176294 0
0.606027 0.168637 0
0.600979 0.177746 0
0.597093 0.172204 0
0.608485 0.193716 0
0.602404 0.214089 0
0.593806 0.220715 0
0.590247 0.211779 0
0.593717 0.184583 0
0.607198 0.184572 0
0.616436 0.183989 0
0.600462 0.190182 0
0.617691 0.193128 0
0.599934 0.202258 0
0.591199 0.194478 0
0.637387 0.211147 0
0.613918 0.206432 0
0.629120 0.200410 0
0.613451 0.199113 0
0.621075 0.202301 0
0.607273 0.203182 0
0.624723 0.194701 0
0.627227 0.210419 0
0.605592 0.227117 0
0.587521 0.218042 0
0.595996 0.214666 0
0.591300 0.203163 0
0.596160 0.207889 0
0.597581 0.196106 0
0.632632 0.206257 0
0.651824 0.190750 0
0.643666 0.200284 0
0.631351 0.224128 0
0.601116 0.221309 0
0.597124 0.229014 0
0.604281 0.241111 0
0.594059 0.238555 0
0.602665 0.233901 0
0.611352 0.235741 0
0.621473 0.242195 0
0.611828 0.243708 0
0.631898 0.216488 0
0.588072 0.242190 0
0.597946 0.244727 0
0.599609 0.255257 0
0.605646 0.249407 0
0.593890 0.259732 0
0.607462 0.261927 0
0.604127 0.267433 0
0.615609 0.266301 0
0.614326 0.258916 0
0.480430 0.157845 0
0.459228 0.148506 0
0.477509 0.134107 0
0.161315 0.201194 0
0.167452 0.203087 0
0.123231 0.145669 0
0.136049 0.150842 0
0.141274 0.157464 0
0.133292 0.167512 0
0.139031 0.163877 0
0.143141 0.148690 0
0.145798 0.117759 0
0.149901 0.127352 0
0.224936 0.100756 0
0.215912 0.101974 0
0.219441 0.094081 0
0.221411 0.108679 0
0.218167 0.085420 0
0.229714 0.107627 0
0.239217 0.095923 0
0.240039 0.106300 0
0.232775 0.100402 0
0.229971 0.088108 0
0.226349 0.093992 0
0.224984 0.082743 0
0.235483 0.069877 0
0.233988 0.079374 0
0.214779 0.110211 0
0.245730 0.100628 0
0.250410 0.108575 0
0.269871 0.111162 0
0.254536 0.116296 0
0.260453 0.107517 0
0.264118 0.119446 0
0.263974 0.127441 0
0.274268 0.132170 0
0.228046 0.073572 0
0.217020 0.059161 0
0.220839 0.067662 0
0.246683 0.076506 0
0.238898 0.086923 0
0.240863 0.080274 0
0.248932 0.090476 0
0.260600 0.114000 0
0.275209 0.121009 0
0.229703 0.058572 0
0.228961 0.066082 0
0.270057 0.117432 0
0.223477 0.061368 0
0.261888 0.164604 0
0.282203 0.146150 0
0.319667 0.173761 0
0.321234 0.181785 0
0.143719 0.253774 0
0.136425 0.248734 0
0.115958 0.214849 0
0.142020 0.206992 0
0.148823 0.194625 0
0.156289 0.195589 0
0.153475 0.187996 0
0.118619 0.246099 0
0.088315 0.253412 0
0.095185 0.264521 0
0.100883 0.268762 0
0.043253 0.445944 0
0.018652 0.307856 0
0.045894 0.353574 0
0.043339 0.287295 0
0.053600 0.275007 0
0.049082 0.281663 0
0.066629 0.283207 0
0.071851 0.289352 0
0.057646 0.284819 0
0.077872 0.278944 0
0.063296 0.290476 0
0.057174 0.294661 0
0.084354 0.280390 0
0.018617 0.581260 0
0.035816 0.585421 0
0.020447 0.557576 0
0.296977 0.796881 0
0.307219 0.797977 0
0.302722 0.791601 0
0.311135 0.807683 0
0.308903 0.816416 0
0.298793 0.809180 0
0.305255 0.810832 0
0.300124 0.817441 0
0.288274 0.822354 0
0.292479 0.814435 0
0.295047 0.821941 0
0.293597 0.829898 0
0.301557 0.802489 0
0.272481 0.805254 0
0.290687 0.874054 0
0.331296 0.940075 0
0.368536 0.926786 0
0.363310 0.911546 0
0.367550 0.904438 0
0.375681 0.906689 0
0.379773 0.914447 0
0.372039 0.913568 0
0.288631 0.932978 0
0.282018 0.934627 0
0.284482 0.956952 0
0.242724 0.911073 0
0.255027 0.888933 0
0.247931 0.888743 0
0.223423 0.902499 0
0.215078 0.903432 0
0.209804 0.897549 0
0.200417 0.897965 0
0.192306 0.900382 0
0.193057 0.908130 0
0.200499 0.908883 0
0.207133 0.917666 0
0.201919 0.933554 0
0.196012 0.926007 0
0.213836 0.917958 0
0.207295 0.926518 0
0.200757 0.920749 0
0.222826 0.935035 0
0.229850 0.934844 0
0.212260 0.935884 0
0.217193 0.931096 0
0.219018 0.953813 0
0.204121 0.947894 0
0.218219 0.943876 0
0.205834 0.940292 0
0.211049 0.945461 0
0.226513 0.942577 0
0.233540 0.951043 0
0.242174 0.949285 0
0.228747 0.965370 0
0.225866 0.950263 0
0.229008 0.957492 0
0.235319 0.961644 0
0.248598 0.978549 0
0.237676 0.973460 0
0.420639 0.957804 0
0.412691 0.957016 0
0.417272 0.951289 0
0.329948 0.957724 0
0.399404 0.984365 0
0.403389 0.974243 0
0.394995 0.976784 0
0.421875 1.000000 0
0.415685 0.984931 0
0.407645 0.981765 0
0.415693 0.973117 0
0.408647 0.991012 0
0.414063 1.000000 0
0.417969 0.992799 0
0.429923 0.985064 0
0.422784 0.987136 0
0.423931 0.977753 0
0.424309 0.967445 0
0.430616 0.959548 0
0.435348 0.974506 0
0.416522 0.964996 0
0.426415 0.954173 0
0.430344 0.978608 0
0.432195 0.967276 0
0.390625 1.000000 0
0.297825 0.963436 0
0.289126 0.967240 0
0.292582 0.957255 0
0.288787 0.950274 0
0.292321 0.990643 0
0.299043 0.993158 0
0.304688 1.000000 0
0.289063 1.000000 0
0.307514 0.993767 0
0.286004 0.993690 0
0.265625 1.000000 0
0.319393 0.993589 0
0.561796 0.823670 0
0.570632 0.827655 0
0.579849 0.821010 0
0.578098 0.828296 0
0.606787 0.831336 0
0.592642 0.827937 0
0.585322 0.826178 0
0.591287 0.817465 0
0.590117 0.841578 0
0.587313 0.834005 0
0.583603 0.844785 0
0.590940 0.851467 0
0.584783 0.816703 0
0.603191 0.796931 0
0.601683 0.821444 0
0.603950 0.845406 0
0.594896 0.805840 0
0.595413 0.822255 0
0.596329 0.846040 0
0.598476 0.836496 0
0.600972 0.855738 0
0.590294 0.810784 0
0.599787 0.829335 0
0.605402 0.838378 0
0.624119 0.838404 0
0.614753 0.843973 0
0.618282 0.853048 0
0.594466 0.857102 0
0.603194 0.864998 0
0.603448 0.872636 0
0.615545 0.834645 0
0.609569 0.854019 0
0.622424 0.846213 0
0.631545 0.844104 0
0.624242 0.826462 0
0.609758 0.847757 0
0.630996 0.851937 0
0.645581 0.834920 0
0.621637 0.832406 0
0.614324 0.824634 0
0.639897 0.841551 0
0.634664 0.831315 0
0.607595 0.824657 0
0.621078 0.815807 0
0.630955 0.837185 0
0.567793 0.873857 0
0.573578 0.880039 0
0.570240 0.886326 0
0.554360 0.903972 0
0.563638 0.896353 0
0.544167 0.913068 0
0.545125 0.876359 0
0.636361 0.890557 0
0.625053 0.905452 0
0.633306 0.918306 0
0.622955 0.915875 0
0.616903 0.926541 0
0.631314 0.910508 0
0.626497 0.924051 0
0.573449 0.924963 0
0.566984 0.911667 0
0.567765 0.919507 0
0.575496 0.914778 0
0.574863 0.903311 0
0.583225 0.912308 0
0.499420 0.880426 0
0.503157 0.871454 0
0.512978 0.872466 0
0.515230 0.864582 0
0.512066 0.880936 0
0.518548 0.886209 0
0.532451 0.882941 0
0.525071 0.882749 0
0.529126 0.868804 0
0.528931 0.876310 0
0.537039 0.872765 0
0.521140 0.871023 0
0.537055 0.862849 0
0.523430 0.863786 0
0.535877 0.896951 0
0.531576 0.854860 0
0.546412 0.861705 0
0.543624 0.868843 0
0.553690 0.868661 0
0.559333 0.875082 0
0.530871 0.902765 0
0.528593 0.895741 0
0.539605 0.905224 0
0.546355 0.897206 0
0.547111 0.906107 0
0.553466 0.886509 0
0.558416 0.881831 0
0.562366 0.888610 0
0.530133 0.861723 0
0.524804 0.853223 0
0.547470 0.855352 0
0.541332 0.888193 0
0.554918 0.895194 0
0.534325 0.889907 0
0.539538 0.881093 0
0.547833 0.890476 0
0.527610 0.889028 0
0.554233 0.945164 0
0.540179 0.950143 0
0.450865 0.977397 0
0.455833 0.987352 0
0.443092 0.976027 0
0.459514 0.993220 0
0.224715 0.892115 0
0.245610 0.873592 0
0.238467 0.876018 0
0.154041 0.920714 0
0.167859 0.939625 0
0.156549 0.931018 0
0.166009 0.930321 0
0.158399 0.940321 0
0.176631 0.931136 0
0.164104 0.953225 0
0.187644 0.943996 0
0.196544 0.941183 0
0.163554 0.945755 0
0.184269 0.935741 0
0.177408 0.943364 0
0.171238 0.948944 0
0.172177 0.958593 0
0.174226 0.937428 0
0.181924 0.953429 0
0.182308 0.947211 0
0.193541 0.954023 0
0.193570 0.947259 0
0.131318 0.946390 0
0.119652 0.951822 0
0.124075 0.946079 0
0.103208 0.932464 0
0.114642 0.937738 0
0.121796 0.928706 0
0.115600 0.883989 0
0.117597 0.893002 0
0.108328 0.877789 0
0.114430 0.874641 0
0.095055 0.879388 0
0.098500 0.869534 0
0.091474 0.868671 0
0.101997 0.881128 0
0.085756 0.881474 0
0.089363 0.875783 0
0.092117 0.897910 0
0.096315 0.889082 0
0.106285 0.902868 0
0.113535 0.899763 0
0.115562 0.908750 0
0.107181 0.894945 0
0.109145 0.920482 0
0.099987 0.898143 0
0.114506 0.915794 0
0.116324 0.923281 0
0.106365 0.911894 0
0.110172 0.928453 0
0.095742 0.908467 0
0.086629 0.890585 0
0.115922 0.931403 0
0.033739 0.728006 0
0.118968 0.667104 0
0.048651 0.661928 0
0.041183 0.657533 0
0.083865 0.629924 0
0.096171 0.628955 0
0.089123 0.636553 0
0.102595 0.630562 0
0.096082 0.635941 0
0.060301 0.597885 0
0.056674 0.588616 0
0.066696 0.596935 0
0.044926 0.600117 0
0.044915 0.614268 0
0.050127 0.619513 0
0.052126 0.612315 0
0.046869 0.607194 0
0.035978 0.607992 0
0.053005 0.601703 0
0.050342 0.593899 0
0.041771 0.591900 0
0.037242 0.598353 0
0.044417 0.583491 0
0.032571 0.592323 0
0.021779 0.591603 0
0.038647 0.577905 0
0.051186 0.580969 0
0.028425 0.578345 0
0.027777 0.629173 0
0.039273 0.625086 0
0.000000 0.609375 0
0.000000 0.578125 0
0.027559 0.586206 0
0.020848 0.570811 0
0.019295 0.613711 0
0.036495 0.616757 0
0.032014 0.622880 0
0.023288 0.621578 0
0.028318 0.612842 0
0.000000 0.656250 0
0.011542 0.622594 0
0.023066 0.605587 0
0.011122 0.604979 0
0.010564 0.589377 0
0.028610 0.569552 0
0.010265 0.574014 0
0.016769 0.587480 0
0.016440 0.575332 0
0.110158 0.617065 0
0.102015 0.621011 0
0.090738 0.617777 0
0.111582 0.603559 0
0.104329 0.598729 0
0.104777 0.605916 0
0.119356 0.612730 0
0.095527 0.622359 0
0.112686 0.610503 0
0.126979 0.608274 0
0.119695 0.604562 0
0.116611 0.596197 0
0.119481 0.586711 0
0.126810 0.597187 0
0.126515 0.589592 0
0.147492 0.640210 0
0.130217 0.650685 0
0.140547 0.648239 0
0.138714 0.639635 0
0.149009 0.648539 0
0.173516 0.639774 0
0.160540 0.642137 0
0.153689 0.643384 0
0.143206 0.655018 0
0.163455 0.653582 0
0.155975 0.651797 0
0.162577 0.659993 0
0.077069 0.604637 0
0.096530 0.605125 0
0.033315 0.692867 0
0.031824 0.675471 0
0.702975 0.660163 0
0.729575 0.670535 0
0.711842 0.675682 0
0.705282 0.669138 0
0.717814 0.663137 0
0.701341 0.679648 0
0.712610 0.668353 0
0.720648 0.672900 0
0.699525 0.672973 0
0.728938 0.686163 0
0.726842 0.678251 0
0.717996 0.684827 0
0.710853 0.659363 0
0.721854 0.698710 0
0.709059 0.684199 0
0.722799 0.690970 0
0.731066 0.695204 0
0.713923 0.693814 0
0.732529 0.711377 0
0.734211 0.703072 0
0.726302 0.705793 0
0.723549 0.715127 0
0.717964 0.706092 0
0.730554 0.719275 0
0.751253 0.720254 0
0.741001 0.717691 0
0.744423 0.707215 0
0.717211 0.722947 0
0.714281 0.700500 0
0.742302 0.734272 0
0.739177 0.711298 0
0.762619 0.693628 0
0.747376 0.713976 0
0.757376 0.705584 0
0.723555 0.721611 0
0.714197 0.746475 0
0.744429 0.725763 0
0.736053 0.728189 0
0.749959 0.698925 0
0.718490 0.735068 0
0.730577 0.740068 0
0.730860 0.732997 0
0.736294 0.721888 0
0.748468 0.680237 0
0.737619 0.679630 0
0.757161 0.698362 0
0.752829 0.689293 0
0.720892 0.728687 0
0.712713 0.729550 0
0.742603 0.687796 0
0.735482 0.689394 0
0.759406 0.680547 0
0.747090 0.692826 0
0.754194 0.671310 0
0.775696 0.683481 0
0.759496 0.687460 0
0.767211 0.683902 0
0.771096 0.676508 0
0.779719 0.660239 0
0.784060 0.672959 0
0.773513 0.667369 0
0.778158 0.676853 0
0.743556 0.670786 0
0.758995 0.652650 0
0.780409 0.667105 0
0.789444 0.662730 0
0.736533 0.672486 0
0.765581 0.660674 0
0.749413 0.660133 0
0.736427 0.659484 0
0.803131 0.674817 0
0.759339 0.665405 0
0.772281 0.648458 0
0.749080 0.666887 0
0.798015 0.666817 0
0.766479 0.653221 0
0.773537 0.655904 0
0.793451 0.675372 0
0.789948 0.669526 0
0.798758 0.683243 0
0.787284 0.688877 0
0.785146 0.681025 0
0.791738 0.683446 0
0.702525 0.698889 0
0.641018 0.731121 0
0.658116 0.740169 0
0.648453 0.750243 0
0.642333 0.754130 0
0.641659 0.746308 0
0.650270 0.759865 0
0.647944 0.776863 0
0.640129 0.770999 0
0.651638 0.768710 0
0.644979 0.765305 0
0.589732 0.584004 0
0.581854 0.591404 0
0.570730 0.585051 0
0.570889 0.592329 0
0.590130 0.592322 0
0.580070 0.581611 0
0.568409 0.564350 0
0.586905 0.574719 0
0.572116 0.574415 0
0.581835 0.562083 0
0.562373 0.578553 0
0.579518 0.574228 0
0.586780 0.567434 0
0.563916 0.585192 0
0.556670 0.582851 0
0.557986 0.568305 0
0.565081 0.571291 0
0.557416 0.574613 0
0.607304 0.594659 0
0.600379 0.586263 0
0.607887 0.583790 0
0.601105 0.575832 0
0.606641 0.569005 0
0.596536 0.591459 0
0.595993 0.580717 0
0.593464 0.574665 0
0.692923 0.577184 0
0.678907 0.573451 0
0.701388 0.571832 0
0.685251 0.577810 0
0.676327 0.584002 0
0.708468 0.576360 0
0.706633 0.583524 0
0.676729 0.590333 0
0.670767 0.587230 0
0.672507 0.577477 0
0.668846 0.567085 0
0.661277 0.568784 0
0.673074 0.549980 0
0.664062 0.552914 0
0.670867 0.558510 0
0.683972 0.557351 0
0.677213 0.555602 0
0.678520 0.564483 0
0.685789 0.564389 0
0.590247 0.295616 0
0.594229 0.288081 0
0.593604 0.302009 0
0.607121 0.279989 0
0.614473 0.278305 0
0.602701 0.305583 0
0.610273 0.296898 0
0.560729 0.325144 0
0.615808 0.329127 0
0.625352 0.348438 0
0.645067 0.324258 0
0.583780 0.405368 0
0.577577 0.387973 0
0.592477 0.393814 0
0.586497 0.398363 0
0.612505 0.431672 0
0.617015 0.424630 0
0.609239 0.424616 0
0.623012 0.433435 0
0.616920 0.437551 0
0.600162 0.451993 0
0.605650 0.441418 0
0.602074 0.431870 0
0.625849 0.439511 0
0.607357 0.435335 0
0.596424 0.439429 0
0.596172 0.426961 0
0.600008 0.445201 0
0.574803 0.450916 0
0.584486 0.443049 0
0.591600 0.448790 0
0.583428 0.451639 0
0.577100 0.475324 0
0.578140 0.462914 0
0.578695 0.456297 0
0.589715 0.438800 0
0.665268 0.424473 0
0.642753 0.440518 0
0.638090 0.435975 0
0.646356 0.434850 0
0.653488 0.426562 0
0.652828 0.455550 0
0.656617 0.416863 0
0.660646 0.432669 0
0.635896 0.456006 0
0.629260 0.448741 0
0.650012 0.446545 0
0.665300 0.414298 0
0.658925 0.422962 0
0.676872 0.436418 0
0.637812 0.447592 0
0.644300 0.453495 0
0.646177 0.464431 0
0.622025 0.462012 0
0.664798 0.446864 0
0.669311 0.432154 0
0.669691 0.440318 0
0.677211 0.445604 0
0.627927 0.456621 0
0.619276 0.453076 0
0.657351 0.449193 0
0.659868 0.440602 0
0.609236 0.461055 0
0.612443 0.447271 0
0.612201 0.454480 0
0.461134 0.454768 0
0.479331 0.452956 0
0.493400 0.459842 0
0.491004 0.467651 0
0.504700 0.467581 0
0.497841 0.465476 0
0.490290 0.420737 0
0.566170 0.144049 0
0.557637 0.137241 0
0.574422 0.155590 0
0.557061 0.146716 0
0.569543 0.131069 0
0.579647 0.161077 0
0.572114 0.163020 0
0.563318 0.164802 0
0.564193 0.154184 0
0.564965 0.136807 0
0.569972 0.150051 0
0.575602 0.142280 0
0.575209 0.135250 0
0.588363 0.147886 0
0.584059 0.154517 0
0.580829 0.147708 0
0.596508 0.154791 0
0.593419 0.160375 0
0.608084 0.132877 0
0.606526 0.146068 0
0.603432 0.152628 0
0.597306 0.145592 0
0.590831 0.138927 0
0.602275 0.138878 0
0.584570 0.141883 0
0.593783 0.119718 0
0.598271 0.129191 0
0.596539 0.135578 0
0.589444 0.130156 0
0.525293 0.123136 0
0.516058 0.101239 0
0.518357 0.113165 0
0.531580 0.108954 0
0.538190 0.111965 0
0.538574 0.102360 0
0.519614 0.119688 0
0.526290 0.115094 0
0.527523 0.097644 0
0.546638 0.102744 0
0.565992 0.093684 0
0.561476 0.109240 0
0.555444 0.096353 0
0.553221 0.107901 0
0.555918 0.117391 0
0.548874 0.116832 0
0.535696 0.093800 0
0.522822 0.077041 0
0.542567 0.075197 0
0.527426 0.086829 0
0.541307 0.085302 0
0.532019 0.102414 0
0.562238 0.101028 0
0.574100 0.102461 0
0.567595 0.119384 0
0.557129 0.080831 0
0.519553 0.092307 0
0.532896 0.078279 0
0.534456 0.086880 0
0.560590 0.125222 0
0.556600 0.130614 0
0.562213 0.115713 0
0.559171 0.088905 0
0.550289 0.086856 0
0.549459 0.079019 0
0.556791 0.057675 0
0.555810 0.069269 0
0.507241 0.092639 0
0.519891 0.084397 0
0.504796 0.074119 0
0.513484 0.077582 0
0.529423 0.064929 0
0.513467 0.095075 0
0.511710 0.085669 0
0.512983 0.066208 0
0.528519 0.072291 0
0.520880 0.068921 0
0.536416 0.069524 0
0.541298 0.054477 0
0.546058 0.065240 0
0.536794 0.061331 0
0.528905 0.054517 0
0.522882 0.062068 0
0.549052 0.071811 0
0.552626 0.063161 0
0.519781 0.032800 0
0.521879 0.044693 0
0.523042 0.051286 0
0.638587 0.187680 0
0.632646 0.193147 0
0.639502 0.194636 0
0.655994 0.202576 0
0.628431 0.234265 0
0.622209 0.235824 0
0.625209 0.227848 0
0.617439 0.218260 0
0.609255 0.219665 0
0.624970 0.219831 0
0.614338 0.224739 0
0.609534 0.212325 0
0.653753 0.236068 0
0.639938 0.251379 0
0.628629 0.260234 0
0.621299 0.261508 0
0.641284 0.232477 0
0.631921 0.244345 0
0.634460 0.230512 0
0.641105 0.241964 0
0.631772 0.252600 0
0.635120 0.237783 0
0.646640 0.237323 0
0.468887 0.152760 0
0.468238 0.141141 0
0.473166 0.146694 0
0.465607 0.147116 0
0.481514 0.142180 0
0.494916 0.127924 0
0.489069 0.135855 0
0.484583 0.126426 0
0.498288 0.136531 0
0.505588 0.128707 0
0.495917 0.142831 0
0.483641 0.132656 0
0.472655 0.122540 0
0.492415 0.108789 0
0.506873 0.116747 0
0.512733 0.132612 0
0.506368 0.137731 0
0.477729 0.127213 0
0.490977 0.118708 0
0.509200 0.123047 0
0.500705 0.122133 0
0.498994 0.113949 0
0.502289 0.102973 0
0.481058 0.116999 0
0.461576 0.096598 0
0.486846 0.113046 0
0.475565 0.102741 0
0.479991 0.109223 0
0.469105 0.111905 0
0.474402 0.116047 0
0.129850 0.134728 0
0.137330 0.140914 0
0.130901 0.145131 0
0.136445 0.134370 0
0.141752 0.175508 0
0.148417 0.171884 0
0.143299 0.185802 0
0.146147 0.180111 0
0.138449 0.194978 0
0.134417 0.181874 0
0.143811 0.199922 0
0.132339 0.174812 0
0.136891 0.188285 0
0.115710 0.162373 0
0.140550 0.123343 0
0.243829 0.068552 0
0.238393 0.061259 0
0.238976 0.043977 0
0.236329 0.052539 0
0.223538 0.045146 0
0.223575 0.053257 0
0.248989 0.051763 0
0.231390 0.046322 0
0.242870 0.055595 0
0.228490 0.038882 0
0.270753 0.126254 0
0.279707 0.112201 0
0.278251 0.081605 0
0.276337 0.097029 0
0.275476 0.105181 0
0.267003 0.100164 0
0.284887 0.102053 0
0.260506 0.090584 0
0.285987 0.090395 0
0.302543 0.098372 0
0.254691 0.093527 0
0.269320 0.091600 0
0.276747 0.089249 0
0.282712 0.095967 0
0.294241 0.102737 0
0.294687 0.093508 0
0.296219 0.075509 0
0.303438 0.088149 0
0.293072 0.084306 0
0.304479 0.079173 0
0.309572 0.056549 0
0.304779 0.067355 0
0.285677 0.082868 0
0.290925 0.127954 0
0.286409 0.136978 0
0.284874 0.120393 0
0.282413 0.129336 0
0.313149 0.179100 0
0.124292 0.217867 0
0.116368 0.226731 0
0.123115 0.208101 0
0.129577 0.208482 0
0.109506 0.200835 0
0.115089 0.206757 0
0.108086 0.211601 0
0.120569 0.195999 0
0.126975 0.188429 0
0.105266 0.222977 0
0.124306 0.201531 0
0.131000 0.194703 0
0.147618 0.213500 0
0.140037 0.214359 0
0.145444 0.220572 0
0.124063 0.242617 0
0.124289 0.249703 0
0.101391 0.241155 0
0.100415 0.253607 0
0.104826 0.260229 0
0.028041 0.443236 0
0.026777 0.314449 0
0.020955 0.320140 0
0.000000 0.328125 0
0.009936 0.317805 0
0.030103 0.302047 0
0.025674 0.307506 0
0.037794 0.307337 0
0.037233 0.299918 0
0.033176 0.312272 0
0.069043 0.272618 0
0.071355 0.278715 0
0.061741 0.276523 0
0.058831 0.269531 0
0.044493 0.261071 0
0.050674 0.266976 0
0.044708 0.273698 0
0.076945 0.261275 0
0.070571 0.265258 0
0.078015 0.270078 0
0.085750 0.264672 0
0.083201 0.258169 0
0.073037 0.245553 0
0.076727 0.252983 0
0.068864 0.256721 0
0.055279 0.251058 0
0.061195 0.255993 0
0.055930 0.261480 0
0.063734 0.246936 0
0.090391 0.259807 0
0.090557 0.270179 0
0.050379 0.256595 0
0.042051 0.251752 0
0.055869 0.241535 0
0.067416 0.239720 0
0.079753 0.221706 0
0.078853 0.234322 0
0.048374 0.245851 0
0.041499 0.225243 0
0.047029 0.234849 0
0.054359 0.234345 0
0.290439 0.794661 0
0.291749 0.803689 0
0.268813 0.798089 0
0.276802 0.798521 0
0.279874 0.805244 0
0.275349 0.818449 0
0.293871 0.936925 0
0.287512 0.939442 0
0.294670 0.928734 0
0.288330 0.923899 0
0.209878 0.911187 0
0.266722 0.978509 0
0.246969 0.967779 0
0.244208 0.973705 0
0.240018 0.966850 0
0.254774 0.957640 0
0.259754 0.950991 0
0.248237 0.953820 0
0.271737 0.955555 0
0.266527 0.951222 0
0.274391 0.947064 0
0.281567 0.948768 0
0.278297 0.954544 0
0.277273 0.966322 0
0.257645 0.971673 0
0.283002 0.969326 0
0.251244 0.972641 0
0.234375 1.000000 0
0.221718 0.982099 0
0.412418 0.946615 0
0.409262 0.970631 0
0.384068 0.988382 0
0.391140 0.984098 0
0.395015 0.992183 0
0.388388 0.993603 0
0.401765 0.990832 0
0.398438 1.000000 0
0.273438 1.000000 0
0.269531 0.989426 0
0.567220 0.833497 0
0.575910 0.813638 0
0.561206 0.798316 0
0.567020 0.807453 0
0.550177 0.803208 0
0.558267 0.813583 0
0.544116 0.800431 0
0.551617 0.790941 0
0.549703 0.812836 0
0.575221 0.795816 0
0.576535 0.804689 0
0.586125 0.798735 0
0.564633 0.813358 0
0.559398 0.805884 0
0.544203 0.788172 0
0.568727 0.799948 0
0.582272 0.838298 0
0.607776 0.809516 0
0.610934 0.817125 0
0.598794 0.813423 0
0.631380 0.824750 0
0.643913 0.822250 0
0.626054 0.820126 0
0.629650 0.795965 0
0.632015 0.896282 0
0.640691 0.871595 0
0.629070 0.870095 0
0.625536 0.876529 0
0.635083 0.880112 0
0.634520 0.873637 0
0.631856 0.885808 0
0.650157 0.899150 0
0.614821 0.918309 0
0.620378 0.933817 0
0.626410 0.948704 0
0.621215 0.942143 0
0.612359 0.954493 0
0.618555 0.949586 0
0.601648 0.946240 0
0.602410 0.939197 0
0.588299 0.943520 0
0.594738 0.939344 0
0.586559 0.936454 0
0.562638 0.904594 0
0.570629 0.897607 0
0.581660 0.899082 0
0.584284 0.905477 0
0.545550 0.938176 0
0.533920 0.945422 0
0.540562 0.943126 0
0.533022 0.953122 0
0.447977 0.992284 0
0.445313 1.000000 0
0.439129 0.991241 0
0.252877 0.874145 0
0.248052 0.880971 0
0.242003 0.852388 0
0.238341 0.863920 0
0.230967 0.843194 0
0.230325 0.866580 0
0.227013 0.856704 0
0.226130 0.849112 0
0.234082 0.850676 0
0.234181 0.857951 0
0.148306 0.957177 0
0.154337 0.949339 0
0.156767 0.957448 0
0.163473 0.960613 0
0.145789 0.949002 0
0.140395 0.955137 0
0.150273 0.943828 0
0.138331 0.979502 0
0.135237 0.966970 0
0.152059 0.972245 0
0.156988 0.965666 0
0.135842 0.960194 0
0.201021 0.954740 0
0.210041 0.954699 0
0.215734 0.966452 0
0.215050 0.959528 0
0.222424 0.961217 0
0.110496 0.947146 0
0.117116 0.944445 0
0.113198 0.953157 0
0.091365 0.947494 0
0.106727 0.939867 0
0.100933 0.947483 0
0.096139 0.939075 0
0.081364 0.936259 0
0.091049 0.926548 0
0.098631 0.919142 0
0.088273 0.940178 0
0.087788 0.932982 0
0.081492 0.928575 0
0.095994 0.931836 0
0.103225 0.925011 0
0.088345 0.916197 0
0.100143 0.913004 0
0.085392 0.922497 0
0.085511 0.906080 0
0.078812 0.897809 0
0.066352 0.895228 0
0.065702 0.888426 0
0.080280 0.913000 0
0.061361 0.913483 0
0.070878 0.915469 0
0.085454 0.899278 0
0.073346 0.892828 0
0.062287 0.932842 0
0.071431 0.928644 0
0.067995 0.905487 0
0.070922 0.939593 0
0.079315 0.948274 0
0.063345 0.923090 0
0.074229 0.909094 0
0.074984 0.934295 0
0.057748 0.947546 0
0.077367 0.941760 0
0.047532 0.926307 0
0.069971 0.922106 0
0.079039 0.904474 0
0.062819 0.941059 0
0.068438 0.950677 0
0.055952 0.927221 0
0.051984 0.937813 0
0.052693 0.918004 0
0.041311 0.916686 0
0.050606 0.903431 0
0.046691 0.920029 0
0.059643 0.901564 0
0.056288 0.908131 0
0.053330 0.893806 0
0.051384 0.884750 0
0.055376 0.877800 0
0.040298 0.729771 0
0.033496 0.736862 0
0.024824 0.743248 0
0.026433 0.732237 0
0.029455 0.747868 0
0.000000 0.734375 0
0.013343 0.734869 0
0.019450 0.731372 0
0.016180 0.743037 0
0.000000 0.742188 0
0.020628 0.737993 0
0.006536 0.738281 0
0.008572 0.746310 0
0.031128 0.714795 0
0.080075 0.636052 0
0.081314 0.621102 0
0.044552 0.632161 0
0.038069 0.639838 0
0.042878 0.645308 0
0.023507 0.643592 0
0.031453 0.644296 0
0.028566 0.653007 0
0.028086 0.637106 0
0.015110 0.661915 0
0.016415 0.633725 0
0.023159 0.659456 0
0.020786 0.628180 0
0.024817 0.668910 0
0.016289 0.651369 0
0.023365 0.677483 0
0.000000 0.671875 0
0.011347 0.681709 0
0.018123 0.681777 0
0.022707 0.650088 0
0.008761 0.655866 0
0.000000 0.664063 0
0.000000 0.640625 0
0.007617 0.663424 0
0.013204 0.671807 0
0.008054 0.646134 0
0.018339 0.667666 0
0.000000 0.679688 0
0.006594 0.670160 0
0.000000 0.648438 0
0.008231 0.637233 0
0.000000 0.632813 0
0.009943 0.629926 0
0.015547 0.643442 0
0.000000 0.617188 0
0.010440 0.613808 0
0.000000 0.601563 0
0.017411 0.599056 0
0.009745 0.597217 0
0.000000 0.585938 0
0.010928 0.581685 0
0.000000 0.570313 0
0.014145 0.567749 0
0.006597 0.566406 0
0.085736 0.612805 0
0.168006 0.646329 0
0.182613 0.653015 0
0.173072 0.654561 0
0.176787 0.647273 0
0.194214 0.635207 0
0.189270 0.622328 0
0.191349 0.615450 0
0.186728 0.643013 0
0.179105 0.661577 0
0.174924 0.670568 0
0.172399 0.661242 0
0.183134 0.632072 0
0.202959 0.651088 0
0.182750 0.687428 0
0.167189 0.673018 0
0.174043 0.681223 0
0.187840 0.636587 0
0.196105 0.644514 0
0.208295 0.661619 0
0.180923 0.676428 0
0.171610 0.693849 0
0.193026 0.654584 0
0.187525 0.660987 0
0.197820 0.664267 0
0.214700 0.662448 0
0.175713 0.688092 0
0.188457 0.649571 0
0.199586 0.657364 0
0.204609 0.669079 0
0.198480 0.683971 0
0.204634 0.690702 0
0.191125 0.676885 0
0.203536 0.677345 0
0.197362 0.672109 0
0.191704 0.667844 0
0.190450 0.684946 0
0.189389 0.694840 0
0.196734 0.691747 0
0.181627 0.699813 0
0.174860 0.699785 0
0.195128 0.699818 0
0.039098 0.696721 0
0.039961 0.684032 0
0.034702 0.668493 0
0.039794 0.674676 0
0.693983 0.679141 0
0.768916 0.703517 0
0.722283 0.743007 0
0.732836 0.759608 0
0.722449 0.754556 0
0.740308 0.744996 0
0.737288 0.738887 0
0.748522 0.740976 0
0.754471 0.731219 0
0.748818 0.734464 0
0.741399 0.754770 0
0.731745 0.749834 0
0.753708 0.766824 0
0.725341 0.748739 0
0.749348 0.758964 0
0.741451 0.768483 0
0.742866 0.761621 0
0.749343 0.650167 0
0.743150 0.655193 0
0.727132 0.661371 0
0.720310 0.650834 0
0.721572 0.657494 0
0.730067 0.651994 0
0.756322 0.659104 0
0.788172 0.707373 0
0.654862 0.731436 0
0.647850 0.735239 0
0.667271 0.730532 0
0.674684 0.728806 0
0.664198 0.724503 0
0.661287 0.734015 0
0.575799 0.567225 0
0.550231 0.569855 0
0.558787 0.554704 0
0.552526 0.561160 0
0.543418 0.554872 0
0.535609 0.540294 0
0.532809 0.548738 0
0.527566 0.542313 0
0.541022 0.546775 0
0.518939 0.532400 0
0.514431 0.539093 0
0.552201 0.531937 0
0.551031 0.548216 0
0.521605 0.538791 0
0.544880 0.538051 0
0.546083 0.560752 0
0.550139 0.554877 0
0.559034 0.546528 0
0.553523 0.540214 0
0.561967 0.534622 0
0.535778 0.520706 0
0.561568 0.516974 0
0.583132 0.529243 0
0.542778 0.528094 0
0.559125 0.525858 0
0.549794 0.518514 0
0.571559 0.524499 0
0.556005 0.520222 0
0.565073 0.522716 0
0.532865 0.530476 0
0.549320 0.525526 0
0.542985 0.520887 0
0.539618 0.511389 0
0.572378 0.534881 0
0.538970 0.534062 0
0.524698 0.522722 0
0.567289 0.530059 0
0.576331 0.529346 0
0.581369 0.547000 0
0.530749 0.524526 0
0.524950 0.507567 0
0.574646 0.542594 0
0.582374 0.538134 0
0.572196 0.553664 0
0.603261 0.535437 0
0.575003 0.560177 0
0.580245 0.554583 0
0.595396 0.552954 0
0.591134 0.560221 0
0.587609 0.551800 0
0.592525 0.534522 0
0.603854 0.558993 0
0.592755 0.543926 0
0.597752 0.562282 0
0.532958 0.506893 0
0.529588 0.514776 0
0.595757 0.517774 0
0.605921 0.547155 0
0.597541 0.539104 0
0.598573 0.527003 0
0.602049 0.552579 0
0.611707 0.554264 0
0.620748 0.555714 0
0.615888 0.544953 0
0.590665 0.526834 0
0.583599 0.517719 0
0.606898 0.519419 0
0.619738 0.562155 0
0.609601 0.540159 0
0.612841 0.529190 0
0.589666 0.520312 0
0.605630 0.528600 0
0.604484 0.289768 0
0.636914 0.296710 0
0.615432 0.308673 0
0.608502 0.309455 0
0.635205 0.331228 0
0.590478 0.406040 0
0.580522 0.420389 0
0.588248 0.423911 0
0.587042 0.416320 0
0.594462 0.419584 0
0.578009 0.380811 0
0.630062 0.432772 0
0.569643 0.434673 0
0.591572 0.462336 0
0.589377 0.455558 0
0.566876 0.468219 0
0.655758 0.464676 0
0.664102 0.457711 0
0.674834 0.456180 0
0.670807 0.475494 0
0.668844 0.452569 0
0.687251 0.468512 0
0.661835 0.472099 0
0.670672 0.465389 0
0.683050 0.460324 0
0.678828 0.467661 0
0.682144 0.476943 0
0.663038 0.464916 0
0.676808 0.473617 0
0.634578 0.478911 0
0.632385 0.467428 0
0.615195 0.467368 0
0.471106 0.457526 0
0.477650 0.459618 0
0.485549 0.458068 0
0.472691 0.463800 0
0.485037 0.464704 0
0.473801 0.447590 0
0.494589 0.440691 0
0.491472 0.450110 0
0.484923 0.442717 0
0.508905 0.450654 0
0.503775 0.458365 0
0.500188 0.450416 0
0.513752 0.459440 0
0.484889 0.449345 0
0.481787 0.435603 0
0.511637 0.466191 0
0.511572 0.478004 0
0.525216 0.447387 0
0.517578 0.451600 0
0.514317 0.441271 0
0.526942 0.459546 0
0.520361 0.457811 0
0.504779 0.429899 0
0.522453 0.439541 0
0.537359 0.429442 0
0.528707 0.432722 0
0.537375 0.442533 0
0.529852 0.441344 0
0.534894 0.435990 0
0.511776 0.433716 0
0.504471 0.440378 0
0.499354 0.434983 0
0.496671 0.426684 0
0.488667 0.430205 0
0.506352 0.414102 0
0.503309 0.421776 0
0.526185 0.413020 0
0.497485 0.415027 0
0.514490 0.421770 0
0.529806 0.422569 0
0.488782 0.437055 0
0.522263 0.419968 0
0.544082 0.411695 0
0.539091 0.419951 0
0.535100 0.411901 0
0.528233 0.393248 0
0.529502 0.403371 0
0.548219 0.419833 0
0.561739 0.407840 0
0.546393 0.428710 0
0.553414 0.412072 0
0.555406 0.441875 0
0.552849 0.433957 0
0.561347 0.431942 0
0.546326 0.440436 0
0.566699 0.419975 0
0.548938 0.453321 0
0.542319 0.434550 0
0.561909 0.425013 0
0.559132 0.417577 0
0.550036 0.446391 0
0.515748 0.404037 0
0.517418 0.412651 0
0.543076 0.396527 0
0.539421 0.404387 0
0.522404 0.399120 0
0.522712 0.406500 0
0.511291 0.391040 0
0.500965 0.387627 0
0.519932 0.390838 0
0.515572 0.396835 0
0.515476 0.385174 0
0.507396 0.381523 0
0.500595 0.376960 0
0.508706 0.373458 0
0.516597 0.362527 0
0.515744 0.370225 0
0.534103 0.368363 0
0.524724 0.367324 0
0.509455 0.362817 0
0.539525 0.353341 0
0.545934 0.348111 0
0.529286 0.346932 0
0.548271 0.357518 0
0.538336 0.345341 0
0.527405 0.340701 0
0.535070 0.397531 0
0.553070 0.401090 0
0.546755 0.404849 0
0.519437 0.352069 0
0.528115 0.379559 0
0.537712 0.386177 0
0.525713 0.386424 0
0.530443 0.358553 0
0.543047 0.365371 0
0.552487 0.389141 0
0.563942 0.396068 0
0.570014 0.390766 0
0.561510 0.387155 0
0.513863 0.356170 0
0.520637 0.344794 0
0.528868 0.372763 0
0.536946 0.377060 0
0.521769 0.374275 0
0.546465 0.380851 0
0.522976 0.358645 0
0.532967 0.352433 0
0.537565 0.360446 0
0.549690 0.395266 0
0.559802 0.401386 0
0.544978 0.388263 0
0.543963 0.373286 0
0.552784 0.382592 0
0.551638 0.373930 0
0.483026 0.421273 0
0.486710 0.414132 0
0.557316 0.157543 0
0.523362 0.106016 0
0.532976 0.116330 0
0.578815 0.089971 0
0.581309 0.114092 0
0.578893 0.124854 0
0.575072 0.118344 0
0.574240 0.110423 0
0.580713 0.106595 0
0.568162 0.106547 0
0.585810 0.120754 0
0.566060 0.064298 0
0.494516 0.055288 0
0.535064 0.042715 0
0.650492 0.197868 0
0.675829 0.188934 0
0.650584 0.215314 0
0.641563 0.221020 0
0.643641 0.214322 0
0.650950 0.225877 0
0.658853 0.220315 0
0.644510 0.226824 0
0.681749 0.229230 0
0.671195 0.222477 0
0.665476 0.218817 0
0.619763 0.211131 0
0.622755 0.252609 0
0.625944 0.246931 0
0.458349 0.138236 0
0.464698 0.134910 0
0.432512 0.145619 0
0.441200 0.127126 0
0.446152 0.144452 0
0.451223 0.130446 0
0.453513 0.143822 0
0.443914 0.135721 0
0.450698 0.137420 0
0.439040 0.141622 0
0.451500 0.112820 0
0.454913 0.121689 0
0.447842 0.123865 0
0.460413 0.114481 0
0.457511 0.105313 0
0.466397 0.118719 0
0.439982 0.097437 0
0.465958 0.103947 0
0.447729 0.103640 0
0.437152 0.113350 0
0.441591 0.119528 0
0.450589 0.092129 0
0.439793 0.105612 0
0.444266 0.111458 0
0.425909 0.105192 0
0.432973 0.101365 0
0.432193 0.108358 0
0.421826 0.123613 0
0.428492 0.116993 0
0.429553 0.133458 0
0.434133 0.122954 0
0.426423 0.097708 0
0.436954 0.133193 0
0.454381 0.098548 0
0.446508 0.097226 0
0.510594 0.108477 0
0.503967 0.109459 0
0.493405 0.099181 0
0.484562 0.101349 0
0.500175 0.095597 0
0.111151 0.130889 0
0.123540 0.168230 0
0.125898 0.156915 0
0.122078 0.162022 0
0.250358 0.039671 0
0.272168 0.054258 0
0.254796 0.082366 0
0.247810 0.083490 0
0.255539 0.072792 0
0.263529 0.063234 0
0.266408 0.078451 0
0.271098 0.084310 0
0.257538 0.066344 0
0.263792 0.071065 0
0.261699 0.083662 0
0.294600 0.056374 0
0.322388 0.068700 0
0.279236 0.137360 0
0.112784 0.236963 0
0.117930 0.233022 0
0.109463 0.245515 0
0.103146 0.247557 0
0.094186 0.246572 0
0.083920 0.243700 0
0.109100 0.229929 0
0.082634 0.250132 0
0.077848 0.240923 0
0.091372 0.233615 0
0.094649 0.239687 0
0.099958 0.230437 0
0.091846 0.221709 0
0.098425 0.223728 0
0.085278 0.236908 0
0.108199 0.182775 0
0.113704 0.173218 0
0.118018 0.184173 0
0.120254 0.173943 0
0.092077 0.167125 0
0.111954 0.191580 0
0.113666 0.179559 0
0.104112 0.165835 0
0.110797 0.167072 0
0.105019 0.174579 0
0.098560 0.170830 0
0.086505 0.184401 0
0.091106 0.176349 0
0.098854 0.181686 0
0.078500 0.174486 0
0.085443 0.171090 0
0.069733 0.147767 0
0.075970 0.160519 0
0.079211 0.167144 0
0.066247 0.169380 0
0.084439 0.177880 0
0.077452 0.183681 0
0.080503 0.202579 0
0.081285 0.192757 0
0.100264 0.193439 0
0.067523 0.196604 0
0.071961 0.189738 0
0.102953 0.187155 0
0.106520 0.195094 0
0.090583 0.198439 0
0.075110 0.197208 0
0.088474 0.191440 0
0.099090 0.203039 0
0.089171 0.209342 0
0.105101 0.205731 0
0.086766 0.203488 0
0.093145 0.214955 0
0.085391 0.216231 0
0.075776 0.211972 0
0.070688 0.204804 0
0.060292 0.217575 0
0.057628 0.226067 0
0.067258 0.212629 0
0.049904 0.218980 0
0.068898 0.224939 0
0.056200 0.204432 0
0.071978 0.218265 0
0.063489 0.202872 0
0.060391 0.210336 0
0.082212 0.209324 0
0.049556 0.227112 0
0.039955 0.214400 0
0.043682 0.219401 0
0.000000 0.218750 0
0.045938 0.205929 0
0.020642 0.222681 0
0.044306 0.183037 0
0.051951 0.211230 0
0.028117 0.213454 0
0.042467 0.194672 0
0.034282 0.210851 0
0.033483 0.220853 0
0.030940 0.235009 0
0.026817 0.220042 0
0.026629 0.228145 0
0.034583 0.228357 0
0.038986 0.235093 0
0.014517 0.240537 0
0.040240 0.243474 0
0.022063 0.235798 0
0.027153 0.242736 0
0.000000 0.234375 0
0.033803 0.241204 0
0.013236 0.230119 0
0.041443 0.201151 0
0.050092 0.198484 0
0.058562 0.195269 0
0.051407 0.189185 0
0.063837 0.189054 0
0.019944 0.229392 0
0.007847 0.236069 0
0.000000 0.242188 0
0.007796 0.246094 0
0.019325 0.255079 0
0.015311 0.248340 0
0.025140 0.250113 0
0.028795 0.268780 0
0.027922 0.259259 0
0.000000 0.281250 0
0.036063 0.273468 0
0.000000 0.265625 0
0.036550 0.264735 0
0.008453 0.257139 0
0.042605 0.267418 0
0.010466 0.219954 0
0.055759 0.176983 0
0.061053 0.182179 0
0.035544 0.256786 0
0.000000 0.226563 0
0.000000 0.203125 0
0.017844 0.212773 0
0.051210 0.182237 0
0.007162 0.226314 0
0.000000 0.210938 0
0.009418 0.207031 0
0.011257 0.213386 0
0.008759 0.195313 0
0.006263 0.201331 0
0.112145 0.220929 0
0.023722 0.436088 0
0.036212 0.434154 0
0.008143 0.326022 0
0.011026 0.338080 0
0.000000 0.335938 0
0.022144 0.341211 0
0.000000 0.320313 0
0.000000 0.296875 0
0.016363 0.314643 0
0.084260 0.273343 0
0.282866 0.816913 0
0.276194 0.980287 0
0.275714 0.986935 0
0.277344 0.993950 0
0.272661 0.972989 0
0.257666 0.981090 0
0.263706 0.985105 0
0.255332 0.991153 0
0.257813 1.000000 0
0.242902 0.989693 0
0.248786 0.993238 0
0.242188 1.000000 0
0.253990 0.965110 0
0.263966 0.962380 0
0.270055 0.966258 0
0.228177 0.974971 0
0.234399 0.983473 0
0.219795 0.973866 0
0.201439 0.982495 0
0.209082 0.974915 0
0.241893 0.982150 0
0.234880 0.991737 0
0.226563 1.000000 0
0.227491 0.988021 0
0.218718 0.990798 0
0.224499 0.993815 0
0.203125 1.000000 0
0.212416 0.983757 0
0.210938 1.000000 0
0.207031 0.991456 0
0.198915 0.972307 0
0.207910 0.967148 0
0.213030 0.993879 0
0.182560 0.981764 0
0.191194 0.964645 0
0.192105 0.979400 0
0.187501 0.958259 0
0.195727 0.960076 0
0.197165 0.966350 0
0.179504 0.968475 0
0.193589 0.990547 0
0.191528 0.972030 0
0.173722 0.965105 0
0.200422 0.989356 0
0.188561 0.985544 0
0.381349 0.981484 0
0.554229 0.797466 0
0.563353 0.785603 0
0.568208 0.791963 0
0.574577 0.788677 0
0.594596 0.797244 0
0.588451 0.787142 0
0.581924 0.791613 0
0.602274 0.804393 0
0.653333 0.827454 0
0.654099 0.836007 0
0.663701 0.852179 0
0.650393 0.847474 0
0.660796 0.842967 0
0.646748 0.841672 0
0.646703 0.828327 0
0.658433 0.807095 0
0.657291 0.849137 0
0.654097 0.864140 0
0.652021 0.855857 0
0.659255 0.858446 0
0.669095 0.860717 0
0.644247 0.862207 0
0.645439 0.852786 0
0.635432 0.859897 0
0.630152 0.863687 0
0.654386 0.842432 0
0.665055 0.819572 0
0.653183 0.816598 0
0.669958 0.877038 0
0.660818 0.825928 0
0.650160 0.822069 0
0.642314 0.809199 0
0.660089 0.814212 0
0.669271 0.808324 0
0.672178 0.868737 0
0.662107 0.870492 0
0.646072 0.815362 0
0.650418 0.808485 0
0.645051 0.793903 0
0.645757 0.801922 0
0.636564 0.802025 0
0.634302 0.809730 0
0.637260 0.794257 0
0.631238 0.785235 0
0.659031 0.882162 0
0.663184 0.863876 0
0.616129 0.788481 0
0.638118 0.779637 0
0.640839 0.787132 0
0.663297 0.877046 0
0.646814 0.883978 0
0.652618 0.874231 0
0.624292 0.789689 0
0.621621 0.779559 0
0.640039 0.884807 0
0.652588 0.880815 0
0.647558 0.868829 0
0.612361 0.780010 0
0.606411 0.787731 0
0.608917 0.773979 0
0.627907 0.779893 0
0.606379 0.767742 0
0.641441 0.897772 0
0.646832 0.891929 0
0.655944 0.892109 0
0.553191 0.930307 0
0.547050 0.931988 0
0.550049 0.920970 0
0.552982 0.912668 0
0.559910 0.911142 0
0.562099 0.937147 0
0.553019 0.937784 0
0.556455 0.924011 0
0.559559 0.931235 0
0.569032 0.932227 0
0.573764 0.946237 0
0.579399 0.940348 0
0.569295 0.939942 0
0.563842 0.948546 0
0.560305 0.943254 0
0.570177 0.953294 0
0.583284 0.955908 0
0.576325 0.956634 0
0.581574 0.948070 0
0.248696 0.860862 0
0.242484 0.858888 0
0.253621 0.850092 0
0.244776 0.866651 0
0.248400 0.854215 0
0.257915 0.858566 0
0.266193 0.864330 0
0.263175 0.870465 0
0.269977 0.850070 0
0.276384 0.866610 0
0.265491 0.856512 0
0.261798 0.849158 0
0.274340 0.857891 0
0.282544 0.848186 0
0.285167 0.859952 0
0.276615 0.851494 0
0.289970 0.845430 0
0.285860 0.867813 0
0.115642 0.978456 0
0.118247 0.965437 0
0.126750 0.961828 0
0.120440 0.958783 0
0.142991 0.971704 0
0.147925 0.965273 0
0.086118 0.959908 0
0.096160 0.956836 0
0.089854 0.954171 0
0.102104 0.953975 0
0.096553 0.976070 0
0.093628 0.966509 0
0.101893 0.963505 0
0.109997 0.965088 0
0.113865 0.971331 0
0.106125 0.977045 0
0.104827 0.970019 0
0.085585 0.974197 0
0.109375 1.000000 0
0.100110 0.988616 0
0.086474 0.967076 0
0.100821 0.981637 0
0.109628 0.986215 0
0.121094 0.988892 0
0.106290 0.993048 0
0.117188 1.000000 0
0.101563 1.000000 0
0.115975 0.984924 0
0.058700 0.964108 0
0.048221 0.946615 0
0.027789 0.943303 0
0.039205 0.937555 0
0.045542 0.940264 0
0.038157 0.947614 0
0.034355 0.942134 0
0.029352 0.933064 0
0.036911 0.929533 0
0.014797 0.936080 0
0.022635 0.937277 0
0.000000 0.906250 0
0.020210 0.925575 0
0.026607 0.927091 0
0.024572 0.901674 0
0.047704 0.911282 0
0.036805 0.904872 0
0.043835 0.905390 0
0.040859 0.897815 0
0.030170 0.889001 0
0.036868 0.891766 0
0.030841 0.896871 0
0.036346 0.868937 0
0.046956 0.864811 0
0.038191 0.880315 0
0.042059 0.854813 0
0.046533 0.877342 0
0.044056 0.883581 0
0.040668 0.874075 0
0.047599 0.897382 0
0.029177 0.722044 0
0.019599 0.702572 0
0.037993 0.720302 0
0.039004 0.712009 0
0.044841 0.717969 0
0.035324 0.632189 0
0.006328 0.677022 0
0.189847 0.629495 0
0.200074 0.626201 0
0.196894 0.619865 0
0.212496 0.623774 0
0.219964 0.622700 0
0.205716 0.622075 0
0.209039 0.637889 0
0.207196 0.630020 0
0.217561 0.632495 0
0.224290 0.637128 0
0.201830 0.635427 0
0.216837 0.640969 0
0.216347 0.649912 0
0.203718 0.643437 0
0.209422 0.647866 0
0.180727 0.638924 0
0.170114 0.625670 0
0.167675 0.617902 0
0.159500 0.690301 0
0.152223 0.693096 0
0.046103 0.686933 0
0.031558 0.684628 0
0.764208 0.710479 0
0.762255 0.721364 0
0.756605 0.713875 0
0.773239 0.693814 0
0.767867 0.697235 0
0.767990 0.690217 0
0.779755 0.689905 0
0.784732 0.698268 0
0.791997 0.695200 0
0.778465 0.705838 0
0.774754 0.700304 0
0.772709 0.708717 0
0.722371 0.767921 0
0.711062 0.757930 0
0.748910 0.777486 0
0.712091 0.631183 0
0.726961 0.636508 0
0.725980 0.644759 0
0.715974 0.641103 0
0.733849 0.641511 0
0.719464 0.634017 0
0.721629 0.617373 0
0.718532 0.625433 0
0.707453 0.619507 0
0.730204 0.625294 0
0.711908 0.624497 0
0.740247 0.631555 0
0.724413 0.629137 0
0.733745 0.634410 0
0.713722 0.647938 0
0.703452 0.640285 0
0.758622 0.634103 0
0.709905 0.637759 0
0.756222 0.643429 0
0.764558 0.644966 0
0.772518 0.637651 0
0.749300 0.636676 0
0.790088 0.641190 0
0.765130 0.637600 0
0.766804 0.626680 0
0.788489 0.651922 0
0.780223 0.650947 0
0.781863 0.636642 0
0.778206 0.643469 0
0.771775 0.631064 0
0.751489 0.618021 0
0.775030 0.607497 0
0.797150 0.647727 0
0.785570 0.657626 0
0.757715 0.624883 0
0.748508 0.626981 0
0.763525 0.613355 0
0.758404 0.618002 0
0.773549 0.618217 0
0.803201 0.634108 0
0.820566 0.650724 0
0.739998 0.619175 0
0.772688 0.624450 0
0.766664 0.619649 0
0.770230 0.612297 0
0.793784 0.615550 0
0.797853 0.639886 0
0.791719 0.628528 0
0.812462 0.663214 0
0.808546 0.651663 0
0.806637 0.642653 0
0.812341 0.635397 0
0.814132 0.645772 0
0.827072 0.637361 0
0.821467 0.642897 0
0.820027 0.633973 0
0.742194 0.625323 0
0.784034 0.619674 0
0.788397 0.634536 0
0.805845 0.667446 0
0.805466 0.659564 0
0.801992 0.652175 0
0.779537 0.613582 0
0.787512 0.602963 0
0.790640 0.621703 0
0.801432 0.623338 0
0.784771 0.626796 0
0.798409 0.629365 0
0.808577 0.608672 0
0.808249 0.627748 0
0.809572 0.618230 0
0.794691 0.634443 0
0.801972 0.615158 0
0.797428 0.605936 0
0.825870 0.611703 0
0.791095 0.609033 0
0.793710 0.600314 0
0.804404 0.601593 0
0.814380 0.586048 0
0.817190 0.598825 0
0.807618 0.592683 0
0.811255 0.602324 0
0.818279 0.607456 0
0.825512 0.602159 0
0.818280 0.616362 0
0.796763 0.575441 0
0.785669 0.586703 0
0.791174 0.592631 0
0.794351 0.584160 0
0.804629 0.582310 0
0.814327 0.592757 0
0.823026 0.589470 0
0.806918 0.571751 0
0.801326 0.588879 0
0.824386 0.573400 0
0.811748 0.578326 0
0.819656 0.579941 0
0.833739 0.582285 0
0.826855 0.580166 0
0.829771 0.587947 0
0.737580 0.649621 0
0.650611 0.742642 0
0.561435 0.561684 0
0.553855 0.503786 0
0.545789 0.505814 0
0.551388 0.511030 0
0.570715 0.515225 0
0.564309 0.506522 0
0.577440 0.515011 0
0.558478 0.510578 0
0.563571 0.487998 0
0.561118 0.497372 0
0.548315 0.490193 0
0.548158 0.498183 0
0.554421 0.494309 0
0.573944 0.495720 0
0.567990 0.500107 0
0.525684 0.529861 0
0.510185 0.520639 0
0.565239 0.550929 0
0.623075 0.548185 0
0.589729 0.506324 0
0.602281 0.512137 0
0.595331 0.510687 0
0.616523 0.536240 0
0.623572 0.293854 0
0.622858 0.283836 0
0.618555 0.289177 0
0.638662 0.275194 0
0.631752 0.288236 0
0.629505 0.277221 0
0.644184 0.286471 0
0.627564 0.268805 0
0.636797 0.265600 0
0.636774 0.258138 0
0.651337 0.260836 0
0.644406 0.257591 0
0.651089 0.248071 0
0.635315 0.281772 0
0.638347 0.290027 0
0.645899 0.268809 0
0.644764 0.247197 0
0.660971 0.273247 0
0.647462 0.277875 0
0.653078 0.272239 0
0.658084 0.286849 0
0.651200 0.284224 0
0.656944 0.279500 0
0.629456 0.335291 0
0.628177 0.318360 0
0.622205 0.323988 0
0.629652 0.325907 0
0.636877 0.320577 0
0.635286 0.308641 0
0.633684 0.314929 0
0.647160 0.337682 0
0.640747 0.344107 0
0.639894 0.336842 0
0.575417 0.441780 0
0.565430 0.445697 0
0.557965 0.451200 0
0.579915 0.432227 0
0.563712 0.438724 0
0.554745 0.457763 0
0.564640 0.458547 0
0.573085 0.426340 0
0.561444 0.464380 0
0.567894 0.452298 0
0.570918 0.462190 0
0.600345 0.460884 0
0.603833 0.473143 0
0.597089 0.468436 0
0.604689 0.466274 0
0.610559 0.472313 0
0.591261 0.483970 0
0.587107 0.471918 0
0.596162 0.476948 0
0.606842 0.489624 0
0.608199 0.480861 0
0.601148 0.500189 0
0.599807 0.484714 0
0.599583 0.492529 0
0.580658 0.469374 0
0.584164 0.479674 0
0.582737 0.490043 0
0.573535 0.485441 0
0.590969 0.492579 0
0.584507 0.498925 0
0.583054 0.505493 0
0.569586 0.490746 0
0.566393 0.478304 0
0.579827 0.484360 0
0.554655 0.480144 0
0.559504 0.472889 0
0.570813 0.473461 0
0.560956 0.481979 0
0.642646 0.473489 0
0.636223 0.472646 0
0.625869 0.474623 0
0.621935 0.468931 0
0.623269 0.490893 0
0.615349 0.486455 0
0.622783 0.482473 0
0.630362 0.486260 0
0.647978 0.491483 0
0.639789 0.486784 0
0.659032 0.484740 0
0.647383 0.481461 0
0.654025 0.480195 0
0.635316 0.504068 0
0.631382 0.495569 0
0.664251 0.479266 0
0.673561 0.487865 0
0.640186 0.495579 0
0.648326 0.501605 0
0.622466 0.504856 0
0.679320 0.483557 0
0.658433 0.496190 0
0.643453 0.511458 0
0.628737 0.501953 0
0.655411 0.502689 0
0.676116 0.509516 0
0.665194 0.507828 0
0.652047 0.496410 0
0.642173 0.504693 0
0.651601 0.528112 0
0.648930 0.538271 0
0.629745 0.518377 0
0.628745 0.510195 0
0.635872 0.513477 0
0.618940 0.515545 0
0.642292 0.522346 0
0.649978 0.517660 0
0.643170 0.531326 0
0.641233 0.538794 0
0.632630 0.532576 0
0.623182 0.528276 0
0.662923 0.521002 0
0.657185 0.516486 0
0.634172 0.539502 0
0.617512 0.523092 0
0.630054 0.525707 0
0.638668 0.463108 0
0.502408 0.476795 0
0.517512 0.493124 0
0.528477 0.496372 0
0.534229 0.452310 0
0.527886 0.453210 0
0.541821 0.449358 0
0.540226 0.465636 0
0.547338 0.461428 0
0.540274 0.457602 0
0.534046 0.461583 0
0.530194 0.474194 0
0.572837 0.407295 0
0.579583 0.097396 0
0.572018 0.124651 0
0.559458 0.063739 0
0.570771 0.047908 0
0.567909 0.075975 0
0.567100 0.084846 0
0.575693 0.081156 0
0.571854 0.089931 0
0.574499 0.074512 0
0.595876 0.078968 0
0.585344 0.075993 0
0.588243 0.085860 0
0.586311 0.093428 0
0.604041 0.098076 0
0.594669 0.097685 0
0.596361 0.057121 0
0.582458 0.082200 0
0.597529 0.088472 0
0.598896 0.108890 0
0.593293 0.067982 0
0.605538 0.082184 0
0.599167 0.102388 0
0.607579 0.119317 0
0.591539 0.074191 0
0.613518 0.065051 0
0.609319 0.090556 0
0.631888 0.105324 0
0.621880 0.095990 0
0.616568 0.091035 0
0.604993 0.126203 0
0.611924 0.074733 0
0.603679 0.068403 0
0.604980 0.075244 0
0.598307 0.072600 0
0.598671 0.063637 0
0.502247 0.063289 0
0.504930 0.041551 0
0.535088 0.050236 0
0.527550 0.037561 0
0.531338 0.022661 0
0.535259 0.034377 0
0.527133 0.029523 0
0.537666 0.027058 0
0.546875 0.000000 0
0.552249 0.016925 0
0.546084 0.023612 0
0.539743 0.011580 0
0.538382 0.019275 0
0.561048 0.031223 0
0.545048 0.016471 0
0.549159 0.008590 0
0.554637 0.025312 0
0.554688 0.000000 0
0.559241 0.009593 0
0.552338 0.034238 0
0.565502 0.019961 0
0.560208 0.042888 0
0.545780 0.042713 0
0.558599 0.019651 0
0.553010 0.041532 0
0.555231 0.049526 0
0.563363 0.052193 0
0.549290 0.054887 0
0.570998 0.056845 0
0.583733 0.052050 0
0.576532 0.052233 0
0.579378 0.042442 0
0.580335 0.060138 0
0.588372 0.058757 0
0.585024 0.067017 0
0.595738 0.034716 0
0.589871 0.043477 0
0.585276 0.036357 0
0.601176 0.044702 0
0.591450 0.051091 0
0.595844 0.041132 0
0.664072 0.193080 0
0.648788 0.207033 0
0.656526 0.210320 0
0.682599 0.206961 0
0.668959 0.237594 0
0.434905 0.164702 0
0.436137 0.076500 0
0.432438 0.087635 0
0.460904 0.082509 0
0.477560 0.085867 0
0.478909 0.094582 0
0.470267 0.095805 0
0.486157 0.088999 0
0.465298 0.089360 0
0.487498 0.071948 0
0.487813 0.095490 0
0.457691 0.089404 0
0.491378 0.080831 0
0.482963 0.079218 0
0.471127 0.075120 0
0.476299 0.079323 0
0.468609 0.082402 0
0.496091 0.073485 0
0.500425 0.082148 0
0.507105 0.080581 0
0.501875 0.088666 0
0.419314 0.142390 0
0.428157 0.126599 0
0.121870 0.126139 0
0.119818 0.136132 0
0.125405 0.139512 0
0.111252 0.144576 0
0.117495 0.142342 0
0.117258 0.153025 0
0.107557 0.156220 0
0.097177 0.157926 0
0.111204 0.150969 0
0.097863 0.164319 0
0.086421 0.157976 0
0.101612 0.152477 0
0.079198 0.151038 0
0.091766 0.150754 0
0.072823 0.154157 0
0.083064 0.124521 0
0.088370 0.137320 0
0.092370 0.143455 0
0.084165 0.144434 0
0.245982 0.045299 0
0.240604 0.031087 0
0.234073 0.034247 0
0.261223 0.047024 0
0.256748 0.056878 0
0.264250 0.054342 0
0.302048 0.059678 0
0.294789 0.065994 0
0.283876 0.070998 0
0.273836 0.071663 0
0.290698 0.071474 0
0.286058 0.061354 0
0.279117 0.075269 0
0.272856 0.078049 0
0.285452 0.050501 0
0.292816 0.049092 0
0.305307 0.043578 0
0.301087 0.050925 0
0.298291 0.044434 0
0.279906 0.056254 0
0.278256 0.064504 0
0.270808 0.064850 0
0.275771 0.036870 0
0.282955 0.042021 0
0.277627 0.048198 0
0.269513 0.046378 0
0.264775 0.039091 0
0.257618 0.040648 0
0.313822 0.064901 0
0.312225 0.074050 0
0.084799 0.228406 0
0.070996 0.175239 0
0.095105 0.188097 0
0.075645 0.227753 0
0.069710 0.232485 0
0.022461 0.285510 0
0.027972 0.278032 0
0.031750 0.286586 0
0.013429 0.273084 0
0.019916 0.277865 0
0.010902 0.285112 0
0.020811 0.269858 0
0.013933 0.264178 0
0.007317 0.268271 0
0.000000 0.273438 0
0.021173 0.262416 0
0.006822 0.277344 0
0.031266 0.294353 0
0.000000 0.257813 0
0.045128 0.170730 0
0.000000 0.195313 0
0.019080 0.174924 0
0.032640 0.428173 0
0.054891 0.427352 0
0.036066 0.442238 0
0.000000 0.359375 0
0.006325 0.332830 0
0.018004 0.334606 0
0.023750 0.330690 0
0.028162 0.350803 0
0.008785 0.308004 0
0.000000 0.304688 0
0.013553 0.296901 0
0.022604 0.296979 0
0.018127 0.291299 0
0.013652 0.303519 0
0.262753 0.992930 0
0.264931 0.971443 0
0.172236 0.977143 0
0.195313 1.000000 0
0.184299 0.974368 0
0.558903 0.791389 0
0.553483 0.779472 0
0.562327 0.773897 0
0.555807 0.773357 0
0.570260 0.775503 0
0.559995 0.779999 0
0.583438 0.781101 0
0.596511 0.781431 0
0.604038 0.780531 0
0.596108 0.789405 0
0.666852 0.884627 0
0.696364 0.892275 0
0.680698 0.891962 0
0.672781 0.890171 0
0.645801 0.876774 0
0.560715 0.918257 0
0.245322 0.838643 0
0.239557 0.844524 0
0.247062 0.846114 0
0.252229 0.840972 0
0.274173 0.835208 0
0.275915 0.843273 0
0.267570 0.841974 0
0.282459 0.837639 0
0.280720 0.828228 0
0.286786 0.831934 0
0.272029 0.826637 0
0.265366 0.832857 0
0.256990 0.815771 0
0.252751 0.828021 0
0.265841 0.819360 0
0.258193 0.832696 0
0.260125 0.824943 0
0.264448 0.810089 0
0.271319 0.812416 0
0.255412 0.805966 0
0.242149 0.813130 0
0.248624 0.795707 0
0.247161 0.787957 0
0.254891 0.791302 0
0.250030 0.811862 0
0.249931 0.820187 0
0.244752 0.804183 0
0.254281 0.799339 0
0.236902 0.826736 0
0.244904 0.826421 0
0.236612 0.835872 0
0.240658 0.820370 0
0.229472 0.818060 0
0.226390 0.808992 0
0.242441 0.832623 0
0.226483 0.833900 0
0.237736 0.806994 0
0.240658 0.797190 0
0.222061 0.817384 0
0.223629 0.841005 0
0.232749 0.811889 0
0.287507 0.853255 0
0.127142 0.975617 0
0.124686 0.968787 0
0.075791 0.958141 0
0.081697 0.954688 0
0.080211 0.963375 0
0.068078 0.963510 0
0.062951 0.956945 0
0.053739 0.956320 0
0.078125 1.000000 0
0.086066 0.988238 0
0.092756 0.983401 0
0.140625 1.000000 0
0.114178 0.992700 0
0.000000 0.921875 0
0.023633 0.913851 0
0.025402 0.876551 0
0.047892 0.858154 0
0.039801 0.862117 0
0.020292 0.852084 0
0.030934 0.855374 0
0.050232 0.871194 0
0.024591 0.695082 0
0.030713 0.700907 0
0.013332 0.692987 0
0.032809 0.707794 0
0.024497 0.709501 0
0.023100 0.717166 0
0.011677 0.719814 0
0.015102 0.710946 0
0.000000 0.703125 0
0.000000 0.710938 0
0.007553 0.707031 0
0.006579 0.714403 0
0.007108 0.698637 0
0.000000 0.695313 0
0.006198 0.691381 0
0.012742 0.702547 0
0.212088 0.614258 0
0.217545 0.610727 0
0.175122 0.631924 0
0.179516 0.622990 0
0.164505 0.695660 0
0.155944 0.683525 0
0.167202 0.686452 0
0.778880 0.735365 0
0.756360 0.724710 0
0.725612 0.761257 0
0.717875 0.761614 0
0.731883 0.769152 0
0.723908 0.793400 0
0.725576 0.780513 0
0.726474 0.773581 0
0.715817 0.753075 0
0.684976 0.759618 0
0.747986 0.770660 0
0.757118 0.774769 0
0.776550 0.761723 0
0.771843 0.775706 0
0.763356 0.756334 0
0.764337 0.777494 0
0.765762 0.766825 0
0.756789 0.759976 0
0.761252 0.743523 0
0.754407 0.744645 0
0.769361 0.760478 0
0.775169 0.748319 0
0.773078 0.768338 0
0.784638 0.770187 0
0.745762 0.795133 0
0.700720 0.628940 0
0.691615 0.628699 0
0.695976 0.636084 0
0.689504 0.642689 0
0.713278 0.610051 0
0.709707 0.602210 0
0.716296 0.593432 0
0.718614 0.602887 0
0.724036 0.609316 0
0.734911 0.609559 0
0.710307 0.589607 0
0.731413 0.584557 0
0.731992 0.617257 0
0.744922 0.610416 0
0.722392 0.586503 0
0.723425 0.573011 0
0.728487 0.592876 0
0.725703 0.579971 0
0.716086 0.575306 0
0.744893 0.593973 0
0.722549 0.596619 0
0.736368 0.598241 0
0.754748 0.608570 0
0.737601 0.590055 0
0.750617 0.569173 0
0.746956 0.581389 0
0.739030 0.582215 0
0.743679 0.602197 0
0.764095 0.601866 0
0.761039 0.607473 0
0.700042 0.648242 0
0.693146 0.648553 0
0.814927 0.655939 0
0.827363 0.663728 0
0.819973 0.661704 0
0.836125 0.570408 0
0.852250 0.593508 0
0.517008 0.524699 0
0.511856 0.530083 0
0.518241 0.514863 0
0.507894 0.508937 0
0.511713 0.514265 0
0.516266 0.506315 0
0.521559 0.500345 0
0.618093 0.300489 0
0.627560 0.302728 0
0.630029 0.296286 0
0.633951 0.302382 0
0.650597 0.298725 0
0.642972 0.303730 0
0.649638 0.291422 0
0.651528 0.308455 0
0.644411 0.314767 0
0.657544 0.320137 0
0.650292 0.319128 0
0.656877 0.313091 0
0.657737 0.254327 0
0.660893 0.244314 0
0.654596 0.242552 0
0.661371 0.236687 0
0.666085 0.229445 0
0.673924 0.229836 0
0.671228 0.248518 0
0.664369 0.251160 0
0.658110 0.229389 0
0.667181 0.243661 0
0.620118 0.315735 0
0.622989 0.308745 0
0.611019 0.498692 0
0.616472 0.493737 0
0.615496 0.504089 0
0.593549 0.499740 0
0.665327 0.490810 0
0.672873 0.498923 0
0.612162 0.515129 0
0.669619 0.515374 0
0.680564 0.520982 0
0.676159 0.516095 0
0.511592 0.486723 0
0.522160 0.482340 0
0.508388 0.495625 0
0.510433 0.502366 0
0.537583 0.490671 0
0.542053 0.495577 0
0.534822 0.496384 0
0.529300 0.487564 0
0.522771 0.488997 0
0.528759 0.480813 0
0.542461 0.479475 0
0.542763 0.486268 0
0.526202 0.467395 0
0.567051 0.402742 0
0.577706 0.402914 0
0.579355 0.412272 0
0.573699 0.417228 0
0.567533 0.412553 0
0.560787 0.074558 0
0.590057 0.111337 0
0.592337 0.104546 0
0.600588 0.116310 0
0.610712 0.107880 0
0.613670 0.099468 0
0.621473 0.106459 0
0.626191 0.101400 0
0.638560 0.087120 0
0.634213 0.095851 0
0.628398 0.121651 0
0.617234 0.115814 0
0.628823 0.073227 0
0.627950 0.087285 0
0.645340 0.095943 0
0.627446 0.112911 0
0.615400 0.125815 0
0.620601 0.076533 0
0.621874 0.067822 0
0.626835 0.080160 0
0.622128 0.053071 0
0.619696 0.060407 0
0.609858 0.053751 0
0.606135 0.060810 0
0.633039 0.060637 0
0.628719 0.066191 0
0.628023 0.093805 0
0.639724 0.102225 0
0.640815 0.115876 0
0.633628 0.116659 0
0.637965 0.109235 0
0.621254 0.121720 0
0.624918 0.131094 0
0.620058 0.143906 0
0.616773 0.134558 0
0.611226 0.139935 0
0.625017 0.138460 0
0.506746 0.067945 0
0.509538 0.057677 0
0.502161 0.055636 0
0.498695 0.047640 0
0.507847 0.049439 0
0.487876 0.046695 0
0.494928 0.037547 0
0.513448 0.042884 0
0.515103 0.049969 0
0.480553 0.059215 0
0.493580 0.043800 0
0.468750 0.000000 0
0.505522 0.025578 0
0.486742 0.054433 0
0.489725 0.063078 0
0.472859 0.046313 0
0.480291 0.049535 0
0.479116 0.042064 0
0.467251 0.031325 0
0.475738 0.033872 0
0.469574 0.038999 0
0.476456 0.016067 0
0.454107 0.050342 0
0.458898 0.038042 0
0.473812 0.024877 0
0.459951 0.017335 0
0.486563 0.023902 0
0.468336 0.018432 0
0.481715 0.029500 0
0.480000 0.021932 0
0.463278 0.024499 0
0.453125 0.000000 0
0.470066 0.009250 0
0.455416 0.023796 0
0.438428 0.017944 0
0.449102 0.014543 0
0.502367 0.033459 0
0.494692 0.028306 0
0.511045 0.032361 0
0.448409 0.041039 0
0.458786 0.030526 0
0.460938 0.000000 0
0.457031 0.008473 0
0.452808 0.036582 0
0.454792 0.043526 0
0.463376 0.047831 0
0.435742 0.055195 0
0.436969 0.032279 0
0.463695 0.006408 0
0.463955 0.041647 0
0.469698 0.056943 0
0.444197 0.050016 0
0.444480 0.034320 0
0.438344 0.042060 0
0.442808 0.025632 0
0.475875 0.054498 0
0.460728 0.056418 0
0.464874 0.062475 0
0.448749 0.062435 0
0.453723 0.057405 0
0.429000 0.038387 0
0.442973 0.057508 0
0.439789 0.067088 0
0.430850 0.047401 0
0.412641 0.022147 0
0.449696 0.075209 0
0.452685 0.082874 0
0.443505 0.082039 0
0.437032 0.082979 0
0.425493 0.025560 0
0.446483 0.069025 0
0.429861 0.031258 0
0.433330 0.024077 0
0.420171 0.033907 0
0.418277 0.026829 0
0.569675 0.028123 0
0.569659 0.038046 0
0.563284 0.037247 0
0.605014 0.036139 0
0.593750 0.000000 0
0.622572 0.022253 0
0.603222 0.016872 0
0.615281 0.031078 0
0.601710 0.026729 0
0.588022 0.022203 0
0.584473 0.028858 0
0.577454 0.020841 0
0.610383 0.023015 0
0.596072 0.020820 0
0.593110 0.027701 0
0.590229 0.010932 0
0.578125 0.000000 0
0.608277 0.029814 0
0.609375 0.000000 0
0.616610 0.024751 0
0.583518 0.015469 0
0.573512 0.010283 0
0.585938 0.000000 0
0.582031 0.007313 0
0.614202 0.011318 0
0.570313 0.000000 0
0.609865 0.016374 0
0.566527 0.006817 0
0.660118 0.180507 0
0.665676 0.202628 0
0.671946 0.196666 0
0.682030 0.196890 0
0.674046 0.205151 0
0.672700 0.213827 0
0.680454 0.219631 0
0.689299 0.184829 0
0.696551 0.201122 0
0.679414 0.212938 0
0.695651 0.222468 0
0.689445 0.214445 0
0.683351 0.189465 0
0.691398 0.193655 0
0.695871 0.187929 0
0.688542 0.201574 0
0.692907 0.207735 0
0.687585 0.223556 0
0.693218 0.234868 0
0.436425 0.174700 0
0.428072 0.176063 0
0.415953 0.161239 0
0.420332 0.170024 0
0.400865 0.160034 0
0.395221 0.165506 0
0.407012 0.172019 0
0.407636 0.180673 0
0.399992 0.170798 0
0.398809 0.178302 0
0.413783 0.175880 0
0.425624 0.161902 0
0.413231 0.168080 0
0.408288 0.162151 0
0.408014 0.149042 0
0.411387 0.155529 0
0.421110 0.152434 0
0.428645 0.168672 0
0.432682 0.155289 0
0.415191 0.148309 0
0.425302 0.146502 0
0.439785 0.150327 0
0.450034 0.155047 0
0.454941 0.170440 0
0.450941 0.177857 0
0.445070 0.169904 0
0.459499 0.177684 0
0.465881 0.168614 0
0.473257 0.173763 0
0.458071 0.184262 0
0.450372 0.163418 0
0.442264 0.159553 0
0.466499 0.160519 0
0.458629 0.163043 0
0.460661 0.155846 0
0.422284 0.078081 0
0.428149 0.067985 0
0.424213 0.056999 0
0.434184 0.070327 0
0.424198 0.049894 0
0.463539 0.075388 0
0.420083 0.132936 0
0.414479 0.137238 0
0.412370 0.126670 0
0.412836 0.111958 0
0.387501 0.118901 0
0.420348 0.115459 0
0.413959 0.119357 0
0.400710 0.120307 0
0.404144 0.127879 0
0.390616 0.138760 0
0.398722 0.134987 0
0.402843 0.142362 0
0.390799 0.128557 0
0.409777 0.142335 0
0.398775 0.150853 0
0.397378 0.126383 0
0.380705 0.133479 0
0.393109 0.156972 0
0.386205 0.148640 0
0.378218 0.153212 0
0.372004 0.149325 0
0.343638 0.143011 0
0.357420 0.147971 0
0.364537 0.150532 0
0.357681 0.158413 0
0.379498 0.146186 0
0.395673 0.144147 0
0.387007 0.133592 0
0.383190 0.125765 0
0.370123 0.125813 0
0.376665 0.127920 0
0.342072 0.169531 0
0.351945 0.173544 0
0.348798 0.180895 0
0.331861 0.176011 0
0.339458 0.181473 0
0.347669 0.153439 0
0.350008 0.164157 0
0.333740 0.185071 0
0.338366 0.174977 0
0.353989 0.153281 0
0.128654 0.127837 0
0.109444 0.112568 0
0.104483 0.137782 0
0.097801 0.124646 0
0.103402 0.130064 0
0.096501 0.134965 0
0.106439 0.121321 0
0.090365 0.128994 0
0.115466 0.119528 0
0.126167 0.104185 0
0.115397 0.126002 0
0.118869 0.110499 0
0.111469 0.099288 0
0.128104 0.113799 0
0.122777 0.118852 0
0.118498 0.102696 0
0.112443 0.106230 0
0.122293 0.085913 0
0.103231 0.105748 0
0.123951 0.095108 0
0.098949 0.114747 0
0.136207 0.107164 0
0.115906 0.091812 0
0.105496 0.090687 0
0.137052 0.088000 0
0.090482 0.118781 0
0.144419 0.109368 0
0.159665 0.105396 0
0.153302 0.112217 0
0.135873 0.115020 0
0.104887 0.097484 0
0.080964 0.073546 0
0.135513 0.097533 0
0.129328 0.089392 0
0.089997 0.106858 0
0.096481 0.104724 0
0.151744 0.104385 0
0.158418 0.083622 0
0.157014 0.094625 0
0.162443 0.114366 0
0.152706 0.119261 0
0.091707 0.084296 0
0.092787 0.112716 0
0.097429 0.090022 0
0.250268 0.029940 0
0.243598 0.015028 0
0.257885 0.017585 0
0.244607 0.023525 0
0.233200 0.020571 0
0.250343 0.018536 0
0.250885 0.009255 0
0.256275 0.025118 0
0.265625 0.000000 0
0.260532 0.008254 0
0.257813 0.000000 0
0.273438 0.010519 0
0.266025 0.014853 0
0.265913 0.024510 0
0.267436 0.006816 0
0.273438 0.000000 0
0.243206 0.037964 0
0.000000 0.289063 0
0.006784 0.292969 0
0.053980 0.155551 0
0.063395 0.154774 0
0.059346 0.163146 0
0.059019 0.170445 0
0.051989 0.166473 0
0.011211 0.183747 0
0.032185 0.173328 0
0.044453 0.427737 0
0.045629 0.416556 0
0.050030 0.437248 0
0.042536 0.438312 0
0.042109 0.421838 0
0.041437 0.411651 0
0.056127 0.409971 0
0.065665 0.407041 0
0.069567 0.416851 0
0.049490 0.422614 0
0.049799 0.430993 0
0.060526 0.436262 0
0.050434 0.405926 0
0.059707 0.404634 0
0.066280 0.400460 0
0.068845 0.428299 0
0.062569 0.413954 0
0.056906 0.419608 0
0.062054 0.425082 0
0.059738 0.454997 0
0.072173 0.422762 0
0.066721 0.434407 0
0.052061 0.415150 0
0.062876 0.445745 0
0.074346 0.452280 0
0.053082 0.447581 0
0.069913 0.446728 0
0.046272 0.460389 0
0.033646 0.455544 0
0.032772 0.448512 0
0.055694 0.441192 0
0.052019 0.455230 0
0.010988 0.351563 0
0.027997 0.344223 0
0.034734 0.347993 0
0.032225 0.357721 0
0.171875 1.000000 0
0.161855 0.975897 0
0.165611 0.988470 0
0.166464 0.981368 0
0.152704 0.985478 0
0.146845 0.979298 0
0.155223 0.978723 0
0.546578 0.781407 0
0.278169 0.811899 0
0.228009 0.825986 0
0.133999 0.973924 0
0.130152 0.985003 0
0.139298 0.989771 0
0.145593 0.986352 0
0.148438 1.000000 0
0.152344 0.993260 0
0.158538 0.989648 0
0.145250 0.993651 0
0.128083 0.992676 0
0.132813 1.000000 0
0.092989 0.992106 0
0.085938 1.000000 0
0.074993 0.981588 0
0.064127 0.975383 0
0.063697 0.968646 0
0.009554 0.926732 0
0.015265 0.929674 0
0.007152 0.934223 0
0.000000 0.929688 0
0.009983 0.914063 0
0.006814 0.920297 0
0.000000 0.914063 0
0.014548 0.920306 0
0.029408 0.908172 0
0.035595 0.912100 0
0.032699 0.875367 0
0.022305 0.864431 0
0.028641 0.868817 0
0.029433 0.841376 0
0.037724 0.831252 0
0.026155 0.825102 0
0.022631 0.819109 0
0.044931 0.830897 0
0.040947 0.823348 0
0.033640 0.824978 0
0.036166 0.848544 0
0.000000 0.726563 0
0.006855 0.730421 0
0.174785 0.617677 0
0.183898 0.616811 0
0.772409 0.726178 0
0.737321 0.779602 0
0.736969 0.773145 0
0.710704 0.785139 0
0.716692 0.776071 0
0.718418 0.783722 0
0.708977 0.777488 0
0.689873 0.785818 0
0.700223 0.783483 0
0.701972 0.806407 0
0.692156 0.771834 0
0.700983 0.773422 0
0.698680 0.760898 0
0.702769 0.766620 0
0.697433 0.795225 0
0.693838 0.779287 0
0.695955 0.788671 0
0.704455 0.790691 0
0.713784 0.794899 0
0.718262 0.790207 0
0.721582 0.812631 0
0.706304 0.799037 0
0.714564 0.805136 0
0.719653 0.799600 0
0.731857 0.803415 0
0.709401 0.817004 0
0.714547 0.812186 0
0.767101 0.749141 0
0.793667 0.753464 0
0.781964 0.781581 0
0.770994 0.788837 0
0.750380 0.786852 0
0.759757 0.797510 0
0.741556 0.787360 0
0.736375 0.795187 0
0.753180 0.793842 0
0.741115 0.803143 0
0.751644 0.804326 0
0.729766 0.796912 0
0.772738 0.821193 0
0.763878 0.810650 0
0.759079 0.804939 0
0.700911 0.621957 0
0.714360 0.617240 0
0.707123 0.612781 0
0.701517 0.615676 0
0.759204 0.578403 0
0.753321 0.588893 0
0.753635 0.582175 0
0.757078 0.596734 0
0.750170 0.598953 0
0.774479 0.595137 0
0.782955 0.594743 0
0.779004 0.601128 0
0.782139 0.607232 0
0.843954 0.578159 0
0.837488 0.576860 0
0.842590 0.571707 0
0.860928 0.578901 0
0.842365 0.588934 0
0.852568 0.575621 0
0.853873 0.584590 0
0.863577 0.589404 0
0.840001 0.583081 0
0.841964 0.602771 0
0.833739 0.602433 0
0.847126 0.584131 0
0.845125 0.595938 0
0.837808 0.596338 0
0.826897 0.558732 0
0.501012 0.516360 0
0.499635 0.508234 0
0.502149 0.525894 0
0.496895 0.531522 0
0.491727 0.522210 0
0.484894 0.523367 0
0.680277 0.240941 0
0.675493 0.236308 0
0.690381 0.265175 0
0.680876 0.493871 0
0.697965 0.499489 0
0.680627 0.502342 0
0.688873 0.498345 0
0.694467 0.490591 0
0.691743 0.512242 0
0.683602 0.512757 0
0.687437 0.505887 0
0.696025 0.477863 0
0.714678 0.487781 0
0.692689 0.483914 0
0.689213 0.475463 0
0.704911 0.491621 0
0.706351 0.480943 0
0.714566 0.501839 0
0.700236 0.485555 0
0.704417 0.468576 0
0.695870 0.458920 0
0.689728 0.462070 0
0.695835 0.468116 0
0.716015 0.477664 0
0.706372 0.499911 0
0.711901 0.494789 0
0.709051 0.506904 0
0.700405 0.509599 0
0.702435 0.475221 0
0.711005 0.472113 0
0.740462 0.474638 0
0.694514 0.505671 0
0.729280 0.484564 0
0.721395 0.483522 0
0.726748 0.473369 0
0.723904 0.494889 0
0.720340 0.472913 0
0.671187 0.505232 0
0.665180 0.500053 0
0.671750 0.526337 0
0.678146 0.526932 0
0.667837 0.538415 0
0.672478 0.533246 0
0.666754 0.545874 0
0.658394 0.536930 0
0.663625 0.529810 0
0.658056 0.525822 0
0.518667 0.475776 0
0.548956 0.472542 0
0.541923 0.472462 0
0.649034 0.086088 0
0.642552 0.073964 0
0.636794 0.068015 0
0.649390 0.056959 0
0.641683 0.060882 0
0.649611 0.066925 0
0.665939 0.077397 0
0.643281 0.081369 0
0.635151 0.079508 0
0.652212 0.076594 0
0.658738 0.084178 0
0.664543 0.061609 0
0.658973 0.069591 0
0.656215 0.061732 0
0.658148 0.051703 0
0.659105 0.076483 0
0.681956 0.042002 0
0.669069 0.044440 0
0.662073 0.045763 0
0.667083 0.053097 0
0.676946 0.050803 0
0.675712 0.044274 0
0.694027 0.054700 0
0.686075 0.050173 0
0.686112 0.059357 0
0.676800 0.060147 0
0.670415 0.058727 0
0.672176 0.069280 0
0.665604 0.070685 0
0.615743 0.048897 0
0.626308 0.039707 0
0.622327 0.045798 0
0.633690 0.048880 0
0.637524 0.054989 0
0.602324 0.052290 0
0.607603 0.047224 0
0.653495 0.108275 0
0.645795 0.109807 0
0.648400 0.102782 0
0.495931 0.066432 0
0.484375 0.000000 0
0.476563 0.000000 0
0.480469 0.008060 0
0.492188 0.008763 0
0.494825 0.018357 0
0.499212 0.023391 0
0.441392 0.008795 0
0.445313 0.000000 0
0.449219 0.006747 0
0.448662 0.021624 0
0.442893 0.090001 0
0.599480 0.007878 0
0.596363 0.013977 0
0.601563 0.000000 0
0.571731 0.016963 0
0.617188 0.000000 0
0.658720 0.187855 0
0.667829 0.184990 0
0.667876 0.176035 0
0.685909 0.162598 0
0.675528 0.167484 0
0.699229 0.229608 0
0.429577 0.080503 0
0.423984 0.085151 0
0.433586 0.062564 0
0.414360 0.066726 0
0.383510 0.140156 0
0.375076 0.112964 0
0.377748 0.120243 0
0.354438 0.130650 0
0.328590 0.159569 0
0.350174 0.146478 0
0.350450 0.138064 0
0.148164 0.087905 0
0.173573 0.091146 0
0.086186 0.095223 0
0.215431 0.017692 0
0.234375 0.000000 0
0.242188 0.000000 0
0.238281 0.007947 0
0.244829 0.006232 0
0.236722 0.014654 0
0.225476 0.011966 0
0.230847 0.006668 0
0.226563 0.000000 0
0.295317 0.018608 0
0.300228 0.031127 0
0.286860 0.029113 0
0.287146 0.036244 0
0.269084 0.032093 0
0.276925 0.024360 0
0.272854 0.018026 0
0.284168 0.015129 0
0.279881 0.030941 0
0.283958 0.022420 0
0.046129 0.159763 0
0.038673 0.141385 0
0.045566 0.149290 0
0.035500 0.151108 0
0.050258 0.138241 0
0.041358 0.154767 0
0.021306 0.158890 0
0.045229 0.142626 0
0.059207 0.144616 0
0.029699 0.157363 0
0.030443 0.165423 0
0.025218 0.170719 0
0.020667 0.140888 0
0.026382 0.148468 0
0.052845 0.148292 0
0.060508 0.133322 0
0.029701 0.140022 0
0.023221 0.119994 0
0.036295 0.126826 0
0.024250 0.130723 0
0.035131 0.134489 0
0.043805 0.131887 0
0.056740 0.138610 0
0.066406 0.139723 0
0.071765 0.128867 0
0.075678 0.140599 0
0.000000 0.140625 0
0.012461 0.126440 0
0.029004 0.124853 0
0.033884 0.113173 0
0.071484 0.135479 0
0.079948 0.132825 0
0.019374 0.125777 0
0.016495 0.133704 0
0.010317 0.142095 0
0.000000 0.132813 0
0.008232 0.133541 0
0.000000 0.148438 0
0.006679 0.188829 0
0.000000 0.171875 0
0.026691 0.189633 0
0.037970 0.168610 0
0.039562 0.176539 0
0.034955 0.184883 0
0.040507 0.188399 0
0.027038 0.180672 0
0.019642 0.184872 0
0.018337 0.194404 0
0.026861 0.199628 0
0.017936 0.203584 0
0.033826 0.194511 0
0.024699 0.206795 0
0.078292 0.432710 0
0.086628 0.430582 0
0.079231 0.441596 0
0.085064 0.446062 0
0.007517 0.344812 0
0.015335 0.345059 0
0.019639 0.352641 0
0.174450 0.986038 0
0.171534 0.992719 0
0.179688 1.000000 0
0.183594 0.992446 0
0.164063 1.000000 0
0.160099 0.983209 0
0.078525 0.975365 0
0.077047 0.990711 0
0.082821 0.994084 0
0.070313 1.000000 0
0.065420 0.988537 0
0.071701 0.987122 0
0.041447 0.979355 0
0.011816 0.901436 0
0.030098 0.916279 0
0.024368 0.857757 0
0.012852 0.873302 0
0.032472 0.862554 0
0.027169 0.848698 0
0.036966 0.839088 0
0.029424 0.832911 0
0.014280 0.837160 0
0.020889 0.842746 0
0.015988 0.826993 0
0.021824 0.834937 0
0.000000 0.828125 0
0.000000 0.820313 0
0.007605 0.816491 0
0.008232 0.830917 0
0.000000 0.835938 0
0.006498 0.823766 0
0.006858 0.839844 0
0.000000 0.859375 0
0.008792 0.851213 0
0.013393 0.844911 0
0.013445 0.727018 0
0.768693 0.720902 0
0.783460 0.719432 0
0.782452 0.712088 0
0.768410 0.735867 0
0.763029 0.729593 0
0.770529 0.742777 0
0.759863 0.736268 0
0.691477 0.764015 0
0.702476 0.749424 0
0.690622 0.804501 0
0.731273 0.813100 0
0.738127 0.840673 0
0.737090 0.826293 0
0.736539 0.818658 0
0.725920 0.823339 0
0.717526 0.820523 0
0.718225 0.832359 0
0.710429 0.825769 0
0.726228 0.816981 0
0.724494 0.805542 0
0.786446 0.760364 0
0.780604 0.754532 0
0.773703 0.755085 0
0.798681 0.765940 0
0.791127 0.766304 0
0.779080 0.774894 0
0.786592 0.776656 0
0.794843 0.804036 0
0.774676 0.782482 0
0.731076 0.787777 0
0.764792 0.564595 0
0.773051 0.580591 0
0.771214 0.601475 0
0.828910 0.566626 0
0.820386 0.565832 0
0.816786 0.572576 0
0.839712 0.558088 0
0.835174 0.563448 0
0.685701 0.235675 0
0.678928 0.259004 0
0.700516 0.250837 0
0.690381 0.245921 0
0.695484 0.528546 0
0.686748 0.528462 0
0.698615 0.519246 0
0.689025 0.520284 0
0.709558 0.455415 0
0.731017 0.454986 0
0.733255 0.477781 0
0.740953 0.497205 0
0.740055 0.486324 0
0.733542 0.492339 0
0.748157 0.491133 0
0.754753 0.478013 0
0.753677 0.485690 0
0.746623 0.480787 0
0.676214 0.541590 0
0.690980 0.542648 0
0.683770 0.539694 0
0.684365 0.548516 0
0.691054 0.534901 0
0.667466 0.020833 0
0.674598 0.031495 0
0.618775 0.037973 0
0.624346 0.031000 0
0.645005 0.022256 0
0.637234 0.032671 0
0.630485 0.034192 0
0.635517 0.040788 0
0.645988 0.038763 0
0.642800 0.047421 0
0.643825 0.053758 0
0.645223 0.030526 0
0.656523 0.026089 0
0.650947 0.047867 0
0.629197 0.054528 0
0.626165 0.060245 0
0.492188 0.000000 0
0.485930 0.015053 0
0.515625 0.000000 0
0.607316 0.007567 0
0.668980 0.146829 0
0.684988 0.174113 0
0.698716 0.174494 0
0.680144 0.181360 0
0.673210 0.180541 0
0.677684 0.174473 0
0.421547 0.064152 0
0.420023 0.071216 0
0.369137 0.118054 0
0.361231 0.124829 0
0.364546 0.135542 0
0.363215 0.143037 0
0.357748 0.138201 0
0.336594 0.151726 0
0.333405 0.167157 0
0.326568 0.170526 0
0.339900 0.160455 0
0.149550 0.095266 0
0.142116 0.093672 0
0.142481 0.073204 0
0.131162 0.077444 0
0.154524 0.088716 0
0.164690 0.090013 0
0.169224 0.079290 0
0.167980 0.099600 0
0.169737 0.085827 0
0.161540 0.099223 0
0.178172 0.100265 0
0.167934 0.108004 0
0.176305 0.108436 0
0.189536 0.088814 0
0.200422 0.090252 0
0.206538 0.077712 0
0.213626 0.079645 0
0.181944 0.092643 0
0.179113 0.084322 0
0.189835 0.098848 0
0.209992 0.067427 0
0.206238 0.085327 0
0.196183 0.080424 0
0.194430 0.093690 0
0.191451 0.105377 0
0.215316 0.072108 0
0.207172 0.057908 0
0.195366 0.086605 0
0.187510 0.080381 0
0.212642 0.048048 0
0.196000 0.066395 0
0.191881 0.073464 0
0.207490 0.051637 0
0.203191 0.064265 0
0.201519 0.071821 0
0.197306 0.057602 0
0.181549 0.059755 0
0.189741 0.060972 0
0.184515 0.067973 0
0.187631 0.046990 0
0.194073 0.050833 0
0.186545 0.054304 0
0.080009 0.085244 0
0.223817 0.022209 0
0.217038 0.008836 0
0.222997 0.005709 0
0.203125 0.000000 0
0.210938 0.000000 0
0.205679 0.011349 0
0.210618 0.006744 0
0.280913 0.007911 0
0.296875 0.000000 0
0.290798 0.007796 0
0.289063 0.000000 0
0.301335 0.009743 0
0.290561 0.014246 0
0.304688 0.000000 0
0.308105 0.020814 0
0.302211 0.016813 0
0.062410 0.121680 0
0.000000 0.109375 0
0.023448 0.108604 0
0.016447 0.150076 0
0.007916 0.152344 0
0.008777 0.164063 0
0.009409 0.174219 0
0.000000 0.179688 0
0.025053 0.357359 0
0.052226 0.974167 0
0.048298 0.964846 0
0.044511 0.971930 0
0.022481 0.967184 0
0.033066 0.971552 0
0.032332 0.958885 0
0.039298 0.964589 0
0.037693 0.954515 0
0.030370 0.951004 0
0.046875 1.000000 0
0.018087 0.907299 0
0.007286 0.907225 0
0.000000 0.890625 0
0.018384 0.891368 0
0.020022 0.871470 0
0.000000 0.867188 0
0.009739 0.863281 0
0.006022 0.871094 0
0.006417 0.857471 0
0.000000 0.851563 0
0.776310 0.720144 0
0.800207 0.719026 0
0.780647 0.727248 0
0.792020 0.726927 0
0.704134 0.756338 0
0.692552 0.752506 0
0.679184 0.745857 0
0.668960 0.741863 0
0.675952 0.737145 0
0.693961 0.739523 0
0.689124 0.733639 0
0.685931 0.741193 0
0.691073 0.745778 0
0.684634 0.751663 0
0.669592 0.755330 0
0.677067 0.753306 0
0.671749 0.748481 0
0.661979 0.749169 0
0.655082 0.748018 0
0.662085 0.756821 0
0.706001 0.738666 0
0.696884 0.801960 0
0.693854 0.820002 0
0.702354 0.822273 0
0.699906 0.814395 0
0.692287 0.812241 0
0.679468 0.818867 0
0.686823 0.817383 0
0.681752 0.811224 0
0.674698 0.813279 0
0.685503 0.795350 0
0.685059 0.801606 0
0.666184 0.787203 0
0.659749 0.777297 0
0.658180 0.770655 0
0.673777 0.770477 0
0.665999 0.772315 0
0.675378 0.761883 0
0.671847 0.779687 0
0.667318 0.763169 0
0.691497 0.798005 0
0.674792 0.793771 0
0.665363 0.780693 0
0.682527 0.777119 0
0.683791 0.768374 0
0.671844 0.800977 0
0.673362 0.786720 0
0.681703 0.787841 0
0.729114 0.833856 0
0.724149 0.829620 0
0.730766 0.827611 0
0.736416 0.833569 0
0.755195 0.831639 0
0.746052 0.835006 0
0.747423 0.824630 0
0.754396 0.843568 0
0.742875 0.829308 0
0.758135 0.820565 0
0.754713 0.812516 0
0.751306 0.818717 0
0.747849 0.810418 0
0.752134 0.837425 0
0.746041 0.843364 0
0.749780 0.861407 0
0.737851 0.854470 0
0.750011 0.851950 0
0.740181 0.847616 0
0.753822 0.825347 0
0.721449 0.849263 0
0.730658 0.846658 0
0.758276 0.850936 0
0.771162 0.867848 0
0.766408 0.858105 0
0.744623 0.856550 0
0.740848 0.865723 0
0.722685 0.840268 0
0.711943 0.843374 0
0.731505 0.840062 0
0.790108 0.851255 0
0.759621 0.867448 0
0.724815 0.864958 0
0.779188 0.857899 0
0.758167 0.859256 0
0.765498 0.864581 0
0.749525 0.874309 0
0.728327 0.855997 0
0.732707 0.867945 0
0.772846 0.860994 0
0.772706 0.852298 0
0.778645 0.836752 0
0.781239 0.848975 0
0.773605 0.843734 0
0.787977 0.841158 0
0.765432 0.836116 0
0.743278 0.871945 0
0.733966 0.860706 0
0.781635 0.842504 0
0.788310 0.828367 0
0.802118 0.843447 0
0.785325 0.834689 0
0.794605 0.845033 0
0.795384 0.836093 0
0.786347 0.744355 0
0.791009 0.791314 0
0.758773 0.570194 0
0.767366 0.573396 0
0.772893 0.567002 0
0.783963 0.573669 0
0.779581 0.568420 0
0.789855 0.578223 0
0.770665 0.588168 0
0.765049 0.583151 0
0.778059 0.586333 0
0.832727 0.546903 0
0.856679 0.552187 0
0.861514 0.565113 0
0.858849 0.571906 0
0.672589 0.255589 0
0.680179 0.250016 0
0.688098 0.255699 0
0.693758 0.251865 0
0.677411 0.275533 0
0.699946 0.241445 0
0.710238 0.463266 0
0.703021 0.461201 0
0.725948 0.463496 0
0.718280 0.458388 0
0.719309 0.441086 0
0.716409 0.449595 0
0.725337 0.447889 0
0.724115 0.454688 0
0.727867 0.439575 0
0.734699 0.446218 0
0.720626 0.423554 0
0.729037 0.429399 0
0.736900 0.464254 0
0.733399 0.470565 0
0.754488 0.444370 0
0.720731 0.432377 0
0.707425 0.434675 0
0.713134 0.428055 0
0.714475 0.435826 0
0.706794 0.445219 0
0.706298 0.427931 0
0.692048 0.433780 0
0.699838 0.432477 0
0.686138 0.441584 0
0.697436 0.442058 0
0.736862 0.409166 0
0.750162 0.465508 0
0.748568 0.473188 0
0.744366 0.442856 0
0.701428 0.452146 0
0.692996 0.450894 0
0.684275 0.434034 0
0.678109 0.422619 0
0.675863 0.429372 0
0.673794 0.415241 0
0.691686 0.404294 0
0.671406 0.421588 0
0.685080 0.413592 0
0.703437 0.439727 0
0.730492 0.418332 0
0.743247 0.467880 0
0.752246 0.423420 0
0.747869 0.454027 0
0.743405 0.460235 0
0.739671 0.452842 0
0.691667 0.444693 0
0.726907 0.423490 0
0.750840 0.434165 0
0.740435 0.425608 0
0.748832 0.447590 0
0.743462 0.435425 0
0.761865 0.430143 0
0.747024 0.428201 0
0.735630 0.430190 0
0.755306 0.429285 0
0.758223 0.437281 0
0.730126 0.512995 0
0.732042 0.502702 0
0.723102 0.506363 0
0.716267 0.511577 0
0.720777 0.500436 0
0.664443 0.034810 0
0.670972 0.037599 0
0.656702 0.033884 0
0.667919 0.028247 0
0.684494 0.017159 0
0.633788 0.021994 0
0.654461 0.013065 0
0.506985 0.011877 0
0.518239 0.019353 0
0.524273 0.023051 0
0.515721 0.026453 0
0.499236 0.011985 0
0.669418 0.158056 0
0.682154 0.168092 0
0.691760 0.177614 0
0.692014 0.168867 0
0.703346 0.151725 0
0.695812 0.159062 0
0.685610 0.146126 0
0.708590 0.164647 0
0.694185 0.149854 0
0.703338 0.159254 0
0.700936 0.166846 0
0.687138 0.154337 0
0.678505 0.157275 0
0.673498 0.152275 0
0.692847 0.141208 0
0.704502 0.140072 0
0.699067 0.144672 0
0.372307 0.134436 0
0.342624 0.149396 0
0.323735 0.146607 0
0.150310 0.078627 0
0.142554 0.081720 0
0.151025 0.069231 0
0.165713 0.064150 0
0.174969 0.066774 0
0.157561 0.064355 0
0.161857 0.073022 0
0.173487 0.073670 0
0.156764 0.077227 0
0.167839 0.070348 0
0.122233 0.076972 0
0.110125 0.079266 0
0.115732 0.075763 0
0.115131 0.084564 0
0.100709 0.081022 0
0.092579 0.072682 0
0.094763 0.078686 0
0.131530 0.061197 0
0.127119 0.069225 0
0.135479 0.068593 0
0.141181 0.060796 0
0.135765 0.046799 0
0.144655 0.066704 0
0.136094 0.054718 0
0.145840 0.050346 0
0.162399 0.047714 0
0.161442 0.056459 0
0.154476 0.051272 0
0.172296 0.053222 0
0.179740 0.049555 0
0.180434 0.038273 0
0.174576 0.059812 0
0.204467 0.031991 0
0.214932 0.028662 0
0.219425 0.036805 0
0.207311 0.022819 0
0.221525 0.028397 0
0.217160 0.043106 0
0.208726 0.039932 0
0.189067 0.022189 0
0.209132 0.016709 0
0.213088 0.034990 0
0.198103 0.024990 0
0.192978 0.036043 0
0.196761 0.043199 0
0.201901 0.038479 0
0.196239 0.015031 0
0.197869 0.031596 0
0.156250 0.000000 0
0.195313 0.000000 0
0.191406 0.007785 0
0.085455 0.079801 0
0.086148 0.088346 0
0.066175 0.078226 0
0.312074 0.010781 0
0.307090 0.006275 0
0.328125 0.000000 0
0.329291 0.023393 0
0.320313 0.000000 0
0.319035 0.019336 0
0.324219 0.009968 0
0.313156 0.017010 0
0.318706 0.035158 0
0.318310 0.012817 0
0.335938 0.008811 0
0.325886 0.017009 0
0.314527 0.027157 0
0.322611 0.028027 0
0.309261 0.034999 0
0.331898 0.034284 0
0.329783 0.006399 0
0.306893 0.028052 0
0.064939 0.128070 0
0.058258 0.126978 0
0.050630 0.109099 0
0.071939 0.106331 0
0.080525 0.113576 0
0.000000 0.117188 0
0.011865 0.113281 0
0.030193 0.107402 0
0.027140 0.114375 0
0.016687 0.093343 0
0.000000 0.164063 0
0.013533 0.157822 0
0.057368 0.982688 0
0.056488 0.992365 0
0.049250 0.981775 0
0.042377 0.990147 0
0.054688 1.000000 0
0.049756 0.989198 0
0.039063 1.000000 0
0.028682 0.985891 0
0.036397 0.985226 0
0.034997 0.993022 0
0.031980 0.979060 0
0.021104 0.978022 0
0.026207 0.973164 0
0.015625 1.000000 0
0.011472 0.971291 0
0.017731 0.988853 0
0.018055 0.972128 0
0.022393 0.984364 0
0.029407 0.965410 0
0.000000 0.882813 0
0.009365 0.886719 0
0.011344 0.893952 0
0.007071 0.879039 0
0.017554 0.881905 0
0.024704 0.883957 0
0.000000 0.898438 0
0.018252 0.898458 0
0.016462 0.859046 0
0.791748 0.715720 0
0.800382 0.727400 0
0.819984 0.722799 0
0.809694 0.723015 0
0.811457 0.705546 0
0.799900 0.707335 0
0.797777 0.700076 0
0.806460 0.698202 0
0.828954 0.688267 0
0.819099 0.676799 0
0.817559 0.669137 0
0.818619 0.695300 0
0.811292 0.674382 0
0.813091 0.699062 0
0.812012 0.685872 0
0.806595 0.690848 0
0.815125 0.736494 0
0.814667 0.714694 0
0.805965 0.681635 0
0.814961 0.728726 0
0.808036 0.732757 0
0.806599 0.712387 0
0.827067 0.712356 0
0.821353 0.716104 0
0.655321 0.755016 0
0.713009 0.739516 0
0.707634 0.745158 0
0.700240 0.742735 0
0.699579 0.733455 0
0.654690 0.787627 0
0.765550 0.818239 0
0.766076 0.827181 0
0.774213 0.829534 0
0.780856 0.824058 0
0.781412 0.809550 0
0.789830 0.817137 0
0.778882 0.816718 0
0.771695 0.812907 0
0.772960 0.800825 0
0.765698 0.801797 0
0.775148 0.807161 0
0.712713 0.836514 0
0.692231 0.848098 0
0.676936 0.842941 0
0.676310 0.853282 0
0.668870 0.845485 0
0.670547 0.836743 0
0.669995 0.827456 0
0.669872 0.854253 0
0.683568 0.848532 0
0.688396 0.858220 0
0.672325 0.820507 0
0.681740 0.857251 0
0.705219 0.858807 0
0.691479 0.875458 0
0.680660 0.875453 0
0.678402 0.883712 0
0.688566 0.885328 0
0.696907 0.855657 0
0.702398 0.847034 0
0.697559 0.866480 0
0.687136 0.867340 0
0.686068 0.879226 0
0.688508 0.893242 0
0.694975 0.913377 0
0.682353 0.906325 0
0.693659 0.902694 0
0.683569 0.898908 0
0.672111 0.901481 0
0.696302 0.837889 0
0.685620 0.830383 0
0.696054 0.828812 0
0.685463 0.839556 0
0.678614 0.834820 0
0.678450 0.826812 0
0.705419 0.840639 0
0.709597 0.851533 0
0.715580 0.860089 0
0.707668 0.879874 0
0.709028 0.901122 0
0.689336 0.908649 0
0.685779 0.918617 0
0.691361 0.841835 0
0.716091 0.853362 0
0.700327 0.874903 0
0.709570 0.869160 0
0.699604 0.883876 0
0.707929 0.890525 0
0.701875 0.907105 0
0.677911 0.914187 0
0.659438 0.915151 0
0.675473 0.907623 0
0.668635 0.913898 0
0.662817 0.905575 0
0.657887 0.899604 0
0.653522 0.907891 0
0.642718 0.911748 0
0.641227 0.904838 0
0.702058 0.936495 0
0.704113 0.865362 0
0.709972 0.862900 0
0.717403 0.867823 0
0.724974 0.878068 0
0.726855 0.871489 0
0.693673 0.881471 0
0.702903 0.896402 0
0.710230 0.909827 0
0.708470 0.923873 0
0.711642 0.917137 0
0.702886 0.917128 0
0.698271 0.926632 0
0.665643 0.899395 0
0.650475 0.916415 0
0.658204 0.938817 0
0.656519 0.926864 0
0.655610 0.920417 0
0.665164 0.922799 0
0.723720 0.894242 0
0.716947 0.884975 0
0.704615 0.929855 0
0.723423 0.937742 0
0.712759 0.936803 0
0.685196 0.937310 0
0.693153 0.920868 0
0.689514 0.929253 0
0.693614 0.936636 0
0.681086 0.929922 0
0.698123 0.953712 0
0.671804 0.939923 0
0.697971 0.944619 0
0.672260 0.931039 0
0.678074 0.936435 0
0.707839 0.949002 0
0.686784 0.949354 0
0.678890 0.945281 0
0.665348 0.935138 0
0.689873 0.942820 0
0.693333 0.949244 0
0.679248 0.954273 0
0.661282 0.956680 0
0.670574 0.957779 0
0.670650 0.948814 0
0.664666 0.943517 0
0.656205 0.948358 0
0.715178 0.895128 0
0.720389 0.903746 0
0.715642 0.876359 0
0.724991 0.886205 0
0.732542 0.882120 0
0.718945 0.927575 0
0.706328 0.958260 0
0.707263 0.941678 0
0.717345 0.945744 0
0.662804 0.929005 0
0.651099 0.957183 0
0.643641 0.940746 0
0.741002 0.905634 0
0.718389 0.933890 0
0.714824 0.978450 0
0.694026 0.970776 0
0.734848 0.952729 0
0.657239 0.978163 0
0.651261 0.942343 0
0.645970 0.948614 0
0.649236 0.933023 0
0.730933 0.902105 0
0.712789 0.967424 0
0.698441 0.962812 0
0.705405 0.965770 0
0.688304 0.962398 0
0.685801 0.956079 0
0.727063 0.946816 0
0.656685 0.966937 0
0.638823 0.931367 0
0.633796 0.925794 0
0.642344 0.921475 0
0.733756 0.892275 0
0.731766 0.915858 0
0.725626 0.956789 0
0.656373 0.960639 0
0.665064 0.964534 0
0.634586 0.939470 0
0.637521 0.947474 0
0.628139 0.941998 0
0.648986 0.925341 0
0.744539 0.885836 0
0.739307 0.881502 0
0.737763 0.898746 0
0.749616 0.897376 0
0.725747 0.910112 0
0.734237 0.908807 0
0.720700 0.951856 0
0.735078 0.965754 0
0.720431 0.963583 0
0.727870 0.963888 0
0.728234 0.977339 0
0.764832 0.883849 0
0.791267 0.865457 0
0.752560 0.867916 0
0.761255 0.841827 0
0.786922 0.751389 0
0.779406 0.742524 0
0.788113 0.735292 0
0.794453 0.733158 0
0.795935 0.744145 0
0.807424 0.745070 0
0.801216 0.750366 0
0.800006 0.758162 0
0.820580 0.765668 0
0.809605 0.763799 0
0.809911 0.754272 0
0.801891 0.741979 0
0.816029 0.759237 0
0.820338 0.747676 0
0.813478 0.748370 0
0.788874 0.784229 0
0.791857 0.563765 0
0.802143 0.562561 0
0.800300 0.569354 0
0.794289 0.540000 0
0.795711 0.552152 0
0.796496 0.558859 0
0.807261 0.552207 0
0.807299 0.558667 0
0.833105 0.554441 0
0.849324 0.558381 0
0.844858 0.547100 0
0.856617 0.559577 0
0.849917 0.551622 0
0.672021 0.266704 0
0.680650 0.267496 0
0.669175 0.274501 0
0.671678 0.287905 0
0.672568 0.280803 0
0.664596 0.282077 0
0.664159 0.266029 0
0.658528 0.261506 0
0.681015 0.403708 0
0.686165 0.407368 0
0.678847 0.410377 0
0.668648 0.384253 0
0.687109 0.390199 0
0.672514 0.395454 0
0.686673 0.398132 0
0.680160 0.393795 0
0.679140 0.383312 0
0.674679 0.401729 0
0.674323 0.388562 0
0.672149 0.364336 0
0.686745 0.382566 0
0.673085 0.374767 0
0.658942 0.373933 0
0.681913 0.368717 0
0.682297 0.376351 0
0.665847 0.377163 0
0.665453 0.369008 0
0.657198 0.364861 0
0.653055 0.357035 0
0.686595 0.345211 0
0.696860 0.359475 0
0.681562 0.356428 0
0.690863 0.366485 0
0.685110 0.362476 0
0.695738 0.414169 0
0.714944 0.400519 0
0.693332 0.423869 0
0.707460 0.410326 0
0.712486 0.418490 0
0.690189 0.417941 0
0.702521 0.415060 0
0.699792 0.406737 0
0.699188 0.394068 0
0.697457 0.383459 0
0.706692 0.401981 0
0.697248 0.400509 0
0.703595 0.371306 0
0.696208 0.371592 0
0.717171 0.409977 0
0.694002 0.389468 0
0.711435 0.386624 0
0.709617 0.394474 0
0.726734 0.402734 0
0.692744 0.395835 0
0.703806 0.387869 0
0.704863 0.379573 0
0.720349 0.404238 0
0.738849 0.417343 0
0.745567 0.420338 0
0.753929 0.410993 0
0.745248 0.411458 0
0.744369 0.398190 0
0.742514 0.404976 0
0.735264 0.399348 0
0.739179 0.393754 0
0.774637 0.418215 0
0.676708 0.022367 0
0.687841 0.030052 0
0.696586 0.040957 0
0.692927 0.047386 0
0.680934 0.028151 0
0.639304 0.026109 0
0.627937 0.011579 0
0.652116 0.020112 0
0.659870 0.018779 0
0.671875 0.000000 0
0.664794 0.008700 0
0.675186 0.011668 0
0.668852 0.014167 0
0.671030 0.006544 0
0.683535 0.008148 0
0.679688 0.000000 0
0.669673 0.164584 0
0.712125 0.120974 0
0.716291 0.147126 0
0.712268 0.155811 0
0.719482 0.153878 0
0.719697 0.164989 0
0.329031 0.152013 0
0.333129 0.141721 0
0.339107 0.127184 0
0.346291 0.131048 0
0.339157 0.135702 0
0.348632 0.118085 0
0.355653 0.120108 0
0.350081 0.125039 0
0.324834 0.137247 0
0.331457 0.131488 0
0.323825 0.108971 0
0.329755 0.119513 0
0.085656 0.058114 0
0.104560 0.067425 0
0.104406 0.074726 0
0.171461 0.043078 0
0.162729 0.037186 0
0.151320 0.039961 0
0.156274 0.044675 0
0.174099 0.037223 0
0.156976 0.019031 0
0.171875 0.000000 0
0.179688 0.008793 0
0.143036 0.042229 0
0.135266 0.037935 0
0.138085 0.019255 0
0.134418 0.028254 0
0.144587 0.031627 0
0.162465 0.027280 0
0.118961 0.017709 0
0.140923 0.025658 0
0.147528 0.018902 0
0.155528 0.032422 0
0.169550 0.016615 0
0.128357 0.020537 0
0.140625 0.000000 0
0.152379 0.009677 0
0.150475 0.026285 0
0.163770 0.020461 0
0.121300 0.026962 0
0.126306 0.010330 0
0.162929 0.008285 0
0.148438 0.000000 0
0.110818 0.040837 0
0.132813 0.000000 0
0.136282 0.009399 0
0.158138 0.012653 0
0.164063 0.000000 0
0.171312 0.008418 0
0.105610 0.026006 0
0.118039 0.035396 0
0.123560 0.046292 0
0.110330 0.032679 0
0.117677 0.042426 0
0.113049 0.055877 0
0.129003 0.041540 0
0.127708 0.053658 0
0.101274 0.037314 0
0.113520 0.025416 0
0.122136 0.061221 0
0.120123 0.053079 0
0.131730 0.014549 0
0.144367 0.007432 0
0.142619 0.014084 0
0.181053 0.028247 0
0.174227 0.023493 0
0.177399 0.016307 0
0.185536 0.014679 0
0.188537 0.029817 0
0.182158 0.021379 0
0.187212 0.040006 0
0.199224 0.006840 0
0.074526 0.078908 0
0.335938 0.000000 0
0.357106 0.019711 0
0.326262 0.049205 0
0.321808 0.058452 0
0.316803 0.050345 0
0.338876 0.060977 0
0.309659 0.049334 0
0.314296 0.042318 0
0.322274 0.042295 0
0.329835 0.063139 0
0.332665 0.054988 0
0.334106 0.046957 0
0.343425 0.051608 0
0.336707 0.071891 0
0.358248 0.041519 0
0.354187 0.062622 0
0.329509 0.070469 0
0.329705 0.088404 0
0.323485 0.079503 0
0.316994 0.078555 0
0.349305 0.044314 0
0.346827 0.059048 0
0.354432 0.052752 0
0.347207 0.067632 0
0.332481 0.079840 0
0.342139 0.087704 0
0.335786 0.085644 0
0.320389 0.088291 0
0.348486 0.030516 0
0.370132 0.058080 0
0.340854 0.067042 0
0.324927 0.098162 0
0.311865 0.094038 0
0.352000 0.037231 0
0.361265 0.030427 0
0.361451 0.057864 0
0.366027 0.048481 0
0.336469 0.097765 0
0.318734 0.095031 0
0.311886 0.106277 0
0.359320 0.048148 0
0.367058 0.039502 0
0.379798 0.048269 0
0.372856 0.044716 0
0.373598 0.051827 0
0.381872 0.059064 0
0.330592 0.094887 0
0.330914 0.104234 0
0.342082 0.108205 0
0.330921 0.111918 0
0.309044 0.100162 0
0.318897 0.103008 0
0.301478 0.112409 0
0.399470 0.039642 0
0.408566 0.032785 0
0.375513 0.064404 0
0.365694 0.081087 0
0.363835 0.069428 0
0.355129 0.072158 0
0.368731 0.064723 0
0.361067 0.075847 0
0.354463 0.086341 0
0.353530 0.079190 0
0.397631 0.064953 0
0.295822 0.109097 0
0.392878 0.051353 0
0.413812 0.039101 0
0.409108 0.053013 0
0.416436 0.050405 0
0.415496 0.058578 0
0.388734 0.064733 0
0.388960 0.057471 0
0.054229 0.117534 0
0.043675 0.119117 0
0.061509 0.109443 0
0.036602 0.119732 0
0.056593 0.092751 0
0.068862 0.115053 0
0.069502 0.122131 0
0.064241 0.099569 0
0.056279 0.102681 0
0.044281 0.097817 0
0.049429 0.102347 0
0.041317 0.107273 0
0.066765 0.089038 0
0.072995 0.085773 0
0.074466 0.096155 0
0.045093 0.112678 0
0.038410 0.101169 0
0.059174 0.084030 0
0.058663 0.076289 0
0.058697 0.056754 0
0.056701 0.066518 0
0.080920 0.103160 0
0.070506 0.064254 0
0.073623 0.071277 0
0.079425 0.064499 0
0.087514 0.066160 0
0.096554 0.059835 0
0.063172 0.062755 0
0.065442 0.070341 0
0.097272 0.067095 0
0.092120 0.052541 0
0.103200 0.050348 0
0.105050 0.058891 0
0.100554 0.044080 0
0.018977 0.114212 0
0.007525 0.120071 0
0.022838 0.099746 0
0.015147 0.104726 0
0.007461 0.106685 0
0.000000 0.101563 0
0.000000 0.953125 0
0.008455 0.945520 0
0.018325 0.946180 0
0.012571 0.958101 0
0.022505 0.957147 0
0.013047 0.950982 0
0.023604 0.950448 0
0.023438 1.000000 0
0.027344 0.993423 0
0.007813 1.000000 0
0.000000 0.984375 0
0.000000 0.992188 0
0.008445 0.988281 0
0.007455 0.979340 0
0.000000 0.976563 0
0.012773 0.993689 0
0.820723 0.685372 0
0.830435 0.722263 0
0.832495 0.716037 0
0.848195 0.738781 0
0.825723 0.732545 0
0.841140 0.728560 0
0.825397 0.726175 0
0.837250 0.722926 0
0.833249 0.729847 0
0.821126 0.704678 0
0.827908 0.697841 0
0.836234 0.705418 0
0.660774 0.796551 0
0.652566 0.797282 0
0.660539 0.790176 0
0.667605 0.794265 0
0.664399 0.802888 0
0.647871 0.784404 0
0.789191 0.809383 0
0.785095 0.799845 0
0.791636 0.798064 0
0.781528 0.791056 0
0.778781 0.797289 0
0.795018 0.823558 0
0.800594 0.813746 0
0.712271 0.929789 0
0.703549 0.976987 0
0.639617 0.973407 0
0.644435 0.964642 0
0.649190 0.972962 0
0.731288 0.928208 0
0.738636 0.939660 0
0.734227 0.945466 0
0.752505 0.909011 0
0.743143 0.893337 0
0.741785 0.959121 0
0.745061 0.948606 0
0.750746 0.937742 0
0.745173 0.941745 0
0.741263 0.977222 0
0.765147 0.874721 0
0.776709 0.878771 0
0.757217 0.879016 0
0.771742 0.874423 0
0.756042 0.889283 0
0.750394 0.881527 0
0.764107 0.892503 0
0.786720 0.905504 0
0.774316 0.900912 0
0.767750 0.898481 0
0.756208 0.896013 0
0.749381 0.890592 0
0.781359 0.867862 0
0.785138 0.861821 0
0.787628 0.872075 0
0.811968 0.783074 0
0.804908 0.794782 0
0.786845 0.555655 0
0.771652 0.544197 0
0.788487 0.546839 0
0.779412 0.549710 0
0.781690 0.535191 0
0.787142 0.539817 0
0.769855 0.554945 0
0.778914 0.542194 0
0.776448 0.555640 0
0.756820 0.554259 0
0.757059 0.562317 0
0.763664 0.548385 0
0.756859 0.547381 0
0.763180 0.557596 0
0.801519 0.545313 0
0.810375 0.525688 0
0.815262 0.539704 0
0.803856 0.534557 0
0.809279 0.544687 0
0.819119 0.550417 0
0.826525 0.550993 0
0.818968 0.558189 0
0.793062 0.526713 0
0.811325 0.533216 0
0.821001 0.528170 0
0.796684 0.533079 0
0.801707 0.526008 0
0.805586 0.513518 0
0.805841 0.520445 0
0.822482 0.536102 0
0.825827 0.543188 0
0.818228 0.516058 0
0.816655 0.522792 0
0.838922 0.539011 0
0.845363 0.518039 0
0.851225 0.536205 0
0.853943 0.544200 0
0.857629 0.538488 0
0.839679 0.527768 0
0.845681 0.540273 0
0.836506 0.533201 0
0.830248 0.523663 0
0.837471 0.519954 0
0.837553 0.503070 0
0.839604 0.511522 0
0.828079 0.509843 0
0.847179 0.505209 0
0.833298 0.514413 0
0.665343 0.400455 0
0.650568 0.379089 0
0.658946 0.383987 0
0.651867 0.391386 0
0.648799 0.372121 0
0.663591 0.391660 0
0.657591 0.397427 0
0.649454 0.385423 0
0.670526 0.352848 0
0.690094 0.353518 0
0.701052 0.344012 0
0.694019 0.346974 0
0.685494 0.426002 0
0.722820 0.415768 0
0.728853 0.410475 0
0.722809 0.391143 0
0.728826 0.395565 0
0.762826 0.418526 0
0.754540 0.400565 0
0.758148 0.406008 0
0.749529 0.405503 0
0.765639 0.384933 0
0.751015 0.385162 0
0.762302 0.394320 0
0.750874 0.393299 0
0.758367 0.387635 0
0.780155 0.395378 0
0.771069 0.397542 0
0.773809 0.388888 0
0.773572 0.378961 0
0.782516 0.386722 0
0.806266 0.384655 0
0.794193 0.383413 0
0.787696 0.382745 0
0.778115 0.406970 0
0.759016 0.367877 0
0.758835 0.377760 0
0.771440 0.404612 0
0.767339 0.411696 0
0.776630 0.400733 0
0.776357 0.360204 0
0.766644 0.372959 0
0.767444 0.363493 0
0.775557 0.369671 0
0.773808 0.411798 0
0.759314 0.358155 0
0.769670 0.343918 0
0.768911 0.353745 0
0.761929 0.348263 0
0.752370 0.329014 0
0.760643 0.336903 0
0.756031 0.343178 0
0.770377 0.426455 0
0.628093 0.018343 0
0.621006 0.014781 0
0.621094 0.006875 0
0.615848 0.018461 0
0.640625 0.000000 0
0.639637 0.011856 0
0.646886 0.014458 0
0.657940 0.006886 0
0.664063 0.000000 0
0.705477 0.129391 0
0.701510 0.134414 0
0.719051 0.133279 0
0.711131 0.135292 0
0.713561 0.128267 0
0.716537 0.139977 0
0.731713 0.141852 0
0.725475 0.147741 0
0.724351 0.139089 0
0.733525 0.125398 0
0.723048 0.123388 0
0.730682 0.133412 0
0.741948 0.132897 0
0.731172 0.109346 0
0.724906 0.129892 0
0.729554 0.117782 0
0.720367 0.111647 0
0.741768 0.115751 0
0.736070 0.119228 0
0.724526 0.104653 0
0.730385 0.083570 0
0.735392 0.096317 0
0.731255 0.102176 0
0.741555 0.105058 0
0.708447 0.109419 0
0.737718 0.110484 0
0.746740 0.094859 0
0.714977 0.107483 0
0.700218 0.118402 0
0.741451 0.098588 0
0.705541 0.122607 0
0.708735 0.146376 0
0.742308 0.175685 0
0.713739 0.177958 0
0.321862 0.126743 0
0.328284 0.125830 0
0.308686 0.123819 0
0.320771 0.117628 0
0.315815 0.122844 0
0.311139 0.115203 0
0.317048 0.111203 0
0.339107 0.117649 0
0.179688 0.000000 0
0.111727 0.063800 0
0.347912 0.011560 0
0.329530 0.041225 0
0.340358 0.033129 0
0.341026 0.021255 0
0.354850 0.026752 0
0.349119 0.021034 0
0.372823 0.019776 0
0.348598 0.097973 0
0.294513 0.119035 0
0.302077 0.120013 0
0.372566 0.074013 0
0.386139 0.092695 0
0.376922 0.085120 0
0.372223 0.080555 0
0.076834 0.120199 0
0.034077 0.082283 0
0.036834 0.091590 0
0.026548 0.090026 0
0.045052 0.084094 0
0.052125 0.086686 0
0.031146 0.094392 0
0.015656 0.073965 0
0.043735 0.090904 0
0.018868 0.083511 0
0.033728 0.056736 0
0.000000 0.078125 0
0.025902 0.075831 0
0.046210 0.059287 0
0.008167 0.086295 0
0.026961 0.082895 0
0.022867 0.063436 0
0.037564 0.069459 0
0.052992 0.060674 0
0.012343 0.080393 0
0.021614 0.070312 0
0.029499 0.068196 0
0.033090 0.075129 0
0.041126 0.076870 0
0.080043 0.092124 0
0.110691 0.048542 0
0.000000 0.945313 0
0.000000 0.960938 0
0.015387 0.964976 0
0.007327 0.964351 0
0.014594 0.981936 0
0.822427 0.739896 0
0.835669 0.747621 0
0.827996 0.745561 0
0.831982 0.738159 0
0.828949 0.757334 0
0.840011 0.740480 0
0.862333 0.718639 0
0.828843 0.705177 0
0.700815 0.970772 0
0.709709 0.973693 0
0.703125 1.000000 0
0.691218 0.985490 0
0.724957 0.930997 0
0.725429 0.921797 0
0.731337 0.936260 0
0.747722 0.904022 0
0.745483 0.922574 0
0.740678 0.915023 0
0.737243 0.922513 0
0.748338 0.915453 0
0.762850 0.920270 0
0.754237 0.921950 0
0.741302 0.930813 0
0.757341 0.914949 0
0.759869 0.927908 0
0.750367 0.929377 0
0.759009 0.948985 0
0.734713 0.973353 0
0.741480 0.969703 0
0.761985 0.982338 0
0.734375 1.000000 0
0.782130 0.890557 0
0.773076 0.891136 0
0.777270 0.885652 0
0.805938 0.774031 0
0.804722 0.767822 0
0.814000 0.771147 0
0.801889 0.783263 0
0.798629 0.773287 0
0.807021 0.788073 0
0.804760 0.804721 0
0.823992 0.800038 0
0.815289 0.794364 0
0.817738 0.816186 0
0.814890 0.804489 0
0.809531 0.812398 0
0.809633 0.822961 0
0.809715 0.799825 0
0.822636 0.808798 0
0.832243 0.805801 0
0.829544 0.838545 0
0.812221 0.835532 0
0.840739 0.784848 0
0.833280 0.822370 0
0.826535 0.816700 0
0.834584 0.813971 0
0.822464 0.828391 0
0.826726 0.823321 0
0.831097 0.830385 0
0.855240 0.832657 0
0.843366 0.829422 0
0.808089 0.829831 0
0.834100 0.794355 0
0.816969 0.823501 0
0.844180 0.818738 0
0.830415 0.799630 0
0.824692 0.789453 0
0.824625 0.777217 0
0.838641 0.800965 0
0.839804 0.823777 0
0.870592 0.807791 0
0.856128 0.797303 0
0.847806 0.801148 0
0.843377 0.793386 0
0.857338 0.810852 0
0.854309 0.804294 0
0.863134 0.802859 0
0.870343 0.786571 0
0.864627 0.793780 0
0.855108 0.782830 0
0.876235 0.797113 0
0.862376 0.786124 0
0.848390 0.787161 0
0.869967 0.800631 0
0.871118 0.793055 0
0.856228 0.790024 0
0.866352 0.767687 0
0.866859 0.777444 0
0.851048 0.824635 0
0.851899 0.816696 0
0.864770 0.822571 0
0.858265 0.825970 0
0.859103 0.817948 0
0.866469 0.814703 0
0.881836 0.819182 0
0.873183 0.820271 0
0.876668 0.813038 0
0.878392 0.826746 0
0.869327 0.832011 0
0.817699 0.787522 0
0.832416 0.786107 0
0.857724 0.773026 0
0.874714 0.772144 0
0.866226 0.860838 0
0.860466 0.779009 0
0.846730 0.775343 0
0.855461 0.759730 0
0.880172 0.751832 0
0.877069 0.780733 0
0.890730 0.789640 0
0.885164 0.783248 0
0.891347 0.805936 0
0.882399 0.791275 0
0.884910 0.811351 0
0.888026 0.797902 0
0.876964 0.787405 0
0.879315 0.804998 0
0.870426 0.846709 0
0.852813 0.776967 0
0.859291 0.765919 0
0.850395 0.767145 0
0.875095 0.761357 0
0.872673 0.839151 0
0.862357 0.840198 0
0.865541 0.757365 0
0.888426 0.762347 0
0.862319 0.833104 0
0.860049 0.851313 0
0.857833 0.747172 0
0.872596 0.753910 0
0.873004 0.740548 0
0.874853 0.747291 0
0.866337 0.748081 0
0.884250 0.741671 0
0.881979 0.758911 0
0.864056 0.846348 0
0.859429 0.753976 0
0.879030 0.737067 0
0.870031 0.728442 0
0.906819 0.731936 0
0.892307 0.750803 0
0.881191 0.767089 0
0.894423 0.734225 0
0.885980 0.748264 0
0.887541 0.735496 0
0.735790 0.554260 0
0.746305 0.558604 0
0.748020 0.549642 0
0.719904 0.535720 0
0.742379 0.553207 0
0.715926 0.523974 0
0.736605 0.537342 0
0.740972 0.544736 0
0.713806 0.517713 0
0.722778 0.518164 0
0.733224 0.525207 0
0.729345 0.519692 0
0.705838 0.526855 0
0.702806 0.538888 0
0.705163 0.520263 0
0.712656 0.531627 0
0.701385 0.532131 0
0.791330 0.490536 0
0.812620 0.511238 0
0.857071 0.524290 0
0.860769 0.510268 0
0.854889 0.505282 0
0.852825 0.513676 0
0.825878 0.517269 0
0.820586 0.508880 0
0.825789 0.496398 0
0.674926 0.358085 0
0.664496 0.359559 0
0.671882 0.334979 0
0.678146 0.348157 0
0.670234 0.343840 0
0.679794 0.339296 0
0.686394 0.317794 0
0.691697 0.332476 0
0.694964 0.339388 0
0.698812 0.333341 0
0.697096 0.321979 0
0.680895 0.327870 0
0.686932 0.337956 0
0.724520 0.370262 0
0.714214 0.373909 0
0.712367 0.358480 0
0.722379 0.380597 0
0.711498 0.379976 0
0.717120 0.365736 0
0.709210 0.365733 0
0.702188 0.364274 0
0.732697 0.377346 0
0.728664 0.385622 0
0.718249 0.386047 0
0.739509 0.361221 0
0.727142 0.357663 0
0.723576 0.363493 0
0.732029 0.365764 0
0.742651 0.379390 0
0.740019 0.370489 0
0.748990 0.365348 0
0.743809 0.386658 0
0.750570 0.376860 0
0.747103 0.356730 0
0.737042 0.340460 0
0.746263 0.343724 0
0.752913 0.359974 0
0.738481 0.350816 0
0.746581 0.371543 0
0.744401 0.334329 0
0.734174 0.356495 0
0.728402 0.346938 0
0.745156 0.350326 0
0.751757 0.336727 0
0.726133 0.319883 0
0.719381 0.351314 0
0.733749 0.329025 0
0.719227 0.358179 0
0.709730 0.348884 0
0.717971 0.336922 0
0.737909 0.334019 0
0.704391 0.355511 0
0.698065 0.352628 0
0.721336 0.343858 0
0.727634 0.336518 0
0.709185 0.339689 0
0.714501 0.343987 0
0.722464 0.328600 0
0.713834 0.329315 0
0.755974 0.417597 0
0.797797 0.363394 0
0.786478 0.365827 0
0.780153 0.365292 0
0.798728 0.398641 0
0.790070 0.393432 0
0.797620 0.390682 0
0.789187 0.404700 0
0.785971 0.398779 0
0.792443 0.399286 0
0.764570 0.324502 0
0.632813 0.000000 0
0.639481 0.018522 0
0.761373 0.144649 0
0.718453 0.118261 0
0.741917 0.124812 0
0.696363 0.087940 0
0.739983 0.087158 0
0.733572 0.089675 0
0.722689 0.091472 0
0.746534 0.088225 0
0.709450 0.090275 0
0.715797 0.093892 0
0.717195 0.078422 0
0.716967 0.086199 0
0.723207 0.082490 0
0.726408 0.071285 0
0.739494 0.073834 0
0.745404 0.079861 0
0.755933 0.063624 0
0.748854 0.070566 0
0.736966 0.080598 0
0.737446 0.052932 0
0.760478 0.075340 0
0.745598 0.060165 0
0.755691 0.070458 0
0.752491 0.077285 0
0.742324 0.066901 0
0.750733 0.046169 0
0.753083 0.054971 0
0.758065 0.048926 0
0.764409 0.057350 0
0.745417 0.052159 0
0.764905 0.066883 0
0.788993 0.054896 0
0.783971 0.082249 0
0.776433 0.053438 0
0.772911 0.076460 0
0.769524 0.052636 0
0.772476 0.061710 0
0.781904 0.061137 0
0.771977 0.069106 0
0.796335 0.070382 0
0.790445 0.063691 0
0.801165 0.057404 0
0.786808 0.072831 0
0.779151 0.071931 0
0.797492 0.063425 0
0.805325 0.068302 0
0.806001 0.061801 0
0.823191 0.083059 0
0.815757 0.073865 0
0.811720 0.068873 0
0.777453 0.065750 0
0.764838 0.098240 0
0.755678 0.110125 0
0.747650 0.110285 0
0.751507 0.102318 0
0.751803 0.117167 0
0.756260 0.094027 0
0.759091 0.103283 0
0.769511 0.109361 0
0.765596 0.124467 0
0.757727 0.122655 0
0.763437 0.115847 0
0.759329 0.133688 0
0.762699 0.109069 0
0.762797 0.085683 0
0.757832 0.081364 0
0.766375 0.079449 0
0.774036 0.087990 0
0.732221 0.167761 0
0.713977 0.170214 0
0.706771 0.173868 0
0.707114 0.181263 0
0.342675 0.006916 0
0.359375 0.000000 0
0.335997 0.026928 0
0.334153 0.016803 0
0.364951 0.022831 0
0.371453 0.027915 0
0.367295 0.032965 0
0.392752 0.020628 0
0.382992 0.026871 0
0.342476 0.101264 0
0.348712 0.090735 0
0.365411 0.099156 0
0.353086 0.108021 0
0.347643 0.111629 0
0.356883 0.100299 0
0.360183 0.092538 0
0.362151 0.107214 0
0.369364 0.090659 0
0.370479 0.105895 0
0.381869 0.103518 0
0.377491 0.093822 0
0.372579 0.099042 0
0.388482 0.080449 0
0.389049 0.072598 0
0.042782 0.044250 0
0.008372 0.094721 0
0.000000 0.085938 0
0.011418 0.063330 0
0.017693 0.042896 0
0.039145 0.062042 0
0.821986 0.754874 0
0.837086 0.755783 0
0.846670 0.749915 0
0.853573 0.727523 0
0.851711 0.707237 0
0.707777 0.988575 0
0.695640 0.978709 0
0.699660 0.986163 0
0.702071 0.992911 0
0.695313 1.000000 0
0.691406 0.993269 0
0.752128 0.945384 0
0.758496 0.941589 0
0.752444 0.976459 0
0.734843 0.987711 0
0.799236 0.893482 0
0.782180 0.898720 0
0.790244 0.894589 0
0.788901 0.887111 0
0.798653 0.790267 0
0.802240 0.821172 0
0.817893 0.853177 0
0.820883 0.837039 0
0.823799 0.845925 0
0.814633 0.844491 0
0.807701 0.852047 0
0.798851 0.852838 0
0.808597 0.841312 0
0.804376 0.864747 0
0.798449 0.874004 0
0.793377 0.858136 0
0.803755 0.857799 0
0.812469 0.860522 0
0.822795 0.862472 0
0.836941 0.850230 0
0.797932 0.867147 0
0.825337 0.888857 0
0.828837 0.855160 0
0.831144 0.845717 0
0.814074 0.877482 0
0.811819 0.869140 0
0.820608 0.871240 0
0.806409 0.875078 0
0.822815 0.880091 0
0.807198 0.885985 0
0.830604 0.873447 0
0.816384 0.886687 0
0.817274 0.902565 0
0.819232 0.894491 0
0.809116 0.896313 0
0.797898 0.884085 0
0.827572 0.867339 0
0.850670 0.873512 0
0.802854 0.912934 0
0.840646 0.870833 0
0.801837 0.903061 0
0.844511 0.859504 0
0.841643 0.887193 0
0.809598 0.904133 0
0.815413 0.913024 0
0.795002 0.908753 0
0.787445 0.932410 0
0.793060 0.901524 0
0.786211 0.918980 0
0.788820 0.912331 0
0.839854 0.864239 0
0.847116 0.866717 0
0.854656 0.859916 0
0.837472 0.879237 0
0.845653 0.880020 0
0.833332 0.886478 0
0.859041 0.885154 0
0.836094 0.903042 0
0.853114 0.880585 0
0.863285 0.873111 0
0.826740 0.900585 0
0.836836 0.894406 0
0.851871 0.899217 0
0.843547 0.899333 0
0.847613 0.892476 0
0.855501 0.892209 0
0.864468 0.892293 0
0.876591 0.911273 0
0.872458 0.900551 0
0.822246 0.908845 0
0.830626 0.909420 0
0.849013 0.928524 0
0.838287 0.920447 0
0.832641 0.916195 0
0.844608 0.910810 0
0.814055 0.935635 0
0.809149 0.910774 0
0.860655 0.857685 0
0.829818 0.880413 0
0.817461 0.924493 0
0.808901 0.920302 0
0.819375 0.918234 0
0.810252 0.928380 0
0.800237 0.938255 0
0.806747 0.934842 0
0.809245 0.945904 0
0.797323 0.923639 0
0.795264 0.916336 0
0.802856 0.928550 0
0.802393 0.919477 0
0.795472 0.931764 0
0.817227 0.777833 0
0.831545 0.768310 0
0.835289 0.762477 0
0.835303 0.777046 0
0.839557 0.770040 0
0.849275 0.809751 0
0.867202 0.853439 0
0.884703 0.857687 0
0.876402 0.853710 0
0.880823 0.844820 0
0.910408 0.835443 0
0.894856 0.837735 0
0.888285 0.829752 0
0.896601 0.818716 0
0.889174 0.817544 0
0.886660 0.838943 0
0.892331 0.849009 0
0.898019 0.828436 0
0.909989 0.821727 0
0.902415 0.835119 0
0.905725 0.828153 0
0.905886 0.848244 0
0.900764 0.842577 0
0.862315 0.736754 0
0.866611 0.741607 0
0.879483 0.713095 0
0.906061 0.761851 0
0.902580 0.743691 0
0.892607 0.742418 0
0.736861 0.568621 0
0.731279 0.574293 0
0.742255 0.574730 0
0.749401 0.514605 0
0.740120 0.509530 0
0.738519 0.503231 0
0.749197 0.503953 0
0.740856 0.519209 0
0.752054 0.497269 0
0.766850 0.508943 0
0.758698 0.504061 0
0.751219 0.528211 0
0.758649 0.513388 0
0.741933 0.528435 0
0.746752 0.535626 0
0.747739 0.521751 0
0.768669 0.522087 0
0.765292 0.515856 0
0.774324 0.514259 0
0.759248 0.523164 0
0.779055 0.499694 0
0.783688 0.509250 0
0.774404 0.506234 0
0.768032 0.496778 0
0.765237 0.533806 0
0.773343 0.535933 0
0.761314 0.540758 0
0.770810 0.529076 0
0.756178 0.534556 0
0.760325 0.529564 0
0.789304 0.500626 0
0.791744 0.516173 0
0.765092 0.502632 0
0.784699 0.494453 0
0.776754 0.473431 0
0.782554 0.483251 0
0.802603 0.498048 0
0.788149 0.521975 0
0.791562 0.508237 0
0.796587 0.502605 0
0.803775 0.505845 0
0.798130 0.512056 0
0.798364 0.519431 0
0.728594 0.533036 0
0.722382 0.528334 0
0.701267 0.554526 0
0.692187 0.553290 0
0.695852 0.560338 0
0.704174 0.562664 0
0.848442 0.526363 0
0.830051 0.502590 0
0.659499 0.355016 0
0.689799 0.324863 0
0.699571 0.299870 0
0.669609 0.322828 0
0.665321 0.315242 0
0.677377 0.303966 0
0.675775 0.314337 0
0.669806 0.307955 0
0.666039 0.297491 0
0.683012 0.310146 0
0.688093 0.299854 0
0.694237 0.309754 0
0.676907 0.321644 0
0.743050 0.313533 0
0.743244 0.323962 0
0.735112 0.320147 0
0.801226 0.374345 0
0.788651 0.349995 0
0.778472 0.350245 0
0.783720 0.356563 0
0.791920 0.357584 0
0.797581 0.350646 0
0.797400 0.407092 0
0.785623 0.415452 0
0.793935 0.414686 0
0.783410 0.428450 0
0.776519 0.429902 0
0.790508 0.422971 0
0.800290 0.442983 0
0.793343 0.433982 0
0.759573 0.329742 0
0.755162 0.317815 0
0.750025 0.322481 0
0.791775 0.318526 0
0.770707 0.333268 0
0.766824 0.338265 0
0.778172 0.321510 0
0.783258 0.337791 0
0.771993 0.325836 0
0.770755 0.317493 0
0.779528 0.330022 0
0.782136 0.300298 0
0.785985 0.324629 0
0.779215 0.310729 0
0.798542 0.330744 0
0.793229 0.325703 0
0.790655 0.333736 0
0.797065 0.338740 0
0.793515 0.344858 0
0.783436 0.345006 0
0.775686 0.339128 0
0.771584 0.302968 0
0.789602 0.308012 0
0.784236 0.316656 0
0.777625 0.304659 0
0.771971 0.310219 0
0.755464 0.297134 0
0.773502 0.288363 0
0.783615 0.306336 0
0.801141 0.289374 0
0.808513 0.309584 0
0.803530 0.320165 0
0.762548 0.302749 0
0.753061 0.307442 0
0.764569 0.292924 0
0.775446 0.296047 0
0.793018 0.297236 0
0.798732 0.311606 0
0.758133 0.311813 0
0.749880 0.313485 0
0.755771 0.285849 0
0.788403 0.301703 0
0.796364 0.304227 0
0.758416 0.291568 0
0.765200 0.283132 0
0.755588 0.267489 0
0.773676 0.278885 0
0.758225 0.276644 0
0.774414 0.257660 0
0.751158 0.279689 0
0.767207 0.269099 0
0.767046 0.276236 0
0.761040 0.270876 0
0.776756 0.269818 0
0.772365 0.264359 0
0.762435 0.257659 0
0.794641 0.260806 0
0.786808 0.267514 0
0.780438 0.262804 0
0.799727 0.274673 0
0.791202 0.274820 0
0.795355 0.268410 0
0.807217 0.263461 0
0.795598 0.282489 0
0.633892 0.007271 0
0.693298 0.103803 0
0.707638 0.099778 0
0.701412 0.105154 0
0.696208 0.111363 0
0.698665 0.096613 0
0.677658 0.114164 0
0.702581 0.090931 0
0.704686 0.078599 0
0.686623 0.110713 0
0.710409 0.083074 0
0.695626 0.068759 0
0.689151 0.065797 0
0.686419 0.123551 0
0.692301 0.118250 0
0.683158 0.134737 0
0.696130 0.125051 0
0.675447 0.095051 0
0.683931 0.117091 0
0.679016 0.104322 0
0.666066 0.091192 0
0.666458 0.107604 0
0.685877 0.096359 0
0.692327 0.093653 0
0.665645 0.084298 0
0.679372 0.081426 0
0.687404 0.085892 0
0.688255 0.075843 0
0.680368 0.089091 0
0.673191 0.086126 0
0.673416 0.108564 0
0.662983 0.099476 0
0.670558 0.101045 0
0.659856 0.105619 0
0.686137 0.103520 0
0.673462 0.076723 0
0.696500 0.077045 0
0.681323 0.074672 0
0.718434 0.070506 0
0.707304 0.066057 0
0.729643 0.060734 0
0.734141 0.067606 0
0.737667 0.060691 0
0.724745 0.065004 0
0.779676 0.035915 0
0.797463 0.044582 0
0.841569 0.060319 0
0.803399 0.091461 0
0.803247 0.079789 0
0.793476 0.079977 0
0.798473 0.085688 0
0.790987 0.097063 0
0.773741 0.101042 0
0.770924 0.094449 0
0.782042 0.097655 0
0.786049 0.090333 0
0.793124 0.090319 0
0.778144 0.119659 0
0.770560 0.118643 0
0.750286 0.141045 0
0.777125 0.081869 0
0.726626 0.163365 0
0.728505 0.182874 0
0.357690 0.009792 0
0.365949 0.013734 0
0.375288 0.010040 0
0.351563 0.000000 0
0.390625 0.000000 0
0.382318 0.017000 0
0.352048 0.006509 0
0.382813 0.000000 0
0.386719 0.008621 0
0.386542 0.021670 0
0.380614 0.006192 0
0.398438 0.008735 0
0.388834 0.015077 0
0.392603 0.006092 0
0.402470 0.024350 0
0.400816 0.031966 0
0.390559 0.034124 0
0.399826 0.016705 0
0.394595 0.027854 0
0.391359 0.042787 0
0.386760 0.048020 0
0.383164 0.039175 0
0.398427 0.103796 0
0.383304 0.111715 0
0.390103 0.106301 0
0.387781 0.099597 0
0.396500 0.112476 0
0.404589 0.109718 0
0.409999 0.097921 0
0.418251 0.100907 0
0.405237 0.102877 0
0.419200 0.108197 0
0.383974 0.085934 0
0.380795 0.078063 0
0.050889 0.050311 0
0.043271 0.052048 0
0.050483 0.042402 0
0.060397 0.046741 0
0.076250 0.034807 0
0.081454 0.046118 0
0.085525 0.051426 0
0.075231 0.054734 0
0.066909 0.055298 0
0.066744 0.038676 0
0.070524 0.046950 0
0.089208 0.031615 0
0.064109 0.019394 0
0.075639 0.041941 0
0.094066 0.036952 0
0.086131 0.039294 0
0.097466 0.028978 0
0.088577 0.015390 0
0.098333 0.018709 0
0.091139 0.023415 0
0.080780 0.025302 0
0.062791 0.029395 0
0.096075 0.009346 0
0.108531 0.015817 0
0.082408 0.031910 0
0.071350 0.025436 0
0.109375 0.000000 0
0.078125 0.000000 0
0.069680 0.032276 0
0.102175 0.012828 0
0.101563 0.000000 0
0.108383 0.007878 0
0.117188 0.000000 0
0.075618 0.012960 0
0.117501 0.008912 0
0.075990 0.020055 0
0.000000 0.070313 0
0.007441 0.073799 0
0.023524 0.052349 0
0.000000 0.046875 0
0.851352 0.744885 0
0.847654 0.731609 0
0.846794 0.721295 0
0.846464 0.713291 0
0.854516 0.719693 0
0.844025 0.705877 0
0.840855 0.693336 0
0.857522 0.712472 0
0.864571 0.698803 0
0.859250 0.704711 0
0.852062 0.695774 0
0.869496 0.708590 0
0.833700 0.693629 0
0.876210 0.699079 0
0.871457 0.717565 0
0.879319 0.722242 0
0.895031 0.717949 0
0.888252 0.724038 0
0.887120 0.715960 0
0.896269 0.726145 0
0.895734 0.698426 0
0.893299 0.708112 0
0.870317 0.702044 0
0.876492 0.706403 0
0.885390 0.702392 0
0.916031 0.708678 0
0.883796 0.692434 0
0.904595 0.711194 0
0.888593 0.673573 0
0.889134 0.696686 0
0.894075 0.685007 0
0.898220 0.712316 0
0.900292 0.704721 0
0.883665 0.682360 0
0.889800 0.680025 0
0.899242 0.674920 0
0.887939 0.687342 0
0.916141 0.685306 0
0.907679 0.694575 0
0.909151 0.677738 0
0.907696 0.686094 0
0.900505 0.690320 0
0.893869 0.691805 0
0.861861 0.726934 0
0.708672 0.981683 0
0.718944 0.988832 0
0.710938 1.000000 0
0.765244 0.964996 0
0.751740 0.988283 0
0.742188 1.000000 0
0.746094 0.993432 0
0.743831 0.985282 0
0.846385 0.841750 0
0.837908 0.840444 0
0.842922 0.836064 0
0.854338 0.840637 0
0.850059 0.851043 0
0.855165 0.847060 0
0.843372 0.852707 0
0.856806 0.867929 0
0.867561 0.881388 0
0.877889 0.870808 0
0.877421 0.862235 0
0.870969 0.874383 0
0.878700 0.880861 0
0.891207 0.874792 0
0.883773 0.875392 0
0.885876 0.866626 0
0.893023 0.861142 0
0.894570 0.868294 0
0.900592 0.855828 0
0.899132 0.849182 0
0.829814 0.894269 0
0.861446 0.910954 0
0.847386 0.919524 0
0.853010 0.912931 0
0.850226 0.906258 0
0.859816 0.922985 0
0.853076 0.923143 0
0.828834 0.927408 0
0.800388 0.947205 0
0.783745 0.957936 0
0.790384 0.942898 0
0.793312 0.954501 0
0.776058 0.941256 0
0.767339 0.944692 0
0.786329 0.950092 0
0.776452 0.951186 0
0.783057 0.943508 0
0.794055 0.948143 0
0.774265 0.960865 0
0.785097 0.979122 0
0.766291 0.955369 0
0.774419 0.973116 0
0.792757 0.967997 0
0.770170 0.950360 0
0.771629 0.967024 0
0.781323 0.966902 0
0.787396 0.963733 0
0.781147 0.973650 0
0.797650 0.961439 0
0.817912 0.975776 0
0.805237 0.972203 0
0.799684 0.968061 0
0.796166 0.978569 0
0.829276 0.949026 0
0.790053 0.925399 0
0.825210 0.770529 0
0.826874 0.763620 0
0.885273 0.850497 0
0.868907 0.735136 0
0.854866 0.735055 0
0.897152 0.758856 0
0.900351 0.751447 0
0.910630 0.750202 0
0.911894 0.740408 0
0.914333 0.758375 0
0.935964 0.774385 0
0.926502 0.764551 0
0.921492 0.759345 0
0.906010 0.755110 0
0.926124 0.726129 0
0.916706 0.746008 0
0.922183 0.736432 0
0.914889 0.732858 0
0.912171 0.720872 0
0.903350 0.720884 0
0.941706 0.737995 0
0.932174 0.734348 0
0.932711 0.747228 0
0.930107 0.756069 0
0.936937 0.763979 0
0.924883 0.744330 0
0.935218 0.740673 0
0.931966 0.768763 0
0.918272 0.782733 0
0.923472 0.774133 0
0.916740 0.767508 0
0.950896 0.770533 0
0.929528 0.783666 0
0.942736 0.769770 0
0.924132 0.780404 0
0.901266 0.736575 0
0.743865 0.565763 0
0.737966 0.561318 0
0.725883 0.561180 0
0.729786 0.567240 0
0.714692 0.556991 0
0.707791 0.556783 0
0.707440 0.547239 0
0.712555 0.540271 0
0.722141 0.547542 0
0.714793 0.547275 0
0.726187 0.540653 0
0.730486 0.547811 0
0.728711 0.554676 0
0.721516 0.554710 0
0.778892 0.527433 0
0.786086 0.529222 0
0.790292 0.534153 0
0.767432 0.483251 0
0.760842 0.486096 0
0.775624 0.490370 0
0.768784 0.489968 0
0.774993 0.482823 0
0.789846 0.472321 0
0.698676 0.546376 0
0.673930 0.328307 0
0.661537 0.330626 0
0.674425 0.295972 0
0.658473 0.300048 0
0.660436 0.293385 0
0.665100 0.288681 0
0.693856 0.283812 0
0.682735 0.285684 0
0.688503 0.306456 0
0.693080 0.316472 0
0.800534 0.381070 0
0.792018 0.374465 0
0.796562 0.369793 0
0.821455 0.361999 0
0.809980 0.355352 0
0.804624 0.350776 0
0.784310 0.409050 0
0.781278 0.421400 0
0.801916 0.425905 0
0.797132 0.420860 0
0.783829 0.448507 0
0.762147 0.317950 0
0.816524 0.319820 0
0.784889 0.289216 0
0.749036 0.291312 0
0.729172 0.297878 0
0.738408 0.292491 0
0.730936 0.309334 0
0.744726 0.300955 0
0.726293 0.282332 0
0.736283 0.313482 0
0.738110 0.305604 0
0.750976 0.301522 0
0.746275 0.307562 0
0.730526 0.289588 0
0.735585 0.281775 0
0.736014 0.298997 0
0.729610 0.259907 0
0.730304 0.271467 0
0.753287 0.258587 0
0.742421 0.266144 0
0.743598 0.274976 0
0.749254 0.264378 0
0.737458 0.271300 0
0.750388 0.272505 0
0.768425 0.239798 0
0.802578 0.254319 0
0.808575 0.257024 0
0.801219 0.260756 0
0.787535 0.244011 0
0.783432 0.253198 0
0.803382 0.237016 0
0.793547 0.251368 0
0.775012 0.247524 0
0.787237 0.259653 0
0.805660 0.245792 0
0.797177 0.243310 0
0.792389 0.232385 0
0.768424 0.252221 0
0.759533 0.248446 0
0.778952 0.237494 0
0.781580 0.246862 0
0.792021 0.239058 0
0.765815 0.246009 0
0.771727 0.229686 0
0.777767 0.231343 0
0.749949 0.228169 0
0.771381 0.209823 0
0.760648 0.231663 0
0.759886 0.240041 0
0.774314 0.219706 0
0.766718 0.233645 0
0.764737 0.222549 0
0.768059 0.216186 0
0.759271 0.207548 0
0.757044 0.224571 0
0.747565 0.214674 0
0.758946 0.216163 0
0.750803 0.221060 0
0.835716 0.269262 0
0.822102 0.263241 0
0.674836 0.125579 0
0.688682 0.130279 0
0.677106 0.141999 0
0.679202 0.148506 0
0.667958 0.135859 0
0.650506 0.143018 0
0.669075 0.129166 0
0.675437 0.133668 0
0.657384 0.134933 0
0.662098 0.141938 0
0.644201 0.130688 0
0.636827 0.125246 0
0.637187 0.132476 0
0.641277 0.140993 0
0.649912 0.135545 0
0.653028 0.125868 0
0.649400 0.117843 0
0.644063 0.123158 0
0.640991 0.164341 0
0.659464 0.116490 0
0.643546 0.152697 0
0.668709 0.118398 0
0.644937 0.146355 0
0.655018 0.100607 0
0.710846 0.073341 0
0.702431 0.071584 0
0.700015 0.061139 0
0.783693 0.045720 0
0.782932 0.052278 0
0.774537 0.044380 0
0.789383 0.037664 0
0.790792 0.047738 0
0.796130 0.037962 0
0.812582 0.047163 0
0.808086 0.035893 0
0.830115 0.069858 0
0.812823 0.083841 0
0.809842 0.077545 0
0.817737 0.079867 0
0.806440 0.085584 0
0.776414 0.112342 0
0.749973 0.133026 0
0.756811 0.139829 0
0.750473 0.159327 0
0.741031 0.142176 0
0.746711 0.150224 0
0.736042 0.151521 0
0.754201 0.147856 0
0.742173 0.157428 0
0.744456 0.166540 0
0.762634 0.175588 0
0.738622 0.169995 0
0.734174 0.176914 0
0.752460 0.173245 0
0.759689 0.165113 0
0.761689 0.154976 0
0.755284 0.184243 0
0.752633 0.166120 0
0.772299 0.167219 0
0.756914 0.159300 0
0.771781 0.149499 0
0.756719 0.178013 0
0.748730 0.180065 0
0.739473 0.187631 0
0.765499 0.169131 0
0.766926 0.161157 0
0.773941 0.160351 0
0.765355 0.149696 0
0.724309 0.173829 0
0.720970 0.180874 0
0.720990 0.195992 0
0.722997 0.188430 0
0.712993 0.189418 0
0.731561 0.194750 0
0.709464 0.201861 0
0.732748 0.188113 0
0.744276 0.200926 0
0.726985 0.201411 0
0.718348 0.206454 0
0.735667 0.202474 0
0.710806 0.219697 0
0.741268 0.208913 0
0.706363 0.226225 0
0.706902 0.194413 0
0.713945 0.196410 0
0.739173 0.195255 0
0.748504 0.191804 0
0.710497 0.210752 0
0.701855 0.208354 0
0.720465 0.216429 0
0.720214 0.231117 0
0.712606 0.230603 0
0.745762 0.185879 0
0.697307 0.214775 0
0.704715 0.215430 0
0.734547 0.223956 0
0.742456 0.221279 0
0.736142 0.215646 0
0.728425 0.218474 0
0.726824 0.226421 0
0.735694 0.240882 0
0.733038 0.232560 0
0.742472 0.234134 0
0.725767 0.239465 0
0.714330 0.242247 0
0.740225 0.227710 0
0.717551 0.223725 0
0.702055 0.221359 0
0.751110 0.237292 0
0.753848 0.243934 0
0.729419 0.249361 0
0.719293 0.237751 0
0.706921 0.245736 0
0.716280 0.256001 0
0.708226 0.253945 0
0.713687 0.249353 0
0.721553 0.250115 0
0.709114 0.267269 0
0.710852 0.260461 0
0.720310 0.266438 0
0.739687 0.250399 0
0.744935 0.257071 0
0.737145 0.257798 0
0.734987 0.264603 0
0.744283 0.242874 0
0.407106 0.116645 0
0.399071 0.090732 0
0.412182 0.104785 0
0.027086 0.058123 0
0.017197 0.057537 0
0.000000 0.054688 0
0.009482 0.050781 0
0.006756 0.057626 0
0.007970 0.040990 0
0.000000 0.039063 0
0.030343 0.041617 0
0.840707 0.677178 0
0.845529 0.698825 0
0.861230 0.685258 0
0.870565 0.669237 0
0.878967 0.673949 0
0.870679 0.678879 0
0.882905 0.657082 0
0.868261 0.685484 0
0.878495 0.664945 0
0.887385 0.664763 0
0.899220 0.652714 0
0.891658 0.657124 0
0.887329 0.647443 0
0.899607 0.662066 0
0.894566 0.668266 0
0.878298 0.649133 0
0.869153 0.657154 0
0.876022 0.655762 0
0.872269 0.662914 0
0.902214 0.624499 0
0.892504 0.634500 0
0.887254 0.639907 0
0.896306 0.643444 0
0.903244 0.635214 0
0.898177 0.630295 0
0.915338 0.628644 0
0.907895 0.629360 0
0.870512 0.693822 0
0.919653 0.697009 0
0.909014 0.703309 0
0.913176 0.698204 0
0.901148 0.682264 0
0.721842 0.981673 0
0.726865 0.987872 0
0.713257 0.993209 0
0.761044 0.973184 0
0.754693 0.969434 0
0.755804 0.958989 0
0.751291 0.952909 0
0.767752 0.977120 0
0.765625 1.000000 0
0.773426 0.989186 0
0.774740 0.981202 0
0.768587 0.984290 0
0.762910 0.991354 0
0.757813 1.000000 0
0.758867 0.964596 0
0.748665 0.959270 0
0.756363 0.993319 0
0.755266 0.982560 0
0.871178 0.866707 0
0.895684 0.897754 0
0.884971 0.891541 0
0.888143 0.883187 0
0.903995 0.884216 0
0.900548 0.875506 0
0.893108 0.889852 0
0.896154 0.882402 0
0.900950 0.891667 0
0.919202 0.894780 0
0.910423 0.891191 0
0.879455 0.887599 0
0.918897 0.871297 0
0.912981 0.859732 0
0.906043 0.860140 0
0.909799 0.868795 0
0.909311 0.906445 0
0.904048 0.899668 0
0.918877 0.883041 0
0.908872 0.877249 0
0.912354 0.898999 0
0.921863 0.906764 0
0.916449 0.888982 0
0.863068 0.901641 0
0.857173 0.905412 0
0.869084 0.908009 0
0.869053 0.918346 0
0.862721 0.917252 0
0.879677 0.922115 0
0.869518 0.930787 0
0.875338 0.917490 0
0.866447 0.924673 0
0.821633 0.931860 0
0.830521 0.938187 0
0.821401 0.942631 0
0.838735 0.931380 0
0.841170 0.944901 0
0.818132 0.954703 0
0.814775 0.942233 0
0.832602 0.932340 0
0.835125 0.926052 0
0.842704 0.925742 0
0.834232 0.944104 0
0.845854 0.937078 0
0.858469 0.936876 0
0.851004 0.945474 0
0.852122 0.934532 0
0.822445 0.949392 0
0.790419 0.974587 0
0.808178 0.986040 0
0.796875 1.000000 0
0.911173 0.713848 0
0.921547 0.717132 0
0.918908 0.724138 0
0.928777 0.706387 0
0.922889 0.710230 0
0.932944 0.716996 0
0.927279 0.719879 0
0.940816 0.726039 0
0.938449 0.732226 0
0.947311 0.752453 0
0.941137 0.746694 0
0.947598 0.761792 0
0.938919 0.755260 0
0.973892 0.756310 0
0.960261 0.756729 0
0.953007 0.756952 0
0.905215 0.776357 0
0.895278 0.780060 0
0.898799 0.768705 0
0.946195 0.788351 0
0.944149 0.779120 0
0.953176 0.779269 0
0.938057 0.785313 0
0.935864 0.803601 0
0.931983 0.793860 0
0.940958 0.795928 0
0.957156 0.801525 0
0.946779 0.805319 0
0.949838 0.796467 0
0.955917 0.788863 0
0.926776 0.801578 0
0.923290 0.790561 0
0.927595 0.819328 0
0.921770 0.797102 0
0.922793 0.810655 0
0.931645 0.811420 0
0.918539 0.818676 0
0.922217 0.830814 0
0.910955 0.810928 0
0.916324 0.825973 0
0.916823 0.808568 0
0.904295 0.815775 0
0.897944 0.810694 0
0.902554 0.797352 0
0.898242 0.803330 0
0.906168 0.804503 0
0.895216 0.795682 0
0.900847 0.787894 0
0.911216 0.790906 0
0.907638 0.783869 0
0.718863 0.565892 0
0.783567 0.476030 0
0.802821 0.480432 0
0.791544 0.481351 0
0.796759 0.475696 0
0.797606 0.486087 0
0.663001 0.324064 0
0.662289 0.339600 0
0.654294 0.342040 0
0.652916 0.348876 0
0.654288 0.334031 0
0.652978 0.326395 0
0.647558 0.330744 0
0.693842 0.292863 0
0.686229 0.292461 0
0.703427 0.288352 0
0.701716 0.279599 0
0.693757 0.274188 0
0.706769 0.274246 0
0.715293 0.273383 0
0.685524 0.274132 0
0.718529 0.280640 0
0.723035 0.274281 0
0.719374 0.292023 0
0.699679 0.266831 0
0.698260 0.258738 0
0.711727 0.288772 0
0.711267 0.300474 0
0.814920 0.374037 0
0.801945 0.434524 0
0.817003 0.430163 0
0.811945 0.440873 0
0.808850 0.430191 0
0.812888 0.419154 0
0.795404 0.427581 0
0.784340 0.438463 0
0.791867 0.442302 0
0.795139 0.454270 0
0.776827 0.443115 0
0.770743 0.458259 0
0.765772 0.445787 0
0.775915 0.451543 0
0.784121 0.461100 0
0.782531 0.468516 0
0.774893 0.465392 0
0.781725 0.454856 0
0.762539 0.467806 0
0.769549 0.470864 0
0.790670 0.449061 0
0.809940 0.316720 0
0.817985 0.310424 0
0.814495 0.295953 0
0.813801 0.303776 0
0.804955 0.299049 0
0.825256 0.300850 0
0.803028 0.305568 0
0.799363 0.295664 0
0.808021 0.292251 0
0.819404 0.279854 0
0.815121 0.287346 0
0.809122 0.278946 0
0.826863 0.289088 0
0.802793 0.282370 0
0.820422 0.292057 0
0.823593 0.307135 0
0.806903 0.271359 0
0.814724 0.267714 0
0.815267 0.260288 0
0.822239 0.271789 0
0.828395 0.267415 0
0.801796 0.267272 0
0.814678 0.274704 0
0.832870 0.332265 0
0.810288 0.329818 0
0.779566 0.283840 0
0.788134 0.282494 0
0.792572 0.289559 0
0.798773 0.208298 0
0.786531 0.213975 0
0.781607 0.219365 0
0.778934 0.211979 0
0.781403 0.189027 0
0.778187 0.200290 0
0.785065 0.233346 0
0.766875 0.200437 0
0.765683 0.206784 0
0.760463 0.201201 0
0.752337 0.202961 0
0.752704 0.209939 0
0.768259 0.187415 0
0.772571 0.203477 0
0.764746 0.193626 0
0.772873 0.194123 0
0.681248 0.128112 0
0.657358 0.153812 0
0.662322 0.148910 0
0.629063 0.155621 0
0.628574 0.146679 0
0.635622 0.150778 0
0.636182 0.158400 0
0.619266 0.165174 0
0.630257 0.168113 0
0.621385 0.175113 0
0.635213 0.144015 0
0.613272 0.169295 0
0.624037 0.169352 0
0.805430 0.043484 0
0.805954 0.051258 0
0.812741 0.054832 0
0.828470 0.050669 0
0.822251 0.058969 0
0.820101 0.050843 0
0.823967 0.035433 0
0.824138 0.043666 0
0.835122 0.039320 0
0.831905 0.059722 0
0.809016 0.017789 0
0.734155 0.159664 0
0.771204 0.137145 0
0.699515 0.194355 0
0.722459 0.259611 0
0.726857 0.265873 0
0.394927 0.097075 0
0.391960 0.087462 0
0.410671 0.085001 0
0.411836 0.075727 0
0.400007 0.077335 0
0.405646 0.069136 0
0.405018 0.060568 0
0.398017 0.057188 0
0.406359 0.079749 0
0.016672 0.050051 0
0.035401 0.048423 0
0.028711 0.048112 0
0.031250 0.000000 0
0.040773 0.023043 0
0.047001 0.032034 0
0.036338 0.032768 0
0.052496 0.021574 0
0.054685 0.029451 0
0.041996 0.037142 0
0.022783 0.030039 0
0.041451 0.029226 0
0.047018 0.025369 0
0.058925 0.023798 0
0.028989 0.034244 0
0.022380 0.037316 0
0.013653 0.033184 0
0.030962 0.024443 0
0.006574 0.034001 0
0.015625 0.000000 0
0.000000 0.015625 0
0.008869 0.022816 0
0.034228 0.012258 0
0.020351 0.017711 0
0.016191 0.025725 0
0.035197 0.019048 0
0.024212 0.023353 0
0.837252 0.685289 0
0.829799 0.677572 0
0.834969 0.669526 0
0.834542 0.662199 0
0.829152 0.654515 0
0.829804 0.645733 0
0.844760 0.636221 0
0.839069 0.650835 0
0.836062 0.639059 0
0.834219 0.624169 0
0.842393 0.643715 0
0.832757 0.631909 0
0.826095 0.620581 0
0.837415 0.613225 0
0.858641 0.644725 0
0.832242 0.617653 0
0.850056 0.651629 0
0.850643 0.642199 0
0.869333 0.643078 0
0.856091 0.630954 0
0.856358 0.638026 0
0.843302 0.669255 0
0.852735 0.676731 0
0.847494 0.685533 0
0.859536 0.654627 0
0.852640 0.663296 0
0.844296 0.654915 0
0.871090 0.650140 0
0.870672 0.628322 0
0.864203 0.634189 0
0.885305 0.617026 0
0.893032 0.622408 0
0.862144 0.674158 0
0.846803 0.679160 0
0.854327 0.683640 0
0.847041 0.691874 0
0.853582 0.656968 0
0.862249 0.663863 0
0.864086 0.649224 0
0.872895 0.635963 0
0.863469 0.640537 0
0.898863 0.605799 0
0.855948 0.669991 0
0.899471 0.615340 0
0.891776 0.611041 0
0.879930 0.604723 0
0.884755 0.609941 0
0.911199 0.609803 0
0.864179 0.605149 0
0.904237 0.610246 0
0.906706 0.601792 0
0.893505 0.585631 0
0.898361 0.595137 0
0.889535 0.600679 0
0.866760 0.597166 0
0.873683 0.600356 0
0.858597 0.598936 0
0.850698 0.602664 0
0.907823 0.584309 0
0.881983 0.596170 0
0.882070 0.584697 0
0.889261 0.592559 0
0.900928 0.587832 0
0.907626 0.592433 0
0.871593 0.582216 0
0.869258 0.572070 0
0.876050 0.586755 0
0.869677 0.588143 0
0.865389 0.583361 0
0.877415 0.555202 0
0.878782 0.575220 0
0.870898 0.562457 0
0.864779 0.555951 0
0.864634 0.545815 0
0.888439 0.577178 0
0.881037 0.565010 0
0.879042 0.539591 0
0.870814 0.550796 0
0.871978 0.543027 0
0.878484 0.547423 0
0.893340 0.544547 0
0.887189 0.552582 0
0.885526 0.543990 0
0.899844 0.576089 0
0.875509 0.569143 0
0.884633 0.571158 0
0.889149 0.564391 0
0.896950 0.567997 0
0.915474 0.560820 0
0.907859 0.568659 0
0.894736 0.551987 0
0.909832 0.545304 0
0.904902 0.554560 0
0.883541 0.558513 0
0.894401 0.579350 0
0.923794 0.576520 0
0.907661 0.576484 0
0.915736 0.572773 0
0.916460 0.581751 0
0.928905 0.591442 0
0.914829 0.589396 0
0.924126 0.584743 0
0.921371 0.593831 0
0.901500 0.546807 0
0.901722 0.530147 0
0.904306 0.538513 0
0.890230 0.533097 0
0.912200 0.531493 0
0.897137 0.536145 0
0.913004 0.552935 0
0.926092 0.553164 0
0.919510 0.555226 0
0.925207 0.563590 0
0.922026 0.569785 0
0.931293 0.570953 0
0.935328 0.581807 0
0.908078 0.561254 0
0.901502 0.562955 0
0.907824 0.524101 0
0.905596 0.501480 0
0.908886 0.512576 0
0.932484 0.533779 0
0.929770 0.558727 0
0.940970 0.547324 0
0.936777 0.554408 0
0.953542 0.559548 0
0.945780 0.554954 0
0.957918 0.541971 0
0.945053 0.565036 0
0.953789 0.550276 0
0.948803 0.542619 0
0.970373 0.553341 0
0.940727 0.538045 0
0.952626 0.531974 0
0.961469 0.555120 0
0.947199 0.536034 0
0.964525 0.547240 0
0.967351 0.561390 0
0.968926 0.534945 0
0.983643 0.562915 0
0.959717 0.565942 0
0.964623 0.540340 0
0.960872 0.532935 0
0.975705 0.559935 0
0.955471 0.584039 0
0.976800 0.569079 0
0.959822 0.575513 0
1.000000 0.578125 0
0.987999 0.574631 0
0.983499 0.569636 0
0.991916 0.566454 0
1.000000 0.570313 0
0.930329 0.577488 0
0.922648 0.529919 0
0.941217 0.559692 0
0.948873 0.575298 0
0.974324 0.588287 0
0.973087 0.578364 0
0.923724 0.541637 0
0.917592 0.546553 0
0.914819 0.539051 0
0.920527 0.536022 0
0.952217 0.568212 0
0.945175 0.584950 0
0.940191 0.572688 0
0.981994 0.582293 0
0.965300 0.584373 0
0.951209 0.594501 0
0.937969 0.590526 0
0.944779 0.591882 0
0.939106 0.615013 0
0.943646 0.603865 0
0.929161 0.605324 0
0.926972 0.598421 0
0.935880 0.599395 0
0.941561 0.579275 0
0.991833 0.583820 0
0.966252 0.594539 0
0.966306 0.577627 0
0.950648 0.588173 0
1.000000 0.585938 0
0.983460 0.608420 0
0.958730 0.594702 0
0.976503 0.599438 0
0.960242 0.588410 0
0.972609 0.594411 0
0.985396 0.592834 0
0.968388 0.603244 0
0.961026 0.627241 0
0.962530 0.614575 0
0.963333 0.607810 0
0.980693 0.588532 0
0.859379 0.692899 0
0.925453 0.688889 0
0.928123 0.668060 0
0.924241 0.678148 0
0.916701 0.677777 0
0.941486 0.678993 0
0.934088 0.684942 0
0.933003 0.675729 0
0.885296 0.903324 0
0.930423 0.858106 0
0.926244 0.877181 0
0.927925 0.867554 0
0.920766 0.863046 0
0.926200 0.888712 0
0.942239 0.902113 0
0.928914 0.898911 0
0.922581 0.900317 0
0.933309 0.909949 0
0.928375 0.905519 0
0.915600 0.877163 0
0.915466 0.911366 0
0.899482 0.924174 0
0.906387 0.916413 0
0.897484 0.909121 0
0.910749 0.927245 0
0.903964 0.910289 0
0.898790 0.916606 0
0.889777 0.921246 0
0.905878 0.922912 0
0.892001 0.931425 0
0.885170 0.926828 0
0.884151 0.914981 0
0.891638 0.913917 0
0.902613 0.934889 0
0.890222 0.951745 0
0.898221 0.930357 0
0.888428 0.941350 0
0.869569 0.955140 0
0.895618 0.938333 0
0.905460 0.949498 0
0.902054 0.942580 0
0.915676 0.940171 0
0.897612 0.949064 0
0.909214 0.943352 0
0.901099 0.957182 0
0.859116 0.952554 0
0.876268 0.944511 0
0.858813 0.944714 0
0.867491 0.940407 0
0.881617 0.940119 0
0.869455 0.947643 0
0.874485 0.936857 0
0.876321 0.928470 0
0.838024 0.955038 0
0.843330 0.951128 0
0.843336 0.977207 0
0.827987 0.960272 0
0.843333 0.965487 0
0.831616 0.954991 0
0.843332 0.958914 0
0.860318 0.970118 0
0.855728 0.961609 0
0.863024 0.959178 0
0.851377 0.969448 0
0.810659 0.953363 0
0.812588 0.964119 0
0.820321 0.962332 0
0.812339 0.971277 0
0.810848 0.978824 0
0.803481 0.980200 0
0.798038 0.989386 0
0.804688 1.000000 0
0.808594 0.993560 0
0.828125 1.000000 0
0.820313 0.990856 0
0.815721 0.984730 0
0.789063 1.000000 0
0.785156 0.989927 0
0.779051 0.993353 0
0.773438 1.000000 0
0.780799 0.984548 0
0.790914 0.984493 0
0.791744 0.993166 0
0.927255 0.698741 0
0.945018 0.706131 0
0.933460 0.724495 0
0.949592 0.731397 0
0.951775 0.717955 0
0.955626 0.742702 0
0.956430 0.750216 0
0.967983 0.745179 0
0.948471 0.745022 0
0.947943 0.724230 0
0.942407 0.716543 0
0.955084 0.735728 0
0.963066 0.738363 0
1.000000 0.718750 0
0.982173 0.729762 0
0.973500 0.736018 0
0.948556 0.738170 0
0.947827 0.712368 0
0.957258 0.704371 0
0.970740 0.723052 0
0.986068 0.744302 0
0.974978 0.728927 0
0.967556 0.731080 0
0.981358 0.737772 0
0.977078 0.745823 0
0.908954 0.769297 0
0.914462 0.775426 0
0.891673 0.772719 0
0.955085 0.811948 0
0.943126 0.822292 0
0.935794 0.818536 0
0.940324 0.811128 0
0.934286 0.830515 0
0.952949 0.806106 0
0.963224 0.808148 0
1.000000 0.781250 0
0.981622 0.810239 0
0.971711 0.794279 0
0.972162 0.811493 0
0.965475 0.799994 0
0.960225 0.794833 0
0.973817 0.802837 0
1.000000 0.796875 0
0.985878 0.795332 0
0.978623 0.797117 0
0.983873 0.802820 0
0.992394 0.801089 0
1.000000 0.804688 0
0.954742 0.823636 0
0.957894 0.817880 0
0.910872 0.798514 0
0.687623 0.280751 0
0.705660 0.295504 0
0.720518 0.301235 0
0.726621 0.304135 0
0.714886 0.313100 0
0.715461 0.306104 0
0.717524 0.321413 0
0.707343 0.320069 0
0.704828 0.309781 0
0.701301 0.316094 0
0.699541 0.306236 0
0.808144 0.377350 0
0.807894 0.366245 0
0.804235 0.359898 0
0.815425 0.366518 0
0.821478 0.438825 0
0.831564 0.467018 0
0.820019 0.455248 0
0.818207 0.446811 0
0.829778 0.448738 0
0.807628 0.453496 0
0.814145 0.452096 0
0.827109 0.442541 0
0.805927 0.420131 0
0.813867 0.403334 0
0.805908 0.406414 0
0.812327 0.411179 0
0.835102 0.411575 0
0.823750 0.409347 0
0.765506 0.438420 0
0.758944 0.454522 0
0.792666 0.462583 0
0.762932 0.476179 0
0.755618 0.470600 0
0.845845 0.303298 0
0.826772 0.323317 0
0.822960 0.317724 0
0.841847 0.318584 0
0.821302 0.333597 0
0.835288 0.324066 0
0.834282 0.316198 0
0.835400 0.305568 0
0.820026 0.326323 0
0.826737 0.329893 0
0.841928 0.310439 0
0.838275 0.293627 0
0.839723 0.300292 0
0.804150 0.326923 0
0.804854 0.335851 0
0.814027 0.341650 0
0.814688 0.334934 0
0.827883 0.346855 0
0.821981 0.341522 0
0.829411 0.339230 0
0.840012 0.340153 0
0.818847 0.350925 0
0.845623 0.329768 0
0.835614 0.346520 0
0.832940 0.358290 0
0.816502 0.357321 0
0.812114 0.348533 0
0.839688 0.333269 0
0.825918 0.354559 0
0.803095 0.222333 0
0.790875 0.222730 0
0.794634 0.215410 0
0.797120 0.226697 0
0.789562 0.172817 0
0.790985 0.197854 0
0.762485 0.182910 0
0.773070 0.177875 0
0.780289 0.171997 0
0.775233 0.184949 0
0.782678 0.180392 0
0.785615 0.164606 0
0.802230 0.146956 0
0.792234 0.154192 0
0.786856 0.158084 0
0.795406 0.185044 0
0.787993 0.185588 0
0.661839 0.160336 0
0.652356 0.167235 0
0.625943 0.162222 0
0.639035 0.175933 0
0.816129 0.039216 0
0.843750 0.000000 0
0.849755 0.046317 0
0.805336 0.026676 0
0.815821 0.028566 0
0.811246 0.023918 0
0.830831 0.019025 0
0.820514 0.019371 0
0.825921 0.026611 0
0.835266 0.027278 0
0.828125 0.000000 0
0.837605 0.033327 0
0.825368 0.010097 0
0.815808 0.011001 0
0.820313 0.000000 0
0.835938 0.000000 0
0.839844 0.011246 0
0.820193 0.006374 0
0.832511 0.011861 0
0.843408 0.020933 0
0.837478 0.017616 0
0.868999 0.025249 0
0.855766 0.025688 0
0.848581 0.025926 0
0.859375 0.000000 0
0.853187 0.011836 0
0.851955 0.019231 0
0.862275 0.017150 0
0.846392 0.014336 0
0.847450 0.006730 0
0.851563 0.000000 0
0.862332 0.023943 0
0.862853 0.038958 0
0.861231 0.008506 0
0.855283 0.005519 0
0.867188 0.000000 0
0.872604 0.011518 0
0.869454 0.018030 0
0.867780 0.006754 0
0.764394 0.138415 0
0.414080 0.091656 0
0.406550 0.091265 0
0.395941 0.071696 0
0.046875 0.000000 0
0.000000 0.023438 0
0.045446 0.012829 0
0.010707 0.011485 0
0.024588 0.008109 0
0.030968 0.006559 0
0.039063 0.000000 0
0.042969 0.006059 0
0.027315 0.015048 0
0.017916 0.010900 0
0.023438 0.000000 0
0.825124 0.671259 0
0.825665 0.628457 0
0.842193 0.620560 0
0.847397 0.627748 0
0.840167 0.630145 0
0.832098 0.609015 0
0.861899 0.621426 0
0.875857 0.521221 0
0.932016 0.499681 0
0.933506 0.516713 0
0.942870 0.524589 0
0.939198 0.530903 0
0.932796 0.525234 0
0.925100 0.520302 0
0.925183 0.508860 0
0.919613 0.514541 0
1.000000 0.531250 0
0.932840 0.542987 0
0.927611 0.546846 0
0.951509 0.602479 0
0.936700 0.607534 0
0.919575 0.605139 0
0.924120 0.618093 0
0.930891 0.613386 0
0.924092 0.610829 0
0.992821 0.591331 0
1.000000 0.609375 0
0.991004 0.601444 0
0.983665 0.601076 0
0.991681 0.609744 0
1.000000 0.617188 0
0.985312 0.623113 0
0.986538 0.615495 0
0.992758 0.620404 0
0.974441 0.617456 0
0.950908 0.619617 0
0.948952 0.610969 0
0.955400 0.614056 0
0.888770 0.897333 0
0.878336 0.904443 0
0.879210 0.896736 0
0.921341 0.845957 0
0.919823 0.854460 0
0.912532 0.852074 0
0.913010 0.843562 0
0.918018 0.837480 0
0.925944 0.914257 0
0.941771 0.932864 0
0.935507 0.922157 0
0.892399 0.904100 0
0.910230 0.934845 0
0.922612 0.930126 0
0.925874 0.922527 0
0.880039 0.954313 0
0.888391 0.971738 0
0.896454 0.965952 0
0.883746 0.947541 0
0.875778 0.967070 0
0.869689 0.962658 0
0.887215 0.961588 0
0.882888 0.967232 0
0.893786 0.958214 0
0.832782 0.971350 0
0.835687 0.962799 0
0.805171 0.962932 0
0.820313 1.000000 0
0.833752 0.987283 0
0.825259 0.982319 0
0.825628 0.974507 0
0.820819 0.969359 0
0.832690 0.979351 0
0.936946 0.709302 0
0.934965 0.701948 0
0.966964 0.752854 0
0.949202 0.691788 0
0.942131 0.696935 0
0.941513 0.688656 0
0.968647 0.710357 0
0.947498 0.815261 0
0.928150 0.826590 0
0.945802 0.834032 0
0.965682 0.788635 0
0.980959 0.776367 0
0.979921 0.786756 0
0.971906 0.780900 0
0.989540 0.782470 0
0.973151 0.787609 0
0.966506 0.768611 0
0.967052 0.760742 0
0.959186 0.773121 0
0.957246 0.764762 0
1.000000 0.789063 0
0.992021 0.790129 0
0.966760 0.775830 0
0.974016 0.771960 0
0.974106 0.764134 0
1.000000 0.765625 0
0.987342 0.759858 0
0.980097 0.760056 0
0.983512 0.752342 0
0.983940 0.768031 0
0.991662 0.750507 0
0.991930 0.766563 0
1.000000 0.757813 0
1.000000 0.773438 0
0.989220 0.774289 0
0.993369 0.756969 0
1.000000 0.843750 0
0.723129 0.312148 0
0.848966 0.444965 0
0.828937 0.458047 0
0.840863 0.454432 0
0.834169 0.453828 0
0.812456 0.464044 0
0.822105 0.464918 0
0.823565 0.480703 0
0.825368 0.472576 0
0.814822 0.474499 0
0.813120 0.486161 0
0.807320 0.470702 0
0.816949 0.480765 0
0.801630 0.457863 0
0.801155 0.450197 0
0.823583 0.398493 0
0.820249 0.403972 0
0.814399 0.392231 0
0.805812 0.393599 0
0.807997 0.399990 0
0.835296 0.399792 0
0.817240 0.397932 0
0.822020 0.390919 0
0.816767 0.383194 0
0.828918 0.403839 0
0.829777 0.396104 0
0.828172 0.376129 0
0.822230 0.370752 0
0.821292 0.377760 0
0.824667 0.384173 0
0.829005 0.365741 0
0.827170 0.421957 0
0.759749 0.448114 0
0.765934 0.452949 0
0.763575 0.460397 0
0.756273 0.461390 0
0.830871 0.295626 0
0.836491 0.281498 0
0.829833 0.275957 0
0.829741 0.282838 0
0.849292 0.292801 0
0.862155 0.317956 0
0.851888 0.314611 0
0.861544 0.302402 0
0.854345 0.324500 0
0.858973 0.310292 0
0.852210 0.307169 0
0.847442 0.322924 0
0.870641 0.336016 0
0.854080 0.299309 0
0.860370 0.294683 0
0.882200 0.285988 0
0.870553 0.288497 0
0.864013 0.328106 0
0.855887 0.342234 0
0.872033 0.321393 0
0.870687 0.309744 0
0.847582 0.343990 0
0.846416 0.336905 0
0.856592 0.333239 0
0.862899 0.338259 0
0.872116 0.355587 0
0.869325 0.345956 0
0.878485 0.329385 0
0.876383 0.314988 0
0.883662 0.301365 0
0.884838 0.310749 0
0.868404 0.315910 0
0.859888 0.353910 0
0.851039 0.352294 0
0.851373 0.375502 0
0.841515 0.367583 0
0.853498 0.363865 0
0.835586 0.364451 0
0.842210 0.359087 0
0.871246 0.328777 0
0.899215 0.332337 0
0.878004 0.306839 0
0.874514 0.297572 0
0.867141 0.297603 0
0.904909 0.303468 0
0.866375 0.352031 0
0.887368 0.345947 0
0.889223 0.328239 0
0.877187 0.291004 0
0.894047 0.304829 0
0.878348 0.348561 0
0.891299 0.337407 0
0.892294 0.292787 0
0.901180 0.317729 0
0.879874 0.338983 0
0.900605 0.343222 0
0.890138 0.299249 0
0.898708 0.298002 0
0.900398 0.289371 0
0.892930 0.278906 0
0.913413 0.292977 0
0.898569 0.282780 0
0.906164 0.295793 0
0.907638 0.288850 0
0.900193 0.309853 0
0.892777 0.314782 0
0.894785 0.322510 0
0.884347 0.333436 0
0.896072 0.354716 0
0.893813 0.343739 0
0.901187 0.350092 0
0.884274 0.360094 0
0.879070 0.355478 0
0.790447 0.206381 0
0.785098 0.201763 0
0.803613 0.196563 0
0.783558 0.145086 0
0.808411 0.166017 0
0.648193 0.159819 0
0.657892 0.172903 0
0.649288 0.179548 0
0.646109 0.172217 0
0.642676 0.181954 0
0.636808 0.169596 0
0.631874 0.181542 0
0.625154 0.180734 0
0.843807 0.039957 0
0.853033 0.035544 0
0.839652 0.049805 0
0.859735 0.032095 0
0.856159 0.042380 0
0.865542 0.052475 0
0.857032 0.050977 0
0.849110 0.055334 0
0.857334 0.075973 0
0.851078 0.066508 0
0.859673 0.060896 0
0.837002 0.055719 0
0.853202 0.060373 0
0.867504 0.060098 0
0.867957 0.071583 0
0.858461 0.068428 0
0.864551 0.065966 0
0.906250 0.000000 0
0.054688 0.000000 0
0.058594 0.010088 0
0.067730 0.007825 0
0.057638 0.016942 0
0.051128 0.007179 0
0.070313 0.000000 0
0.074517 0.006025 0
0.085938 0.000000 0
0.068960 0.014561 0
0.088401 0.007499 0
0.082585 0.011576 0
0.013493 0.017752 0
0.006540 0.016624 0
0.000000 0.007813 0
0.007813 0.000000 0
0.855776 0.624227 0
0.857724 0.612543 0
0.856942 0.605661 0
0.849230 0.611146 0
0.873047 0.616273 0
0.872785 0.608291 0
0.865398 0.614358 0
0.880847 0.529817 0
0.872540 0.533337 0
0.866050 0.526685 0
0.863433 0.518469 0
0.872556 0.526829 0
0.891045 0.511830 0
0.897848 0.520135 0
0.886196 0.520965 0
0.894806 0.527067 0
0.899998 0.511435 0
0.904481 0.517981 0
0.891848 0.518111 0
0.886937 0.527455 0
0.949928 0.506695 0
0.951977 0.522696 0
0.945703 0.515367 0
0.958474 0.513732 0
0.939890 0.518628 0
0.939489 0.506975 0
0.952285 0.516082 0
0.932210 0.506958 0
0.915626 0.504541 0
0.909598 0.506329 0
0.923289 0.500317 0
0.926144 0.479290 0
0.926932 0.490104 0
0.913804 0.491178 0
0.916783 0.497577 0
0.937037 0.483932 0
0.919921 0.485179 0
0.905498 0.476589 0
0.911576 0.482788 0
0.901340 0.486746 0
0.916630 0.471752 0
0.919241 0.478229 0
0.930395 0.484416 0
0.944386 0.494801 0
0.935002 0.491958 0
0.897390 0.479200 0
0.881419 0.465333 0
0.887979 0.473908 0
0.893450 0.497006 0
0.895224 0.504901 0
0.944578 0.501950 0
0.869608 0.484119 0
0.898377 0.459156 0
0.898650 0.469215 0
0.894994 0.490029 0
0.901433 0.494700 0
0.880151 0.481455 0
0.894270 0.473734 0
0.890507 0.465177 0
0.908567 0.463913 0
0.886223 0.479920 0
0.882633 0.492794 0
0.884680 0.503266 0
0.872337 0.472729 0
0.905364 0.469847 0
0.902282 0.464083 0
0.876260 0.488248 0
0.866439 0.496648 0
0.862041 0.502808 0
0.873296 0.506195 0
0.868366 0.512333 0
0.884398 0.486466 0
0.887084 0.497361 0
0.880176 0.473080 0
0.873957 0.479139 0
0.877570 0.499220 0
0.880818 0.512644 0
0.874536 0.514734 0
0.982505 0.516633 0
1.000000 0.601563 0
0.974194 0.631205 0
0.967148 0.621545 0
0.974879 0.608874 0
0.969242 0.612888 0
0.945552 0.637252 0
0.928452 0.838772 0
0.937265 0.838809 0
0.930885 0.848292 0
0.926255 0.852992 0
0.938269 0.853557 0
0.968634 0.865719 0
0.954303 0.857512 0
0.946851 0.853245 0
0.957654 0.843020 0
0.943257 0.868163 0
0.953794 0.849761 0
0.966675 0.852661 0
0.937840 0.861858 0
0.947228 0.861228 0
0.956501 0.870292 0
0.950155 0.867508 0
0.944909 0.914162 0
0.917465 0.925455 0
0.932225 0.931263 0
0.933715 0.951638 0
0.926307 0.940094 0
0.920964 0.936405 0
0.921074 0.951601 0
0.913329 0.950086 0
0.915408 0.960010 0
0.908686 0.956408 0
0.916137 0.931914 0
0.921024 0.944635 0
0.927364 0.961953 0
0.921834 0.958227 0
0.839685 0.971348 0
0.827889 0.992292 0
0.835938 1.000000 0
0.827337 0.967130 0
0.950370 0.699910 0
0.958399 0.694611 0
0.969508 0.675628 0
0.966081 0.686364 0
0.964593 0.704243 0
1.000000 0.703125 0
0.983486 0.714431 0
0.979451 0.721807 0
0.974172 0.715966 0
0.961935 0.717983 0
0.961036 0.710683 0
0.963880 0.724788 0
0.941063 0.828937 0
0.948437 0.827256 0
0.956122 0.833340 0
0.964265 0.827231 0
0.951323 0.839061 0
0.978718 0.824633 0
0.949226 0.845181 0
0.970826 0.822232 0
0.977697 0.816937 0
0.838779 0.443835 0
0.843426 0.448425 0
0.851560 0.455283 0
0.848080 0.472257 0
0.836822 0.479382 0
0.829976 0.477862 0
0.831338 0.487911 0
0.834267 0.495563 0
0.844006 0.495773 0
0.845572 0.462899 0
0.823341 0.488740 0
0.816637 0.495104 0
0.810005 0.498410 0
0.840283 0.487635 0
0.845479 0.480604 0
0.857902 0.479898 0
0.851558 0.477920 0
0.853380 0.462876 0
0.859822 0.470276 0
0.839885 0.469439 0
0.837608 0.461755 0
0.850384 0.488736 0
0.867139 0.466095 0
0.865132 0.476338 0
0.859464 0.490557 0
0.866172 0.489915 0
0.805345 0.489878 0
0.846897 0.405876 0
0.819563 0.422933 0
0.819396 0.415443 0
0.828573 0.414808 0
0.843105 0.425911 0
0.844825 0.435810 0
0.837995 0.436954 0
0.863927 0.427392 0
0.856361 0.436105 0
0.850521 0.438747 0
0.850753 0.429681 0
0.852131 0.417243 0
0.849188 0.423213 0
0.842680 0.416747 0
0.857097 0.423401 0
0.835074 0.419796 0
0.834383 0.428741 0
0.841663 0.410099 0
0.860888 0.415262 0
0.882338 0.408591 0
0.870932 0.409739 0
0.861956 0.447696 0
0.858480 0.453849 0
0.825608 0.430424 0
0.850050 0.274497 0
0.843294 0.286693 0
0.843786 0.278997 0
0.851329 0.282888 0
0.872494 0.269216 0
0.844158 0.388192 0
0.864728 0.364045 0
0.848513 0.368967 0
0.848997 0.358775 0
0.884537 0.293614 0
0.889721 0.285714 0
0.906696 0.251318 0
0.908203 0.374964 0
0.888435 0.353592 0
0.875541 0.364999 0
0.869678 0.369697 0
0.863317 0.381402 0
0.796838 0.192706 0
0.803785 0.187442 0
0.802538 0.175961 0
0.823790 0.207460 0
0.797685 0.200983 0
0.778801 0.150314 0
0.776113 0.143089 0
0.793020 0.144756 0
0.787801 0.130893 0
0.781783 0.136824 0
0.789164 0.138294 0
0.801179 0.132256 0
0.796647 0.138210 0
0.779378 0.128366 0
0.802236 0.157487 0
0.795567 0.164877 0
0.798426 0.152224 0
0.802110 0.164078 0
0.796645 0.171933 0
0.833744 0.046136 0
0.842684 0.078856 0
0.888506 0.080244 0
0.890625 0.000000 0
0.006450 0.006450 0
0.842826 0.609363 0
0.878746 0.623655 0
0.883841 0.631341 0
0.886006 0.624374 0
0.868787 0.621692 0
0.970520 0.490396 0
0.936274 0.470620 0
0.945211 0.486324 0
0.958358 0.485302 0
0.951610 0.483570 0
0.906571 0.454897 0
0.895269 0.443166 0
0.899186 0.450702 0
0.885746 0.452626 0
0.910423 0.439876 0
0.892166 0.449565 0
0.885869 0.459758 0
0.910840 0.447987 0
0.903333 0.443761 0
0.917261 0.463037 0
0.930979 0.456269 0
0.926272 0.468070 0
0.923111 0.457609 0
0.930156 0.473725 0
0.932689 0.463790 0
0.949291 0.456059 0
0.940157 0.458136 0
0.939070 0.439988 0
0.946964 0.466947 0
0.937195 0.449207 0
0.924623 0.444138 0
0.926054 0.451119 0
0.918132 0.447499 0
0.946796 0.446360 0
0.932230 0.443396 0
0.927157 0.430748 0
0.932739 0.435851 0
0.934268 0.428573 0
0.954166 0.429555 0
0.944208 0.429241 0
0.955769 0.449222 0
0.948939 0.437281 0
0.938941 0.433324 0
0.966557 0.465630 0
0.958712 0.438262 0
0.959048 0.458817 0
1.000000 0.406250 0
0.979190 0.428885 0
0.953331 0.442692 0
0.968867 0.455540 0
0.956923 0.468704 0
0.956875 0.477069 0
0.952741 0.462489 0
0.969999 0.435861 0
0.962471 0.452725 0
0.983556 0.464212 0
0.951140 0.472380 0
0.964920 0.439716 0
0.962960 0.430504 0
0.960349 0.413476 0
0.959393 0.422337 0
0.948561 0.416686 0
0.971428 0.419153 0
0.955084 0.417390 0
0.970794 0.427514 0
0.964800 0.418438 0
0.974831 0.462215 0
0.976078 0.476826 0
0.977796 0.469321 0
0.966509 0.479583 0
0.949358 0.423994 0
0.963472 0.472596 0
0.970794 0.471673 0
0.972792 0.483404 0
1.000000 0.484375 0
0.986121 0.491600 0
0.978466 0.489113 0
0.978113 0.503221 0
0.980388 0.496219 0
0.989508 0.501670 0
0.965107 0.486254 0
0.960105 0.498396 0
0.951885 0.498177 0
0.956155 0.492259 0
1.000000 0.492188 0
0.993213 0.488281 0
0.993532 0.495576 0
0.985566 0.481176 0
0.985802 0.472547 0
0.991782 0.466466 0
1.000000 0.476563 0
1.000000 0.453125 0
0.993294 0.480469 0
1.000000 0.460938 0
0.990156 0.456262 0
0.979647 0.451910 0
1.000000 0.515625 0
0.992088 0.445313 0
0.983506 0.457456 0
0.972425 0.448285 0
0.980919 0.440368 0
1.000000 0.507813 0
0.990846 0.511416 0
0.993995 0.451294 0
0.983466 0.508894 0
0.872863 0.494218 0
0.972978 0.523759 0
0.977739 0.624392 0
0.941470 0.626381 0
0.932480 0.622896 0
0.934440 0.631177 0
0.924526 0.627062 0
0.951457 0.629415 0
0.960679 0.862995 0
0.969461 0.886297 0
0.937884 0.915427 0
0.952948 0.906060 0
0.944998 0.923791 0
0.962343 0.935070 0
0.952321 0.931506 0
0.957863 0.918912 0
0.953987 0.942694 0
0.952453 0.924047 0
0.960330 0.926928 0
1.000000 0.906250 0
0.981840 0.925928 0
0.971184 0.928563 0
0.956134 0.936656 0
0.947782 0.937900 0
0.938683 0.942654 0
0.973635 0.915614 0
0.966458 0.920654 0
0.963384 0.913747 0
0.981337 0.946754 0
0.944018 0.951471 0
0.947212 0.945049 0
0.931804 0.944715 0
0.975376 0.922650 0
0.972576 0.939715 0
0.944465 0.970651 0
0.968760 0.934529 0
0.978027 0.933372 0
0.989208 0.934401 0
0.939022 0.961183 0
0.947341 0.959321 0
0.933783 0.970493 0
0.932977 0.958296 0
0.939171 0.967396 0
0.938913 0.984834 0
0.906250 1.000000 0
0.939033 0.976703 0
0.904118 0.982180 0
0.902621 0.972964 0
0.917859 0.975218 0
0.928120 0.980605 0
0.894938 0.978942 0
0.909882 0.976514 0
0.912760 0.969034 0
0.921002 0.967432 0
0.890625 1.000000 0
0.880633 0.985365 0
0.879132 0.975972 0
0.896142 0.990159 0
0.886737 0.979818 0
0.888387 0.987766 0
0.882813 1.000000 0
0.878906 0.993102 0
0.859375 1.000000 0
0.865426 0.986033 0
0.873119 0.987750 0
0.855038 0.980589 0
0.870981 0.979235 0
0.862871 0.978276 0
0.955467 0.677061 0
0.956014 0.685989 0
0.948176 0.683683 0
0.983076 0.685874 0
0.978630 0.703057 0
0.977981 0.710057 0
0.853315 0.409810 0
0.877758 0.420316 0
0.867305 0.437967 0
0.882427 0.274663 0
0.865801 0.278280 0
0.857626 0.277635 0
0.859210 0.263094 0
0.862280 0.270785 0
0.855116 0.269186 0
0.845400 0.264989 0
0.842604 0.271764 0
0.837168 0.392037 0
0.844553 0.397185 0
0.856348 0.392163 0
0.849509 0.392463 0
0.852573 0.384216 0
0.841176 0.378100 0
0.835669 0.384062 0
0.835351 0.372648 0
0.859169 0.360477 0
0.859002 0.370882 0
0.857807 0.377518 0
0.864823 0.374640 0
0.902754 0.266580 0
0.901237 0.274828 0
0.895401 0.368876 0
0.875052 0.393440 0
0.814077 0.176069 0
0.815270 0.199106 0
0.771652 0.129367 0
0.849417 0.074406 0
0.841423 0.069630 0
0.835876 0.075088 0
0.834097 0.086335 0
0.828499 0.077427 0
0.823061 0.072309 0
0.835685 0.065616 0
0.819227 0.065847 0
0.879387 0.073173 0
0.882813 0.000000 0
0.939954 0.477086 0
0.891980 0.456492 0
0.940332 0.465036 0
0.932245 0.396288 0
0.969717 0.408844 0
0.961662 0.404344 0
0.952439 0.407678 0
0.952534 0.386185 0
0.959214 0.394201 0
0.984403 0.402231 0
0.939307 0.407363 0
0.955082 0.400565 0
0.980154 0.412409 0
0.975926 0.403019 0
0.945810 0.410163 0
0.973977 0.413434 0
1.000000 0.421875 0
0.979546 0.420640 0
0.990014 0.417275 0
0.987683 0.409576 0
1.000000 0.390625 0
1.000000 0.414063 0
0.992518 0.403012 0
0.989417 0.392686 0
1.000000 0.398438 0
0.978037 0.391801 0
0.990751 0.428813 0
1.000000 0.382813 0
0.983462 0.395647 0
0.967919 0.387458 0
0.986180 0.423313 0
0.993501 0.422845 0
0.971662 0.392696 0
0.965381 0.393172 0
0.960249 0.386547 0
0.956990 0.373620 0
0.980456 0.372206 0
0.989470 0.378906 0
0.976402 0.381652 0
0.966970 0.376973 0
0.982609 0.378723 0
0.960534 0.379601 0
0.973845 0.374962 0
0.969679 0.355661 0
0.973542 0.364927 0
0.964496 0.367808 0
1.000000 0.343750 0
0.955038 0.363347 0
1.000000 0.359375 0
0.951764 0.369291 0
0.945341 0.378048 0
0.940204 0.340016 0
0.962503 0.359778 0
0.952548 0.348548 0
0.955915 0.355590 0
0.945163 0.356405 0
0.986269 0.359761 0
0.952393 0.379062 0
0.941238 0.388924 0
0.927091 0.372665 0
0.948785 0.361747 0
0.943919 0.347837 0
0.927220 0.354636 0
0.936410 0.353301 0
0.933227 0.363694 0
0.930427 0.344408 0
0.939036 0.359790 0
0.980919 0.364843 0
0.978234 0.356659 0
0.989944 0.368987 0
0.975198 0.345517 0
0.946163 0.384570 0
0.923498 0.363624 0
0.937189 0.372639 0
0.918721 0.346354 0
0.928599 0.327265 0
0.993213 0.362340 0
1.000000 0.367188 0
0.993690 0.374137 0
0.917341 0.371305 0
0.937349 0.381245 0
0.925067 0.348344 0
0.917661 0.355943 0
0.910146 0.341992 0
0.932317 0.335538 0
0.923393 0.338274 0
0.942891 0.325815 0
0.939265 0.332483 0
0.920184 0.386546 0
0.908893 0.363445 0
0.904675 0.337171 0
0.915345 0.379563 0
0.923116 0.379346 0
0.930386 0.379148 0
0.931613 0.387686 0
0.909820 0.388559 0
0.916201 0.363111 0
0.911264 0.369367 0
0.911139 0.357195 0
0.891972 0.387693 0
0.900762 0.390886 0
0.893550 0.401819 0
0.899521 0.380606 0
0.899245 0.397731 0
0.906631 0.382045 0
0.889529 0.377527 0
0.901061 0.373476 0
0.881560 0.384818 0
0.883279 0.370432 0
0.884650 0.393918 0
0.872177 0.384504 0
0.882284 0.377609 0
0.888839 0.365750 0
0.891765 0.394867 0
0.879506 0.400625 0
0.886571 0.400718 0
0.870815 0.401039 0
0.865673 0.393191 0
0.863660 0.400119 0
0.861539 0.387888 0
0.969401 0.499719 0
0.969805 0.511301 0
0.976974 0.512017 0
0.963806 0.505712 0
0.956759 0.504682 0
1.000000 0.445313 0
0.986598 0.449989 0
0.974055 0.441518 0
0.976689 0.435133 0
0.967280 0.528021 0
0.985602 0.530705 0
0.943987 0.619928 0
0.965635 0.876145 0
0.963249 0.869814 0
0.982813 0.875442 0
0.974107 0.872938 0
0.976434 0.881234 0
1.000000 0.890625 0
0.983363 0.898111 0
0.977848 0.890514 0
0.988935 0.888264 0
0.983740 0.882872 0
0.991482 0.878133 0
1.000000 0.882813 0
0.972891 0.899914 0
0.979582 0.907464 0
0.962785 0.895219 0
0.971874 0.908084 0
0.989748 0.906132 0
0.983251 0.916386 0
0.966565 0.900307 0
0.954054 0.884164 0
0.947566 0.876899 0
1.000000 0.898438 0
1.000000 0.921875 0
0.958172 0.877738 0
0.961842 0.884622 0
0.943638 0.886936 0
0.938721 0.875830 0
0.991686 0.898038 0
1.000000 0.914063 0
0.992006 0.917969 0
0.992763 0.926552 0
0.988473 0.912509 0
1.000000 0.929688 0
0.951362 0.895004 0
0.935807 0.892348 0
0.932130 0.873248 0
0.993892 0.892143 0
0.949722 0.888843 0
0.943107 0.894540 0
0.935865 0.899310 0
0.946325 0.907527 0
0.952458 0.913613 0
0.968551 0.953695 0
1.000000 0.953125 0
0.983127 0.939211 0
1.000000 0.945313 0
0.990586 0.944966 0
0.993673 0.939191 0
0.921875 1.000000 0
0.915799 0.988297 0
0.910944 0.983358 0
0.907682 0.991421 0
0.914063 1.000000 0
0.898438 1.000000 0
0.902192 0.988231 0
0.926423 0.973012 0
0.856488 0.990455 0
0.851563 1.000000 0
0.846896 0.986825 0
0.847656 0.993970 0
0.848666 0.980702 0
0.840212 0.983832 0
0.868573 0.971257 0
0.962799 0.679401 0
0.974492 0.683134 0
0.976138 0.692793 0
0.969850 0.691548 0
0.989308 0.705221 0
1.000000 0.710938 0
0.992200 0.714844 0
1.000000 0.734375 0
0.988468 0.723164 0
1.000000 0.742188 0
0.990669 0.736020 0
0.985635 0.695921 0
0.992952 0.742708 0
1.000000 0.726563 0
0.991303 0.689128 0
1.000000 0.695313 0
0.992936 0.698413 0
0.877050 0.413282 0
0.891630 0.418977 0
0.900398 0.429992 0
0.903929 0.436436 0
0.868738 0.419741 0
0.861171 0.440929 0
0.862399 0.433708 0
0.873989 0.430005 0
0.879590 0.426607 0
0.874272 0.448133 0
0.876870 0.457138 0
0.868672 0.457996 0
0.876656 0.439029 0
0.885660 0.442458 0
0.874187 0.463987 0
0.881105 0.447581 0
0.890959 0.436109 0
0.883524 0.260883 0
0.864995 0.284868 0
0.874359 0.277596 0
0.853640 0.400409 0
0.808260 0.181091 0
0.808339 0.172681 0
0.826450 0.162472 0
0.815494 0.154389 0
0.809514 0.158718 0
0.808594 0.151151 0
0.817310 0.163630 0
0.818390 0.139247 0
0.815010 0.146449 0
0.822981 0.171744 0
0.808470 0.138986 0
0.828946 0.148595 0
0.821592 0.150033 0
0.839935 0.172804 0
0.808659 0.131467 0
0.831619 0.169692 0
0.835780 0.161252 0
0.830350 0.156010 0
0.843652 0.164944 0
0.870353 0.160897 0
0.858820 0.176926 0
0.856673 0.160743 0
0.849853 0.172685 0
0.849459 0.160662 0
0.857121 0.168917 0
0.863472 0.164469 0
0.872874 0.174164 0
0.869625 0.167908 0
0.863640 0.171719 0
0.810240 0.194173 0
0.811405 0.211569 0
0.841713 0.086411 0
0.853471 0.087099 0
0.849240 0.081457 0
0.825833 0.107083 0
0.818929 0.095685 0
0.811598 0.091978 0
0.807794 0.108605 0
0.806996 0.099674 0
0.814898 0.103470 0
0.797912 0.104987 0
0.818385 0.088469 0
0.826793 0.091464 0
0.834913 0.095263 0
0.825907 0.099249 0
0.798606 0.097392 0
0.798476 0.118749 0
0.804313 0.124511 0
0.806339 0.116621 0
0.800804 0.111761 0
0.817374 0.114484 0
0.789536 0.105319 0
0.786744 0.114796 0
0.812444 0.118587 0
0.793414 0.111612 0
0.785680 0.122949 0
0.793480 0.125121 0
0.874128 0.069096 0
0.920430 0.411612 0
1.000000 0.429688 0
0.991730 0.437038 0
0.992899 0.385809 0
0.984166 0.386606 0
0.948524 0.394311 0
0.945492 0.401950 0
0.938437 0.400129 0
0.964079 0.346041 0
1.000000 0.328125 0
0.914642 0.327399 0
0.911861 0.334531 0
0.966710 0.518722 0
0.980864 0.524371 0
0.977088 0.532134 0
0.983779 0.545919 0
0.973970 0.543924 0
0.982457 0.538045 0
0.982309 0.554406 0
1.000000 0.546875 0
0.992052 0.556491 0
1.000000 0.539063 0
0.992092 0.542969 0
0.993669 0.549734 0
0.976656 0.550345 0
0.969743 0.893466 0
0.958733 0.901426 0
0.957157 0.890689 0
0.948722 0.901025 0
0.961161 0.948338 0
0.968427 0.946090 0
0.930015 0.991654 0
0.920654 0.982360 0
0.923069 0.989288 0
0.839651 0.992815 0
0.993015 0.729002 0
0.884355 0.416136 0
0.890971 0.410217 0
0.905577 0.413523 0
0.901003 0.406191 0
0.897767 0.414111 0
0.902252 0.421526 0
0.914190 0.421793 0
0.911178 0.430599 0
0.908154 0.424647 0
0.919188 0.428421 0
0.925837 0.420462 0
0.921140 0.436544 0
0.919673 0.418151 0
0.930350 0.411627 0
0.931740 0.404012 0
0.916717 0.441220 0
0.937196 0.414469 0
0.868224 0.444807 0
0.879881 0.267526 0
0.891060 0.268416 0
0.888704 0.274248 0
0.895215 0.256723 0
0.890358 0.261582 0
0.875718 0.284185 0
0.832250 0.190312 0
0.829523 0.180076 0
0.845047 0.185489 0
0.822589 0.187404 0
0.837013 0.183562 0
0.844959 0.178152 0
0.852260 0.181733 0
0.862547 0.188889 0
0.824960 0.197027 0
0.817591 0.192418 0
0.817496 0.182365 0
0.822987 0.178473 0
0.806468 0.204606 0
0.816541 0.206331 0
0.824264 0.229611 0
0.816835 0.239855 0
0.812386 0.244968 0
0.803934 0.214391 0
0.867601 0.085771 0
0.860681 0.108069 0
0.819384 0.108247 0
0.835056 0.126161 0
0.984847 0.433905 0
0.969479 0.342406 0
0.969797 0.349152 0
0.955884 0.336121 0
0.947356 0.335300 0
0.951064 0.341488 0
0.984450 0.332331 0
0.921653 0.330715 0
0.932404 0.985557 0
0.937620 0.992363 0
0.953125 1.000000 0
0.945313 1.000000 0
0.949219 0.989419 0
0.948394 0.979642 0
0.944091 0.993537 0
0.960709 0.968906 0
0.955251 0.962404 0
0.961351 0.957209 0
0.952627 0.970149 0
0.962488 0.983377 0
0.957758 0.976613 0
0.954774 0.984027 0
0.960938 1.000000 0
0.957329 0.992217 0
0.966201 0.991469 0
0.982436 0.979122 0
0.972938 0.983480 0
0.967792 0.975380 0
0.984375 1.000000 0
0.971109 0.964640 0
0.981556 0.989733 0
0.976563 1.000000 0
1.000000 0.984375 0
0.992188 1.000000 0
1.000000 0.992188 0
0.991134 0.988281 0
0.973942 0.991162 0
0.987063 0.993741 0
0.985698 0.984734 0
0.929688 1.000000 0
0.886231 0.249983 0
0.903075 0.258523 0
0.866912 0.180967 0
0.871827 0.215577 0
0.820614 0.218609 0
0.812639 0.228997 0
0.836502 0.246302 0
0.834731 0.257735 0
0.838822 0.263191 0
0.860233 0.083213 0
0.865952 0.078631 0
0.874503 0.080417 0
0.881499 0.079865 0
0.883749 0.103224 0
0.878928 0.091901 0
0.874186 0.087133 0
0.854188 0.098577 0
0.861155 0.092447 0
0.861872 0.100287 0
0.870251 0.095790 0
0.877070 0.099380 0
0.874226 0.112044 0
0.868839 0.105335 0
0.823866 0.123880 0
0.962361 0.339115 0
0.962018 0.315044 0
0.977292 0.337148 0
0.964462 0.963245 0
0.978677 0.957100 0
0.972561 0.958529 0
0.975197 0.950690 0
0.981882 0.967885 0
0.977370 0.963357 0
0.880622 0.254376 0
0.872194 0.259405 0
0.866622 0.264486 0
0.862939 0.251523 0
0.869305 0.253422 0
0.896818 0.245230 0
0.870221 0.201178 0
0.880588 0.232127 0
0.832199 0.215882 0
0.837298 0.203107 0
0.829759 0.202848 0
0.810619 0.236018 0
0.805093 0.229638 0
0.811604 0.220313 0
0.818660 0.225364 0
0.818253 0.233068 0
0.824591 0.249418 0
0.821199 0.255943 0
0.845389 0.253533 0
0.892117 0.092974 0
0.850408 0.093052 0
0.844418 0.112228 0
0.840804 0.103108 0
0.832824 0.103231 0
0.834016 0.113664 0
0.847204 0.099980 0
0.838702 0.109217 0
0.840115 0.119448 0
0.855336 0.136183 0
0.846144 0.129255 0
0.825767 0.115543 0
0.831165 0.120193 0
0.888313 0.117703 0
0.864797 0.119108 0
0.866587 0.112154 0
0.827653 0.133889 0
0.819867 0.131114 0
0.828917 0.127690 0
0.838140 0.136525 0
0.825849 0.141457 0
0.833376 0.142432 0
0.843443 0.145677 0
0.836956 0.150919 0
0.853181 0.150468 0
0.833647 0.132221 0
0.839856 0.130374 0
0.846562 0.137757 0
0.852029 0.142989 0
0.846937 0.150867 0
0.863605 0.152656 0
0.861516 0.143392 0
0.882337 0.144199 0
0.866475 0.132889 0
0.874106 0.150940 0
0.861643 0.137030 0
0.868037 0.146790 0
0.888999 0.160730 0
0.880099 0.166441 0
0.883083 0.153506 0
0.896005 0.181439 0
0.895502 0.147827 0
0.884454 0.177757 0
0.890553 0.153423 0
0.898317 0.155304 0
0.900743 0.168688 0
0.901586 0.161623 0
0.879534 0.173155 0
0.888480 0.169712 0
0.894307 0.165543 0
0.891324 0.176165 0
0.962182 0.326522 0
0.989462 0.955773 0
0.983629 0.952858 0
0.993804 0.950763 0
1.000000 0.960938 0
0.984654 0.961192 0
0.990969 0.967729 0
1.000000 0.976563 0
0.991209 0.977778 0
0.975994 0.973808 0
0.899769 0.251500 0
0.892839 0.250534 0
0.909946 0.234987 0
0.869331 0.193193 0
0.880603 0.241942 0
0.866523 0.237057 0
0.890042 0.237020 0
0.874415 0.237044 0
0.870479 0.243713 0
0.870452 0.226632 0
0.889917 0.244024 0
0.891725 0.222188 0
0.899966 0.235731 0
0.888053 0.229283 0
0.880786 0.221429 0
0.895971 0.228883 0
0.899359 0.222040 0
0.906111 0.227321 0
0.905496 0.242590 0
0.876968 0.226709 0
0.883855 0.206947 0
0.897229 0.208718 0
0.895420 0.215838 0
0.886806 0.215075 0
0.890363 0.209184 0
0.891603 0.194990 0
0.879246 0.213220 0
0.873535 0.208098 0
0.825646 0.214016 0
0.835573 0.226990 0
0.827618 0.222392 0
0.839450 0.211372 0
0.832945 0.208997 0
0.853823 0.203217 0
0.862862 0.208955 0
0.845546 0.205372 0
0.861484 0.198062 0
0.843831 0.195467 0
0.851963 0.213043 0
0.839242 0.190191 0
0.853290 0.192464 0
0.855707 0.227194 0
0.849849 0.198024 0
0.856402 0.186751 0
0.851263 0.220799 0
0.861025 0.218757 0
0.845616 0.229464 0
0.865656 0.214552 0
0.863042 0.225923 0
0.841472 0.224666 0
0.853416 0.240568 0
0.838550 0.236525 0
0.851804 0.233409 0
0.859493 0.233904 0
0.844789 0.242935 0
0.828358 0.239494 0
0.830007 0.245797 0
0.822702 0.243024 0
0.830925 0.232642 0
0.838831 0.252517 0
0.854468 0.255180 0
0.852028 0.262020 0
0.851067 0.248081 0
0.885240 0.095901 0
0.851868 0.107481 0
0.853651 0.118500 0
0.879931 0.118204 0
0.881840 0.110714 0
0.871843 0.118687 0
0.867771 0.125739 0
0.876675 0.135361 0
0.872396 0.130737 0
0.885628 0.128598 0
0.874709 0.142854 0
0.879362 0.129611 0
0.884586 0.136526 0
0.889953 0.142264 0
0.877823 0.159104 0
0.952505 0.327038 0
0.949080 0.315560 0
0.957027 0.320855 0
0.948254 0.322057 0
0.975621 0.320591 0
0.976891 0.328825 0
0.969846 0.325697 0
0.968568 0.318433 0
0.974024 0.299868 0
0.974936 0.310220 0
0.965926 0.305798 0
1.000000 0.281250 0
0.987172 0.314621 0
0.968549 0.311843 0
0.955206 0.306716 0
0.962775 0.292999 0
0.984009 0.304205 0
0.980095 0.315088 0
0.955475 0.313446 0
0.945306 0.306402 0
0.966985 0.298750 0
0.959247 0.299999 0
1.000000 0.296875 0
0.985138 0.287944 0
0.930907 0.296015 0
0.946329 0.289100 0
0.954087 0.293010 0
0.946804 0.297809 0
0.955749 0.280060 0
0.938419 0.300775 0
0.958423 0.286985 0
0.938512 0.292320 0
0.925587 0.275389 0
0.916714 0.282254 0
0.930335 0.285163 0
0.917204 0.263121 0
0.911812 0.272509 0
0.909491 0.262813 0
0.992551 0.307299 0
0.990979 0.298302 0
1.000000 0.304688 0
0.983016 0.295966 0
1.000000 0.289063 0
0.974927 0.289535 0
0.992821 0.285156 0
0.993755 0.291989 0
1.000000 0.265625 0
0.991097 0.273438 0
0.922767 0.291003 0
0.923829 0.282283 0
0.941274 0.273809 0
0.919395 0.270621 0
0.911083 0.278981 0
0.967993 0.288259 0
0.933721 0.277478 0
0.940802 0.282446 0
0.947836 0.278499 0
0.993255 0.961368 0
0.888076 0.186354 0
0.882142 0.193815 0
0.875589 0.196537 0
0.881295 0.184150 0
0.886182 0.199966 0
0.878186 0.202961 0
0.859442 0.114818 0
0.854816 0.127311 0
0.847089 0.121917 0
0.909220 0.128634 0
0.900730 0.137065 0
0.892765 0.133569 0
1.000000 0.320313 0
0.990600 0.324219 0
0.994056 0.316406 0
0.982797 0.323699 0
0.992773 0.332253 0
1.000000 0.335938 0
0.964683 0.254067 0
0.954584 0.265128 0
0.953079 0.272757 0
0.964177 0.270984 0
1.000000 0.273438 0
0.985265 0.257813 0
0.915309 0.143257 0
0.962503 0.277881 0
0.962787 0.262477 0
0.974123 0.260614 0
0.991149 0.264517 0
0.981179 0.268920 0
1.000000 0.257813 0
0.992633 0.253906 0
1.000000 0.218750 0
0.979149 0.237376 0
0.984244 0.246985 0
0.980485 0.262359 0
0.982800 0.278506 0
0.972573 0.269082 0
0.978138 0.253023 0
1.000000 0.234375 0
0.989225 0.279699 0
0.979351 0.284369 0
0.989859 0.237852 0
0.992941 0.245586 0
1.000000 0.242188 0
0.984364 0.240766 0
0.985149 0.223109 0
0.992456 0.228899 0
0.984620 0.231282 0
0.974539 0.227734 0
0.992642 0.221159 0
0.983534 0.201534 0
1.000000 0.203125 0
0.986303 0.212175 0
1.000000 0.226563 0
0.963877 0.238755 0
0.977304 0.219595 0
0.974093 0.208383 0
0.991495 0.205143 0
0.991601 0.194322 0
1.000000 0.210938 0
0.971257 0.235226 0
0.972881 0.244827 0
0.963274 0.228012 0
0.980940 0.207890 0
1.000000 0.195313 0
0.971813 0.180305 0
0.993365 0.213920 0
0.971263 0.251649 0
0.965299 0.246358 0
0.951525 0.249136 0
0.958810 0.249718 0
0.954574 0.256841 0
0.943001 0.260999 0
0.947452 0.255203 0
0.932369 0.265864 0
0.924694 0.265003 0
0.924099 0.251528 0
0.929360 0.258047 0
0.915467 0.245665 0
0.922341 0.258329 0
0.914438 0.255005 0
0.968837 0.225051 0
0.945184 0.211066 0
1.000000 0.156250 0
0.980103 0.189578 0
0.949490 0.234175 0
0.956113 0.217528 0
0.984706 0.194727 0
1.000000 0.171875 0
0.957557 0.233722 0
0.955769 0.241909 0
0.953075 0.225960 0
0.938144 0.224334 0
0.947711 0.219265 0
0.945355 0.227481 0
0.921974 0.224178 0
0.937072 0.237221 0
0.914474 0.227929 0
0.923363 0.236327 0
0.916781 0.234391 0
0.962145 0.221095 0
0.989487 0.183139 0
0.922928 0.243967 0
0.929973 0.240536 0
0.993566 0.188160 0
0.905521 0.146043 0
0.908688 0.138585 0
0.912137 0.150700 0
0.939984 0.158167 0
0.926590 0.152460 0
0.919618 0.149490 0
0.975129 0.276569 0
0.946708 0.268020 0
0.939329 0.267025 0
0.936663 0.257294 0
0.973686 0.197890 0
0.960376 0.203661 0
0.971115 0.189272 0
0.964883 0.195823 0
0.950803 0.192941 0
0.957365 0.196715 0
0.950954 0.203619 0
0.959651 0.183868 0
0.966408 0.184394 0
0.968151 0.203359 0
0.964562 0.211206 0
0.955638 0.209793 0
0.938756 0.200126 0
0.945864 0.198352 0
0.944929 0.242414 0
0.944260 0.249190 0
0.930009 0.229413 0
0.980833 0.180584 0
0.976725 0.167457 0
0.988238 0.171436 0
0.976500 0.174734 0
1.000000 0.179688 0
0.930469 0.247867 0
0.947840 0.181202 0
0.961996 0.169333 0
0.969677 0.170881 0
0.964492 0.176779 0
0.967129 0.163698 0
0.954319 0.157186 0
0.961657 0.158606 0
0.931000 0.212042 0
0.930229 0.220712 0
0.986466 0.157916 0
1.000000 0.164063 0
0.993611 0.160156 0
0.993236 0.176821 0
0.952927 0.186162 0
0.944993 0.188164 0
0.935487 0.172558 0
0.955287 0.175707 0
0.945917 0.170802 0
0.941594 0.176979 0
0.939744 0.165990 0
0.928745 0.163525 0
0.917607 0.160783 0
0.909858 0.166193 0
0.947469 0.162312 0
0.955010 0.165249 0
0.908409 0.178792 0
0.906604 0.172202 0
0.937849 0.208018 0
0.938765 0.216162 0
0.983977 0.165118 0
0.932551 0.157042 0
0.924025 0.158702 0
0.920566 0.173808 0
0.916760 0.167824 0
0.919198 0.195696 0
0.904690 0.191751 0
0.927862 0.171217 0
0.930091 0.180891 0
0.936573 0.181082 0
0.927962 0.190735 0
0.934448 0.194179 0
0.918749 0.184681 0
0.941121 0.193626 0
0.923448 0.179878 0
0.912837 0.190439 0
0.907887 0.185656 0
0.915403 0.178534 0
0.912872 0.172772 0
0.381669 0.627357 0
0.376678 0.622173 0
0.300601 0.380676 0
0.287225 0.450697 0
0.225706 0.316677 0
0.296248 0.282718 0
0.355969 0.685473 0
0.351165 0.690471 0
0.386668 0.286732 0
0.116481 0.414143 0
0.121411 0.420395 0
0.109578 0.413356 0
0.477346 0.278108 0
0.471060 0.280405 0
0.475219 0.270671 0
0.483604 0.279078 0
0.425262 0.425305 0
0.429040 0.431842 0
0.417762 0.431564 0
0.421127 0.416145 0
0.411523 0.424100 0
0.427787 0.418652 0
0.412860 0.414480 0
0.406725 0.428383 0
0.418558 0.422818 0
0.000000 0.382813 0
0.008905 0.383732 0
0.007588 0.376168 0
0.000000 0.367188 0
0.012312 0.366068 0
0.014509 0.358554 0
0.007344 0.360538 0
0.006414 0.369464 0
0.146325 0.606880 0
0.153616 0.610326 0
0.147500 0.624642 0
0.152478 0.618304 0
0.143594 0.632424 0
0.159764 0.625656 0
0.155540 0.634114 0
0.165062 0.633749 0
0.153415 0.627769 0
0.138355 0.613481 0
0.144881 0.617461 0
0.137498 0.624223 0
0.139960 0.607307 0
0.134684 0.618593 0
0.130211 0.317789 0
0.000000 0.546875 0
0.011104 0.547843 0
0.000000 0.554688 0
0.006224 0.558594 0
0.000000 0.539063 0
0.006781 0.535156 0
0.006416 0.542361 0
0.000000 0.523438 0
0.047252 0.482754 0
0.037415 0.479792 0
0.048354 0.471502 0
0.056170 0.464714 0
0.060772 0.471267 0
0.027722 0.486573 0
0.050894 0.477430 0
0.043702 0.476726 0
0.049954 0.465451 0
0.065292 0.462551 0
0.034203 0.485519 0
0.000000 0.468750 0
0.067338 0.455228 0
0.074566 0.461600 0
0.017737 0.464475 0
0.021991 0.453420 0
0.000000 0.453125 0
0.017365 0.444205 0
0.007762 0.443235 0
0.027974 0.476615 0
0.080716 0.456792 0
0.079454 0.466436 0
0.023013 0.447138 0
0.000000 0.445313 0
0.026313 0.467630 0
0.024046 0.460557 0
0.032145 0.462901 0
0.038999 0.460468 0
0.042562 0.453626 0
0.042229 0.467212 0
0.031698 0.493977 0
0.025154 0.497308 0
0.010965 0.455523 0
0.012063 0.448676 0
0.017131 0.457896 0
0.008366 0.464527 0
0.000000 0.484375 0
0.000000 0.460938 0
0.000000 0.492188 0
0.009773 0.488281 0
0.011860 0.494686 0
0.008790 0.476563 0
0.018480 0.484618 0
0.006350 0.482668 0
0.006197 0.470628 0
0.000000 0.476563 0
0.018387 0.474874 0
0.013259 0.469975 0
0.484375 1.000000 0
0.625289 0.708819 0
0.557687 0.183415 0
0.371335 0.989794 0
0.367188 1.000000 0
0.363508 0.992472 0
0.378148 0.993109 0
0.382813 1.000000 0
0.309327 0.165932 0
0.312825 0.172055 0
0.304772 0.150768 0
0.298617 0.156606 0
0.297093 0.148836 0
0.306325 0.158568 0
0.303759 0.138567 0
0.301037 0.129461 0
0.315146 0.152757 0
0.322251 0.155408 0
0.319477 0.164376 0
0.294922 0.139538 0
0.308608 0.131719 0
0.311434 0.144072 0
0.313604 0.159948 0
0.295355 0.132907 0
0.318267 0.142027 0
0.302435 0.170279 0
0.539295 0.919802 0
0.537190 0.913150 0
0.552800 0.963447 0
0.556338 0.954527 0
0.563618 0.957958 0
0.547242 0.956081 0
0.539304 0.958578 0
0.547530 0.948569 0
0.192505 0.933727 0
0.618943 0.803112 0
0.619266 0.795464 0
0.611481 0.798966 0
0.610935 0.792451 0
0.615590 0.810203 0
0.627512 0.804356 0
0.627207 0.811718 0
0.610215 0.946198 0
0.601047 0.958097 0
0.605455 0.952377 0
0.608204 0.961006 0
0.624151 0.966597 0
0.616834 0.961929 0
0.624753 0.957584 0
0.632643 0.954462 0
0.634207 0.964727 0
0.593750 1.000000 0
0.593569 0.951774 0
0.590509 0.970450 0
0.580318 0.966723 0
0.592080 0.961119 0
0.578125 1.000000 0
0.565860 0.980390 0
0.563052 0.969342 0
0.598738 0.966058 0
0.586720 0.965014 0
0.580665 0.981570 0
0.571997 0.970089 0
0.578499 0.974193 0
0.573364 0.979707 0
0.574593 0.990123 0
0.570313 1.000000 0
0.559611 0.963465 0
0.564636 0.990273 0
0.531250 1.000000 0
0.545158 0.982843 0
0.538395 0.971636 0
0.536661 0.964955 0
0.544933 0.966373 0
0.552436 0.974507 0
0.546875 1.000000 0
0.556186 0.984209 0
0.559127 0.977497 0
0.551031 0.980626 0
0.529699 0.984527 0
0.544956 0.975321 0
0.549740 0.991049 0
0.539063 1.000000 0
0.535156 0.991794 0
0.537501 0.984351 0
0.542374 0.989977 0
0.554688 1.000000 0
0.557295 0.992716 0
0.525431 0.972270 0
0.510813 0.973437 0
0.523756 0.964170 0
0.505427 0.968030 0
0.517863 0.969612 0
0.518547 0.959445 0
0.532150 0.976802 0
0.518808 0.981448 0
0.512066 0.965515 0
0.525331 0.979177 0
0.515625 1.000000 0
0.505484 0.986750 0
0.499358 0.977409 0
0.492038 0.972685 0
0.488378 0.986391 0
0.481039 0.983248 0
0.485671 0.970935 0
0.492419 0.980128 0
0.496912 0.987463 0
0.481710 0.991823 0
0.501683 0.992937 0
0.507813 1.000000 0
0.492188 1.000000 0
0.476563 1.000000 0
0.511719 0.992484 0
0.488729 0.993630 0
0.472965 0.993789 0
0.512608 0.985261 0
0.522176 0.991822 0
0.528670 0.993739 0
0.523498 0.985659 0
0.506473 0.979423 0
0.485712 0.977978 0
0.209091 0.683611 0
0.502627 0.401720 0
0.501324 0.408863 0
0.499588 0.394934 0
0.527925 0.011344 0
0.533924 0.006943 0
0.539063 0.000000 0
0.518245 0.009499 0
0.513404 0.014423 0
0.507813 0.000000 0
0.523438 0.000000 0
0.511041 0.021116 0
0.523852 0.006395 0
0.504409 0.018518 0
0.511675 0.006237 0
0.614561 0.152930 0
0.621478 0.156075 0
0.613707 0.146224 0
0.613572 0.160336 0
0.478370 0.068667 0
0.472303 0.064085 0
0.467496 0.069152 0
0.421875 0.000000 0
0.429688 0.008715 0
0.430591 0.016614 0
0.419906 0.013835 0
0.409250 0.010957 0
0.435557 0.006118 0
0.424281 0.018944 0
0.422647 0.007167 0
0.413679 0.015723 0
0.404562 0.006351 0
0.429688 0.000000 0
0.414063 0.000000 0
0.415400 0.007123 0
0.067936 0.161469 0
0.000000 0.351563 0
0.763068 0.790184 0
0.294119 0.026301 0
0.017107 0.166478 0
0.673072 0.978193 0
0.671875 1.000000 0
0.679241 0.989672 0
0.679688 1.000000 0
0.667097 0.988801 0
0.682723 0.980404 0
0.688713 0.975987 0
0.680918 0.971686 0
0.687331 0.969206 0
0.673445 0.985390 0
0.672904 0.992943 0
0.664063 1.000000 0
0.665151 0.980718 0
0.663393 0.972635 0
0.721067 0.972314 0
0.706504 0.018326 0
0.703125 0.000000 0
0.695836 0.011396 0
0.689067 0.012116 0
0.696158 0.022575 0
0.704879 0.009151 0
0.710938 0.000000 0
0.716587 0.011809 0
0.710174 0.012945 0
0.699862 0.016874 0
0.705888 0.031545 0
0.688922 0.022890 0
0.734375 0.000000 0
0.696794 0.031647 0
0.703114 0.024792 0
0.718288 0.025500 0
0.710679 0.025631 0
0.726563 0.000000 0
0.689027 0.038060 0
0.682678 0.034986 0
0.401377 0.048427 0
0.406765 0.042658 0
0.045974 0.067847 0
0.767519 0.909961 0
0.778086 0.911895 0
0.773459 0.907345 0
0.774767 0.923903 0
0.782231 0.926480 0
0.768178 0.929105 0
0.779594 0.934056 0
0.770322 0.936346 0
0.771763 0.916610 0
0.779308 0.918696 0
0.760285 0.908078 0
0.848149 0.757434 0
0.759237 0.024198 0
0.766903 0.034277 0
0.768737 0.040827 0
0.757717 0.038726 0
0.759943 0.031616 0
0.775226 0.019993 0
0.774085 0.028895 0
0.766678 0.026494 0
0.367188 0.000000 0
0.364256 0.006659 0
0.915092 0.642607 0
0.910739 0.636393 0
0.905765 0.644510 0
0.912905 0.655693 0
0.906859 0.660138 0
0.906571 0.651866 0
0.726563 1.000000 0
0.910934 0.619736 0
0.917030 0.614928 0
0.918114 0.622024 0
0.917636 0.667304 0
0.922589 0.671721 0
0.912519 0.671810 0
0.923569 0.658117 0
0.923121 0.664337 0
0.917389 0.660636 0
0.919780 0.650116 0
0.923230 0.642745 0
0.935620 0.644992 0
0.933761 0.638193 0
0.928740 0.650771 0
0.942284 0.659909 0
0.940314 0.669386 0
0.932909 0.659198 0
0.951192 0.666704 0
0.938106 0.652828 0
0.951535 0.649679 0
0.945312 0.653350 0
0.952374 0.658212 0
0.958872 0.653265 0
0.960657 0.640312 0
0.962285 0.664129 0
0.962912 0.671753 0
0.957636 0.646495 0
0.952797 0.640300 0
0.934536 0.665800 0
0.947082 0.673435 0
0.957458 0.633681 0
0.943824 0.645277 0
0.966194 0.633927 0
1.000000 0.656250 0
0.970977 0.643668 0
0.964723 0.647047 0
0.983556 0.654417 0
0.975401 0.651226 0
0.975093 0.664030 0
0.972753 0.657568 0
0.982196 0.673815 0
0.980215 0.680021 0
1.000000 0.671875 0
1.000000 0.679688 0
0.990346 0.679520 0
0.990808 0.670186 0
0.983668 0.665275 0
0.991922 0.660921 0
1.000000 0.664063 0
1.000000 0.640625 0
0.975364 0.671304 0
0.984547 0.640523 0
0.981640 0.647298 0
1.000000 0.648438 0
0.990771 0.648657 0
0.992270 0.641062 0
0.989022 0.631998 0
0.981653 0.630757 0
0.993603 0.627075 0
0.993641 0.654574 0
0.976943 0.638561 0
0.990943 0.810297 0
1.000000 0.828125 0
0.987309 0.819578 0
0.988524 0.831470 0
0.985189 0.825802 0
1.000000 0.835938 0
0.975418 0.839817 0
0.980232 0.832912 0
0.971563 0.831999 0
0.966191 0.839507 0
0.970594 0.845931 0
1.000000 0.859375 0
0.985325 0.852592 0
0.978786 0.847434 0
0.990395 0.866327 0
0.985877 0.840807 0
1.000000 0.867188 0
0.979597 0.863092 0
0.993446 0.839844 0
0.992794 0.848389 0
0.994041 0.871945 0
1.000000 0.851563 0
0.992431 0.856483 0
0.962793 0.833751 0
0.986303 0.860348 0
0.983836 0.868582 0
0.972685 0.858435 0
0.978529 0.854484 0
0.885584 0.040917 0
0.887042 0.022763 0
0.877768 0.022178 0
0.886719 0.011049 0
0.881837 0.031481 0
0.882749 0.017020 0
0.874216 0.039969 0
0.880135 0.037619 0
0.897026 0.059839 0
0.898438 0.008977 0
0.879531 0.007375 0
0.869064 0.033511 0
0.874948 0.029333 0
0.879013 0.051081 0
0.872582 0.054727 0
0.871142 0.047099 0
0.890008 0.068890 0
0.891992 0.006698 0
0.898438 0.000000 0
0.915140 0.015625 0
0.893763 0.016716 0
0.904542 0.017945 0
0.896743 0.026787 0
0.907754 0.009197 0
0.911383 0.023829 0
0.939522 0.031752 0
0.926071 0.025593 0
0.919010 0.022359 0
0.917829 0.034266 0
0.912699 0.030225 0
0.898767 0.020712 0
0.897047 0.038498 0
0.889632 0.030222 0
0.899831 0.032567 0
0.890151 0.051076 0
0.885946 0.074129 0
0.882525 0.065645 0
0.907494 0.075202 0
0.929107 0.036731 0
0.909043 0.044263 0
0.890688 0.036736 0
0.884580 0.047475 0
0.892229 0.044036 0
0.884585 0.057443 0
0.897450 0.075651 0
0.897856 0.067729 0
0.902865 0.084207 0
0.899322 0.090836 0
0.895107 0.084321 0
0.924215 0.032081 0
0.932237 0.029895 0
0.937732 0.015452 0
0.933173 0.021984 0
0.921875 0.000000 0
0.926412 0.012409 0
0.914063 0.000000 0
0.917969 0.007580 0
0.940537 0.047259 0
0.904457 0.038441 0
0.921161 0.046054 0
0.890199 0.061791 0
0.933724 0.007784 0
0.929688 0.000000 0
0.936928 0.039709 0
0.930811 0.047271 0
0.935682 0.054215 0
0.922002 0.061558 0
0.927261 0.054942 0
0.909388 0.062527 0
0.929734 0.062306 0
0.932948 0.089198 0
0.924451 0.076576 0
0.925209 0.068743 0
0.916301 0.071834 0
0.915341 0.085153 0
0.910220 0.069130 0
0.908894 0.087440 0
0.913743 0.078344 0
0.915681 0.041238 0
0.922643 0.039270 0
0.904883 0.053477 0
0.897961 0.049555 0
0.914079 0.052083 0
0.920376 0.054867 0
0.915914 0.064901 0
0.924477 0.085729 0
0.921795 0.104356 0
0.919338 0.094496 0
0.928340 0.097489 0
0.912376 0.101467 0
0.949293 0.103710 0
0.935127 0.110510 0
0.913274 0.115338 0
0.898478 0.106209 0
0.897663 0.098454 0
0.890271 0.108875 0
0.904676 0.101638 0
0.908683 0.108671 0
0.890938 0.101516 0
0.915925 0.108598 0
0.924883 0.116013 0
0.901016 0.118865 0
0.895005 0.114556 0
0.899981 0.127951 0
0.894261 0.122697 0
0.939508 0.098271 0
0.929511 0.105158 0
0.902483 0.111988 0
0.910869 0.036631 0
0.932734 0.118341 0
0.918582 0.124222 0
0.927951 0.126799 0
0.927923 0.139664 0
0.937981 0.146291 0
0.911902 0.122185 0
0.917382 0.133814 0
0.934109 0.133245 0
0.934829 0.140129 0
0.921079 0.139575 0
0.952013 0.082321 0
0.941649 0.105940 0
0.949189 0.117563 0
0.940940 0.117503 0
0.947163 0.110621 0
0.946690 0.150929 0
0.930684 0.146420 0
0.924366 0.145124 0
0.924603 0.133225 0
0.948953 0.092799 0
0.945865 0.098356 0
0.941133 0.090188 0
0.938644 0.076432 0
0.937766 0.083694 0
0.931575 0.079262 0
0.944681 0.080846 0
0.951132 0.067743 0
0.949642 0.075149 0
0.959007 0.090049 0
0.970947 0.073290 0
0.960412 0.075566 0
0.960320 0.101267 0
0.957583 0.111347 0
0.963181 0.062866 0
0.967591 0.083278 0
0.959287 0.082767 0
0.953836 0.098107 0
0.962580 0.095316 0
0.955442 0.105353 0
0.967005 0.132844 0
0.961093 0.145053 0
0.949359 0.135131 0
0.942875 0.139900 0
0.942044 0.131688 0
0.945404 0.124518 0
0.964690 0.069847 0
0.959840 0.123170 0
0.954419 0.149284 0
0.950052 0.142864 0
0.955865 0.117802 0
0.952585 0.054009 0
0.944165 0.056696 0
0.950077 0.060687 0
0.981537 0.057297 0
1.000000 0.093750 0
0.984375 0.086721 0
0.975427 0.087711 0
0.978959 0.078707 0
0.980351 0.068015 0
1.000000 0.078125 0
0.972100 0.064327 0
0.989718 0.063627 0
0.989453 0.077452 0
1.000000 0.070313 0
1.000000 0.085938 0
0.992364 0.089844 0
1.000000 0.109375 0
0.982471 0.103369 0
0.993679 0.082997 0
0.977165 0.096343 0
0.992005 0.099962 0
0.970997 0.106518 0
0.971477 0.099852 0
0.983705 0.073888 0
1.000000 0.101563 0
0.990102 0.109680 0
0.963821 0.107629 0
0.968982 0.117231 0
1.000000 0.117188 0
0.979107 0.113589 0
0.967514 0.124977 0
0.983753 0.129978 0
0.975037 0.129414 0
0.989917 0.121094 0
0.979879 0.122223 0
0.978445 0.144367 0
0.973770 0.137568 0
0.981442 0.137299 0
1.000000 0.140625 0
0.989648 0.144948 0
0.993114 0.152166 0
0.969793 0.145310 0
1.000000 0.148438 0
0.965604 0.139702 0
0.957478 0.137428 0
0.955270 0.129738 0
0.972974 0.112436 0
0.977398 0.107363 0
0.992478 0.129450 0
1.000000 0.132813 0
0.993526 0.115444 0
0.992501 0.070595 0
0.985361 0.094972 0
0.985915 0.115320 0
0.983750 0.150375 0
0.977631 0.156839 0
0.974723 0.150386 0
0.973397 0.161825 0
0.992609 0.137481 0
0.867188 1.000000 0
0.867952 0.992809 0
0.861717 0.994083 0
1.000000 0.351563 0
0.988355 0.347656 0
0.984197 0.353172 0
0.982381 0.342868 0
0.989797 0.339735 0
0.992568 0.354408 0
0.935201 0.321180 0
0.921476 0.312901 0
0.941949 0.318322 0
0.929547 0.315038 0
0.923719 0.320737 0
0.927794 0.305352 0
0.917308 0.302994 0
0.919053 0.296550 0
0.911417 0.311304 0
0.925115 0.299271 0
0.911172 0.304887 0
0.915370 0.318882 0
0.907931 0.322536 0
0.901352 0.325462 0
0.934530 0.306369 0
0.900481 0.362021 0
0.893765 0.361092 0
0.991592 0.522010 0
1.000000 0.523438 0
0.992865 0.529298 0
0.993667 0.536200 0
0.892266 0.427468 0
0.886158 0.423657 0
0.920023 0.399082 0
0.913265 0.395427 0
0.925035 0.392877 0
0.924339 0.405213 0
0.912824 0.405587 0
0.913071 0.413089 0
0.885895 0.087862 0
0.861202 0.243416 0
0.917561 0.211472 0
0.924109 0.215798 0
0.914945 0.219499 0
0.897139 0.189298 0
0.899709 0.199685 0
0.893000 0.202431 0
0.910060 0.200653 0
0.917514 0.203494 0
0.927482 0.201566 0
0.924336 0.208336 0
0.437994 0.421806 0
0.440182 0.428548 0
0.438059 0.414842 0
0.595570 0.984847 0
0.599949 0.975924 0
0.616250 0.984033 0
0.592539 0.977824 0
0.605908 0.984384 0
0.608033 0.976559 0
0.615961 0.971366 0
0.609375 1.000000 0
0.601563 1.000000 0
0.597656 0.992784 0
0.625015 0.977496 0
0.614469 0.977737 0
0.611322 0.991375 0
0.620397 0.992141 0
0.604652 0.993662 0
0.640625 1.000000 0
0.617188 1.000000 0
0.632813 0.990147 0
0.626992 0.993556 0
0.625245 0.985620 0
0.632813 1.000000 0
0.630282 0.971595 0
0.644968 0.985335 0
0.644642 0.978317 0
0.636311 0.981816 0
0.640581 0.992011 0
0.648438 1.000000 0
0.652344 0.991333 0
0.658978 0.986304 0
0.652133 0.983510 0
0.660156 0.993658 0
0.672198 0.969529 0
0.695313 0.000000 0
0.699181 0.005532 0
0.712190 0.047076 0
0.702597 0.049670 0
0.725175 0.048463 0
0.709599 0.056528 0
0.730269 0.053557 0
0.722846 0.055886 0
0.712394 0.062242 0
0.716078 0.053223 0
0.719772 0.037569 0
0.713564 0.032866 0
0.708462 0.039544 0
0.702858 0.043060 0
0.719007 0.044736 0
0.738798 0.029104 0
0.749549 0.028863 0
0.749049 0.037591 0
0.740526 0.043203 0
0.732863 0.045870 0
0.734018 0.036845 0
0.727065 0.040542 0
0.728414 0.028038 0
0.743845 0.014339 0
0.730469 0.012877 0
0.730469 0.005846 0
0.738942 0.007280 0
0.722670 0.006829 0
0.742188 0.000000 0
0.746745 0.007093 0
0.765625 0.000000 0
0.754628 0.014450 0
0.741819 0.035889 0
0.722256 0.031138 0
0.744031 0.022647 0
0.735095 0.020753 0
0.751601 0.021485 0
0.725081 0.019866 0
0.718259 0.018552 0
0.765444 0.015299 0
0.768927 0.020581 0
0.759793 0.017972 0
0.760607 0.007591 0
0.757813 0.000000 0
0.774540 0.008882 0
0.767539 0.008613 0
0.771783 0.014629 0
0.773438 0.000000 0
0.919169 0.635695 0
1.000000 0.820313 0
0.993837 0.816782 0
0.968750 0.000000 0
0.933498 0.069842 0
0.942794 0.069078 0
0.953283 0.038637 0
0.945186 0.040399 0
0.950693 0.046222 0
0.967211 0.047277 0
0.958849 0.048363 0
0.968881 0.056024 0
0.959986 0.055922 0
1.000000 0.031250 0
0.975033 0.058415 0
0.908467 0.209767 0
0.902492 0.213057 0
0.903198 0.205499 0
0.586312 0.991421 0
0.580127 0.993714 0
0.587941 0.983943 0
0.585938 1.000000 0
0.953125 0.000000 0
0.952993 0.022024 0
0.945313 0.000000 0
0.949219 0.010989 0
0.941650 0.008522 0
0.960938 0.008966 0
0.945497 0.018425 0
0.946130 0.026711 0
0.953628 0.030322 0
0.940143 0.023001 0
0.947394 0.033675 0
0.961510 0.025546 0
0.960943 0.034790 0
0.959932 0.017300 0
0.967664 0.039233 0
0.984375 0.037441 0
0.961157 0.041771 0
0.975798 0.036274 0
0.978739 0.046766 0
0.973137 0.050679 0
0.954509 0.006681 0
0.960938 0.000000 0
0.429688 1.000000 0
0.428213 0.992507 0
0.648438 0.000000 0
0.649509 0.007427 0
0.643014 0.006169 0
0.796875 0.000000 0
0.789328 0.013545 0
0.798529 0.018651 0
0.789605 0.023888 0
0.782374 0.028030 0
0.797686 0.009327 0
0.796104 0.024741 0
0.789984 0.030784 0
0.783244 0.018883 0
0.781925 0.011243 0
0.804688 0.000000 0
0.806831 0.008900 0
0.789063 0.000000 0
0.791135 0.006735 0
0.784787 0.005430 0
0.978026 0.015625 0
0.981503 0.026445 0
0.970425 0.021678 0
0.969377 0.012564 0
0.967025 0.006384 0
0.976865 0.021967 0
1.000000 0.015625 0
0.990458 0.029979 0
0.989594 0.019056 0
1.000000 0.023438 0
0.984375 0.000000 0
0.993537 0.024240 0
0.991787 0.008213 0
0.993781 0.014259 0
0.985236 0.012531 0
0.992188 0.000000 0
1.000000 0.007813 0
0.976563 0.000000 0
0.978879 0.007664 0
1.000000 0.046875 0
1.000000 0.039063 0
0.991698 0.042969 0
0.993599 0.036233 0
0.991856 0.053408 0
1.000000 0.054688 0
0.994445 0.059283 0
0.984962 0.050750 0

CELLS 30976 123904
3 11260 10901 11261
3 3472 3474 4066
3 667 678 680
3 799 800 838
3 12117 12535 12115
3 9044 9048 9047
3 14138 14140 14017
3 3675 3645 3673
3 13233 13482 350
3 12474 590 13253
3 5390 5398 2887
3 608 7166 7181
3 6395 15080 15075
3 10399 11762 11162
3 3876 3191 3194
3 4582 4572 4580
3 10494 9551 9544
3 14811 14759 14778
3 13829 534 13822
3 13626 13638 13627
3 14746 14760 14743
3 15317 15345 15336
3 14391 14390 14019
3 13778 14007 13496
3 535 14468 14547
3 8945 8947 39
3 11876 12273 11877
3 9056 9538 7563
3 13802 13803 13255
3 6768 6781 6766
3 5827 6614 5242
3 11357 11047 11042
3 12811 15712 13276
3 5279 6801 4686
3 9132 7659 9131
3 9055 9051 9050
3 3187 227 1879
3 15627 15640 15638
3 6633 6622 6629
3 7639 7642 7644
3 7546 7548 7542
3 5912 5915 5899
3 5266 5269 5268
3 5986 5999 6004
3 13548 13547 640
3 15377 641 15348
3 13030 13038 13040
3 11299 11955 281
3 2640 104 2623
3 10412 9852 9854
3 6663 6659 6618
3 9836 185 9839
3 7429 7432 7435
3 8876 6638 8875
3 6662 6684 6685
3 13491 270 13489
3 10453 10456 10451
3 7424 7446 488
3 7425 7420 7422
3 5789 7382 7384
3 8122 8918 8891
3 497 4612 4618
3 2299 2309 2306
3 871 870 1582
3 44 8438 8448
3 4601 4006 4007
3 1352 984 1342
3 1133 1137 306
3 914 886 908
3 3086 3089 2625
3 5364 5354 5343
3 1968 1979 1961
3 1653 2373 2371
3 1854 1862 1857
3 3515 3520 4088
3 3469 155 3467
3 1243 1240 1237
3 1203 1206 45
3 3797 3789 3788
3 4892 4891 4432
3 5120 5112 5113
3 5134 372 4454
3 850 849 813
3 5046 195 5030
3 2874 53 2876
3 2860 2839 2843
3 1322 1317 1319
3 6214 6160 6176
3 6951 6252 6245
3 5125 6512 5117
3 6461 5669 6471
3 8669 8680 8668
3 3814 52 5095
3 5474 5468 5464
3 10980 10991 10999
3 4122 3553 3566
3 5944 5945 5958
3 5932 61 5924
3 8327 9698 9682
3 10269 11122 10591
3 5904 5902 5883
3 3231 4047 232
3 12827 12543 11737
3 1737 1740 2086
3 6144 6146 6118
3 1147 1148 1458
3 6312 7010 384
3 3828 3348 5137
3 4230 4244 4233
3 5494 5499 5498
3 3005 3330 3000
3 6232 6235 6231
3 10692 10715 10717
3 10370 10390 82
3 6381 6383 6379
3 3695 4797 3699
3 210 10778 11170
3 2731 3196 2732
3 5517 5532 5520
3 5602 4338 4297
3 1617 1619 392
3 5314 5312 5317
3 6915 5322 6913
3 710 1115 1119
3 3107 3109 295
3 8560 11155 8558
3 206 7034 7767
3 11398 11400 10837
3 13331 13326 13330
3 7288 7300 7295
3 12892 244 12871
3 6517 6524 6521
3 10299 10298 10111
3 6351 119 6340
3 13371 13372 13967
3 11188 11191 402
3 13055 13058 12612
3 12664 12670 12667
3 222 13672 13669
3 12579 11427 12593
3 14418 121 14413
3 13075 13074 531
3 12008 405 12368
3 15551 15552 15553
3 2195 2693 407
3 1013 903 1016
3 7489 7493 408
3 7523 7518 7507
3 7482 7485 7484
3 9420 9011 9014
3 2202 2206 2212
3 6510 7257 5670
3 9894 9874 9885
3 7816 7125 15016
3 9310 9322 9328
3 6810 6824 6826
3 10859 10855 8867
3 442 11328 11336
3 11041 11046 28
3 9411 9920 26
3 9451 9449 9454
3 12116 12535 12113
3 10538 10540 10515
3 9126 10008 215
3 7392 5750 7393
3 2631 2633 2619
3 817 802 801
3 962 964 950
3 1125 734 1123
3 4126 5308 5311
3 1246 1261 1242
3 2603 1189 2601
3 3368 3371 3369
3 4717 4725 546
3 1410 392 1630
3 191 933 937
3 1819 1821 1820
3 2860 3571 2839
3 1061 1080 564
3 1983 367 1978
3 1731 1738 2016
3 693 1117 1122
3 2910 2437 2449
3 3271 3284 3278
3 5055 5062 475
3 5451 5443 14933
3 2521 467 2517
3 5976 6896 7662
3 11370 11122 10593
3 3233 3226 3229
3 567 10522 10524
3 10542 11005 11009
3 8354 7675 8352
3 10017 10016 10022
3 9085 7613 9086
3 9651 9667 5926
3 3647 3725 4845
3 2966 2967 2957
3 10318 10694 10323
3 8603 8602 15038
3 12211 11756 12593
3 15154 15149 15157
3 13957 13966 14218
3 10783 10793 10791
3 11629 11949 11950
3 13126 12642 12264
3 13931 13939 13940
3 11962 11982 11981
3 11236 12926 11235
3 10146 10850 10852
3 10430 558 10427
3 9842 297 9841
3 6081 3283 4779
3 5448 5438 5439
3 3828 3346 3348
3 11115 11112 10954
3 251 6578 6592
3 4197 3631 4198
3 2981 2987 2982
3 3919 3903 310
3 1863 1867 1886
3 13784 13533 13511
3 13899 13888 13885
3 3450 3454 3447
3 8288 316 8283
3 12952 13026 12955
3 12950 12951 12949
3 12275 12284 12283
3 8816 580 8808
3 8182 8163 8178
3 2750 3966 3975
3 10882 11572 11574
3 6723 6715 6735
3 1503 1497 1502
3 8177 8168 8161
3 1341 434 1838
3 3181 3182 2233
3 1847 1593 2235
3 2266 2264 2261
3 3661 3655 3294
3 6289 388 6304
3 3761 3762 3778
3 6166 6153 6195
3 2477 2497 2467
3 230 2015 2020
3 2487 2496 2479
3 5703 5719 5721
3 6521 6524 553
3 8724 9287 437
3 6994 6989 6990
3 8530 8535 8529
3 8767 8763 8782
3 12179 11540 12177
3 397 11535 11536
3 11166 11763 11165
3 12178 12181 12176
3 13056 13054 13677
3 11791 12232 11818
3 10371 10372 10665
3 5072 5065 5066
3 15293 84 14173
3 7916 6472 7917
3 5893 588 5880
3 5993 5971 5992
3 5528 5529 5523
3 11410 10744 10781
3 14063 14069 14056
3 14656 14661 14650
3 640 13272 13282
3 11656 440 11648
3 11127 329 9771
3 5042 5043 5027
3 4635 3931 4627
3 6836 6827 7569
3 14540 14539 14537
3 14573 14568 14579
3 15420 15445 15438
3 15325 15320 15328
3 12499 12488 12514
3 309 12373 12382
3 13248 13249 12784
3 12369 12529 12366
3 226 4586 4589
3 2765 2737 2742
3 4975 4985 4978
3 4884 4896 4895
3 4155 4159 4156
3 5000 5001 4992
3 4753 4752 4751
3 4329 4379 4371
3 4208 2033 2927
3 2504 3754 3767
3 4279 4284 4270
3 8639 8635 8636
3 4294 4287 4288
3 7587 527 5862
3 15132 15137 239
3 11083 10197 9985
3 555 8322 8320
3 9207 9209 317
3 2489 2481 2475
3 7810 7069 205
3 348 6395 15075
3 5578 5585 585
3 4844 4858 4251
3 6785 240 5846
3 4667 4678 5262
3 11683 12072 11673
3 11657 11662 11667
3 11717 11718 11719
3 11036 11035 11026
3 180 3446 3425
3 3946 3939 3945
3 5980 5978 5979
3 12035 454 9944
3 3475 155 3476
3 12915 12916 12905
3 12896 12563 12884
3 6634 6626 6645
3 6657 6658 6700
3 5684 5690 4541
3 9315 9317 9321
3 6722 8881 6710
3 11297 11612 11959
3 9391 8977 8978
3 8166 8156 8162
3 7469 3861 3862
3 2155 2151 610
3 8417 8414 8416
3 4145 5334 287
3 1604 2238 1603
3 2224 1839 2228
3 989 1019 1023
3 983 982 978
3 1081 1094 1093
3 993 976 1005
3 1095 1075 1054
3 1424 1679 1423
3 7257 7969 5670
3 509 3067 3063
3 5054 5063 7900
3 4899 4913 166
3 6923 7230 7216
3 6484 7914 6473
3 9668 9681 9661
3 10975 10981 11002
3 9101 200 9097
3 10990 12136 12138
3 9707 10057 10058
3 10963 11351 199
3 9084 9646 9652
3 6245 6188 6244
3 4235 6113 6108
3 3083 3085 3845
3 3856 3855 5683
3 2441 2436 2446
3 2415 2419 2417
3 387 4236 4232
3 5568 6104 5567
3 6340 6361 5530
3 7103 7104 7099
3 4483 4487 4504
3 5498 263 5494
3 7025 5506 7023
3 8528 8525 7035
3 6539 7267 584
3 10334 10338 10332
3 7305 7313 7308
3 601 7296 7285
3 10748 10705 10747
3 410 15029 15031
3 13108 13102 13106
3 87 13065 13363
3 759 795 770
3 1549 837 1274
3 7491 7499 9009
3 9426 12419 9407
3 2181 2185 214
3 1550 1303 1562
3 9682 9689 462
3 10578 10580 10583
3 2008 1733 1996
3 2445 216 2452
3 2580 68 2573
3 602 4196 3697
3 10947 254 10200
3 9617 9620 10202
3 2988 3696 3700
3 4210 4213 4214
3 11807 11189 11803
3 13119 123 13117
3 12223 12220 11817
3 13953 13950 13952
3 12269 11865 11856
3 13716 15281 13718
3 1642 1644 562
3 9632 9635 9631
3 3939 3940 3938
3 12987 12990 12993
3 13700 13702 14229
3 3941 3962 464
3 1880 2244 1861
3 4593 4602 4596
3 565 1390 1386
3 1396 1411 1374
3 6286 6291 6321
3 6309 6303 6308
3 3031 2525 2528
3 1719 1752 1718
3 13920 14162 13924
3 13147 13707 13706
3 3222 2779 3216
3 3482 3480 3483
3 7055 7062 6346
3 10799 10808 10797
3 4411 4433 4410
3 4373 4423 4424
3 4266 4270 4269
3 5019 5033 5032
3 4169 4783 236
3 3288 3289 3610
3 4398 4422 4409
3 5619 5613 5617
3 4333 4335 57
3 5613 5619 5620
3 4664 5805 4688
3 9966 9967 9968
3 6784 6788 6792
3 10919 10172 10483
3 9940 9943 9944
3 10841 19 8817
3 11562 13590 13589
3 11913 11560 11911
3 13722 13729 13428
3 12188 12553 12558
3 12856 12857 12860
3 1237 547 1242
3 3387 3378 3380
3 1337 926 929
3 4017 4015 3995
3 3822 3809 3818
3 5011 5048 5003
3 10224 5950 10229
3 10243 248 10234
3 10250 10563 10564
3 8371 8374 9094
3 2562 2566 2561
3 5148 5146 5147
3 6579 6578 251
3 7034 7043 7029
3 4176 2861 3289
3 1675 1671 1673
3 1528 373 1540
3 3150 3151 3148
3 3905 9563 3903
3 11032 8339 11030
3 4862 7090 4860
3 5552 459 5543
3 6100 4821 6101
3 2493 2492 2485
3 11457 11486 11489
3 12300 12277 12291
3 2793 2810 2365
3 2334 2331 27
3 12998 480 12990
3 13024 13336 13353
3 2376 2815 1951
3 2338 2337 2340
3 1752 1751 1447
3 1744 1746 2078
3 9496 9492 9504
3 11058 11059 11043
3 4803 118 4800
3 7104 7103 7105
3 13718 13714 484
3 12279 12276 151
3 1621 392 1619
3 4076 265 4072
3 267 669 668
3 766 791 755
3 775 774 780
3 675 667 672
3 1749 1714 1743
3 2681 2170 2684
3 11956 12729 11954
3 13191 11945 12339
3 13522 542 13519
3 14082 14115 14118
3 437 15142 9829
3 7299 7304 7298
3 10367 10379 10383
3 9283 9798 8722
3 9551 10193 164
3 12049 11644 12046
3 13626 13627 13653
3 13205 13207 13749
3 13860 13856 615
3 14338 12984 12989
3 13871 14037 14036
3 14329 14089 14327
3 185 5724 5749
3 436 5738 5743
3 5814 4673 4705
3 8864 8108 8854
3 9031 9025 9024
3 9022 634 9020
3 8260 7501 91
3 9895 9905 10479
3 11633 11273 11277
3 6707 6726 6725
3 8953 8940 8944
3 7441 283 7440
3 488 7446 7460
3 10858 8870 8872
3 186 10873 10877
3 8929 8932 8933
3 10476 10477 10479
3 1147 1754 1756
3 2128 2129 1788
3 2803 2831 105
3 4142 3565 4140
3 3545 3519 3546
3 393 6062 6065
3 3510 3258 3260
3 4737 4739 4746
3 1728 1724 1725
3 1445 490 1107
3 4293 5602 4297
3 8608 7131 7132
3 12212 12217 12216
3 11179 11423 11422
3 7845 7843 6971
3 5636 5643 665
3 7357 7361 7356
3 4407 7143 7138
3 77 1184 1186
3 277 5770 5778
3 2616 2610 2622
3 8795 8794 8790
3 8728 8742 8730
3 10478 11551 285
3 11889 11892 11891
3 12867 12891 12877
3 7316 7319 7323
3 8277 9543 9554
3 6845 8281 7575
3 12003 11986 11993
3 11577 11578 11257
3 12768 12349 13221
3 12353 405 12351
3 4764 2806 105
3 6906 8341 7681
3 2380 3252 3254
3 1429 1415 1430
3 1702 1208 1993
3 1115 710 735
3 1215 1213 1209
3 1181 1196 1182
3 675 674 1478
3 1164 1165 545
3 9186 10692 9187
3 15159 10819 12576
3 12019 12018 12022
3 12759 125 12745
3 316 8284 8283
3 3460 3463 3458
3 3671 4233 4237
3 13856 13869 615
3 4827 3678 3644
3 271 10136 10134
3 10636 10633 10638
3 11482 11481 11476
3 12214 11457 12212
3 11342 12476 12477
3 13245 12378 12384
3 7587 7585 6848
3 7607 8297 8316
3 2036 145 2928
3 4832 3690 5487
3 4575 4576 318
3 5819 5231 5813
3 2158 2160 188
3 3180 246 1835
3 9634 320 9629
3 320 3926 3917
3 4564 226 4559
3 5233 318 5227
3 13253 13803 13246
3 14513 14512 14271
3 14661 14665 14650
3 14794 636 14775
3 14798 324 14758
3 14296 14497 14295
3 13809 15336 15345
3 14560 14446 326
3 14293 14391 14019
3 327 15410 15423
3 15389 15371 15406
3 1234 1240 1232
3 1473 1779 2600
3 13074 13081 531
3 8658 8659 8654
3 11785 11787 11793
3 733 718 714
3 840 781 774
3 14410 14470 14640
3 10024 10018 625
3 11685 11682 11687
3 7155 7179 7851
3 9239 7882 9238
3 10608 10607 10612
3 15438 15445 15444
3 15322 15325 637
3 9187 389 9184
3 505 4791 4794
3 7793 7794 6336
3 186 10876 10885
3 11265 504 11266
3 9516 342 9512
3 9411 9406 9405
3 8984 9397 8266
3 9535 9521 9515
3 9401 9408 9002
3 9432 7492 7496
3 7515 7514 7524
3 8996 8258 8986
3 7502 22 7508
3 346 7518 7522
3 13752 13756 13426
3 14005 14263 14003
3 5584 5583 7126
3 6375 6373 6374
3 2732 2305 2734
3 2722 2296 2274
3 11278 12337 13190
3 350 13236 13233
3 11276 11288 11290
3 11976 11977 11975
3 7398 7394 10169
3 5787 5778 5772
3 12793 12798 12430
3 12412 12416 461
3 9498 11068 12100
3 11035 11019 11026
3 6807 21 6816
3 12067 15196 15201
3 6839 6842 5816
3 5151 3835 3842
3 13010 13031 480
3 2577 2578 3343
3 6655 6666 6653
3 359 6703 7415
3 360 6677 6680
3 6708 6702 6679
3 8886 38 7436
3 8182 8186 8188
3 8128 8133 8132
3 8924 8137 8923
3 3124 3390 3391
3 8157 8160 8151
3 8052 8054 618
3 8155 4547 8968
3 365 3377 3374
3 6747 6748 5840
3 1357 997 1003
3 1412 1607 1384
3 2430 2432 2425
3 1969 1972 1997
3 2378 2818 368
3 3245 2805 2343
3 2239 1852 2249
3 1909 1914 1915
3 1901 141 1899
3 1860 1855 1857
3 2405 2396 2836
3 2404 2409 2398
3 2173 9270 2684
3 1800 268 1544
3 1528 1525 373
3 2666 2167 2173
3 6143 6134 6148
3 6189 6165 6151
3 154 5131 5133
3 7223 7220 7926
3 9724 9715 9716
3 4112 4111 4099
3 5868 5867 60
3 6038 4754 376
3 9686 10002 10001
3 10267 10585 11086
3 8364 7626 8357
3 3233 232 3226
3 5903 5907 5920
3 6860 6862 6873
3 5938 5292 5936
3 6200 6202 384
3 6137 6171 6147
3 6137 6147 6169
3 6202 6200 6222
3 6124 6126 6163
3 6130 4824 6120
3 4464 4521 4463
3 6580 8582 8580
3 3666 3669 3677
3 3663 4217 3657
3 6239 6285 6219
3 6166 6198 6157
3 6336 6356 6337
3 10733 10730 10732
3 10371 10126 10345
3 9830 9831 10356
3 1621 1626 392
3 10778 210 10787
3 1374 1411 1379
3 4740 3567 4738
3 6076 9140 6913
3 8438 8440 8448
3 5307 5303 4761
3 7626 8324 8357
3 13153 11875 12276
3 11496 11493 11495
3 396 11500 11539
3 11500 11506 11485
3 12193 12548 12188
3 9850 9849 9857
3 313 11144 11153
3 7340 7339 7321
3 10627 10644 10625
3 9291 437 9287
3 8719 8721 8720
3 8011 10116 9295
3 10753 10756 10751
3 10366 10368 10378
3 13363 13065 12615
3 330 12605 13357
3 12012 12005 12010
3 13125 13126 13122
3 11296 11608 11943
3 11974 11990 13226
3 11983 11994 11970
3 2192 2199 515
3 3157 3396 2690
3 12799 6795 6796
3 6784 6803 6809
3 6411 6417 15077
3 119 6354 7805
3 119 6351 6354
3 15038 409 8603
3 9366 9360 9060
3 9555 9554 9547
3 10233 6884 476
3 5928 5948 5949
3 296 7368 8083
3 10013 10014 10007
3 9375 8847 518
3 763 770 773
3 811 266 835
3 4072 265 4709
3 6902 7678 7679
3 1444 2386 1684
3 1030 1053 598
3 2835 2841 2843
3 3512 3511 3517
3 5968 5944 5958
3 7652 419 7644
3 3218 3214 2778
3 1937 1939 2812
3 10766 10737 10759
3 8370 8374 8371
3 10751 10774 10791
3 13686 13692 13086
3 520 14426 14428
3 10843 11201 11204
3 15211 424 12205
3 11837 12239 12626
3 8817 8820 8814
3 6505 6496 6503
3 7207 6082 7951
3 5408 5383 5377
3 5432 428 5429
3 5458 5456 5452
3 5407 5418 5405
3 4478 4477 4471
3 2571 2573 2564
3 11106 11385 11105
3 12141 431 12834
3 11570 10879 10880
3 6634 6639 6652
3 1589 43 1578
3 942 191 944
3 944 956 953
3 1342 983 977
3 2945 2968 2965
3 2929 2940 2942
3 7391 7392 7383
3 5705 5719 5703
3 9291 9289 10138
3 9279 600 8723
3 10671 10670 438
3 7792 6345 6348
3 11183 11194 11196
3 11770 152 11459
3 11679 11707 11671
3 11310 11309 11312
3 11694 11332 11695
3 11664 440 11656
3 11328 11331 11322
3 11318 11324 11327
3 4920 4890 4911
3 10086 10280 10278
3 4926 4995 4901
3 4977 4909 4974
3 9789 237 8676
3 4367 4352 6958
3 4311 4283 4305
3 4404 4350 4385
3 57 4335 4374
3 6939 9752 9208
3 15132 239 9966
3 6170 65 6140
3 2050 145 2036
3 3679 3646 3645
3 11037 11072 452
3 10265 10266 10573
3 7657 9132 28
3 3887 3885 3890
3 4020 3892 4024
3 9931 9934 9939
3 11652 11647 11650
3 3575 3583 47
3 5327 5328 4762
3 3562 304 3570
3 1429 1431 1432
3 6459 5653 6500
3 6473 6474 5667
3 459 6389 6369
3 459 5545 5543
3 5547 5535 5559
3 6362 7087 7088
3 1314 1035 1044
3 874 884 886
3 12057 12045 12024
3 10500 10506 10508
3 7634 8327 9130
3 6871 7628 6887
3 2947 2965 435
3 3323 3718 3721
3 3205 3949 3961
3 3464 3951 2756
3 2318 1869 2297
3 2321 2749 2320
3 3189 3987 3991
3 3966 2750 2766
3 2525 2514 2517
3 2071 2522 2523
3 1710 1707 1705
3 2087 2091 2082
3 4685 4702 5844
3 5857 5853 5852
3 4670 177 4646
3 6771 6772 6770
3 4670 4646 4666
3 5863 5267 5269
3 4640 4638 4650
3 3203 3434 525
3 4647 5850 4671
3 4665 5803 4663
3 7931 7932 9255
3 10183 10926 10927
3 4910 4997 5015
3 6871 6882 6892
3 5963 5934 6864
3 10536 115 10532
3 10558 10547 10554
3 5718 6557 5734
3 9807 600 9805
3 3721 3724 3323
3 3706 3712 4813
3 12968 12952 12954
3 12977 12979 13007
3 12977 12963 13335
3 481 13601 13603
3 2348 2346 2808
3 1935 2340 3247
3 7031 7025 7028
3 4812 479 4246
3 12685 12681 12683
3 13177 13162 484
3 1199 1201 1172
3 682 677 1104
3 281 10470 11299
3 13749 13456 13748
3 4540 5173 5176
3 487 5779 5764
3 8116 6719 6718
3 6737 7451 7446
3 3550 3553 3548
3 4129 4121 4124
3 1524 1798 266
3 749 753 756
3 11560 12698 12700
3 11217 10846 11213
3 1140 1145 1143
3 1173 45 1122
3 10741 10789 10769
3 156 10713 10705
3 10802 10815 10795
3 12582 11178 11754
3 2068 2083 2070
3 2057 2019 2061
3 7401 5247 496
3 5238 4571 4578
3 4594 4603 4607
3 4612 4614 4618
3 5801 5796 4615
3 8151 8154 8149
3 5205 5192 5197
3 6690 8252 6686
3 5829 6739 6740
3 499 8213 8215
3 12439 12438 12068
3 12807 13272 13274
3 88 11277 11276
3 10276 8651 9768
3 341 11263 11591
3 11284 504 11274
3 10466 10473 10474
3 4170 4172 4795
3 2855 2853 2854
3 3794 7997 3056
3 14916 14918 14921
3 3050 3057 3047
3 3804 3807 3805
3 2536 2539 2538
3 3052 3781 508
3 509 2543 2544
3 8690 8693 8689
3 2679 2177 2689
3 1525 1532 373
3 10035 10034 10043
3 10591 11122 511
3 8416 513 8407
3 7710 6077 7712
3 8377 8382 116
3 7725 7726 7719
3 60 7678 6902
3 6031 530 6019
3 2216 1821 1819
3 3162 3164 3167
3 5531 7811 5529
3 7816 6402 7814
3 10193 11711 11712
3 12394 12397 12400
3 8902 8903 8926
3 8087 8082 8084
3 11831 86 11828
3 14352 13930 13952
3 14424 14417 14422
3 12639 13090 521
3 2466 2469 523
3 7205 7208 5420
3 2041 2462 2464
3 9683 9688 9687
3 7631 7636 7629
3 2310 3199 2325
3 3465 3203 525
3 6760 470 6781
3 470 6759 6762
3 5268 6776 6757
3 4691 4696 4700
3 4033 528 4031
3 3929 3928 12
3 12941 12964 12965
3 12971 13597 529
3 6022 6017 6021
3 7669 7668 7676
3 12240 11843 220
3 12611 13068 12595
3 3236 3234 3232
3 3496 2809 3495
3 11321 20 12449
3 10938 10939 10940
3 13838 13836 13832
3 13325 13610 13612
3 14068 14067 14100
3 14083 14085 14330
3 9457 9477 9474
3 9470 9016 9440
3 9463 9462 9458
3 9450 9451 9439
3 5885 5893 5884
3 5898 5906 5919
3 13195 13433 13431
3 11918 11919 11917
3 9853 9861 9862
3 9851 9849 9850
3 7272 7273 7269
3 5717 5700 5696
3 13489 270 13480
3 14015 542 13522
3 1890 2251 1886
3 3879 2731 2728
3 892 807 889
3 886 544 874
3 728 730 307
3 1187 1186 1184
3 4730 4715 4062
3 5289 5876 5285
3 725 736 727
3 331 863 845
3 5459 14976 14975
3 6058 6047 6052
3 10969 10978 10961
3 10531 10532 10534
3 2117 2107 2558
3 1770 2109 1764
3 4177 4181 217
3 4491 4496 4497
3 780 782 775
3 1223 743 103
3 8029 8034 7347
3 5164 5160 5162
3 13754 13761 14247
3 15543 14016 15544
3 7589 7591 7593
3 9444 536 9440
3 9879 9377 9378
3 10419 556 9899
3 9909 9377 9910
3 8137 7454 7459
3 10427 10423 10434
3 10164 127 10162
3 2626 2609 3079
3 559 2146 2647
3 2133 2144 2136
3 2134 2612 2142
3 899 886 879
3 911 915 946
3 1627 1638 1637
3 1605 1614 1611
3 997 14882 976
3 953 955 1590
3 1388 1402 1385
3 1011 1026 1023
3 1003 997 995
3 964 990 563
3 1768 1465 1758
3 4184 3627 3629
3 10994 11001 11392
3 9659 9670 568
3 10217 9674 9676
3 5927 6858 5905
3 9808 10317 10336
3 272 10123 10120
3 13432 13433 13725
3 12959 12929 13587
3 10847 10845 10846
3 11240 11241 11237
3 13487 13511 13486
3 554 14131 14126
3 9855 9852 12921
3 13878 13880 13884
3 12932 12922 12930
3 12652 13137 13131
3 13404 13406 13407
3 13046 231 13128
3 13151 13143 13142
3 8790 8794 8792
3 8811 10408 10403
3 8750 579 7327
3 8729 8738 81
3 8757 8786 579
3 8713 8720 8714
3 8809 8795 8793
3 8802 8806 8793
3 10869 10865 10868
3 7447 7461 7442
3 1513 1514 3122
3 1165 1179 1220
3 1895 14885 1926
3 2285 2292 2773
3 7262 5728 9331
3 7275 7278 7282
3 6227 6260 6262
3 5598 5599 7127
3 12202 12189 12196
3 13046 12197 13048
3 5129 5107 5113
3 5085 5088 4450
3 5290 5283 5289
3 5916 5890 5881
3 12471 12483 12460
3 9251 9789 8676
3 12475 13302 12468
3 4938 6440 5612
3 4940 4909 4918
3 2874 2890 53
3 2864 2866 2863
3 3278 3286 3279
3 4779 3283 7243
3 4313 4310 4314
3 4914 4915 4908
3 4960 4947 4946
3 4307 4326 4317
3 5727 5726 5705
3 3854 3839 3370
3 578 8745 8754
3 5749 5775 5774
3 1083 1084 1085
3 192 987 989
3 10316 10652 7310
3 197 11116 12126
3 7297 8006 8017
3 10649 8006 7297
3 6536 6546 208
3 3322 2991 2990
3 2981 2985 3319
3 3792 3811 3817
3 4425 4426 4431
3 4330 4329 4349
3 604 4380 4396
3 4416 4417 4391
3 3762 3773 3760
3 2518 3042 3044
3 2070 2083 10
3 7891 7879 7889
3 9248 5629 8674
3 7161 7158 7160
3 7868 5627 5630
3 609 8659 8664
3 7876 7895 7867
3 1570 1568 1572
3 1495 1496 1790
3 4409 4422 234
3 5084 5651 5083
3 2328 2300 2316
3 2284 2278 2279
3 753 792 613
3 757 762 703
3 13223 13220 13225
3 12747 12749 12759
3 13902 13901 573
3 14033 13840 13818
3 14061 13859 14048
3 14071 14326 14069
3 295 8041 8039
3 9020 634 9037
3 8068 8054 8071
3 6600 5753 6601
3 3371 3101 3365
3 2114 2112 550
3 1131 1133 306
3 621 12392 12391
3 621 12391 12397
3 1519 1515 1518
3 8090 8089 8067
3 2147 3082 3081
3 3351 250 2585
3 11509 12687 11863
3 12595 12600 12602
3 8430 8410 513
3 10018 10024 10028
3 832 831 829
3 12121 12120 11380
3 700 699 686
3 10420 10156 10419
3 8936 8937 9373
3 2650 2128 1788
3 560 2144 2133
3 13625 13633 13617
3 13725 13726 13432
3 7329 7337 7338
3 7321 7343 7323
3 5653 6497 6495
3 507 3800 3805
3 3701 3711 3705
3 3327 3747 3325
3 8266 9041 9043
3 9034 9037 634
3 14559 14575 14569
3 14575 14482 14569
3 14724 14736 14
3 14727 14738 14736
3 15310 15322 15331
3 13265 13547 13548
3 14478 14481 17
3 14592 14595 14588
3 12803 11687 12802
3 9942 9943 10922
3 11689 14026 12446
3 13561 14455 14454
3 14623 16 14625
3 7236 7239 58
3 3143 3153 3142
3 435 2934 2947
3 2922 2920 2923
3 14543 14696 14290
3 644 14799 14801
3 15422 15442 15459
3 15480 15475 15464
3 15737 15739 15742
3 15717 15691 646
3 12955 12953 12954
3 8505 8513 8506
3 15207 12567 15206
3 7746 8488 7743
3 651 7843 8506
3 8517 9171 652
3 6982 7741 6979
3 6965 6969 6962
3 8628 7841 7835
3 6447 7135 293
3 1323 1325 1310
3 1014 1299 1312
3 6445 6451 5638
3 9241 9766 10080
3 7858 7859 7855
3 654 7849 8626
3 8634 8629 8630
3 14288 14292 14284
3 14521 14512 14514
3 14023 12443 14027
3 12445 12446 12444
3 14651 14673 14647
3 14714 14718 14713
3 14804 14801 14717
3 14758 14745 14752
3 8465 6053 6057
3 6046 4749 6044
3 6177 6179 6153
3 3654 3662 387
3 8000 5676 6515
3 5074 5079 5081
3 15254 15255 15256
3 231 13046 13051
3 5643 5636 5639
3 4998 238 4952
3 680 678 666
3 746 748 688
3 669 672 667
3 676 667 675
3 668 680 746
3 750 705 267
3 671 672 673
3 680 669 667
3 685 671 673
3 701 707 683
3 669 673 672
3 671 694 674
3 673 669 267
3 671 674 675
3 687 673 267
3 692 683 670
3 671 685 692
3 697 674 694
3 671 675 672
3 1478 676 675
3 679 676 485
3 667 676 678
3 1104 1105 689
3 666 678 681
3 679 678 676
3 678 679 681
3 485 1784 679
3 679 677 681
3 746 680 666
3 680 668 669
3 677 682 681
3 682 1107 1108
3 1105 679 690
3 1445 1107 682
3 687 699 673
3 699 683 685
3 704 702 686
3 1109 712 713
3 699 685 673
3 692 685 683
3 746 688 752
3 712 1109 721
3 687 267 705
3 699 687 686
3 681 1108 666
3 792 793 767
3 1686 1106 689
3 1106 1445 1104
3 1206 696 14880
3 689 1688 1687
3 790 765 691
3 748 746 747
3 695 692 670
3 671 692 694
3 716 711 670
3 14880 696 14881
3 695 694 692
3 14881 696 697
3 715 711 716
3 695 693 14881
3 1201 1203 1207
3 1476 1478 697
3 694 695 14881
3 1476 697 696
3 709 718 708
3 707 698 709
3 700 686 702
3 707 701 698
3 700 702 713
3 717 698 701
3 683 699 701
3 700 701 699
3 704 686 705
3 713 702 684
3 758 757 703
3 704 789 702
3 686 687 705
3 762 764 703
3 750 749 758
3 703 704 705
3 706 713 778
3 706 778 834
3 719 718 709
3 683 707 670
3 695 711 693
3 709 716 707
3 723 719 721
3 709 708 715
3 722 731 708
3 740 731 307
3 670 711 695
3 1118 1117 1119
3 700 712 717
3 712 700 713
3 782 806 764
3 713 706 1109
3 714 719 723
3 718 722 708
3 735 715 708
3 715 710 711
3 707 716 670
3 709 715 716
3 700 717 701
3 721 717 712
3 719 709 698
3 722 718 733
3 721 719 698
3 714 718 719
3 726 714 723
3 1159 1110 1156
3 721 698 717
3 721 552 723
3 720 728 722
3 722 728 731
3 1268 726 833
3 723 833 726
3 803 805 834
3 832 848 804
3 738 745 1223
3 726 727 714
3 833 723 552
3 727 726 725
3 738 736 725
3 720 722 733
3 1113 739 1112
3 731 728 307
3 736 739 744
3 729 1112 1114
3 1113 728 720
3 1166 1164 1110
3 1154 1110 1163
3 708 731 735
3 1244 1257 103
3 744 720 727
3 714 727 733
3 720 733 727
3 1142 1130 1131
3 735 710 715
3 731 740 741
3 731 741 735
3 725 1268 738
3 736 732 739
3 1110 1154 1156
3 741 737 742
3 738 724 745
3 736 738 1224
3 732 1260 1114
3 730 1112 729
3 740 307 1158
3 740 737 741
3 742 737 1123
3 735 741 1115
3 1118 1121 1116
3 693 711 1117
3 831 804 827
3 1235 1231 1233
3 736 744 727
3 1113 744 739
3 1230 745 724
3 1223 745 743
3 747 746 666
3 752 751 746
3 747 666 1108
3 747 691 748
3 765 748 691
3 748 791 766
3 752 753 749
3 758 749 756
3 267 668 750
3 751 668 746
3 749 750 751
3 668 751 750
3 753 752 688
3 749 751 752
3 766 688 748
3 753 613 756
3 1449 790 490
3 1453 754 1451
3 811 755 810
3 766 793 688
3 757 756 613
3 756 757 758
3 761 757 613
3 757 763 762
3 703 705 758
3 750 758 705
3 812 794 768
3 772 770 795
3 773 775 760
3 703 764 789
3 794 812 792
3 763 761 759
3 763 757 761
3 762 760 764
3 770 763 759
3 762 763 760
3 775 782 760
3 764 806 789
3 691 1107 790
3 765 754 791
3 791 748 765
3 766 755 793
3 1490 835 1488
3 761 769 759
3 768 1486 796
3 795 797 771
3 812 761 613
3 769 768 796
3 796 797 759
3 773 770 48
3 815 800 814
3 48 770 772
3 772 816 802
3 802 785 772
3 775 773 776
3 760 763 773
3 776 774 775
3 840 774 786
3 776 773 48
3 777 780 781
3 818 783 785
3 783 776 48
3 777 803 778
3 684 806 778
3 684 778 713
3 777 781 803
3 809 784 808
3 787 788 783
3 781 780 774
3 782 780 777
3 783 779 787
3 781 627 803
3 806 777 778
3 782 764 760
3 785 783 48
3 774 788 786
3 817 824 779
3 844 826 841
3 48 772 785
3 816 772 771
3 774 776 788
3 841 842 844
3 839 809 787
3 841 808 784
3 783 788 776
3 786 788 787
3 702 789 684
3 703 789 704
3 1450 1448 1449
3 765 790 1451
3 1526 791 754
3 810 791 1526
3 793 792 753
3 794 792 767
3 793 753 688
3 793 755 811
3 794 767 1487
3 768 769 812
3 759 769 796
3 771 772 795
3 767 1490 1487
3 797 796 798
3 759 797 795
3 796 1227 798
3 800 798 415
3 771 797 798
3 800 415 822
3 1275 801 823
3 849 822 853
3 800 799 814
3 771 798 815
3 1276 1272 1275
3 801 1278 817
3 818 802 817
3 803 627 805
3 778 803 834
3 825 805 627
3 827 804 805
3 825 627 826
3 805 804 820
3 806 684 789
3 777 806 782
3 890 901 887
3 879 884 887
3 786 787 808
3 809 808 787
3 839 787 779
3 809 807 893
3 811 810 266
3 755 791 810
3 821 1522 1521
3 811 767 793
3 761 812 769
3 792 812 613
3 89 860 858
3 822 838 800
3 1276 1275 814
3 1275 823 814
3 800 815 798
3 815 814 823
3 816 771 815
3 802 816 823
3 824 817 460
3 818 817 779
3 783 818 779
3 785 802 818
3 843 845 828
3 825 827 805
3 832 833 848
3 820 1269 1109
3 849 857 813
3 1225 1226 1227
3 1226 853 415
3 849 850 822
3 802 823 801
3 815 823 816
3 889 891 885
3 839 807 809
3 781 840 627
3 825 819 827
3 826 840 841
3 819 825 826
3 819 830 827
3 745 1230 743
3 830 843 828
3 847 1231 846
3 831 830 846
3 847 846 828
3 843 830 819
3 846 830 828
3 830 831 827
3 829 1230 832
3 832 724 833
3 804 831 832
3 1268 833 724
3 1269 833 552
3 805 820 834
3 706 834 820
3 1521 1522 1523
3 1489 821 1228
3 1525 1528 1521
3 857 849 862
3 861 1274 813
3 1277 1276 1271
3 850 838 822
3 837 799 838
3 779 824 839
3 807 839 824
3 841 840 786
3 627 840 826
3 808 841 786
3 841 784 842
3 869 331 877
3 331 843 844
3 844 843 819
3 843 331 845
3 826 844 819
3 331 844 842
3 866 868 851
3 828 845 856
3 1332 828 856
3 831 846 829
3 103 743 1235
3 1235 1230 1231
3 1269 848 833
3 820 804 848
3 853 822 415
3 849 836 862
3 1274 850 813
3 838 850 837
3 1567 1568 1565
3 852 547 1332
3 845 863 864
3 864 865 1250
3 415 1227 1226
3 836 849 853
3 1334 854 862
3 1804 1540 1538
3 868 867 871
3 852 856 864
3 864 856 845
3 1332 856 852
3 854 858 857
3 858 860 861
3 1803 858 854
3 1551 1807 860
3 1284 212 1271
3 861 813 857
3 1551 1812 1810
3 1301 1274 1300
3 858 861 857
3 1300 860 859
3 1335 836 1229
3 857 862 854
3 863 331 869
3 863 855 864
3 866 865 855
3 855 865 864
3 865 866 894
3 1261 1251 1238
3 868 866 876
3 894 866 851
3 869 855 863
3 867 868 876
3 876 866 855
3 872 870 871
3 842 877 331
3 892 895 883
3 544 886 914
3 1585 1581 870
3 872 871 867
3 870 1581 1582
3 874 881 878
3 872 544 924
3 544 872 874
3 882 867 876
3 881 872 867
3 884 874 873
3 1565 880 1564
3 245 1252 1255
3 855 869 876
3 876 869 882
3 842 784 893
3 895 874 878
3 869 877 878
3 878 877 896
3 888 887 884
3 900 902 897
3 880 894 1564
3 245 1256 1252
3 872 881 874
3 882 881 867
3 869 878 882
3 881 882 878
3 883 896 842
3 893 807 892
3 887 888 885
3 884 879 886
3 807 891 889
3 900 901 101
3 900 897 899
3 899 908 886
3 888 884 873
3 887 885 890
3 873 895 892
3 891 807 824
3 885 888 889
3 892 889 888
3 909 885 891
3 909 890 885
3 824 460 891
3 891 460 910
3 873 892 888
3 892 883 893
3 842 893 883
3 893 784 809
3 1564 894 851
3 1251 894 880
3 874 895 873
3 896 895 878
3 842 896 877
3 895 896 883
3 897 902 906
3 924 925 1585
3 910 1304 898
3 1282 1283 1305
3 900 899 879
3 931 927 929
3 901 900 879
3 900 101 902
3 887 901 879
3 101 901 890
3 905 902 101
3 912 911 906
3 1017 1036 1078
3 14883 1007 1045
3 918 922 913
3 908 916 907
3 1015 1016 1017
3 911 905 903
3 912 906 902
3 917 906 918
3 897 906 917
3 922 928 913
3 897 908 899
3 908 907 914
3 910 909 891
3 909 898 1044
3 1304 910 460
3 909 910 898
3 915 911 903
3 906 911 904
3 902 905 912
3 911 912 905
3 918 913 917
3 934 1576 927
3 926 925 914
3 872 924 870
3 1012 915 1013
3 915 561 935
3 908 897 916
3 917 916 897
3 918 906 904
3 916 917 913
3 921 918 904
3 922 921 936
3 921 935 947
3 941 191 937
3 936 937 933
3 928 932 934
3 911 946 904
3 936 921 919
3 921 922 918
3 928 922 920
3 923 925 926
3 1578 923 1583
3 544 914 924
3 925 924 914
3 926 914 907
3 923 1578 1585
3 913 931 916
3 907 929 926
3 920 932 928
3 927 928 934
3 942 932 933
3 928 927 931
3 931 907 916
3 929 927 1576
3 930 932 942
3 1578 1577 1589
3 931 913 928
3 907 931 929
3 933 932 920
3 932 930 934
3 933 920 936
3 933 191 942
3 952 1340 930
3 1583 926 1337
3 935 957 947
3 921 904 935
3 936 919 937
3 922 936 920
3 940 937 919
3 941 940 949
3 958 1338 948
3 561 1010 1018
3 949 950 966
3 966 968 939
3 919 921 947
3 940 958 949
3 940 941 937
3 941 939 945
3 191 956 944
3 952 944 961
3 1840 1590 1341
3 943 961 944
3 941 945 956
3 943 1590 1840
3 966 960 968
3 943 944 953
3 915 935 946
3 904 946 935
3 957 935 561
3 919 947 1338
3 965 959 962
3 949 958 938
3 950 949 938
3 941 949 939
3 962 950 938
3 950 563 960
3 1340 934 930
3 942 952 930
3 944 952 942
3 1846 1340 952
3 969 974 968
3 974 953 945
3 969 970 971
3 967 975 971
3 982 954 978
3 982 1341 1590
3 941 956 191
3 953 956 945
3 561 948 957
3 957 948 1338
3 1338 958 940
3 1018 958 948
3 963 965 938
3 964 563 950
3 1368 970 960
3 939 968 945
3 961 943 1840
3 952 961 951
3 958 1018 938
3 962 959 964
3 1006 989 963
3 989 987 959
3 986 987 980
3 993 1005 991
3 938 965 962
3 989 965 963
3 949 966 939
3 950 960 966
3 991 1368 990
3 973 971 975
3 960 969 968
3 954 974 969
3 970 969 960
3 974 954 955
3 1368 960 563
3 971 970 967
3 975 1005 14882
3 954 969 971
3 1349 1343 1347
3 954 971 973
3 979 973 972
3 954 973 978
3 953 974 955
3 968 974 945
3 967 1005 975
3 972 973 975
3 964 959 986
3 993 981 999
3 1344 1346 1345
3 982 983 434
3 979 978 973
3 983 978 977
3 1345 979 1364
3 978 979 977
3 1047 1040 1029
3 1391 1072 1392
3 988 964 986
3 1376 1370 1375
3 1341 982 434
3 954 982 955
3 1352 1342 1346
3 1342 985 983
3 1596 1600 1599
3 434 983 985
3 984 1596 1851
3 1841 1592 1840
3 987 986 959
3 988 986 980
3 959 965 989
3 987 192 1041
3 999 1008 1009
3 988 981 990
3 14883 1006 1010
3 1006 1019 989
3 988 990 964
3 991 990 981
3 991 981 993
3 967 970 1368
3 561 915 1012
3 1026 1028 1024
3 999 995 996
3 996 976 993
3 1001 981 988
3 998 1051 1059
3 1371 1372 1370
3 996 997 976
3 981 1001 999
3 997 996 995
3 1372 1003 1004
3 997 46 14882
3 1001 988 1051
3 1041 192 1040
3 993 999 996
3 1008 999 998
3 1000 1376 1382
3 1383 1000 1382
3 1051 988 980
3 999 1001 998
3 995 1004 1003
3 366 1350 1353
3 995 1009 1004
3 1003 1002 1357
3 1400 1004 994
3 1371 1370 1000
3 1005 976 14882
3 967 991 1005
3 1010 1006 963
3 1020 1019 1006
3 1013 1007 1012
3 41 1064 1065
3 1060 1049 1059
3 1009 1008 994
3 1004 1009 994
3 995 999 1009
3 1018 1010 963
3 1012 14883 561
3 1011 1020 1022
3 1025 1023 1026
3 1013 915 903
3 1012 1007 14883
3 101 1032 905
3 1046 1013 1016
3 1281 1282 1286
3 1057 1037 1045
3 1031 1016 903
3 1021 1037 1062
3 1031 903 905
3 1016 1015 1046
3 101 890 1035
3 1017 1032 1034
3 938 1018 963
3 561 1018 948
3 1020 1006 992
3 1023 1019 1011
3 1037 1022 992
3 1011 1019 1020
3 1022 1037 1021
3 1030 1021 1052
3 992 1022 1020
3 1030 1028 1038
3 598 1087 1028
3 989 1023 192
3 1086 1094 1081
3 192 1023 1025
3 1024 1029 1025
3 1025 1040 192
3 1038 1011 1022
3 1024 1025 1026
3 1069 1080 1083
3 1060 1039 1050
3 1038 1026 1011
3 1030 1022 1021
3 1086 1085 1029
3 1027 1047 1029
3 1052 1021 1058
3 598 1028 1030
3 1032 1031 905
3 1016 1031 1017
3 1044 1035 890
3 1031 1032 1017
3 1278 1304 460
3 1034 1036 1017
3 1035 1032 101
3 1036 1034 1033
3 1033 1034 1035
3 1035 1034 1032
3 1279 1282 1305
3 1077 1078 1014
3 992 1045 1037
3 1045 1007 1046
3 1030 1038 1022
3 1026 1038 1028
3 1070 1050 1061
3 1041 1042 980
3 1029 1040 1025
3 1041 1040 1039
3 1042 1041 1039
3 1041 980 987
3 1039 1047 1050
3 998 1001 1051
3 1082 1294 1076
3 1052 1053 1030
3 909 1044 890
3 1044 898 1314
3 14883 1045 992
3 1013 1046 1007
3 1015 1078 1077
3 1056 1062 1057
3 1049 1060 1048
3 1040 1047 1039
3 1422 1417 564
3 1008 1049 994
3 1059 1008 998
3 1070 1417 1048
3 1047 1027 1050
3 1061 1050 1027
3 980 1042 1051
3 1051 1042 1059
3 1021 1062 1058
3 1052 1043 1053
3 1053 1043 1073
3 1090 1091 1089
3 1073 1066 1055
3 193 1097 1096
3 1064 1066 1073
3 1088 1091 1100
3 1299 1298 1312
3 1052 1058 1043
3 1045 1046 1057
3 1079 1057 1046
3 1058 1067 1065
3 1064 1058 1065
3 1059 1042 1060
3 1008 1059 1049
3 1039 1060 1042
3 1050 1048 1060
3 1083 1085 1081
3 1070 1061 564
3 1057 1062 1037
3 1058 1062 1056
3 1063 1067 1068
3 1281 1283 1282
3 1064 41 1066
3 1043 1058 1064
3 1067 1058 1056
3 1065 1063 1295
3 1308 1293 1306
3 1055 1066 1075
3 1015 1079 1046
3 1063 1065 1067
3 1079 1067 1056
3 1079 1015 1077
3 1442 1437 1427
3 1415 1414 1419
3 1417 1414 1416
3 1050 1070 1048
3 1432 1433 1394
3 565 1385 1378
3 1071 1386 1392
3 1072 1391 1401
3 1073 1055 1090
3 1064 1073 1043
3 1323 1310 1319
3 1817 1325 1327
3 1818 1066 1082
3 1818 1075 1066
3 41 1082 1066
3 1327 1326 1817
3 1014 1068 1077
3 1077 1068 1079
3 1017 1078 1015
3 1014 1078 1036
3 1067 1079 1068
3 1057 1079 1056
3 1084 1061 1027
3 1080 1069 1420
3 1024 1087 1086
3 1083 1098 1069
3 41 1295 1294
3 1082 1076 1818
3 1084 1083 1080
3 1098 1083 1081
3 1061 1084 1080
3 1085 1084 1027
3 1027 1029 1085
3 1086 1029 1024
3 1024 1028 1087
3 1081 1085 1086
3 1089 1092 598
3 1086 1087 1094
3 1053 1089 598
3 1088 1089 1091
3 1090 1089 1053
3 1092 1089 1088
3 1073 1090 1053
3 1091 1090 1055
3 1055 1095 1091
3 1100 1091 1101
3 1092 1088 1093
3 598 1092 1087
3 1088 1097 1093
3 1425 1099 1424
3 1087 1092 1094
3 1093 1094 1092
3 1075 1095 1055
3 1101 1095 1054
3 1101 1096 1100
3 1671 1096 1101
3 1097 1088 1100
3 1099 1097 193
3 1081 1093 1098
3 1099 1098 1093
3 1097 1099 1093
3 1099 193 1424
3 1091 1095 1101
3 1097 1100 1096
3 1054 1103 1101
3 1672 1671 1103
3 1326 1554 1555
3 2383 1672 417
3 1054 1555 1556
3 1103 1102 1672
3 1105 1104 677
3 1104 689 1106
3 679 1105 677
3 689 1105 690
3 1686 1687 1692
3 1695 1454 1696
3 790 1107 490
3 691 747 1108
3 682 1108 681
3 1108 1107 691
3 820 1109 706
3 721 1109 552
3 1152 1161 1151
3 1126 1128 737
3 1265 103 1258
3 1179 1217 1219
3 1113 1112 730
3 1114 1112 739
3 728 1113 730
3 1113 720 744
3 732 1114 739
3 1114 1111 1179
3 741 742 1115
3 742 1118 1115
3 1120 1121 742
3 1122 1116 1173
3 1119 711 710
3 1122 1117 1116
3 742 734 1141
3 1117 1118 1116
3 1118 1119 1115
3 711 1119 1117
3 734 1130 1132
3 1141 1176 1120
3 742 1121 1118
3 1171 1120 1170
3 1171 1116 1121
3 1122 45 14880
3 1124 1129 1128
3 734 742 1123
3 1136 1151 1134
3 1130 1125 1129
3 737 1125 1123
3 1125 1128 1129
3 740 1126 737
3 1159 1158 730
3 1152 1138 1153
3 1130 734 1125
3 737 1128 1125
3 1154 1128 1126
3 1129 1124 1138
3 1129 1127 1130
3 1131 1127 1133
3 1127 1131 1130
3 1144 1143 1131
3 1176 1141 1132
3 1143 1177 1142
3 1177 1176 1132
3 1133 1127 1149
3 1137 1133 1139
3 1138 1151 1149
3 1183 1193 1161
3 1193 1216 1134
3 1146 2596 1763
3 1129 1138 1149
3 1216 1139 1134
3 1139 1133 1136
3 1459 1148 1137
3 1154 1150 1153
3 1149 1151 1136
3 1134 1139 1136
3 1135 1137 1139
3 1140 1143 1144
3 492 1145 1167
3 742 1141 1120
3 734 1132 1141
3 1143 1142 1131
3 1132 1130 1142
3 1144 1131 306
3 1167 1145 1140
3 1147 306 1148
3 1144 306 1147
3 1145 492 1180
3 1142 1177 1132
3 1765 1767 1768
3 1169 1167 1140
3 1148 306 1137
3 1754 1460 1756
3 1135 1459 1137
3 1459 1458 1148
3 1133 1149 1136
3 1129 1149 1127
3 1163 1164 1160
3 545 1470 1160
3 1138 1152 1151
3 1152 1157 1161
3 1153 1138 1124
3 1152 1150 1157
3 1128 1154 1124
3 1150 1152 1153
3 1124 1154 1153
3 1156 1154 1126
3 1157 1150 1162
3 1161 1134 1151
3 1158 1156 1126
3 1156 1158 1159
3 1163 1162 1150
3 1157 1155 1161
3 740 1158 1126
3 730 1158 307
3 730 729 1159
3 729 1165 1166
3 1184 1155 1187
3 1157 1162 1155
3 1183 1184 1178
3 1161 1155 1183
3 1150 1154 1163
3 1155 1162 1160
3 1164 1163 1110
3 1160 1162 1163
3 1110 1159 1166
3 1160 1164 545
3 1179 729 1114
3 1165 729 1179
3 729 1166 1159
3 1164 1166 1165
3 1756 1755 1169
3 1197 1181 1198
3 1468 1463 1467
3 1168 1464 1462
3 1140 1144 1756
3 1462 1469 1182
3 1174 1170 1175
3 1171 1121 1120
3 1171 1170 1174
3 1116 1171 1173
3 1175 1172 1174
3 1199 1175 1197
3 1174 1173 1171
3 1207 1173 1172
3 1170 1180 1175
3 1173 1174 1172
3 1196 1175 492
3 1197 1175 1196
3 1180 1176 1145
3 1170 1120 1176
3 1143 1145 1177
3 1176 1177 1145
3 1213 1214 2128
3 1161 1193 1134
3 1217 1179 1111
3 1220 1179 1219
3 1175 1180 492
3 1176 1180 1170
3 492 1167 1461
3 1461 1462 1182
3 1167 1169 1461
3 1169 1462 1461
3 1184 1183 1155
3 1193 1183 1178
3 1187 1160 1185
3 1184 77 1483
3 1471 1777 1472
3 1185 1192 1186
3 545 1472 1470
3 77 1186 1191
3 1160 1187 1155
3 1186 1187 1185
3 8045 3115 3116
3 1786 1191 1781
3 1473 1781 1782
3 1473 2600 2601
3 1470 1185 1160
3 1782 1779 1473
3 1186 1192 1782
3 1214 1483 1785
3 1777 1185 1470
3 1192 1190 1782
3 1213 1193 1178
3 1213 1215 1193
3 1232 1240 1241
3 1512 1194 1491
3 1195 1208 1202
3 1480 1476 1479
3 1182 1196 492
3 1197 1196 1181
3 1975 1198 1181
3 1197 1195 1199
3 1222 1221 1212
3 1195 1197 1198
3 1201 1199 1202
3 1175 1199 1172
3 1200 1201 1202
3 1480 1784 1476
3 1202 1199 1195
3 1203 1201 1200
3 1198 305 1212
3 1783 1475 1474
3 1203 1200 1205
3 1207 1203 45
3 1966 1979 1962
3 290 1701 1704
3 1475 1783 1200
3 1480 1783 1477
3 1203 1205 1206
3 1479 1206 1205
3 1173 1207 45
3 1201 1207 1172
3 1221 1198 1212
3 1474 1699 1697
3 1483 1213 1178
3 1209 2128 2650
3 1481 1210 620
3 1139 1210 1135
3 1224 1265 732
3 1795 1794 1515
3 1222 1212 1964
3 1204 1208 1222
3 1213 1483 1214
3 2650 2651 1209
3 1785 1191 1484
3 1484 2132 2130
3 620 1210 1215
3 1215 1210 1216
3 1215 1216 1193
3 1139 1216 1210
3 1111 1260 1259
3 1211 1797 1219
3 1797 1194 1794
3 3137 3141 1778
3 1211 1219 1217
3 1219 1218 1220
3 1471 1220 1218
3 545 1165 1220
3 1208 1195 1221
3 1198 1221 1195
3 1221 1222 1208
3 1963 1967 1968
3 103 1257 1258
3 1223 1265 1224
3 736 1224 732
3 738 1223 1224
3 1487 1486 768
3 1228 1226 1225
3 1488 1489 1225
3 853 1226 1229
3 798 1227 415
3 1227 796 1486
3 1335 1333 1334
3 1229 1228 1335
3 853 1229 836
3 1226 1228 1229
3 832 1230 724
3 1231 1230 829
3 846 1231 829
3 847 1233 1231
3 1233 847 1234
3 1233 1234 1232
3 847 1332 1234
3 1235 1233 1232
3 1247 1237 1242
3 1234 547 1237
3 1235 1232 1244
3 1235 743 1230
3 1256 1236 1247
3 1492 1211 1259
3 1246 1242 547
3 1237 1236 1243
3 1262 1253 1251
3 1247 1236 1237
3 1498 1501 1502
3 1241 1257 1244
3 1237 1240 1234
3 1240 1239 1241
3 1249 1241 1239
3 1248 1257 1249
3 1246 547 852
3 1242 1238 1247
3 1236 1256 1501
3 1240 1243 1239
3 1235 1244 103
3 1232 1241 1244
3 1249 1239 1500
3 1508 1510 1500
3 1250 852 864
3 1251 1261 1250
3 1252 1247 1238
3 1247 1252 1256
3 1491 1248 1245
3 1217 1259 1211
3 1239 1499 1500
3 1248 1249 1245
3 1250 865 1251
3 852 1250 1246
3 894 1251 865
3 1262 875 1253
3 1238 1253 1252
3 1255 1252 1263
3 1251 1253 1238
3 1263 1253 875
3 1570 875 1568
3 1573 2151 2149
3 1263 1252 1253
3 1574 1254 1575
3 1267 1256 245
3 1239 1243 1499
3 1249 1257 1241
3 1258 1257 1248
3 1492 1259 1789
3 1258 1259 1260
3 1111 1259 1217
3 1789 1491 1492
3 1114 1260 1111
3 1260 732 1265
3 1242 1261 1238
3 1250 1261 1246
3 1251 880 1262
3 875 1262 880
3 1570 1263 875
3 1255 1263 1254
3 1495 1267 245
3 1792 3374 3376
3 103 1265 1223
3 1260 1265 1258
3 245 1255 1494
3 3388 3382 3385
3 1495 245 1494
3 1503 1504 1266
3 738 1268 724
3 726 1268 725
3 1109 1269 552
3 848 1269 820
3 1526 1453 1524
3 1525 1270 1529
3 799 837 1271
3 837 850 1274
3 1280 1272 1277
3 1275 1278 801
3 1285 1287 1289
3 1297 1290 1285
3 1300 1274 861
3 1273 1284 1549
3 1276 814 799
3 1278 1275 1272
3 799 1271 1276
3 1277 1271 212
3 1280 1277 212
3 1272 1276 1277
3 1304 1278 1313
3 1278 460 817
3 1282 1279 1280
3 1033 1035 1314
3 1286 1282 212
3 1280 1279 1313
3 212 1284 1286
3 1281 1290 1292
3 212 1282 1280
3 1299 1283 1281
3 1014 1036 1283
3 1283 1036 1305
3 1549 1271 837
3 1287 1286 1284
3 1289 1273 1301
3 1082 41 1294
3 1287 1284 1273
3 1290 1286 1285
3 1302 1289 1301
3 1285 1286 1287
3 1302 1303 1550
3 1293 1308 1309
3 1273 1289 1287
3 1288 1552 1289
3 1297 1292 1290
3 1281 1286 1290
3 1285 1289 1296
3 1293 1294 1295
3 1292 1291 1298
3 1283 1299 1014
3 1297 1296 1291
3 1074 1311 1309
3 41 1065 1295
3 1293 1309 1311
3 1298 1295 1063
3 1295 1291 1306
3 1308 1296 1552
3 1295 1306 1293
3 1296 1297 1285
3 1291 1292 1297
3 1295 1298 1291
3 1312 1063 1068
3 1281 1292 1299
3 1298 1299 1292
3 860 1300 861
3 1301 1300 859
3 1302 1301 859
3 1274 1301 1273
3 859 1807 1302
3 1289 1302 1288
3 1563 1810 1815
3 1317 1322 2179
3 1313 1278 1272
3 1033 1318 1305
3 1036 1033 1305
3 1318 1314 1315
3 1291 1296 1306
3 1296 1289 1552
3 1553 1550 1316
3 1307 1310 1309
3 1296 1308 1306
3 1309 1308 1307
3 1310 1307 1316
3 1817 1311 1074
3 1319 1310 653
3 1074 1309 1310
3 1076 1294 1311
3 1293 1311 1294
3 1063 1312 1298
3 1014 1312 1068
3 1280 1313 1272
3 1315 1313 1279
3 898 1304 1314
3 1315 1314 1304
3 1313 1315 1304
3 1318 1279 1305
3 1307 1552 1553
3 653 1310 1316
3 1322 1319 1331
3 1327 1329 1326
3 1314 1318 1033
3 1279 1318 1315
3 1562 1331 653
3 1324 1323 1319
3 1807 1303 1302
3 2181 2183 2194
3 1324 2193 1330
3 1321 1327 1325
3 1331 1319 653
3 3157 2179 2180
3 1324 1319 1317
3 1325 1323 1321
3 2194 1317 2179
3 1321 1323 1324
3 1324 1330 1321
3 1310 1325 1074
3 417 1102 1554
3 1818 1817 1555
3 1321 1330 1329
3 1326 1555 1817
3 1558 2212 2210
3 1329 1327 1321
3 2207 2215 2189
3 1554 1557 417
3 2193 1324 1317
3 1330 1328 2213
3 653 1550 1562
3 1322 1331 1561
3 1234 1332 547
3 828 1332 847
3 1228 821 1335
3 1539 373 1536
3 836 1334 862
3 1804 1334 1333
3 1335 821 1530
3 836 1335 1334
3 868 1582 851
3 1567 1565 1336
3 1587 1584 1586
3 1583 1577 1578
3 919 1338 940
3 957 1338 947
3 1844 1845 951
3 1586 1577 1583
3 1846 952 951
3 934 1340 1339
3 2224 1838 434
3 1592 951 961
3 977 1345 1346
3 984 985 1342
3 979 1345 977
3 1366 1849 1848
3 1361 1344 1362
3 1350 1349 1348
3 1364 979 972
3 1346 1344 1347
3 1347 1360 1346
3 1342 977 1346
3 1361 1349 1344
3 1360 1347 1343
3 1362 1365 1361
3 1358 1356 1357
3 1344 1349 1347
3 1348 1353 1350
3 1350 366 1366
3 1349 1350 1848
3 1351 1360 1593
3 1351 1847 1594
3 1360 1352 1346
3 1351 984 1352
3 1355 1353 1348
3 1384 1355 1354
3 1355 1356 1354
3 1358 1371 1606
3 1356 1355 1348
3 1384 1354 1383
3 1361 1356 1348
3 1357 46 997
3 1358 1357 1002
3 1357 1356 1365
3 1358 1002 1371
3 1356 1358 1354
3 1363 1609 1611
3 141 1920 1612
3 1593 1360 1343
3 1352 1360 1351
3 1349 1361 1348
3 1364 1344 1345
3 14882 1362 972
3 1365 1362 46
3 1609 1363 1366
3 2235 1593 2236
3 972 1362 1364
3 1344 1364 1362
3 1357 1365 46
3 1361 1365 1356
3 1609 1366 366
3 1366 1363 1849
3 1594 984 1351
3 2240 1599 1595
3 990 1368 563
3 967 1368 991
3 1049 1391 1400
3 1373 1370 1372
3 1373 1004 1369
3 1373 1375 1370
3 1371 1000 1606
3 1372 1371 1002
3 1003 1372 1002
3 1373 1372 1004
3 565 1377 1369
3 1375 1374 1376
3 1375 1378 1374
3 1376 1374 1379
3 1373 1377 1375
3 1375 1377 1378
3 1403 1405 1396
3 1370 1376 1000
3 1369 1377 1373
3 1378 1377 565
3 1386 1380 1385
3 1646 1388 1434
3 1383 1412 1384
3 1376 1379 1382
3 1393 1380 1386
3 1645 1387 1646
3 1407 1410 1408
3 1396 1378 1402
3 1412 1413 1397
3 1606 1383 1354
3 1389 1608 1616
3 1355 1384 1353
3 1379 1399 1382
3 366 1353 1384
3 1386 1385 565
3 1388 1385 1380
3 565 1369 1390
3 1386 1071 1393
3 1393 1433 1380
3 1396 1374 1378
3 1661 1380 1433
3 1387 1396 1402
3 1389 1616 1615
3 1891 1894 1893
3 1391 1390 1369
3 1392 1390 1391
3 1400 1391 1369
3 1391 1049 1401
3 1392 1072 1416
3 1386 1390 1392
3 1395 1393 1071
3 1395 1433 1393
3 1416 1414 1071
3 1395 1415 1394
3 1415 1071 1414
3 1433 1395 1394
3 1387 1403 1396
3 1403 1381 1406
3 1382 1399 1413
3 1608 1607 1397
3 1933 1399 228
3 1399 1933 1398
3 228 1399 1379
3 1399 1398 1413
3 1004 1400 1369
3 1049 1400 994
3 1049 1048 1401
3 1072 1401 1048
3 1385 1402 1378
3 1387 1402 1388
3 1645 1403 1387
3 1406 1405 1403
3 1404 1406 1408
3 1410 1404 1408
3 1405 1404 1409
3 1396 1405 1411
3 1652 1408 1381
3 1404 1405 1406
3 1381 1650 1652
3 1619 1407 14884
3 1381 1408 1406
3 1410 1407 1617
3 2353 1409 1404
3 1379 1409 228
3 1630 1629 1632
3 2353 2352 228
3 1405 1409 1411
3 1379 1411 1409
3 1413 1412 1383
3 1607 1412 1397
3 1413 1383 1382
3 1413 1398 1616
3 1441 1422 564
3 1415 1395 1071
3 1428 1441 1420
3 1394 1415 1429
3 1392 1416 1071
3 1417 1416 1072
3 1048 1417 1072
3 564 1417 1070
3 1427 1437 1426
3 1669 1435 1666
3 1422 1419 1414
3 1429 1430 1421
3 1069 1425 1426
3 1420 1437 1428
3 1437 1442 1418
3 1432 1431 106
3 1417 1422 1414
3 564 1080 1441
3 1069 1098 1425
3 1675 1678 1096
3 1674 1680 1678
3 1426 1425 1424
3 1099 1425 1098
3 1426 1424 1423
3 1426 1423 1427
3 1420 1069 1426
3 1423 1438 1427
3 1440 1421 1430
3 1418 1419 1428
3 1422 1428 1419
3 1430 1415 1419
3 1429 1421 1431
3 1419 1418 1430
3 1418 1442 1440
3 1421 1667 1436
3 1436 1431 1421
3 106 1942 1432
3 1429 1432 1394
3 1654 1645 1646
3 1388 1380 1661
3 1941 1649 1654
3 1403 1645 1381
3 2817 2818 2815
3 1662 2813 1944
3 1442 1427 1443
3 1664 1663 1436
3 1428 1437 1418
3 1426 1437 1420
3 1676 1682 1679
3 1666 1665 1669
3 1439 1442 1443
3 1665 1666 1667
3 1418 1440 1430
3 1667 1440 1439
3 1420 1441 1080
3 1422 1441 1428
3 1443 1427 1438
3 1440 1442 1439
3 456 2382 1438
3 2382 1952 1953
3 417 1557 1560
3 1957 1683 2392
3 1104 1445 682
3 1454 1445 1106
3 1703 1692 1689
3 1703 1716 1446
3 1451 790 1449
3 1696 1454 1106
3 1455 1448 1450
3 1750 2106 2551
3 1450 1449 490
3 1451 1449 1448
3 1454 1450 490
3 1450 1447 1455
3 2104 1750 2103
3 1451 754 765
3 1455 1456 2105
3 1545 3068 1531
3 2104 1451 1448
3 1543 1545 1542
3 1445 1454 490
3 1106 1686 1696
3 1456 1447 1751
3 1455 1447 1456
3 1743 1736 2096
3 1452 1543 2103
3 1210 1481 1135
3 620 2121 1481
3 2596 1457 2594
3 1754 1458 1146
3 1482 1135 1481
3 1457 1458 1459
3 1757 1768 1758
3 1755 1168 1462
3 1169 1755 1462
3 492 1461 1182
3 1467 1463 1464
3 1469 1462 1464
3 1980 1965 1970
3 1181 1182 1774
3 1467 1464 1758
3 1986 1469 1463
3 1758 1759 1757
3 1763 1760 1146
3 1992 1987 1976
3 1774 1975 1181
3 1758 1464 1168
3 1468 1467 1465
3 1769 1465 1767
3 109 1988 1468
3 1463 1469 1464
3 1469 1466 1774
3 1220 1471 1472
3 1777 1192 1185
3 2124 1471 1218
3 1776 1188 1779
3 1220 1472 545
3 1777 1471 1776
3 3132 3128 3131
3 1781 1189 1786
3 1200 1202 1475
3 1688 1691 1697
3 1208 1702 1202
3 1993 1700 1702
3 1478 1476 485
3 696 1479 1476
3 690 1691 1688
3 1477 1691 1784
3 676 1478 485
3 697 1478 674
3 1206 1479 696
3 1480 1479 1205
3 1783 1480 1205
3 1480 1477 1784
3 2652 620 2651
3 1459 1482 1457
3 1135 1482 1459
3 1481 2121 2592
3 1184 1483 1178
3 1785 1483 77
3 1786 1484 1191
3 2129 2140 1788
3 1485 2139 3078
3 2650 1788 2653
3 768 794 1487
3 1227 1486 1225
3 767 811 1490
3 1225 1486 1487
3 835 1522 1489
3 1225 1487 1488
3 1225 1489 1228
3 835 1489 1488
3 835 1490 811
3 1487 1490 1488
3 1512 1245 1510
3 1194 1211 1492
3 1789 1259 1258
3 1194 1492 1491
3 1254 1570 1575
3 1790 1496 1264
3 1254 1494 1255
3 1495 1494 1493
3 1495 1493 1496
3 1267 1495 1266
3 1493 2148 1496
3 3859 3373 2150
3 1505 1508 1500
3 1505 1502 1497
3 1499 1236 1501
3 1249 1500 1245
3 1236 1499 1243
3 1499 1498 1500
3 1505 1498 1502
3 1500 1498 1505
3 1267 1504 1256
3 1499 1501 1498
3 1501 1256 1504
3 1502 1504 1503
3 1790 1503 1266
3 3385 3382 3383
3 1501 1504 1502
3 1266 1504 1267
3 1497 1506 1505
3 1509 1508 1506
3 3860 3381 3378
3 582 1509 1506
3 1514 1507 1509
3 1512 1511 1517
3 1506 1508 1505
3 1510 1508 1507
3 1516 1511 1507
3 1508 1509 1507
3 1510 1507 1511
3 1500 1510 1245
3 1507 1514 1516
3 1517 1511 1518
3 1245 1512 1491
3 1510 1511 1512
3 2165 3123 3122
3 3130 3126 3128
3 582 2659 1509
3 2165 1514 2659
3 1775 1795 1796
3 1512 1517 1194
3 1514 1513 1516
3 1517 1518 1515
3 1518 1511 1516
3 1794 1517 1515
3 1513 1520 1516
3 1519 328 1796
3 1518 1520 1519
3 1519 1520 3128
3 1516 1520 1518
3 3130 3128 1513
3 1523 835 266
3 1525 1521 1270
3 1489 1522 821
3 1523 1522 835
3 266 810 1526
3 1521 1523 1798
3 1524 1543 1542
3 1521 1798 1270
3 1541 1529 1270
3 1539 1540 373
3 1453 1526 754
3 266 1526 1524
3 1536 373 1532
3 1529 1532 1525
3 1530 1333 1335
3 1528 1530 1521
3 1524 1453 1543
3 1529 1527 1532
3 1521 1530 821
3 1333 1530 1528
3 1531 3068 1801
3 1541 1802 1529
3 1535 1532 1527
3 1532 1537 1536
3 1535 1544 1547
3 1547 1533 1535
3 2665 2669 2666
3 1812 1814 1810
3 1544 1535 1527
3 1536 1537 1534
3 1537 1532 1535
3 2672 1539 1534
3 1533 2669 1535
3 1537 1535 2669
3 2672 2673 2175
3 1803 89 858
3 1534 1539 1536
3 1540 1539 1538
3 1804 1538 1803
3 1528 1540 1333
3 1270 1798 1542
3 1531 1801 1802
3 1531 1541 1542
3 1270 1542 1541
3 2103 1543 1453
3 1545 1543 1452
3 1801 1527 1802
3 1544 268 1548
3 1452 2553 3068
3 1542 1545 1531
3 1546 1548 2166
3 2167 2171 1806
3 1548 1547 1544
3 2168 1547 1546
3 2166 1548 268
3 1547 1548 1546
3 1273 1549 1274
3 1271 1549 1284
3 1316 1550 653
3 1302 1550 1288
3 89 1808 860
3 1551 860 1808
3 1288 1550 1553
3 1308 1552 1307
3 1307 1553 1316
3 1288 1553 1552
3 1054 1556 1103
3 1557 1554 1326
3 1556 1554 1102
3 1818 1054 1075
3 1103 1556 1102
3 1555 1554 1556
3 1326 1329 1557
3 1560 1820 1559
3 2213 1329 1330
3 2185 2190 214
3 2209 2210 2212
3 2384 2383 1954
3 1820 1557 1329
3 1954 1560 1559
3 1563 1561 1303
3 1322 1561 1320
3 1303 1561 1562
3 1331 1562 1561
3 1807 1563 1303
3 1563 1551 1810
3 1564 851 1582
3 1565 1564 1336
3 1567 1336 1580
3 880 1565 875
3 1589 1586 1588
3 1565 1568 875
3 1336 1579 1580
3 1568 1567 1566
3 1571 1568 1566
3 1570 1254 1263
3 43 1589 1825
3 1832 1828 1830
3 1568 1571 1572
3 1574 1493 1494
3 1836 1566 1825
3 1571 1569 1572
3 1837 1572 1569
3 1823 1572 610
3 1823 1573 1575
3 1791 2149 2154
3 1254 1574 1494
3 2149 1574 1573
3 1823 1575 1570
3 1574 1575 1573
3 1587 1576 934
3 929 1576 1337
3 1587 1586 1337
3 2700 1339 1846
3 43 1579 1578
3 1581 1585 1579
3 1579 43 1580
3 1581 1579 1336
3 1825 1580 43
3 1567 1580 1566
3 1581 1336 1564
3 924 1585 870
3 871 1582 868
3 1564 1582 1581
3 926 1583 923
3 1586 1583 1337
3 1828 1826 1830
3 1825 1588 1827
3 923 1585 925
3 1579 1585 1578
3 1337 1576 1587
3 1586 1584 2698
3 934 1339 1587
3 3177 1587 1339
3 1588 2698 2219
3 1825 1566 1580
3 1586 1589 1577
3 1825 1589 1588
3 953 1590 943
3 982 1590 955
3 2703 1839 2225
3 1843 1592 1841
3 1341 1838 1841
3 951 1592 1844
3 1848 1593 1343
3 1593 1848 1849
3 1597 1594 190
3 1596 1367 2225
3 1597 190 1602
3 1603 2238 1595
3 984 1594 1596
3 1596 1594 1600
3 2237 1925 1601
3 1597 1595 1599
3 1855 1858 1854
3 1603 1597 1602
3 2240 1852 2239
3 1367 1596 1599
3 1594 1597 1600
3 1599 1600 1597
3 190 1847 2235
3 1597 1603 1595
3 2237 1602 190
3 1603 1602 1601
3 1598 1853 1601
3 2247 2243 1852
3 1603 1853 1604
3 1604 1853 1855
3 1607 366 1384
3 141 1612 1891
3 1358 1606 1354
3 1000 1383 1606
3 1397 1616 1608
3 1607 1608 1610
3 1893 1898 1892
3 1607 1610 1609
3 1609 1605 1611
3 366 1607 1609
3 1896 1608 1389
3 1605 1609 1610
3 1891 1612 1614
3 1613 1359 2236
3 1907 1920 141
3 1613 1611 1923
3 1363 1611 1613
3 1611 1614 1923
3 1891 1614 1605
3 1614 1612 1923
3 2354 2352 2353
3 2252 1897 1389
3 1413 1616 1397
3 1616 1398 1933
3 1655 14884 1652
3 392 1410 1617
3 1656 1947 1950
3 1621 1624 1625
3 1407 1619 1617
3 1624 1934 1622
3 1620 1625 1624
3 3247 3496 1935
3 1934 1619 1618
3 4069 4070 3249
3 260 1949 1947
3 1950 2337 1622
3 1632 1633 2351
3 1625 1626 1621
3 1934 1624 1621
3 1624 1622 2338
3 1625 1620 4071
3 1626 1625 1623
3 1629 1626 1623
3 392 1626 1630
3 1631 1629 1623
3 1638 1636 1637
3 1627 1633 1632
3 2354 2351 1936
3 1623 4070 1631
3 1632 1629 1627
3 1629 1630 1626
3 1630 1628 2354
3 1631 75 1636
3 1629 1631 1638
3 1640 1642 1627
3 1630 1632 1628
3 2254 1897 2252
3 2252 1615 2253
3 2356 1635 1636
3 2789 2788 2784
3 2358 1939 2357
3 1641 1637 1635
3 75 4068 2356
3 1636 1635 1637
3 1641 1937 1639
3 1627 1637 1640
3 1629 1638 1627
3 1636 1638 1631
3 583 1910 1926
3 1644 1642 1640
3 1641 1640 1637
3 1644 1639 1643
3 1937 1641 1635
3 1640 1641 1639
3 2255 562 2254
3 1627 1642 1633
3 2798 2366 1639
3 1899 1893 1892
3 1639 1644 1640
3 2257 1644 1643
3 1945 1941 1943
3 1655 1652 1648
3 1388 1646 1387
3 1654 1646 1434
3 1431 1663 106
3 1660 2375 2377
3 1381 1645 1650
3 1645 1651 1650
3 1661 1941 1434
3 1653 1651 1649
3 1645 1654 1651
3 1652 1650 1648
3 1653 1649 1647
3 1648 1650 1651
3 1648 2372 1655
3 1652 1407 1408
3 2373 1647 1660
3 2371 1648 1651
3 1941 1654 1434
3 1651 1654 1649
3 260 1656 1655
3 1655 1656 14884
3 1947 1946 1658
3 14884 1656 1618
3 2373 2374 2370
3 482 2340 2341
3 482 3247 2340
3 1934 1950 1622
3 2377 2829 1659
3 1946 1657 2339
3 2375 1660 1647
3 2377 2374 1660
3 1941 1661 1433
3 1388 1661 1434
3 3498 3501 2816
3 1942 1943 1941
3 1431 1436 1663
3 1436 1666 1664
3 1435 3498 2820
3 1662 1663 1664
3 1443 2382 1953
3 3499 3250 1669
3 1664 1666 1435
3 1667 1666 1436
3 1440 1667 1421
3 1953 1667 1439
3 1665 1667 1953
3 4138 456 4139
3 1669 1665 1953
3 1669 1668 3499
3 1560 1954 2383
3 1444 1677 1673
3 1671 1101 1103
3 1671 1672 1673
3 417 1672 1102
3 1673 1672 1670
3 2384 1673 1670
3 1675 1673 1677
3 1955 1684 2392
3 1680 1424 193
3 1678 1675 1674
3 1096 1671 1675
3 1438 1682 456
3 1682 1438 1423
3 1677 1444 1684
3 1674 1675 1677
3 1680 1674 1676
3 1096 1678 193
3 1680 1679 1424
3 1676 1685 1682
3 1678 1680 193
3 1679 1680 1676
3 1683 1685 1674
3 1682 1685 1681
3 1679 1682 1423
3 456 1682 1681
3 1677 1684 1955
3 2389 2392 1684
3 2384 2385 2386
3 2386 2387 1684
3 1674 1685 1676
3 1683 1681 1685
3 1687 1686 689
3 1690 1686 1446
3 1688 689 690
3 1687 290 1689
3 1784 1691 690
3 290 1687 1688
3 290 1688 1697
3 1704 1707 1689
3 1694 1713 1715
3 1695 1447 1450
3 1477 1474 1691
3 1691 1474 1697
3 1686 1692 1446
3 1687 1689 1692
3 1969 14887 14886
3 1710 1711 1713
3 468 1717 1720
3 1692 1703 1446
3 1454 1695 1450
3 1752 1695 1690
3 1686 1690 1696
3 1695 1696 1690
3 1700 1699 1474
3 1699 1701 1697
3 1959 1698 1960
3 1701 290 1697
3 1700 1474 1475
3 1699 1698 1701
3 1702 1700 1475
3 1698 1699 1700
3 1698 1959 1701
3 290 1704 1689
3 1202 1702 1475
3 1993 1208 1204
3 1707 1704 1705
3 1716 1694 1715
3 1705 1701 1959
3 1704 1701 1705
3 1705 1693 1708
3 1703 1707 1694
3 1712 1708 1693
3 1721 1723 1727
3 1689 1707 1703
3 1705 1708 1710
3 1963 1972 14886
3 1708 1706 1710
3 1724 1739 1738
3 1712 1732 1708
3 1711 1710 1706
3 1694 1707 1710
3 1706 1728 1725
3 1713 1711 468
3 1693 14886 14887
3 1712 1709 1732
3 1715 1720 1717
3 1710 1713 1694
3 1714 1715 1717
3 1729 1741 1714
3 51 2101 1751
3 1716 1703 1694
3 1714 1719 1722
3 1690 1446 1718
3 468 1723 1717
3 1714 1717 1729
3 1446 1716 1718
3 1722 1718 1716
3 1715 1722 1716
3 1743 1714 1741
3 1715 1713 1720
3 468 1720 1713
3 1730 468 1725
3 2505 2093 1745
3 1714 1722 1715
3 1718 1722 1719
3 468 1711 1725
3 1729 1735 2087
3 1728 1732 1734
3 1727 1737 1721
3 1706 1725 1711
3 1725 1724 1727
3 1740 230 2079
3 1736 1742 1747
3 1730 1727 1723
3 1738 1737 1727
3 1706 1732 1728
3 1996 1734 1994
3 1735 1729 1717
3 1741 1729 1742
3 468 1730 1723
3 1725 1727 1730
3 1739 1724 1748
3 1739 1733 2012
3 1732 1706 1708
3 1739 1748 1733
3 1733 1734 1996
3 2012 2016 1739
3 1732 1709 1734
3 1994 1734 1709
3 1717 1723 1735
3 2091 1723 1721
3 1736 1741 1742
3 1747 2095 1736
3 1738 1727 1724
3 1740 1737 1731
3 1748 1724 1728
3 1731 1737 1738
3 2012 2013 2011
3 1738 1739 2016
3 2015 1731 2014
3 2085 2079 230
3 1742 1729 1726
3 1743 1741 1736
3 1746 1742 1726
3 1745 1747 1746
3 1736 2095 2096
3 1749 1743 51
3 2065 2077 2057
3 2077 2065 2063
3 2506 2093 2505
3 2541 2542 2093
3 2081 1726 2082
3 1746 1744 2505
3 1746 1747 1742
3 1745 2542 2095
3 1728 1734 1748
3 1733 1748 1734
3 1751 1749 51
3 1714 1749 1719
3 2105 1448 1455
3 51 2096 2099
3 1447 1695 1752
3 1749 1751 1719
3 1718 1752 1690
3 1719 1751 1752
3 3058 3059 3060
3 2106 2101 2100
3 1458 1754 1147
3 1760 1754 1146
3 1169 1140 1756
3 1759 1755 1460
3 1147 1756 1144
3 1460 1755 1756
3 1760 1757 1759
3 1762 1760 1763
3 1467 1758 1465
3 1759 1758 1168
3 1755 1759 1168
3 1760 1759 1460
3 1754 1760 1460
3 2594 1457 2590
3 1770 1764 1765
3 1757 1760 1762
3 1762 1761 1765
3 1757 1762 1768
3 2594 2590 2591
3 1761 1762 1763
3 1761 1773 1765
3 1764 2109 3612
3 1773 1761 2595
3 1765 1764 1767
3 1771 2597 2108
3 1766 2108 2109
3 2908 2411 2906
3 1468 1769 109
3 1765 1768 1762
3 1465 1768 1767
3 1465 1769 1468
3 2413 1767 1764
3 1773 1770 1765
3 1772 2109 2108
3 2110 2107 2115
3 2120 1771 2115
3 2120 2598 1771
3 2597 1772 2108
3 2111 1766 2595
3 1770 1773 1766
3 1469 1774 1182
3 1975 1466 1974
3 1218 1794 1795
3 3136 3137 3138
3 1777 1776 1190
3 1778 1776 1471
3 1192 1777 1190
3 1472 1777 1470
3 2124 1778 1471
3 1778 1775 3137
3 1776 1779 1190
3 2600 1779 1188
3 3110 3112 3113
3 3075 2141 2143
3 1782 1781 1191
3 2601 1781 1473
3 1782 1191 1186
3 1782 1190 1779
3 1477 1783 1474
3 1200 1783 1205
3 679 1784 690
3 1784 485 1476
3 1191 1785 77
3 2129 1785 1484
3 1189 1787 1786
3 2131 2132 1787
3 2601 1189 1781
3 1787 2133 2131
3 1214 1785 2129
3 1485 3082 2653
3 1258 1248 1789
3 1491 1789 1248
3 1503 1790 1264
3 1495 1790 1266
3 2148 1493 2149
3 2164 3373 3121
3 1264 1496 2162
3 2152 2163 2148
3 1264 2162 3388
3 2660 3123 3125
3 1218 1219 1797
3 1517 1794 1194
3 1796 1795 1515
3 1795 1775 2124
3 1519 1796 1515
3 1796 328 3139
3 1194 1797 1211
3 1218 1797 1794
3 266 1798 1523
3 1542 1798 1524
3 2103 2551 1452
3 1801 3068 1799
3 1527 1800 1544
3 3061 1800 1799
3 1799 1800 1801
3 1527 1801 1800
3 1529 1802 1527
3 1531 1802 1541
3 854 1334 1804
3 2675 2175 2673
3 1540 1804 1333
3 854 1804 1803
3 1753 2550 2547
3 1805 3059 3064
3 1533 2168 2167
3 2167 2172 2171
3 860 1807 859
3 1563 1807 1551
3 1803 2174 89
3 1561 1815 1320
3 1813 89 2174
3 1815 1816 3396
3 1812 1551 1808
3 1815 1810 2176
3 1803 2688 2174
3 2174 2175 1811
3 1808 1813 1812
3 1813 1814 1812
3 89 1813 1808
3 1814 1813 1811
3 1811 2675 2671
3 1809 2176 1814
3 1563 1815 1561
3 1810 1814 2176
3 2689 1816 2176
3 2181 2178 2184
3 1311 1817 1076
3 1817 1074 1325
3 1817 1818 1076
3 1054 1818 1555
3 1819 2213 2214
3 1821 1559 1820
3 1557 1820 1560
3 2213 1820 1329
3 2216 1819 2215
3 1559 1821 1558
3 2388 2393 2391
3 1444 1673 2384
3 1572 1823 1570
3 2151 1823 610
3 3176 3178 2219
3 246 1834 1835
3 2219 1826 1827
3 1836 1571 1566
3 1833 1829 1830
3 1827 1828 1825
3 2219 1827 1588
3 1828 1827 1826
3 1826 1831 1830
3 1569 1571 1836
3 4600 4604 4606
3 1569 1828 1832
3 1831 1826 2220
3 1830 1829 1832
3 2221 1834 1831
3 14903 1833 1834
3 2155 2156 2153
3 1837 1832 610
3 1830 1831 1833
3 1834 1833 1831
3 1831 2220 2221
3 246 14900 1834
3 3179 2701 3178
3 2701 1835 2221
3 1825 1828 1836
3 1569 1836 1828
3 1572 1837 610
3 1569 1832 1837
3 2224 434 985
3 1841 1838 1591
3 1851 985 984
3 2706 2226 2703
3 1841 1840 1341
3 961 1840 1592
3 2226 2227 2228
3 1842 1844 1843
3 2228 2227 1591
3 2222 3184 3182
3 2234 1841 2227
3 1844 1842 433
3 1844 433 1845
3 1592 1843 1844
3 2700 1846 1845
3 1845 433 2700
3 1340 1846 1339
3 951 1845 1846
3 1594 1847 190
3 1351 1593 1847
3 1349 1848 1343
3 1848 1350 1366
3 1613 1849 1363
3 1849 1613 2236
3 1916 1921 1922
3 1602 2237 1601
3 2225 1851 1596
3 2224 1851 1839
3 2242 2243 2244
3 2240 1367 1599
3 1601 1853 1603
3 1598 1858 1855
3 1868 1864 1866
3 1861 1857 1862
3 1598 1855 1853
3 1857 1855 1854
3 1916 1925 1921
3 1867 1873 370
3 1864 1859 1862
3 1860 1857 369
3 1858 1598 1924
3 1854 1858 1856
3 1864 1868 1859
3 369 1857 1861
3 369 2243 2247
3 1855 1860 1604
3 1859 1872 1876
3 1880 1876 1878
3 1864 1862 1865
3 1859 1861 1862
3 1865 1863 1864
3 1863 1865 1867
3 1865 1862 1854
3 1866 1864 1863
3 1873 1854 1856
3 1865 1873 1867
3 2251 1890 1883
3 1866 42 1868
3 1887 1867 370
3 1886 1887 1888
3 42 1870 1868
3 1859 1876 1861
3 14888 42 1884
3 2709 3190 2241
3 2283 2291 2290
3 2241 1872 2707
3 1868 1881 1859
3 1877 2241 1871
3 1868 1870 1881
3 1870 2707 1881
3 1854 1873 1865
3 370 1873 1856
3 1906 1903 1911
3 1927 1931 1903
3 1875 1878 1879
3 2244 2250 2242
3 1872 1877 1876
3 1877 1878 1876
3 2241 1877 1872
3 1878 1877 1871
3 1879 1878 1871
3 1878 1875 1880
3 1879 3188 3187
3 2248 2710 2711
3 2250 2244 1875
3 1876 1880 1861
3 2707 1870 1869
3 1859 1881 1872
3 2261 2262 2260
3 42 1866 1884
3 1882 2264 2266
3 1883 2291 1884
3 2251 1866 1863
3 2291 1883 2290
3 1901 1907 141
3 2264 1888 1889
3 1886 1867 1887
3 1890 1886 1882
3 1905 1904 1913
3 1887 1885 1888
3 1889 1888 1885
3 1882 1886 1888
3 1908 1889 1885
3 2262 2261 1874
3 2267 1882 2266
3 2251 1883 1884
3 1605 1610 1894
3 1892 1898 1897
3 562 2257 2256
3 141 1891 1893
3 1891 1605 1894
3 1902 1899 1892
3 1896 1610 1608
3 1896 1897 1894
3 1913 1885 1905
3 1893 1899 141
3 1896 1389 1897
3 1610 1896 1894
3 2252 1389 1615
3 2256 1897 2254
3 1893 1894 1898
3 1897 1898 1894
3 1900 1902 2256
3 1899 1895 1901
3 1639 2366 1643
3 1902 14885 1899
3 1906 1901 1895
3 1911 1919 1908
3 2256 1902 1892
3 1902 1900 14885
3 1906 1910 1927
3 1927 1918 1931
3 1905 1885 1887
3 1905 1914 2258
3 1887 370 1905
3 1914 1905 370
3 1910 1906 1895
3 1911 1907 1901
3 1911 1901 1906
3 1907 1904 1912
3 1913 1911 1908
3 1908 1874 1889
3 370 1915 1914
3 1922 1909 1916
3 1926 14885 1917
3 1910 583 1918
3 1911 1903 1919
3 1904 1907 1911
3 2258 1912 1904
3 1922 1912 1909
3 1911 1913 1904
3 1885 1913 1908
3 1915 370 1856
3 1909 1912 2258
3 1924 1856 1858
3 1601 1925 1598
3 1909 1915 1916
3 1924 1916 1915
3 1900 2257 2367
3 2768 2769 2767
3 1932 1918 583
3 2262 2259 1929
3 1903 1931 2259
3 1908 1919 2259
3 1907 1912 1920
3 1612 1920 1912
3 2236 1921 1850
3 1921 1359 1922
3 1359 1923 1922
3 1922 1923 1912
3 1613 1923 1359
3 1912 1923 1612
3 1924 1915 1856
3 1925 1924 1598
3 1921 1925 1850
3 1925 1916 1924
3 1895 1926 1910
3 2795 2796 1917
3 1906 1927 1903
3 1910 1918 1927
3 2771 2767 2770
3 2279 2294 2284
3 1932 2273 1918
3 2272 2271 2260
3 1930 1932 2767
3 2278 2284 2273
3 2273 1931 1918
3 1931 1929 2259
3 2767 1932 583
3 2273 1932 1930
3 2352 1933 228
3 1616 1933 1615
3 1619 1934 1621
3 1950 1934 1618
3 3248 2809 3247
3 3497 1624 2338
3 2352 1936 1615
3 1630 2354 1410
3 2356 2357 1635
3 1634 1639 1937
3 1938 2360 2362
3 2811 2810 2364
3 2357 1937 1635
3 2810 1939 1938
3 2799 2784 2785
3 2797 1900 2367
3 1433 1942 1941
3 1942 106 1944
3 1432 1942 1433
3 106 1663 1944
3 2369 2813 2368
3 1941 1945 1649
3 1662 1944 1663
3 1942 1944 1943
3 1943 2813 2369
3 1647 1649 1945
3 1949 1946 1947
3 2349 1948 2802
3 1947 1658 1950
3 260 1947 1656
3 1949 2370 1948
3 2347 2342 2344
3 2370 1949 260
3 2349 1949 1948
3 1950 1618 1656
3 2337 1950 1658
3 1647 1945 2369
3 1659 2374 2377
3 4080 3528 4082
3 1669 1952 1668
3 1443 1953 1439
3 1669 1953 1952
3 2211 1559 2210
3 2218 2386 2385
3 1683 1674 1955
3 1677 1955 1674
3 456 1681 1958
3 1958 1683 1957
3 2393 3555 4080
3 107 2840 3535
3 1683 1958 1681
3 4139 1958 1957
3 1698 1993 1960
3 1705 1959 1693
3 1960 1204 1963
3 1959 1960 14886
3 1964 1967 1222
3 1995 1997 108
3 1212 305 1964
3 1964 1966 1962
3 1967 1963 1204
3 1968 1972 1963
3 1970 1966 1973
3 1964 1962 1967
3 1970 1965 1966
3 1970 1982 1980
3 1973 1964 305
3 1966 1965 1977
3 1222 1967 1204
3 1968 1967 1962
3 1979 1966 1977
3 1972 1968 1961
3 1995 1969 1997
3 1709 1712 14887
3 305 1974 1970
3 1992 1986 1987
3 1971 1977 1978
3 1997 1961 1999
3 1972 1961 1997
3 1972 1969 14886
3 1964 1973 1966
3 305 1970 1973
3 305 1198 1975
3 1974 1466 1982
3 1466 1975 1774
3 1975 1974 305
3 2912 1990 2414
3 1983 1978 1984
3 1978 1977 1965
3 1979 1977 1971
3 1984 1981 1983
3 2003 2000 2002
3 1979 1971 1999
3 1962 1979 1968
3 1970 1974 1982
3 2415 1976 2414
3 1991 2912 1988
3 2417 1981 2415
3 1986 1982 1466
3 1980 1982 1992
3 1984 1978 1965
3 2418 1981 2417
3 1965 1980 1984
3 1985 1980 1976
3 1981 1984 1985
3 1980 1985 1984
3 1469 1986 1466
3 1986 1463 1987
3 1988 1463 1468
3 1987 1463 1988
3 1988 109 1991
3 1987 1988 2912
3 2905 1772 2597
3 203 2422 2448
3 1769 2412 109
3 2421 1990 2907
3 2908 1991 109
3 2912 1991 1990
3 1980 1992 1976
3 1986 1992 1982
3 1960 1993 1204
3 1700 1993 1698
3 1709 14887 1995
3 1994 108 1996
3 108 1994 1995
3 1709 1995 1994
3 2010 2007 2001
3 1998 2006 2005
3 1999 1961 1979
3 2006 2001 2005
3 2001 1997 1999
3 2424 367 2418
3 2002 1999 1971
3 2002 2001 1999
3 1971 2003 2002
3 2424 2426 367
3 2005 2001 2000
3 108 1997 2007
3 2003 1971 1978
3 2001 2002 2000
3 1978 367 2003
3 2428 367 2426
3 2046 2004 2048
3 2024 2031 2023
3 2000 2428 2429
3 2502 1998 2048
3 2008 2006 2004
3 2010 1996 108
3 1997 2001 2007
3 2010 2001 2006
3 2008 1996 2010
3 2038 2013 2030
3 2009 2029 2024
3 2032 2034 2018
3 2007 2010 108
3 2008 2010 2006
3 2013 1733 2008
3 2038 2017 2011
3 2013 2012 1733
3 2016 2012 2011
3 2004 2039 2008
3 2030 2029 2009
3 2051 2037 495
3 1740 2015 230
3 1731 2015 1740
3 2019 2021 2025
3 2017 2016 2011
3 1731 2016 2014
3 2022 2017 2009
3 2016 2017 2014
3 2021 2019 2020
3 2025 2018 2061
3 2021 2015 2014
3 2034 2055 2056
3 2021 2020 2015
3 2080 2019 2057
3 2022 2014 2017
3 2021 2014 2022
3 2024 2022 2009
3 2024 2027 2022
3 2031 2024 2029
3 2025 2032 2018
3 2029 2030 2047
3 2500 2032 2027
3 2027 2021 2022
3 2500 2028 2032
3 2046 2447 2044
3 2031 2026 2043
3 2500 2024 2023
3 2021 2027 2025
3 2049 2050 2023
3 2037 2034 2033
3 2038 2030 2009
3 2029 2026 2031
3 2013 2039 2030
3 2004 2046 2047
3 2044 2040 2043
3 2023 2031 2049
3 2027 2032 2025
3 2034 2032 2035
3 2035 2033 2034
3 2473 2481 145
3 2035 2032 2028
3 5481 4209 4207
3 2028 2036 2035
3 2036 2926 2927
3 2501 2036 2028
3 2481 2928 145
3 2042 2058 2059
3 2034 2037 2055
3 2017 2038 2009
3 2013 2038 2011
3 2008 2039 2013
3 2047 2039 2004
3 2454 216 2445
3 2476 2464 2473
3 2045 2031 2043
3 2454 2470 2925
3 2511 2512 2513
3 2051 2055 2037
3 2044 2043 2026
3 2045 2043 2040
3 2046 2044 2026
3 216 2454 2460
3 2925 2462 2045
3 2045 2041 2049
3 2047 2046 2026
3 2502 2048 2004
3 2029 2047 2026
3 2047 2030 2039
3 2434 1998 2429
3 2048 2446 2447
3 2045 2049 2031
3 2050 2049 2041
3 2050 2041 2476
3 2050 2036 2501
3 2054 2059 2060
3 2059 2058 2051
3 495 4209 5481
3 2524 2520 3337
3 2069 2064 2067
3 2057 2061 2056
3 2060 2051 495
3 2083 2503 2073
3 2058 2055 2051
3 2056 2055 2053
3 2056 2053 2057
3 2034 2056 2018
3 2057 2053 2065
3 2080 2020 2019
3 2064 2058 2042
3 2055 2058 2053
3 2060 2059 2051
3 2059 2054 2503
3 495 5481 4818
3 2054 2060 4820
3 2025 2061 2019
3 2056 2061 2018
3 2064 2042 2067
3 2078 2090 2507
3 2053 2058 2064
3 2074 2076 2063
3 2066 2067 2068
3 2064 2063 2065
3 2064 2065 2053
3 2077 2063 2076
3 2516 2070 2072
3 2063 2064 2069
3 2067 2042 2068
3 2067 2066 2069
3 2503 2042 2059
3 2052 3334 2503
3 2062 2512 2511
3 2074 2069 2062
3 2072 2070 10
3 2066 2068 2070
3 4258 3755 3757
3 2508 2510 3030
3 2519 2523 2524
3 2072 2071 2513
3 2073 2503 3334
3 3755 10 2083
3 2076 2074 2084
3 2063 2069 2074
3 2508 2507 2089
3 2081 2082 2088
3 2084 2074 2062
3 2079 2085 2075
3 2085 2076 2075
3 2080 230 2020
3 1726 2081 1746
3 2084 2075 2076
3 2078 2081 2088
3 2086 2079 2082
3 2057 2077 2080
3 2080 2077 2085
3 2087 2082 1726
3 2078 1746 2081
3 2086 2082 1721
3 2088 2079 2075
3 2503 2083 2068
3 3755 2083 2073
3 2084 2062 2092
3 2088 2090 2078
3 2080 2085 230
3 2085 2077 2076
3 1737 2086 1721
3 1740 2079 2086
3 1729 2087 1726
3 1735 1723 2091
3 2088 2075 2090
3 2082 2079 2088
3 2511 2535 2510
3 261 2546 2506
3 2075 2084 2090
3 2084 2092 2507
3 2082 2091 1721
3 1735 2091 2087
3 2511 2092 2062
3 2092 2089 2507
3 2093 2546 2545
3 2094 2095 2542
3 2097 2094 2098
3 2099 2096 2097
3 1745 2095 1747
3 2095 2094 2096
3 2097 2096 2094
3 51 1743 2096
3 2541 2543 2094
3 2097 1753 2099
3 2098 509 2549
3 1753 2097 2098
3 2102 2099 1753
3 2099 2102 2101
3 2547 2552 1753
3 1750 2105 2106
3 1751 2101 1456
3 51 2099 2101
3 2552 2102 1753
3 2101 2102 2100
3 2104 2103 1453
3 2551 2103 1750
3 1451 2104 1453
3 2104 1448 2105
3 2106 2105 1456
3 2105 1750 2104
3 2101 2106 1456
3 2106 2100 2551
3 2107 2110 2112
3 1771 2108 2115
3 2110 2108 1766
3 2108 2110 2115
3 2109 1772 3612
3 1766 2109 1770
3 1766 2111 2110
3 2110 2111 2112
3 2595 1766 1773
3 2112 2111 550
3 2118 2656 2589
3 2556 2557 2555
3 2652 2118 2121
3 2554 2555 3119
3 2590 2118 2589
3 2557 3119 2555
3 2107 2112 2556
3 2117 2115 2107
3 4194 3831 4190
3 2598 2120 2119
3 2556 2558 2107
3 2117 2116 2122
3 2589 2113 2114
3 2590 1457 2592
3 4193 4188 4189
3 2598 2123 2597
3 2115 2117 2120
3 2122 2120 2117
3 2652 2121 620
3 2121 2118 2592
3 2566 4192 2116
3 2120 2122 2119
3 3010 3009 3001
3 2906 2907 2908
3 1795 2124 1218
3 1778 2124 1775
3 3132 3138 328
3 2126 2603 2602
3 3372 3106 2605
3 2603 2604 1787
3 2133 2127 2131
3 2608 2135 2614
3 1213 2128 1209
3 2129 2128 1214
3 1484 2130 2129
3 2138 2140 2130
3 1484 1786 2132
3 2138 2130 2127
3 2133 1787 560
3 2127 2130 2131
3 1787 2132 1786
3 2130 2132 2131
3 2144 2145 2136
3 2127 2133 2137
3 2615 2613 2610
3 2138 2127 2139
3 2135 2137 2136
3 2142 2135 2136
3 2143 2144 2606
3 2136 2134 2142
3 2136 2137 2133
3 2137 2135 2608
3 2127 2137 2139
3 2653 2140 1485
3 3079 3078 2139
3 1485 2138 2139
3 2130 2140 2129
3 1485 2140 2138
3 8036 2648 3105
3 2613 2617 2618
3 2615 2612 2613
3 2142 2612 2614
3 560 2604 2606
3 2136 2145 2134
3 2606 2144 560
3 2145 2144 2143
3 2141 2645 2143
3 2647 2146 2645
3 2145 2146 2617
3 2645 2146 2145
3 2113 2656 2655
3 1215 1209 2651
3 1493 1574 2149
3 2152 2148 1791
3 1573 1823 2151
3 1791 2148 2149
3 1791 2158 2658
3 2164 2162 2163
3 610 2156 2155
3 2149 2151 2154
3 1791 2658 3859
3 2152 2150 2163
3 1829 14903 14898
3 2657 2658 188
3 2157 2151 2155
3 2151 2157 2154
3 2156 610 1832
3 2155 2153 2157
3 1832 1829 2156
3 14898 14896 14897
3 2161 2157 2153
3 2160 2157 2161
3 1791 2154 2158
3 2157 2158 2154
3 14897 14896 15569
3 4623 6747 4620
3 2157 2160 2158
3 2159 15570 5841
3 2153 14898 14897
3 2160 2161 2159
3 2163 2162 1496
3 3389 3376 3381
3 2163 1496 2148
3 2164 2163 2150
3 2164 2150 3373
3 3389 2164 1792
3 3379 3376 3375
3 2165 1793 3123
3 3058 3060 3062
3 3059 2661 2166
3 2166 2661 2172
3 2173 2167 1806
3 1547 2168 1533
3 1546 2167 2168
3 2663 2661 1805
3 7976 7963 8698
3 9269 1806 8692
3 2667 2665 2666
3 2172 2167 1546
3 8692 8691 9269
3 2166 2172 1546
3 2169 2171 2172
3 2173 1806 9270
3 2173 2170 2666
3 2688 1803 1538
3 1813 2174 1811
3 2672 1538 1539
3 2668 1534 2665
3 2689 2176 1809
3 1815 2176 1816
3 1809 2671 2679
3 2196 2691 3159
3 2689 2690 1816
3 2693 2195 3159
3 1320 2180 1322
3 2181 2179 2178
3 3396 3157 2180
3 2179 1322 2180
3 2195 407 2188
3 2181 214 2183
3 2697 2696 2200
3 2184 2185 2181
3 2214 2183 214
3 1328 1330 2193
3 2178 3156 2184
3 2184 2182 2185
3 2182 2187 2185
3 2190 2187 2191
3 2187 2182 2188
3 2192 2189 2191
3 2182 2195 2188
3 2187 2186 2191
3 2188 407 2208
3 2186 2187 2188
3 2186 2192 2191
3 2216 2215 2202
3 2187 2190 2185
3 2189 2215 2217
3 2186 2199 2192
3 2190 2191 2189
3 2192 515 2204
3 2189 2192 2207
3 2194 2193 1317
3 1328 2193 2183
3 2181 2194 2179
3 2193 2194 2183
3 2197 2184 2196
3 2197 2195 2182
3 2196 2184 3156
3 253 3161 2680
3 2184 2197 2182
3 3159 2197 2196
3 3268 3275 3270
3 2871 2872 2867
3 2208 2697 2188
3 2186 2697 2199
3 2873 2872 2694
3 515 2199 2200
3 2878 2865 2879
3 2398 2837 2404
3 2205 2192 2204
3 2205 2201 2206
3 2203 2208 3162
3 2696 2198 2875
3 2864 2863 2869
3 2205 2204 2201
3 2201 2862 2206
3 2205 2202 2207
3 2206 252 2209
3 2202 2205 2206
3 2205 2207 2192
3 2215 2207 2202
3 3162 2208 407
3 2697 2208 2203
3 2395 2209 252
3 2209 1822 2210
3 2211 2210 1822
3 1559 1558 2210
3 2385 2211 1822
3 1559 2211 1954
3 2212 1558 2216
3 2206 2209 2212
3 2214 2213 1328
3 1820 2213 1819
3 2183 2214 1328
3 214 2190 2217
3 1819 2214 2215
3 2215 2214 2217
3 2212 2216 2202
3 1821 2216 1558
3 214 2217 2214
3 2189 2217 2190
3 2218 2385 2394
3 2387 2391 2389
3 2219 2698 3176
3 2219 1824 2220
3 2219 2220 1826
3 2221 2220 1824
3 2701 2221 1824
3 1834 2221 1835
3 2233 2705 1842
3 2227 2230 2232
3 2713 2246 2248
3 5831 4606 5830
3 1838 2224 1591
3 1851 2224 985
3 2703 2225 1367
3 1851 2225 1839
3 2226 2230 2227
3 2227 1841 1591
3 2231 2229 2230
3 2232 1842 2234
3 2224 2228 1591
3 2228 1839 2703
3 4013 4016 4011
3 2232 2233 1842
3 2231 2230 2226
3 2232 2230 2229
3 2706 2231 2226
3 2231 140 4014
3 2233 2232 2229
3 1842 1843 2234
3 3181 2233 2229
3 3184 2705 2233
3 1841 2234 1843
3 2227 2232 2234
3 2236 1593 1849
3 2237 2235 1850
3 1921 2236 1359
3 2235 2236 1850
3 2235 2237 190
3 1925 2237 1850
3 2247 1604 1860
3 2240 2238 1852
3 2249 2243 2242
3 2706 140 2231
3 2240 1595 2238
3 2240 2239 3186
3 1869 2318 2322
3 2709 2241 2322
3 2710 2248 2250
3 2243 2249 1852
3 1852 2238 2247
3 2244 2243 369
3 1861 2244 369
3 1875 2244 1880
3 3990 2712 227
3 2718 140 2706
3 2246 2249 2248
3 2717 2715 2706
3 1604 2247 2238
3 369 2247 1860
3 2710 1875 1879
3 2248 2245 2713
3 2248 2249 2242
3 2239 2249 2246
3 2710 2250 1875
3 2248 2242 2250
3 1866 2251 1884
3 1886 2251 1863
3 2253 1615 1936
3 562 2256 2254
3 2255 1936 2351
3 562 2255 1642
3 2252 2253 2254
3 2255 2254 2253
3 1936 2255 2253
3 1642 2255 1633
3 1644 2257 562
3 1892 1897 2256
3 2367 2257 1643
3 1900 2256 2257
3 1905 2258 1904
3 1909 2258 1914
3 1908 2259 1874
3 2259 1919 1903
3 2288 2282 2283
3 1874 2261 1889
3 2261 2260 2268
3 1888 2264 1882
3 2259 2262 1874
3 2272 2262 1929
3 2281 2268 2269
3 2286 2269 2271
3 1889 2261 2264
3 2261 2268 2266
3 2260 2269 2268
3 1883 1890 2267
3 2270 2265 2276
3 2267 1890 1882
3 2265 2270 2266
3 2263 2282 2270
3 2269 2260 2271
3 2266 2268 2265
3 2279 2292 2293
3 2268 2281 2265
3 2304 543 2299
3 2267 2266 2270
3 2260 2262 2272
3 2286 2271 223
3 2272 1929 2273
3 2271 2272 2284
3 2273 1929 1931
3 2278 2273 1930
3 2725 2729 2724
3 2275 2263 2276
3 2721 2281 2269
3 2275 2721 2720
3 2276 2265 2281
3 2263 2270 2276
3 1869 1870 2297
3 2288 2267 2270
3 2771 2278 1930
3 2278 1928 2279
3 1928 2292 2279
3 2286 223 2295
3 223 2284 2294
3 2722 2720 2721
3 2721 2269 2286
3 2276 2281 2275
3 2282 2263 2305
3 2282 2277 2283
3 2283 2298 2291
3 1883 2267 2290
3 2271 2284 223
3 2273 2284 2272
3 1928 2771 2770
3 2302 2314 2330
3 223 2294 2295
3 2286 2280 2721
3 2301 2315 2316
3 2295 2296 2280
3 2282 2288 2270
3 2290 2288 2283
3 2299 2298 2277
3 2318 2320 2322
3 2288 2290 2267
3 2298 2283 2277
3 14888 2289 2297
3 2291 14888 1884
3 2773 2292 1928
3 2293 2292 2285
3 2301 2300 2313
3 2293 2287 2294
3 2293 2294 2279
3 2294 2287 2295
3 2295 2287 2296
3 2286 2295 2280
3 2287 2301 2313
3 2724 2729 3417
3 14888 1870 42
3 2308 2319 2289
3 2277 2304 2299
3 2289 2291 2298
3 2289 2306 2308
3 2289 2298 2306
3 2287 2293 2301
3 2301 2316 2300
3 2293 2285 2301
3 2315 2301 2285
3 2274 2296 2317
3 2313 2314 2317
3 3424 2309 2299
3 2307 3423 3199
3 2305 2277 2282
3 2305 3196 2277
3 2275 2720 2733
3 2719 2730 2732
3 2298 2299 2306
3 2309 2308 2306
3 3423 2735 3199
3 2735 3198 3199
3 2307 2310 2308
3 2303 2318 2319
3 3424 2299 543
3 2307 2308 2309
3 2735 3426 3198
3 2319 2310 2303
3 3453 3433 3204
3 2738 2760 2752
3 2736 2741 2746
3 2321 2320 2303
3 2314 2313 2300
3 2287 2313 2296
3 2300 2329 2330
3 2317 2314 2302
3 2776 2315 2285
3 2315 612 2316
3 2326 2316 612
3 2329 2300 2328
3 2313 2317 2296
3 2302 3191 2727
3 2297 2289 2319
3 2320 2318 2303
3 2319 2308 2310
3 2297 2319 2318
3 2321 2303 2325
3 2320 465 2322
3 2745 2744 2312
3 2709 2739 2708
3 2708 3188 3190
3 1869 2322 2241
3 2782 612 2776
3 2323 2326 2779
3 2316 2326 2327
3 2327 2333 2324
3 2310 2325 2303
3 2744 2325 2312
3 2783 612 2782
3 2327 2326 2323
3 2331 2327 2323
3 2327 2324 2328
3 2327 2328 2316
3 2329 2328 2324
3 3410 2324 2333
3 2329 349 2330
3 2330 349 3191
3 2300 2330 2314
3 2779 3222 2323
3 27 7665 6898
3 7665 27 6007
3 3413 3192 3875
3 2331 2333 2327
3 3410 2333 2332
3 2332 2333 2334
3 2331 2334 2333
3 2768 1926 2796
3 2774 2770 2335
3 2791 2795 1940
3 2336 2791 2785
3 1658 2339 2337
3 2340 2337 2341
3 1935 3497 2338
3 1622 2337 2338
3 1946 2339 1658
3 2339 1657 2341
3 2338 2340 1935
3 2337 2339 2341
3 2344 2341 1657
3 2348 2341 2344
3 1657 2349 2347
3 2827 2342 2347
3 2805 2806 4773
3 2808 482 2341
3 1657 1946 2349
3 2348 2342 2346
3 2374 2802 1948
3 2832 2829 2380
3 2803 2346 2342
3 2807 2808 3245
3 1657 2347 2344
3 2345 2828 2827
3 2342 2348 2344
3 3245 2808 2346
3 2349 1946 1949
3 2347 2349 2345
3 532 4055 4052
3 3488 2363 532
3 1632 2351 1628
3 2255 2351 1633
3 1933 2352 1615
3 1409 2353 228
3 1404 1410 2353
3 2353 1410 2354
3 2351 2354 1628
3 2354 1936 2352
3 4065 4061 4064
3 2358 2360 1938
3 75 2356 1636
3 2357 2356 2355
3 2358 2357 2355
3 2357 1939 1937
3 2360 2358 4067
3 1939 2358 1938
3 4069 4061 4065
3 4055 4058 4054
3 4067 2358 2355
3 2363 2361 2362
3 155 3236 3467
3 2792 2800 2787
3 2363 2360 2359
3 2361 3242 2362
3 2360 2363 2362
3 4729 2363 2359
3 1938 2362 2365
3 2775 2788 258
3 3243 3244 3240
3 2787 2790 2801
3 2798 1639 1634
3 2367 2366 1940
3 2366 2367 1643
3 1940 2795 2797
3 2819 2816 3502
3 1647 2376 2375
3 1943 2369 1945
3 2376 2369 2368
3 2372 2370 260
3 2370 2371 2373
3 1653 2371 1651
3 2372 2371 2370
3 1655 2372 260
3 2371 2372 1648
3 1647 2373 1653
3 2373 1660 2374
3 2802 2374 1659
3 2374 1948 2370
3 1647 2369 2376
3 2375 1951 2377
3 2822 2368 2813
3 1951 2375 2376
3 2378 1951 2818
3 2378 2377 1951
3 2378 368 2381
3 2826 2828 2829
3 3252 2380 2381
3 3594 3596 3592
3 368 2817 2824
3 2379 2826 2832
3 3252 2381 368
3 2829 2381 2380
3 1438 2382 1443
3 4138 2382 456
3 1672 2383 1670
3 1560 2383 417
3 2383 2384 1670
3 2384 1954 2385
3 2211 2385 1954
3 2394 2385 1822
3 2386 2218 2387
3 2384 2386 1444
3 2387 2218 2390
3 2390 2391 2387
3 2396 2218 2394
3 2388 2390 2396
3 2392 2389 1956
3 1684 2387 2389
3 2396 2390 2218
3 2390 2388 2391
3 2388 2834 2393
3 1956 2389 2391
3 1957 2392 1956
3 2392 1683 1955
3 3554 3555 3535
3 1956 2391 2393
3 2395 1822 2209
3 2394 1822 2395
3 2396 2397 2402
3 2395 2397 2394
3 2396 2394 2397
3 2396 2405 2388
3 2402 2400 2399
3 2843 2851 2835
3 2395 252 2400
3 2408 2400 252
3 2402 2395 2400
3 107 2393 2834
3 2868 2406 2862
3 2399 2400 2404
3 2835 2836 2837
3 2401 2836 2835
3 2396 2402 2399
3 2395 2402 2397
3 2403 2406 2868
3 2403 2901 2407
3 2404 2400 2408
3 2410 2409 2404
3 2836 2396 2399
3 2834 2405 2401
3 2406 2408 2862
3 2403 2407 2410
3 2880 2863 2878
3 2845 2844 2842
3 2862 2408 252
3 2404 2408 2406
3 2410 2404 2406
3 2409 2407 2904
3 2403 2410 2406
3 2407 2409 2410
3 2911 3292 3619
3 2907 2906 2910
3 2413 1769 1767
3 3612 2905 3291
3 2413 1764 3612
3 1769 2413 2412
3 2422 2416 2419
3 1985 2415 1981
3 1976 2415 1985
3 2419 2416 2417
3 2919 2420 2924
3 1983 1981 2418
3 2419 2415 2414
3 1983 2418 367
3 2416 2425 2417
3 2430 2425 2416
3 2414 2421 2419
3 2427 2430 2431
3 2452 2444 2445
3 2003 2428 2000
3 1990 2421 2414
3 2421 1989 2449
3 2449 2419 2421
3 2449 2437 2448
3 2424 2418 2425
3 2434 2429 2435
3 2418 2417 2425
3 2424 2423 2426
3 203 2915 2431
3 2423 2424 2425
3 2435 2451 2440
3 2005 2429 1998
3 2438 2450 2914
3 2432 2423 2425
3 367 2428 2003
3 2429 2428 2426
3 2000 2429 2005
3 2451 2439 2440
3 2431 2416 2422
3 2430 2427 2432
3 2416 2431 2430
3 2422 203 2431
3 2450 2432 2427
3 2450 2924 2432
3 2433 2443 2444
3 2434 2441 1998
3 2435 2429 2426
3 2434 2433 2436
3 2451 2426 2423
3 2433 2434 2435
3 2433 2440 2443
3 2446 2436 2452
3 2910 2909 2437
3 2980 2999 2974
3 2913 2914 2915
3 2916 2922 2923
3 2440 2439 2420
3 2423 2432 2439
3 2916 2917 2420
3 2435 2440 2433
3 1998 2441 2048
3 2434 2436 2441
3 2456 2459 2458
3 2454 2465 2457
3 2420 2443 2440
3 2444 2443 2442
3 2444 2442 2445
3 2433 2444 2436
3 2455 2445 2442
3 2460 2040 2044
3 216 2044 2447
3 2441 2446 2048
3 2048 2447 2046
3 216 2447 2446
3 2449 2448 2422
3 3008 3330 3002
3 2449 2422 2419
3 2449 1989 2910
3 2427 2915 2914
3 2919 2924 2438
3 2426 2451 2435
3 2439 2451 2423
3 2446 2452 216
3 2444 2452 2436
3 2453 2455 2458
3 2482 2483 2459
3 2455 2457 2465
3 2468 2470 2457
3 2458 2455 2918
3 2455 2453 2457
3 2917 2442 2443
3 2919 2916 2420
3 2453 2466 2457
3 2466 523 2468
3 2918 2455 2442
3 2456 2923 2459
3 2469 2482 2467
3 2453 2458 2459
3 216 2460 2044
3 2454 2040 2460
3 2471 2472 2487
3 2045 2462 2041
3 2925 2045 2040
3 2464 2462 2471
3 2463 2464 2471
3 2476 2473 145
3 2471 2462 2461
3 2464 2463 2473
3 2454 2445 2465
3 2455 2465 2445
3 2477 2467 2482
3 523 2472 2468
3 2477 2459 66
3 2486 2931 2944
3 2470 2468 2461
3 2457 2466 2468
3 2483 2466 2453
3 2469 2467 2494
3 2461 2462 2925
3 2457 2470 2454
3 2472 2461 2468
3 2471 2461 2472
3 2485 2472 523
3 2487 2479 2463
3 2475 2488 2474
3 2473 2463 2475
3 3687 3683 3680
3 7730 6089 6091
3 2479 2475 2463
3 2475 2474 2489
3 2050 2476 145
3 2041 2464 2476
3 2498 66 2491
3 2497 2498 2490
3 2492 2478 2499
3 3641 3297 3298
3 2463 2471 2487
3 6929 3682 3681
3 6932 6938 6929
3 3636 4816 4208
3 2475 2481 2473
3 2480 4206 2928
3 2469 2466 2483
3 2459 2477 2482
3 2459 2483 2453
3 2469 2483 2482
3 3020 3019 3012
3 2937 2951 2954
3 2493 523 2469
3 450 2479 2496
3 2931 2467 2932
3 3641 3295 2946
3 2472 2495 2487
3 2499 2495 2485
3 2475 2479 2488
3 3685 2479 450
3 6927 6926 6928
3 2481 2489 2480
3 435 2933 2934
3 2938 2939 2933
3 3026 3027 3025
3 3024 2936 2491
3 2493 2485 523
3 3295 2486 2944
3 2494 2493 2469
3 2492 2493 2486
3 2497 2932 2467
3 2493 2494 2486
3 2472 2485 2495
3 2485 2492 2499
3 2499 2487 2495
3 2478 3641 3298
3 2498 2497 2477
3 2932 2497 2490
3 66 2498 2477
3 2498 2491 2936
3 2478 2496 2499
3 2499 2496 2487
3 2024 2500 2027
3 2501 2500 2023
3 2500 2501 2028
3 2050 2501 2023
3 2004 2006 2502
3 1998 2502 2006
3 2503 2068 2042
3 2052 2503 2054
3 3750 3751 3028
3 4263 4267 3779
3 1746 2505 1745
3 2506 2505 1744
3 2507 2506 1744
3 2508 2506 2507
3 2078 2507 1744
3 2507 2090 2084
3 2510 2508 2089
3 261 2506 2508
3 2511 2510 2089
3 2528 2527 3031
3 2089 2092 2511
3 3031 3030 2509
3 2062 2069 2512
3 2513 2514 2535
3 2066 2515 2069
3 2516 2513 2515
3 2513 2071 2514
3 2515 2513 2512
3 2517 2514 2071
3 2535 2514 2509
3 2069 2515 2512
3 2516 2515 2066
3 2070 2516 2066
3 2072 2513 2516
3 2522 2071 2072
3 2525 2517 467
3 3339 3773 3774
3 2529 2533 3046
3 2517 2523 2521
3 2533 2529 2530
3 2520 4258 3757
3 3755 2073 3756
3 2523 2517 2071
3 2521 2519 2531
3 4258 2072 10
3 2523 2522 2520
3 2524 2523 2520
3 2523 2519 2521
3 2520 3757 3337
3 2519 2524 2518
3 2530 2532 2534
3 2509 2514 2525
3 2532 2538 2526
3 3029 3030 3031
3 2528 2525 467
3 3032 3029 2527
3 2528 467 2530
3 2527 2528 2534
3 2531 2533 467
3 2518 3039 2519
3 467 2521 2531
3 2532 2530 2529
3 3039 2531 2519
3 3043 3046 2531
3 2536 2532 2529
3 3033 2534 2526
3 467 2533 2530
3 2533 2531 3046
3 2530 2534 2528
3 2526 2534 2532
3 2510 2535 2509
3 2513 2535 2511
3 2529 3046 3048
3 2536 194 2539
3 7994 7978 7990
3 3034 3038 3036
3 2536 2538 2532
3 3037 2538 2537
3 194 7999 7996
3 2538 2539 2537
3 261 3030 3029
3 3032 3033 3036
3 2541 2545 2544
3 2098 2543 509
3 2093 2542 1745
3 2094 2542 2541
3 2094 2543 2098
3 2544 2543 2541
3 2545 2541 2093
3 2540 3066 2544
3 2093 2506 2546
3 2544 2545 3338
3 3035 261 3029
3 2546 3035 3338
3 2550 2098 2549
3 3061 3060 268
3 3063 3064 2548
3 3058 3064 3059
3 3063 2549 509
3 2550 2549 2548
3 2548 3062 3340
3 2098 2550 1753
3 2100 2552 2551
3 2553 2547 1799
3 2552 2100 2102
3 2553 2552 2547
3 1452 2551 2553
3 2553 2551 2552
3 2565 2568 2569
3 2561 2559 2562
3 2112 2557 2556
3 2559 2558 2555
3 2557 2112 2114
3 2556 2555 2558
3 2113 3120 2114
3 3118 3119 3120
3 2559 2555 2554
3 2117 2558 2561
3 2563 2562 2559
3 2117 2561 2116
3 2560 2563 2567
3 2569 2560 2567
3 2558 2559 2561
3 2554 2563 2559
3 2560 2564 2562
3 2564 2566 2562
3 3354 2567 2554
3 2560 2562 2563
3 2572 2569 2568
3 2566 2564 68
3 3354 3355 3356
3 2643 2609 2626
3 4512 4194 2579
3 2566 2116 2561
3 2554 2567 2563
3 2568 2565 3069
3 2576 2570 2572
3 2560 2569 2571
3 2565 2569 2567
3 2569 2572 2571
3 2571 2572 2570
3 2564 2573 68
3 2571 2570 2573
3 2564 2560 2571
3 623 2582 2568
3 2577 3343 2575
3 2570 2577 2573
3 2580 2577 2581
3 2576 2582 2587
3 2576 2587 2574
3 2577 2570 2583
3 2581 3073 4512
3 2582 2576 2572
3 2576 2574 2584
3 2583 2570 2576
3 2577 2575 2581
3 2585 2584 2574
3 3828 3342 3072
3 2575 3342 3073
3 3831 4194 4512
3 2577 2580 2573
3 4191 2580 2579
3 3073 2581 2575
3 2580 2581 2579
3 2568 2582 2572
3 2582 623 2588
3 2584 2583 2576
3 2577 2583 2578
3 3351 2574 4537
3 2583 2584 2578
3 3346 3072 3344
3 2584 2585 3344
3 3091 3089 3087
3 4536 3074 4537
3 2588 2587 2582
3 2587 2588 4539
3 4534 3844 3087
3 2588 2586 4539
3 550 2593 2114
3 1457 1482 2592
3 2589 2593 2590
3 2591 1761 1763
3 2593 2591 2590
3 550 2595 2591
3 2592 1482 1481
3 2118 2590 2592
3 2114 2593 2589
3 2591 2593 550
3 1763 2594 2591
3 1458 2596 1146
3 2111 2595 550
3 1761 2591 2595
3 1457 2596 1458
3 1763 2596 2594
3 2598 2597 1771
3 2905 2597 2123
3 2598 2119 3635
3 2599 2598 3634
3 566 3615 3616
3 2123 2598 2599
3 2600 1188 3140
3 2601 2600 2125
3 2602 2601 2125
3 2601 2602 2603
3 3135 2602 2125
3 1780 3113 3077
3 2604 2603 2126
3 1787 1189 2603
3 2126 2607 2604
3 1787 2604 560
3 2126 2602 3077
3 3104 3111 3105
3 2607 2606 2604
3 3075 2606 2605
3 2126 3077 3372
3 2606 2607 2605
3 3079 2608 629
3 2137 2608 2139
3 2624 2614 2611
3 3096 286 3080
3 2631 2622 2629
3 2623 2624 2616
3 2615 2616 2611
3 2135 2142 2614
3 2612 2134 2613
3 2614 2612 2611
3 2134 2617 2613
3 2146 2618 2617
3 2616 2624 2611
3 2614 629 2608
3 2616 2615 2610
3 2612 2615 2611
3 2630 2629 2610
3 2640 2623 2616
3 2145 2617 2134
3 2618 2146 559
3 2628 2618 559
3 2613 2618 2630
3 2619 2644 3100
3 2640 2622 2641
3 3095 3086 2625
3 629 2614 2621
3 2642 2620 2636
3 629 2621 2626
3 2629 2630 2628
3 2622 2619 2641
3 3084 2623 104
3 2623 2620 2624
3 2620 2621 2624
3 2614 2624 2621
3 2636 2620 3084
3 3091 3069 3071
3 2642 2626 2621
3 2626 3095 2643
3 7359 7357 2627
3 2633 2631 2634
3 7369 7370 7366
3 2628 2627 2629
3 2631 2629 2627
3 2622 2610 2629
3 2613 2630 2610
3 2628 2630 2618
3 2631 2627 2634
3 2622 2631 2619
3 7377 7376 7375
3 8102 6604 5773
3 2632 2638 2633
3 2638 2639 2644
3 7357 7356 7360
3 2633 2634 2632
3 2633 2644 2619
3 3832 4534 3087
3 2620 2623 3084
3 3086 3095 2636
3 3070 3094 3091
3 2643 3096 2609
3 6597 6603 6598
3 2639 2638 619
3 3364 3102 3362
3 3359 3366 3834
3 2622 2640 2616
3 3092 2640 2635
3 3100 2641 2619
3 2640 2641 2635
3 2620 2642 2621
3 2642 2636 3095
3 3095 2626 2642
3 3096 2643 2637
3 2638 2644 2633
3 3100 2644 2639
3 2143 2645 2145
3 2648 2647 2645
3 3105 2648 2141
3 7377 7380 7381
3 2648 2645 2141
3 2647 2646 7370
3 3104 2141 3075
3 2646 2647 2648
3 8050 8051 8038
3 7362 7372 8827
3 1788 2140 2653
3 1215 2651 620
3 2147 2654 2650
3 2652 2654 2655
3 2654 2652 2651
3 2589 2656 2113
3 3082 1485 3078
3 2147 2650 2653
3 2650 2654 2651
3 2654 2147 2655
3 3081 2655 2147
3 3354 3356 3098
3 2118 2652 2656
3 2655 2656 2652
3 5257 5838 6745
3 3121 1792 2164
3 188 2658 2158
3 2657 3373 3859
3 1509 2659 1514
3 582 2165 2659
3 3380 3390 1793
3 9869 3125 9868
3 2662 4456 4455
3 2172 2661 2169
3 7976 7966 7975
3 2663 8697 2661
3 1805 3064 4456
3 8699 8697 2662
3 3142 3147 253
3 510 2677 2674
3 2668 2665 510
3 2669 1534 1537
3 2666 1533 2167
3 2667 2666 2170
3 2681 2667 2170
3 510 2665 2667
3 2668 2674 2673
3 2672 2668 2673
3 2666 2669 1533
3 1534 2669 2665
3 2683 2674 2677
3 1814 2671 1809
3 1811 2671 1814
3 2671 2670 2682
3 2672 2175 2688
3 1534 2668 2672
3 2674 2668 510
3 2673 2670 2675
3 2677 2681 2685
3 2670 2673 2674
3 2671 2675 2670
3 2175 2675 1811
3 2677 2685 2676
3 2678 2683 3143
3 2681 2677 510
3 2683 2677 3143
3 2676 3143 2677
3 3161 3158 2177
3 2682 2679 2671
3 2680 2678 253
3 2177 2679 2680
3 2678 2680 2679
3 2681 510 2667
3 2681 2664 2685
3 2670 2674 2683
3 2679 2682 2678
3 2678 2682 2683
3 2670 2683 2682
3 2684 2170 2173
3 2664 2681 2684
3 2686 2687 50
3 2685 2664 2687
3 3865 3868 3871
3 3155 3144 3150
3 50 2687 2664
3 2687 2686 3151
3 2672 2688 1538
3 2174 2688 2175
3 2679 2689 1809
3 2690 2689 2177
3 2690 2177 3158
3 2690 3156 3157
3 3161 3160 2691
3 2691 2196 3156
3 3153 3146 3149
3 2695 3162 3165
3 2195 2197 3159
3 2693 2692 3169
3 3273 3265 3267
3 2694 2883 2874
3 3163 3165 407
3 3164 2198 3167
3 2200 2199 2697
3 3167 2696 2203
3 2188 2697 2186
3 2203 2696 2697
3 1586 2698 1588
3 3176 2698 1584
3 3176 3177 2699
3 2222 2701 3179
3 3179 2700 433
3 2699 3177 2700
3 3178 2701 1824
3 3183 2222 3182
3 2222 3183 2701
3 4009 4008 3994
3 2706 2703 1367
3 2228 2703 2226
3 2229 2231 4014
3 2223 6743 3185
3 3179 2705 2222
3 1842 2705 433
3 1367 3186 2706
3 2717 2246 2715
3 1881 2707 1872
3 1869 2241 2707
3 2709 2740 2739
3 2739 2762 2708
3 2322 465 2709
3 2739 2740 2737
3 227 2712 1879
3 2248 2711 2245
3 2710 2712 2711
3 3990 3989 2712
3 1879 2712 2710
3 3990 3991 3988
3 2713 2245 2716
3 2246 2713 2715
3 3999 3998 3995
3 4016 4013 4014
3 2716 2715 2713
3 4016 140 4018
3 4012 4017 4010
3 2715 2716 2714
3 3186 2717 2706
3 2246 2717 2239
3 2706 2715 2718
3 4018 2715 2714
3 2723 2719 2720
3 2725 2730 2719
3 2723 2720 2274
3 2733 2720 2719
3 2721 2275 2281
3 2722 2721 2280
3 2296 2722 2280
3 2274 2720 2722
3 2317 2727 2274
3 3197 3888 3885
3 2719 2723 2725
3 3195 2729 2725
3 2727 3195 2274
3 3421 2730 2724
3 2330 3191 2302
3 3194 3191 349
3 2302 2727 2317
3 2726 2729 3195
3 2724 3417 3419
3 3196 543 2304
3 3195 2725 2723
3 2726 3876 3417
3 2724 2730 2725
3 2732 2730 2728
3 2731 543 3196
3 3422 3878 3879
3 2731 2732 2728
3 2263 2733 2734
3 2734 2719 2732
3 2263 2275 2733
3 2263 2734 2305
3 2719 2734 2733
3 3423 2307 3424
3 2751 2754 3201
3 2736 2742 2741
3 2325 2744 2321
3 2742 2736 2764
3 2765 2743 2753
3 2748 2760 2745
3 2755 2738 2752
3 2740 2709 465
3 2737 2765 3206
3 2741 2740 465
3 2742 2740 2741
3 465 2749 2741
3 2321 2744 2746
3 2759 2764 2755
3 2737 2740 2742
3 2753 2743 165
3 2742 2743 2765
3 2312 3198 2745
3 2746 2744 2738
3 2748 2745 2311
3 2738 2744 2745
3 2746 2738 2755
3 2746 2741 2749
3 2748 2311 2754
3 2756 2759 2757
3 3426 2311 3198
3 2748 2747 2752
3 2320 2749 465
3 2746 2749 2321
3 3968 3972 3951
3 3992 2761 2766
3 3204 3445 3446
3 2754 3445 2748
3 2757 2758 2756
3 2746 2755 2736
3 3966 3967 3955
3 3966 2766 2753
3 2754 2311 3426
3 2754 2751 3445
3 2757 2755 2752
3 2759 2755 2757
3 2763 2757 2752
3 2756 2758 3464
3 2763 2752 2747
3 3972 2759 2756
3 2758 2763 3203
3 14893 3464 3465
3 165 2743 2759
3 2759 2743 2764
3 2745 2760 2738
3 2748 2752 2760
3 3975 3982 2750
3 2739 2737 3206
3 2750 3982 3992
3 2708 3189 3187
3 3203 2763 2747
3 2757 2763 2758
3 2742 2764 2743
3 2755 2764 2736
3 2766 2765 2753
3 2765 2761 3206
3 3992 2766 2750
3 2765 2766 2761
3 2768 2767 583
3 2767 2335 2770
3 1926 2768 583
3 2769 2768 2336
3 2784 2788 2785
3 2335 2767 2769
3 2772 2774 2775
3 1928 2770 2773
3 2278 2771 1928
3 2767 2771 1930
3 2780 2772 2781
3 612 2315 2776
3 2774 2773 2770
3 2782 2776 2777
3 2775 2774 2335
3 2774 2772 2777
3 2769 2785 2335
3 258 2781 2786
3 2285 2773 2776
3 2777 2776 2773
3 2774 2777 2773
3 2772 2780 2777
3 3218 2780 2781
3 3208 3213 3209
3 612 2779 2326
3 3216 2778 3214
3 2772 2775 2786
3 2778 2779 2783
3 258 2792 2781
3 2792 3212 2781
3 2777 2780 2782
3 2780 2778 2783
3 612 2783 2779
3 2780 2783 2782
3 2775 2335 2785
3 1634 1937 2812
3 2769 2336 2785
3 2795 2791 2336
3 258 2786 2775
3 2781 2772 2786
3 2790 2800 2789
3 3207 2787 2801
3 2785 2788 2775
3 2789 2784 2364
3 2789 2364 2790
3 258 2788 2789
3 2364 2793 2790
3 2794 420 3207
3 1940 2798 2791
3 2812 2799 1634
3 258 2789 2800
3 2787 3211 3212
3 2810 2793 2364
3 2365 3242 3241
3 3241 2790 2793
3 3241 3242 3240
3 2796 2795 2336
3 2795 1917 2797
3 2768 2796 2336
3 1917 2796 1926
3 2797 1917 14885
3 1940 2797 2367
3 2366 2798 1940
3 2799 2798 1634
3 2785 2791 2799
3 2799 2791 2798
3 2787 2800 2790
3 258 2800 2792
3 3241 2801 2790
3 3207 2801 2794
3 1659 2829 2828
3 2349 2802 2345
3 2831 2803 2342
3 2803 105 2806
3 3594 3597 105
3 5370 6079 5369
3 2346 2803 2805
3 2805 2803 2806
3 4764 105 3597
3 2806 2804 4773
3 3489 2807 3245
3 2809 3248 3493
3 2348 2808 2341
3 3492 2808 2807
3 482 2808 3492
3 3493 3495 2809
3 2365 2810 1938
3 2811 2364 2784
3 2811 2784 2799
3 1939 2810 2811
3 1939 2811 2812
3 2799 2812 2811
3 1944 2813 1943
3 2822 2813 1662
3 1662 1664 2820
3 3251 3253 3261
3 2368 2815 2376
3 2815 2814 2817
3 3501 3498 3250
3 2814 2815 2819
3 2824 2825 2823
3 2817 2825 2824
3 2815 2818 1951
3 368 2818 2817
3 2822 2815 2368
3 2819 2822 2820
3 1435 2820 1664
3 2819 2820 2816
3 3501 3504 2814
3 3521 3529 3531
3 2820 2822 1662
3 2815 2822 2819
3 3262 3259 3261
3 2824 3252 368
3 2825 2817 2814
3 2823 3253 3252
3 3502 3501 2814
3 3257 2821 3260
3 2833 2827 2826
3 2828 2345 2802
3 2345 2827 2347
3 2379 2830 2833
3 1659 2828 2802
3 2827 2828 2826
3 2377 2378 2829
3 2829 2378 2381
3 3592 2830 2379
3 2830 3596 2831
3 2342 2827 2831
3 2831 2827 2833
3 2379 2832 2380
3 2826 2829 2832
3 2379 2833 2826
3 2831 2833 2830
3 2405 2834 2388
3 2851 2401 2835
3 2841 2844 2838
3 2835 2398 2841
3 2405 2836 2401
3 2837 2836 2399
3 2404 2837 2399
3 2398 2835 2837
3 2845 2849 2848
3 2834 2840 107
3 2848 2838 2845
3 3525 418 3529
3 2851 2834 2401
3 2860 2850 3571
3 2398 2842 2844
3 2843 2841 2838
3 2904 2398 2409
3 2902 3290 2899
3 2838 2848 2850
3 2839 2840 2851
3 2398 2844 2841
3 2842 3610 2845
3 2849 2847 2848
3 2838 2844 2845
3 2853 2849 2854
3 4107 4114 4108
3 3600 2846 3602
3 2838 2850 2860
3 2849 2845 371
3 2848 2847 2850
3 2861 2849 371
3 2853 2846 3600
3 2847 3599 2850
3 3264 3539 3541
3 2839 2851 2843
3 2834 2851 2840
3 2879 2897 2899
3 10069 10070 9732
3 2847 2849 2853
3 2849 2861 2854
3 2859 2857 2854
3 2846 2853 2855
3 4175 2858 2859
3 2857 2855 2854
3 4097 4104 4098
3 4110 4116 2857
3 2852 4175 2859
3 10068 2856 10067
3 4793 14945 14949
3 2859 10070 2857
3 2852 2859 2854
3 2859 2858 10070
3 2838 2860 2843
3 3571 2850 3540
3 371 3610 3289
3 2854 2861 2852
3 2206 2862 252
3 2862 2201 2869
3 2201 2204 2864
3 2866 2878 2863
3 515 2870 2204
3 2866 2867 2865
3 2870 2866 2864
3 2873 2874 2876
3 2866 2870 2867
3 2876 2879 2865
3 2867 2870 2871
3 2873 2867 2872
3 2869 2868 2862
3 2863 2403 2868
3 2864 2869 2201
3 2868 2869 2863
3 2204 2870 2864
3 2871 2870 515
3 515 2200 2871
3 2871 2200 2872
3 2200 2875 2872
3 3266 3267 3265
3 2873 2694 2874
3 2865 2867 2873
3 3164 3269 2198
3 2884 2874 2883
3 2696 2875 2200
3 3267 2875 2198
3 2897 2879 53
3 2873 2876 2865
3 2897 53 2890
3 2880 2901 2403
3 2865 2878 2866
3 2880 2878 2877
3 53 2879 2876
3 2877 2878 2879
3 3290 2902 2900
3 2863 2880 2403
3 2893 2891 2892
3 2890 2874 2884
3 3266 2694 3267
3 2885 2884 2882
3 2872 3267 2694
3 2884 2883 2882
3 2882 3270 2885
3 2891 3607 3287
3 2889 2885 2881
3 2886 2898 2896
3 2886 2896 3287
3 4175 3611 505
3 3272 3279 5389
3 5388 5395 5396
3 2885 2892 2894
3 4161 2898 2886
3 2881 3275 5390
3 3607 2893 592
3 2894 2890 2884
3 2897 2890 2888
3 2894 2884 2885
3 2892 2885 2889
3 2887 2892 2889
3 2892 2891 2894
3 2892 2887 2893
3 5399 2893 2887
3 2896 2894 2891
3 2890 2894 2888
3 4157 3287 4156
3 2904 3288 3610
3 2894 2896 2888
3 3287 2896 2891
3 2888 2896 2898
3 2899 2897 2895
3 2895 2897 2898
3 2888 2898 2897
3 2899 2895 2902
3 2879 2899 2877
3 4157 4163 4161
3 2407 2901 2903
3 3290 2880 2877
3 2901 2900 2903
3 2902 4164 4162
3 3290 2900 2901
3 2903 3288 2904
3 2903 2900 3288
3 2904 2842 2398
3 2407 2903 2904
3 3615 3614 3616
3 2905 3613 3291
3 1991 2908 1990
3 2906 2411 2911
3 2421 2907 1989
3 2908 2907 1990
3 109 2412 2908
3 2411 2908 2412
3 2411 3291 3613
3 3009 4256 3001
3 2907 2910 1989
3 2910 2906 2911
3 2911 2411 3613
3 2910 2911 2909
3 2414 1976 2912
3 1987 2912 1976
3 2999 3001 3004
3 3022 3025 3027
3 2427 2914 2450
3 3019 3021 2913
3 2431 2915 2427
3 2915 203 3007
3 2921 2922 2438
3 2458 2918 2456
3 2420 2917 2443
3 2456 2917 2916
3 2442 2917 2918
3 2456 2918 2917
3 2420 2439 2924
3 2922 2919 2438
3 2914 2921 2438
3 2913 3007 3006
3 2913 2921 2914
3 2922 2921 2920
3 3026 2923 2920
3 2922 2916 2919
3 2459 2923 66
3 2916 2923 2456
3 2432 2924 2439
3 2438 2924 2450
3 2454 2925 2040
3 2461 2925 2470
3 2926 4206 3636
3 2035 2927 2033
3 2036 2927 2035
3 4208 4207 4209
3 2480 2928 2481
3 2036 2928 2926
3 2486 2494 2931
3 2939 2930 2933
3 2932 2490 2933
3 2943 2930 2939
3 2467 2931 2494
3 2944 2930 2943
3 2490 2934 2933
3 2931 2932 2930
3 2933 435 2938
3 2930 2932 2933
3 2490 2936 2934
3 2937 2954 2959
3 2938 2994 2970
3 3640 3639 3294
3 2936 2490 2498
3 2948 2936 2484
3 2945 2947 2948
3 2948 2484 2950
3 2972 2994 2965
3 2938 2935 2939
3 2935 2940 2939
3 2939 2940 2943
3 2935 2970 3315
3 2943 2940 2929
3 2938 2970 2935
3 3653 3661 3651
3 3316 2940 2935
3 3639 3637 3294
3 2943 2929 2961
3 2944 2931 2930
3 2944 2943 2961
3 3295 2492 2486
3 2934 2936 2948
3 3301 2968 2937
3 3296 2946 2961
3 450 2496 3298
3 2948 2947 2934
3 2965 2947 2945
3 2949 2950 3015
3 2945 2948 2953
3 2960 2959 2956
3 2951 2953 2950
3 3017 3013 643
3 2951 2950 2949
3 2955 2954 2951
3 2968 2953 2937
3 2957 2955 2949
3 2966 2957 643
3 2950 2953 2948
3 2937 2953 2951
3 2955 2951 2949
3 2956 2954 2952
3 3016 2949 3015
3 2952 2954 2955
3 2967 3327 2952
3 2956 219 2960
3 2962 2973 2975
3 2955 2957 2967
3 3300 2958 2960
3 3303 2963 3301
3 2956 2959 2954
3 2959 2958 3301
3 3727 219 3731
3 2959 2960 2958
3 3296 2961 2929
3 2961 2946 3295
3 2975 2977 2979
3 3325 2952 3327
3 3301 2958 3304
3 3307 3310 3313
3 2975 2974 2977
3 2952 2955 2967
3 2945 2953 2968
3 2965 2963 2972
3 2966 643 2995
3 2966 2964 2967
3 2973 2971 2964
3 2967 2964 2971
3 2937 2959 3301
3 2963 2965 2968
3 2963 3303 3307
3 3313 3318 3315
3 2994 2938 435
3 2969 3313 3315
3 2997 2986 2984
3 2993 2997 3326
3 3317 2963 3307
3 2994 2969 2970
3 2976 2975 2964
3 2998 2973 2962
3 2976 2974 2975
3 2978 2980 2995
3 2964 2975 2973
3 3001 131 3004
3 2966 2976 2964
3 3006 2978 3018
3 2982 2985 2981
3 2962 2975 2979
3 2915 3007 2913
3 2974 2976 2980
3 2977 2982 2979
3 2962 2979 2986
3 2995 2980 2976
3 2999 2980 3000
3 2982 3320 2985
3 2987 2989 2984
3 2977 3004 3320
3 2987 2986 2982
3 4256 4257 3748
3 3319 4204 3693
3 2989 2981 3693
3 3322 2997 2991
3 3320 2982 2977
3 3319 2985 2983
3 2982 2986 2979
3 2986 2997 2993
3 2981 3319 3693
3 2984 2986 2987
3 3696 2988 3694
3 2989 2991 2984
3 2981 2989 2987
3 3700 2991 2988
3 3693 3694 2988
3 3700 3702 2990
3 2988 2991 2989
3 2990 3705 3322
3 2992 3719 3718
3 2986 2993 2962
3 3728 3326 3718
3 2973 2998 2971
3 2965 2994 435
3 2969 2994 2972
3 2966 2995 2976
3 2995 643 3013
3 2996 2999 3000
3 3333 3332 3011
3 2991 2997 2984
3 3326 2997 2992
3 2962 2993 2998
3 2993 3326 4254
3 3000 2980 2978
3 3001 2999 2996
3 2978 3005 3000
3 3002 3007 3008
3 3010 2996 3331
3 3320 3004 131
3 3005 3006 3002
3 3008 203 2448
3 3619 3333 2909
3 3620 3623 3003
3 2977 2974 3004
3 2999 3004 2974
3 3005 2978 3006
3 3008 3329 3330
3 2995 3013 2978
3 3018 3019 3006
3 3008 3007 203
3 3007 3002 3006
3 2448 2437 3008
3 3008 2437 3329
3 3010 3001 2996
3 3623 4257 3003
3 3000 3330 2996
3 3331 3332 3010
3 3749 2909 3333
3 3009 3332 3003
3 2957 2949 3016
3 3006 3019 2913
3 643 3016 3017
3 3013 3012 3018
3 3015 2950 3023
3 3023 3024 3022
3 3023 2950 2484
3 3015 3014 3016
3 3016 3014 3017
3 2957 3016 643
3 3017 3014 3020
3 3013 3017 3012
3 3013 3018 2978
3 3019 3018 3012
3 3012 3017 3020
3 2921 3021 2920
3 3022 3020 3014
3 3027 3021 3019
3 2913 3021 2921
3 3027 3019 3020
3 3023 3022 3014
3 3022 3024 3025
3 3015 3023 3014
3 3024 3023 2484
3 2936 3024 2484
3 3025 3024 2491
3 2491 66 3025
3 3026 3025 66
3 2923 3026 66
3 3027 3026 2920
3 3021 3027 2920
3 3022 3027 3020
3 3028 3334 3750
3 3765 3756 2504
3 3032 2527 3033
3 3032 3035 3029
3 2508 3030 261
3 2509 3030 2510
3 2525 3031 2509
3 2527 3029 3031
3 3037 3034 3036
3 3035 2546 261
3 2534 3033 2527
3 3036 3033 2526
3 5134 5135 4460
3 5134 4454 3827
3 3038 3035 3032
3 3035 3038 3338
3 2526 2538 3037
3 3034 4459 3038
3 3037 2537 5136
3 2526 3037 3036
3 3038 2540 3338
3 3032 3036 3038
3 3763 3824 2518
3 194 2536 3047
3 3782 3781 3054
3 508 3053 3052
3 2531 3039 3043
3 3055 3043 3044
3 3759 3763 3337
3 3040 3054 3055
3 3044 3043 3039
3 3041 3045 3046
3 2518 3044 3039
3 3040 3055 3042
3 3052 3053 3051
3 2536 2529 3048
3 3041 3046 3043
3 3045 3048 3046
3 3045 3051 3050
3 3048 3050 3047
3 3050 3048 3045
3 2536 3048 3047
3 3049 3053 3789
3 3057 194 3047
3 3051 3045 3041
3 3049 3794 3057
3 3051 3041 3052
3 3049 3050 3051
3 3041 3054 3052
3 3780 3785 3781
3 3785 3791 508
3 3049 3051 3053
3 3054 3041 3055
3 3783 3786 3782
3 3043 3055 3041
3 3042 3055 3044
3 3057 3794 3056
3 7998 507 9273
3 3049 3057 3050
3 3057 3056 7999
3 3060 2166 268
3 2548 2549 3063
3 2661 3059 1805
3 3060 3059 2166
3 268 1800 3061
3 3062 2548 3058
3 1799 2547 3061
3 2547 3340 3062
3 3060 3061 3062
3 2547 3062 3061
3 3066 3067 2544
3 3826 3341 3064
3 2548 3064 3058
3 3064 3063 3826
3 4458 3827 4457
3 4456 3064 3341
3 4458 3066 2540
3 3067 3066 3065
3 3067 3065 3826
3 2544 3067 509
3 1452 3068 1545
3 1799 3068 2553
3 3069 2565 3071
3 623 2568 3069
3 3096 3099 286
3 2637 3095 3094
3 3098 3071 2565
3 3071 3070 3091
3 3344 3072 3343
3 2585 250 3347
3 3073 3342 4511
3 4513 3831 4512
3 4539 4536 4537
3 4532 4519 4524
3 2606 3075 2143
3 3104 3075 2605
3 3108 3110 3115
3 3107 3104 3106
3 1780 3077 2602
3 3076 3106 3372
3 2139 2608 3079
3 3078 2609 3080
3 2626 3079 629
3 2609 3078 3079
3 3096 3080 2609
3 3081 3080 286
3 3081 286 3357
3 3082 2147 2653
3 3078 3080 3082
3 3081 3082 3080
3 3092 3085 104
3 2635 2641 3100
3 3085 3084 104
3 2636 3084 3086
3 104 2640 3092
3 3832 3352 4534
3 3085 3090 3084
3 2588 3088 2586
3 3090 3089 3086
3 3085 3353 3090
3 623 3093 2588
3 3089 3091 2625
3 3086 3084 3090
3 3091 3087 3088
3 3353 3083 3352
3 3089 3090 3832
3 2588 3093 3088
3 3069 3091 3093
3 3360 2635 3100
3 3085 3092 3845
3 3069 3093 623
3 3091 3088 3093
3 3094 3070 3097
3 2625 3091 3094
3 3094 3095 2625
3 3095 2637 2643
3 2637 3097 3096
3 3097 3098 3099
3 3094 3097 2637
3 3098 3097 3070
3 3071 3098 3070
3 3354 3098 2565
3 3097 3099 3096
3 3356 3099 3098
3 3103 3100 2639
3 3092 2635 3360
3 3102 3103 3362
3 3833 3836 358
3 2639 3363 3362
3 3359 3846 3366
3 619 3363 2639
3 3102 3846 3847
3 3106 3104 2605
3 3111 3104 3107
3 2649 8036 3105
3 2141 3104 3105
3 3372 2605 2607
3 3107 3106 3076
3 3112 3110 3109
3 3107 295 3111
3 8042 8048 8842
3 8038 8051 8037
3 3112 3107 3076
3 8041 3109 8042
3 3113 3117 3110
3 3108 3109 3110
3 3111 295 8039
3 3105 3111 2649
3 3107 3112 3109
3 3113 3112 3076
3 3077 3113 3076
3 3117 3113 1780
3 3133 3134 3129
3 1520 1513 3128
3 3117 3115 3110
3 3116 3115 3114
3 3127 3126 9867
3 9339 8045 622
3 3117 1780 3134
3 3115 3117 3114
3 3357 3358 2655
3 286 3356 3357
3 3120 3119 2557
3 3119 3118 3355
3 2114 3120 2557
3 3120 2113 3358
3 6749 6750 6751
3 3121 8139 8142
3 2165 3122 1514
3 3130 3122 2660
3 1793 3390 3125
3 3122 3123 2660
3 9340 9343 8075
3 9864 3124 9865
3 1793 3125 3123
3 9868 3125 3124
3 3127 622 3116
3 3128 3126 3131
3 3116 3114 3127
3 3127 3114 3133
3 3131 3126 3127
3 1519 3128 328
3 3134 3133 3114
3 3129 3134 3136
3 3122 3130 1513
3 9869 3130 2660
3 3133 3131 3127
3 3128 3132 328
3 3131 3129 3132
3 3138 3137 3139
3 3114 3117 3134
3 3131 3133 3129
3 1780 3135 3134
3 3134 3135 3136
3 2602 3135 1780
3 3136 3135 2125
3 2600 3136 2125
3 1776 3141 1188
3 3139 3137 1775
3 3140 3137 3136
3 3132 3129 3138
3 3136 3138 3129
3 1796 3139 1775
3 3138 3139 328
3 2600 3140 3136
3 3141 3140 1188
3 1778 3141 1776
3 3140 3141 3137
3 2676 2685 3146
3 253 2678 3142
3 3153 3143 2676
3 2678 3143 3142
3 3149 3150 3144
3 4149 3397 92
3 92 3397 3401
3 3160 2692 3159
3 2685 2687 3151
3 3146 3150 3149
3 3147 3142 3153
3 3160 3147 3145
3 3867 3869 3865
3 3871 3866 3865
3 3174 3149 3144
3 3149 3145 3147
3 3151 3150 3146
3 3155 3150 3148
3 3151 3146 2685
3 3395 3151 2686
3 4550 4551 3870
3 3407 3399 3400
3 3146 3153 2676
3 3147 3153 3149
3 3866 3867 3865
3 3399 3407 3172
3 3867 3155 3148
3 3175 3155 3154
3 3157 3156 2178
3 3156 2690 3158
3 2179 3157 2178
3 2180 1320 3396
3 3161 2177 2680
3 3156 3158 2691
3 3160 3159 2691
3 2693 3159 2692
3 3147 3160 253
3 3160 3145 3171
3 3158 3161 2691
3 253 3160 3161
3 407 2693 3163
3 3162 2695 3164
3 3170 2692 3160
3 3166 3407 3169
3 3173 3397 3168
3 3164 2695 3173
3 407 3165 3162
3 3400 3165 3163
3 3145 3174 3171
3 3166 3171 3172
3 2696 3167 2198
3 3162 3167 2203
3 3278 3279 3277
3 2883 3266 2882
3 2693 3169 3163
3 3170 3169 2692
3 3171 3170 3160
3 3169 3170 3166
3 3171 3174 3172
3 3170 3171 3166
3 3175 3172 3174
3 3400 3397 2695
3 3397 3173 2695
3 3269 3173 3168
3 3149 3174 3145
3 3175 3174 3144
3 3155 3175 3144
3 3866 3402 3154
3 3177 3176 1584
3 3178 3176 2699
3 1587 3177 1584
3 3177 1339 2700
3 3178 2699 3179
3 2219 3178 1824
3 2700 3179 2699
3 2705 3179 433
3 3183 3182 3185
3 6742 3180 2702
3 4014 3181 2229
3 3182 3181 2704
3 2704 3185 3182
3 2702 3180 3183
3 3180 1835 3183
3 2701 3183 1835
3 2705 3184 2222
3 2233 3182 3184
3 3185 2704 4013
3 3183 3185 2702
3 2240 3186 1367
3 2717 3186 2239
3 3188 1879 1871
3 3189 2708 2762
3 3190 1871 2241
3 2708 3187 3188
3 3987 3189 2762
3 227 3187 3189
3 2708 3190 2709
3 1871 3190 3188
3 3194 349 3411
3 2727 3191 2726
3 9564 3918 9561
3 3193 3875 3876
3 2329 3409 349
3 3413 3875 3193
3 3411 349 3409
3 3194 3193 3876
3 2274 3195 2723
3 2726 3195 2727
3 2277 3196 2304
3 2732 3196 2305
3 3420 3419 132
3 3425 3429 3461
3 2745 3198 2311
3 3199 3198 2312
3 2325 3199 2312
3 2307 3199 2310
3 2731 3878 543
3 3428 3432 3430
3 3427 3201 3426
3 3422 3881 3882
3 3448 3439 3442
3 3438 525 3433
3 3434 2747 3204
3 3434 3433 525
3 2747 3445 3204
3 2751 3425 3446
3 3436 3946 3945
3 3944 3938 3942
3 3996 3206 2761
3 2739 3206 2762
3 3226 232 3227
3 3207 420 3209
3 3217 3224 3215
3 3211 2787 3207
3 3230 3229 3209
3 3213 3211 3209
3 2331 3219 27
3 2778 2780 3218
3 3209 3211 3207
3 3211 3210 3212
3 3212 2792 2787
3 3212 3210 3214
3 3223 3220 3215
3 3210 3211 3213
3 3220 3217 3215
3 3216 2779 2778
3 3217 3210 3213
3 3224 3217 3225
3 3220 3210 3217
3 3223 3219 3222
3 3213 3208 3217
3 3227 3225 3226
3 2781 3212 3218
3 3214 3218 3212
3 2331 2323 3222
3 6007 3215 6002
3 3216 3214 3220
3 3210 3220 3214
3 5991 232 4047
3 6004 3221 5986
3 3223 3222 3216
3 2331 3222 3219
3 3220 3223 3216
3 3215 3219 3223
3 3225 3217 3208
3 6002 3221 6001
3 3225 3208 3226
3 3221 3224 3225
3 420 3230 3209
3 3208 3229 3226
3 232 5991 5986
3 3225 3227 3221
3 3228 3230 3234
3 3486 3236 155
3 3209 3229 3208
3 3228 3231 3233
3 3234 3230 3235
3 3228 3229 3230
3 3238 3228 3234
3 4050 4047 3231
3 3232 3234 3235
3 3232 3235 3239
3 3228 3233 3229
3 232 3233 3231
3 3235 3230 420
3 3232 3467 3236
3 2794 3244 420
3 3241 3240 2794
3 3480 3486 155
3 3238 4049 3228
3 3488 3237 3243
3 3467 3471 3469
3 3234 3236 3238
3 3485 4051 3236
3 3239 3235 3244
3 3471 3237 3470
3 3243 3240 3242
3 3244 3243 3237
3 3241 2794 2801
3 2793 2365 3241
3 2362 3242 2365
3 3243 3242 2361
3 3488 3243 2361
3 3244 3237 3239
3 420 3244 3235
3 2794 3240 3244
3 2805 3245 2346
3 3489 3245 2343
3 4078 4073 4075
3 3491 3494 3246
3 3247 482 3492
3 3496 3247 2809
3 3490 2807 3489
3 3494 3490 3246
3 3249 4063 4061
3 4070 4069 75
3 3498 1669 3250
3 3500 3501 3503
3 3252 3253 3251
3 3251 3261 3586
3 2823 3252 2824
3 3252 3251 3254
3 3255 2823 3257
3 3253 2823 3255
3 3591 3251 3586
3 2379 2380 3254
3 3260 3255 3257
3 3262 3580 3581
3 3545 3534 3576
3 3581 3585 3259
3 2823 2825 3257
3 3506 3257 2825
3 3505 3509 2821
3 3579 3580 3583
3 3262 3253 3255
3 4144 3584 3585
3 3510 2821 3509
3 3260 3258 3582
3 3262 3261 3253
3 3586 3261 3259
3 3582 3255 3260
3 3580 3579 3256
3 3254 3591 3590
3 5335 5341 5342
3 2847 3600 3599
3 418 3525 3532
3 3265 3276 3274
3 3268 3270 3266
3 2694 3266 2883
3 3266 3265 3268
3 2875 3267 2872
3 3273 3267 2198
3 3274 3268 3265
3 3279 593 5389
3 3173 3269 3164
3 4150 3274 3276
3 2885 3270 2881
3 3266 3270 2882
3 3397 4149 3168
3 92 3401 3404
3 3270 3275 2881
3 3274 3277 3275
3 2198 3269 3273
3 3265 3273 3269
3 3276 3265 3269
3 3277 3274 3271
3 3274 3275 3268
3 5390 3272 5389
3 3168 4151 3269
3 4151 4149 3603
3 3277 3271 3278
3 3275 3277 3272
3 3284 3604 3282
3 5375 5374 5372
3 593 5395 5389
3 3277 3279 3272
3 4549 5791 3280
3 7240 7241 7244
3 3279 3286 593
3 7243 3283 3285
3 3604 3605 4152
3 7242 3281 7243
3 3278 3284 3285
3 4153 4779 5371
3 3271 4150 3604
3 3285 3284 3282
3 7245 3282 4152
3 3285 3283 3286
3 3285 3286 3278
3 6081 3286 3283
3 3287 3607 4154
3 4156 3287 4154
3 2895 4164 2902
3 3289 2861 371
3 2900 2902 4162
3 4176 3611 4175
3 2880 3290 2901
3 2899 3290 2877
3 2411 2412 3291
3 3291 2412 2413
3 2123 3614 2905
3 3292 3614 3615
3 7727 7728 6091
3 6087 4819 6088
3 3651 2941 3649
3 3660 3640 3294
3 2492 3295 2478
3 2961 3295 2944
3 3639 2929 2942
3 3688 3643 3676
3 3296 3642 2946
3 3641 3642 3297
3 2478 3298 2496
3 3683 3298 3297
3 2956 3325 3731
3 3303 3301 3304
3 219 3300 2960
3 3300 3299 3305
3 3305 3304 3300
3 2963 2968 3301
3 3309 3305 3647
3 3307 3306 3310
3 3308 3303 3302
3 3308 3307 3303
3 3300 3304 2958
3 3303 3304 3302
3 3305 3299 3647
3 3304 3305 3302
3 3309 3308 3302
3 4211 4210 4214
3 3306 4214 3310
3 3317 2972 2963
3 3305 3309 3302
3 3307 3308 3306
3 4210 4211 4212
3 3308 3309 4211
3 3312 3310 256
3 3312 3313 3310
3 3651 3656 3650
3 3313 3312 3318
3 3312 256 3652
3 3311 3318 3312
3 3649 3314 3318
3 2969 2972 3317
3 3637 3314 2941
3 3316 3315 3314
3 2969 3315 2970
3 3316 3314 2942
3 2940 3316 2942
3 2935 3315 3316
3 3307 3313 3317
3 2969 3317 3313
3 3649 3318 3311
3 3315 3318 3314
3 4255 3748 2983
3 4198 3319 4197
3 4255 3320 131
3 2985 3320 2983
3 3709 4246 3707
3 3705 2990 3702
3 3719 3322 633
3 3322 2992 2997
3 3711 3717 633
3 3730 3724 3734
3 3325 3324 3729
3 2998 2993 4254
3 2952 3325 2956
3 3324 3728 3729
3 3718 3326 2992
3 3747 4254 3324
3 2967 2971 3327
3 3747 3327 2971
3 3620 3003 3621
3 3626 4815 3633
3 3749 3329 2437
3 3331 3330 3329
3 3002 3330 3005
3 3329 3011 3331
3 3331 3011 3332
3 2996 3330 3331
3 3010 3332 3009
3 3011 3749 3333
3 2909 2911 3619
3 3332 3333 3621
3 3750 3334 2052
3 3334 3028 3756
3 4820 4819 2052
3 3751 2504 3028
3 3759 3758 606
3 2524 3337 2518
3 3759 3764 3758
3 3759 3337 3764
3 2544 3338 2540
3 2546 3338 2545
3 3762 3760 606
3 3040 3042 3823
3 2547 2550 3340
3 2548 3340 2550
3 4454 4457 3827
3 4454 4455 3341
3 3342 430 4511
3 3343 3342 2575
3 3344 3343 2578
3 3342 3343 3072
3 2584 3344 2578
3 4472 4463 4466
3 4463 4467 4466
3 4469 4468 4461
3 3347 3344 2585
3 3345 4462 3346
3 3345 3346 3347
3 3347 3346 3344
3 4468 4462 4461
3 4482 3830 4511
3 4468 3348 4462
3 4490 3349 4481
3 3624 3617 3627
3 4186 4189 4185
3 2574 3351 2585
3 4523 3351 3074
3 3083 3833 3352
3 3844 2586 3088
3 3083 3353 3085
3 3832 3353 3352
3 2567 3354 2565
3 3355 3354 2554
3 3119 3355 2554
3 3355 3118 3356
3 3357 3356 3118
3 3099 3356 286
3 3358 3357 3118
3 3357 2655 3081
3 3120 3358 3118
3 2655 3358 2113
3 3847 3846 3359
3 3365 3366 3846
3 3847 3100 3103
3 3360 3359 3845
3 3361 5170 5169
3 3364 3371 3365
3 2639 3362 3103
3 3362 3361 3364
3 5170 3363 619
3 3361 3362 3363
3 4540 5176 5168
3 3364 3361 3369
3 3365 3101 3366
3 3102 3364 3365
3 3837 3838 3835
3 3837 3836 3834
3 3853 3367 5177
3 3852 3853 3851
3 4540 5168 5169
3 3849 3368 5168
3 5169 3369 3361
3 3371 3368 3370
3 3849 3370 3368
3 3101 3841 3838
3 3369 3371 3364
3 3839 3371 3370
3 2126 3372 2607
3 3076 3372 3077
3 3859 2150 2152
3 7466 3373 2657
3 3377 3376 3374
3 1792 3121 3374
3 3863 3375 3864
3 3390 3380 3392
3 3379 3380 3378
3 3381 3376 3379
3 3862 3377 365
3 3376 3377 3864
3 582 3384 2165
3 3383 582 1506
3 3380 3379 3375
3 3381 3379 3378
3 3380 3375 3392
3 3380 1793 3387
3 3382 3384 3383
3 2162 2164 3389
3 3385 3383 1497
3 1497 1503 3385
3 1497 3383 1506
3 3382 3860 3384
3 3384 3378 3387
3 582 3383 3384
3 1503 1264 3385
3 3388 3385 1264
3 3863 3864 3862
3 3861 4548 3863
3 1793 2165 3387
3 3384 3387 2165
3 3389 3388 2162
3 3388 3381 3860
3 3376 3389 1792
3 3388 3389 3381
3 3391 3390 3386
3 3125 3390 3124
3 5182 3391 3386
3 3391 4 9865
3 3863 3392 3375
3 3390 3392 3386
3 3148 3151 3395
3 7962 7966 7960
3 3873 3394 3395
3 3873 8690 7965
3 3873 3395 2686
3 3867 3395 3394
3 1815 3396 1320
3 2690 3396 1816
3 3400 3398 3401
3 3172 3175 3399
3 4551 3406 3152
3 3404 3401 3406
3 3175 3154 3402
3 3399 3398 3400
3 3165 3400 2695
3 3407 3400 3163
3 3400 3401 3397
3 3398 3402 3406
3 3398 3399 3402
3 3402 3399 3175
3 3871 3152 3866
3 3404 3403 3405
3 3406 3401 3398
3 3874 4549 3403
3 3280 7245 4152
3 92 3404 3405
3 3152 3406 3402
3 3404 3406 3403
3 3169 3407 3163
3 3407 3166 3172
3 2332 6898 9631
3 3914 3413 3412
3 3415 2329 2324
3 3411 3409 3408
3 3408 3409 3410
3 3415 3410 3409
3 3411 3408 3414
3 3194 3411 3193
3 9630 9629 3412
3 3915 320 3917
3 3193 3411 3413
3 3413 3411 3414
3 3414 3408 9630
3 3413 3414 3412
3 2329 3415 3409
3 2324 3410 3415
3 3898 3891 3893
3 3417 3418 3419
3 2726 3417 2729
3 3418 3417 3416
3 3418 3416 3900
3 3418 132 3419
3 3420 3889 3888
3 2724 3419 3421
3 3882 3881 3197
3 3421 2728 2730
3 3419 3420 3421
3 3880 3421 3420
3 3427 3200 3430
3 3878 3431 543
3 3424 2307 2309
3 3427 3423 3200
3 3431 3424 543
3 3423 3424 3200
3 2751 3201 3425
3 3201 3427 3432
3 3427 3426 2735
3 2754 3426 3201
3 3423 3427 2735
3 3431 3428 3430
3 3883 3462 3884
3 3201 3432 3425
3 3452 3462 3451
3 3450 180 3452
3 3431 3430 3200
3 3432 3428 3429
3 3431 3200 3424
3 3431 3422 3882
3 3430 3432 3427
3 3425 3432 3429
3 3437 3433 3202
3 3438 3437 3440
3 2747 3434 3203
3 3204 3433 3434
3 3442 3443 3437
3 3933 3934 3444
3 3435 3930 3440
3 3930 3946 3440
3 3442 3437 3202
3 3440 3437 3435
3 3437 3438 3433
3 14894 3436 3945
3 3450 3446 180
3 3443 3435 3437
3 3928 3929 3930
3 3438 3440 3436
3 3441 3929 3937
3 3937 3939 3441
3 3449 3202 3453
3 3442 3439 3443
3 3443 3463 3444
3 3463 3443 3439
3 4625 4044 4706
3 3931 4628 4627
3 3445 2747 2748
3 3446 3445 2751
3 3450 3449 3446
3 3433 3453 3202
3 3428 3884 3429
3 3448 3458 3439
3 3202 3448 3442
3 3447 3459 3458
3 3447 3448 3449
3 3202 3449 3448
3 3451 3454 3452
3 3447 3449 3450
3 453 3890 3894
3 3452 3454 3450
3 180 3461 3452
3 3452 3461 3462
3 3204 3446 3453
3 3449 3453 3446
3 3454 3451 4624
3 3447 3454 3459
3 3454 4624 3457
3 4033 4031 4034
3 3456 3459 3457
3 4030 3456 3457
3 3886 4021 3451
3 4025 4030 3457
3 3447 3458 3448
3 3460 3458 3456
3 3457 3459 3454
3 3458 3459 3456
3 4031 3456 4030
3 4045 3463 528
3 3425 3461 180
3 3462 3461 3429
3 3882 3883 3884
3 3451 3462 3886
3 3458 3463 3439
3 528 3463 3460
3 3465 3464 2758
3 3960 3961 3952
3 3203 3465 2758
3 14894 14893 525
3 5952 5960 5937
3 5957 5975 5984
3 3237 3471 3239
3 3473 3468 3474
3 3473 4052 3468
3 3473 3474 3469
3 3232 3239 3471
3 4066 3474 4730
3 3488 3470 3237
3 3470 3488 4053
3 3471 3470 3473
3 3467 3232 3471
3 5296 5291 5297
3 3475 3476 3474
3 3471 3473 3469
3 4052 3473 3470
3 4066 4730 4062
3 3474 3472 3475
3 3481 3475 3472
3 3480 155 3475
3 155 3469 3476
3 3474 3476 3469
3 3481 4722 3479
3 3477 3484 5281
3 5297 5291 5293
3 5966 3466 5972
3 4718 4726 3472
3 3480 3482 3478
3 3475 3481 3483
3 3480 3478 3487
3 4722 3481 3472
3 3479 3482 3483
3 3479 3484 3482
3 3482 3484 5295
3 3475 3483 3480
3 3479 3483 3481
3 5281 3484 3479
3 5296 3477 5290
3 5972 5988 5990
3 4049 3236 4051
3 3487 3486 3480
3 3236 3486 3485
3 5979 3487 3478
3 3486 3487 3485
3 2363 3488 2361
3 532 4052 4053
3 4078 4075 4079
3 3490 3489 3246
3 4072 3491 3246
3 3490 3248 3492
3 4711 4709 4707
3 2350 3495 3493
3 3490 3492 2807
3 3247 3492 3248
3 3494 3248 3490
3 3493 3494 4711
3 4711 3494 3491
3 3248 3494 3493
3 2350 4059 4063
3 3495 3249 3496
3 4071 3249 4070
3 3497 3496 4071
3 3497 1620 1624
3 1935 3496 3497
3 2820 3498 2816
3 1669 3498 1435
3 3570 3499 1668
3 3503 3499 304
3 3513 3508 3558
3 3505 3506 3504
3 3503 3501 3250
3 3504 3501 3500
3 2819 3502 2814
3 2816 3501 3502
3 3499 3503 3250
3 3503 304 3561
3 3505 3504 3500
3 2814 3504 2825
3 3561 3559 3500
3 2821 3257 3506
3 3504 3506 2825
3 2821 3506 3505
3 3260 2821 3510
3 3513 3558 3557
3 3559 3509 3505
3 3511 3510 3508
3 3559 3505 3500
3 3509 3508 3510
3 3511 3508 3513
3 3258 3510 3512
3 3511 3513 3518
3 3258 3512 47
3 3510 3511 3512
3 3511 3518 3517
3 3558 3508 3559
3 3518 3513 3507
3 1952 4137 1668
3 3537 3557 3560
3 3515 4088 4087
3 3545 47 3517
3 3525 3521 3522
3 3512 3517 47
3 3520 3519 3516
3 3517 3516 3519
3 3522 3518 3507
3 3517 3518 3516
3 3526 3519 3515
3 3546 3519 3526
3 3516 3522 4088
3 3515 3519 3520
3 3516 3518 3522
3 14889 14890 3601
3 3556 3536 3525
3 3522 3521 4088
3 3523 3526 3543
3 3544 3523 3543
3 3560 3524 3537
3 3541 3540 3599
3 3507 3537 3556
3 3532 3525 3536
3 3515 3533 3543
3 3546 3526 3547
3 3578 3577 3538
3 3555 2393 107
3 3527 3538 3577
3 1956 4080 1957
3 3600 3602 3264
3 3521 3525 3529
3 2856 4110 2857
3 3533 4093 3543
3 14889 3529 418
3 3533 3515 4089
3 3538 3532 3524
3 14890 3539 3264
3 3515 4087 4089
3 4091 3533 4089
3 3547 3534 3546
3 3534 3547 3549
3 2839 3535 2840
3 3554 3535 3527
3 3525 3522 3556
3 3524 3532 3536
3 3557 3537 3507
3 3524 3536 3537
3 3578 3524 3560
3 3540 3542 3563
3 418 3532 3539
3 3542 3532 3538
3 3540 3541 3542
3 3563 3538 3527
3 3542 3541 3539
3 3599 3540 2850
3 3532 3542 3539
3 3542 3538 3563
3 3515 3543 3526
3 3543 4093 3544
3 3552 4099 3551
3 3548 489 3549
3 3519 3545 3517
3 3576 3573 3575
3 3547 3526 3523
3 3545 3546 3534
3 3548 3547 3523
3 3547 3548 3549
3 3544 3550 3523
3 3550 3548 3523
3 489 4136 3574
3 3534 3549 3573
3 3550 3544 3552
3 3550 3552 3553
3 3552 3544 4095
3 3568 4738 3567
3 4095 3544 289
3 3548 3553 489
3 3551 3566 3552
3 3553 3552 3566
3 3527 3577 4083
3 3555 3554 3528
3 3555 3528 4080
3 107 3535 3555
3 3507 3556 3522
3 3536 3556 3537
3 3513 3557 3507
3 3557 3514 3560
3 3508 3509 3559
3 3514 3557 3558
3 3500 3503 3561
3 3514 3558 3559
3 3562 3514 3561
3 3562 3560 3514
3 3561 304 3562
3 3514 3559 3561
3 304 3499 3570
3 4083 3554 3527
3 3527 3535 3563
3 3571 3535 2839
3 4131 4121 4129
3 5329 5351 5352
3 3573 3574 3565
3 4143 4142 4140
3 3551 3568 3566
3 3567 4123 3568
3 4111 4738 3551
3 4136 4121 4131
3 4738 3568 3551
3 4123 4122 3566
3 3569 4085 4084
3 4086 4084 3570
3 1952 4138 4137
3 4084 4086 4083
3 3540 3563 3571
3 3535 3571 3563
3 489 3553 4122
3 3572 4135 4140
3 3574 3573 3549
3 3575 3573 3565
3 489 3574 3549
3 3574 3572 4140
3 3579 3575 3565
3 3576 47 3545
3 3573 3576 3534
3 47 3576 3575
3 3578 3538 3524
3 4083 3577 3569
3 4085 3560 3562
3 3577 3578 3569
3 4142 3579 3565
3 3581 3580 3256
3 3262 3582 3580
3 3583 3258 47
3 4144 3256 4146
3 3262 3581 3259
3 3582 3262 3255
3 3583 3582 3258
3 3579 3583 3575
3 3583 3580 3582
3 4147 3592 3593
3 3585 3586 3259
3 3256 3585 3581
3 3585 3584 3586
3 3589 3586 3584
3 3590 2379 3254
3 5348 14927 5347
3 287 5335 5342
3 3588 3591 3589
3 3587 5344 4147
3 4145 14927 3584
3 3588 3589 3587
3 3591 3254 3251
3 3593 3590 3588
3 3589 3591 3586
3 3590 3591 3588
3 3593 3592 2379
3 3594 3592 3263
3 3590 3593 2379
3 3588 3587 4147
3 3598 3597 3594
3 3596 3594 105
3 5349 5345 3595
3 4767 4772 4769
3 2831 3596 105
3 3592 3596 2830
3 3598 3594 3263
3 5349 4765 3597
3 3598 3263 5340
3 3597 3598 5349
3 2847 2853 3600
3 3541 3599 3264
3 3601 3602 4109
3 3264 3599 3600
3 3601 14891 14889
3 3531 3529 14889
3 2855 2857 4116
3 3602 3601 14890
3 3605 92 3405
3 3603 3604 4150
3 3271 3604 3284
3 3605 3604 3603
3 3605 3603 4149
3 4549 4152 3405
3 5374 5378 3606
3 5395 6081 4781
3 2893 3607 2891
3 4154 3607 592
3 5402 592 5399
3 5405 5418 5417
3 3609 4168 4166
3 2898 4161 2895
3 2845 3610 371
3 2904 3610 2842
3 4162 4174 4790
3 4168 4792 4166
3 2905 3612 1772
3 2413 3612 3291
3 3614 3613 2905
3 2911 3613 3292
3 2123 2599 3616
3 3613 3614 3292
3 3617 3623 3622
3 3003 3332 3621
3 2123 3616 3614
3 566 3616 2599
3 3625 4183 4178
3 3626 3328 3624
3 3292 3615 3618
3 3618 3615 3620
3 3292 3618 3619
3 3333 3619 3618
3 3622 3620 3615
3 3620 3622 3623
3 3333 3618 3621
3 3620 3621 3618
3 3615 566 3622
3 3629 3622 566
3 3617 3624 3623
3 4200 4257 3328
3 3626 3624 3627
3 4257 3624 3328
3 3625 3626 3627
3 4205 4177 217
3 3630 4177 3628
3 3626 3625 3630
3 3629 3617 3622
3 3627 3617 3629
3 217 4492 5140
3 3626 3633 3328
3 2598 3635 3634
3 566 3634 3629
3 4177 3630 3625
3 3628 4201 4815
3 4202 3628 4205
3 4197 3319 2983
3 4178 4185 3350
3 4183 4185 4178
3 4815 3626 3630
3 4200 3631 4197
3 3634 566 2599
3 3632 3629 3634
3 4193 3635 2119
3 3634 3635 3632
3 6091 3293 7727
3 3636 3293 4816
3 3314 3637 2942
3 3637 2941 3661
3 3665 3670 3671
3 3655 3660 3294
3 3639 2942 3637
3 3296 2929 3639
3 3643 3640 144
3 3639 3640 3296
3 3295 3641 2478
3 3642 3641 2946
3 3643 3296 3640
3 3642 3296 3643
3 3643 144 3646
3 3676 3643 3646
3 3659 3645 3646
3 4828 4826 4827
3 3660 144 3640
3 3678 3675 3673
3 144 3660 3659
3 3679 3645 3675
3 3735 3723 3725
3 463 3309 3647
3 4854 463 4855
3 662 4836 5483
3 3651 3649 3656
3 2941 3314 3649
3 3311 3312 3652
3 3653 3654 3638
3 3656 3649 3311
3 3653 3651 3650
3 4213 256 4214
3 3663 3657 3662
3 3654 3653 3650
3 3653 3638 3655
3 3663 3662 3654
3 3667 3668 3672
3 3655 3638 3664
3 3294 3637 3661
3 3311 3652 3656
3 3650 3656 3652
3 256 4213 4219
3 4221 4223 4834
3 3666 3670 3665
3 3658 3666 3659
3 144 3659 3646
3 3668 3666 3658
3 3664 3660 3655
3 3659 3660 3658
3 3651 3661 2941
3 3653 3655 3661
3 3663 3654 3650
3 4238 4236 387
3 3650 3652 3663
3 4217 3652 4216
3 3638 3672 3668
3 3660 3664 3658
3 4224 3665 3671
3 3645 3659 3677
3 3658 3664 3668
3 3666 3665 3669
3 3672 3638 3654
3 312 4224 3671
3 3638 3668 3664
3 3668 3667 3670
3 4226 4825 4228
3 3669 4229 3673
3 3668 3670 3666
3 3670 3667 3671
3 4231 3667 3672
3 4231 4233 3667
3 3654 387 3672
3 387 4232 4231
3 3675 3678 3674
3 3677 3673 3645
3 2488 3682 2474
3 3680 3683 3676
3 3678 3673 3644
3 3679 3680 3676
3 3675 3674 3680
3 3688 3642 3643
3 3666 3677 3659
3 3673 3677 3669
3 4229 3644 3673
3 3692 3691 3686
3 3680 3679 3675
3 3646 3679 3676
3 3680 3674 3684
3 3297 3642 3688
3 3681 3684 3686
3 6932 6929 6930
3 2488 3685 3682
3 3687 3682 450
3 3680 3684 3687
3 3298 3683 450
3 3686 3684 3674
3 3684 3681 3687
3 2479 3685 2488
3 450 3682 3685
3 3692 3674 3678
3 6930 6929 3681
3 3682 3687 3681
3 450 3683 3687
3 3676 3683 3688
3 3297 3688 3683
3 8611 8614 6160
3 3686 3691 174
3 3644 4828 4827
3 4830 3689 4831
3 3692 3686 3674
3 4832 3691 3690
3 4827 3692 3678
3 3691 3692 3690
3 3694 3693 602
3 2989 3693 2988
3 3697 3694 602
3 3697 3696 3694
3 4198 4204 3319
3 3699 3715 3698
3 3695 3698 3696
3 3700 2990 2991
3 4199 4195 4203
3 3696 3697 3695
3 3699 3698 3695
3 3698 3321 3703
3 3695 3697 4196
3 3712 3706 3709
3 3703 3696 3698
3 3704 3702 3703
3 3701 3702 3704
3 3717 3716 3708
3 3703 3702 3700
3 3705 3702 3701
3 3703 3700 3696
3 3703 3321 3704
3 3709 3704 3321
3 3709 3707 3710
3 4247 3713 3716
3 3705 633 3322
3 3715 3709 3321
3 4803 4810 118
3 3741 3744 3745
3 3701 3704 3710
3 3725 3647 3299
3 3705 3711 633
3 3709 3715 3712
3 3709 3706 4246
3 3709 3710 3704
3 3707 3713 4247
3 3701 3710 4247
3 3716 3717 3711
3 3699 118 3712
3 4813 4810 4811
3 4248 3707 4246
3 3744 255 3746
3 3722 3724 3736
3 3721 3718 3720
3 3698 3715 3321
3 3699 3712 3715
3 4247 3716 3711
3 3716 3713 3745
3 3708 3737 3738
3 633 3717 3714
3 3718 3719 3720
3 3728 3718 3323
3 3322 3719 2992
3 3720 3719 633
3 633 3714 3720
3 3720 3714 3721
3 3733 3738 3737
3 3722 3734 3724
3 3724 3721 3740
3 4212 4854 4856
3 4864 5541 5534
3 463 4845 4844
3 3721 3714 3733
3 3734 3735 3726
3 3727 3725 3299
3 3725 3723 4845
3 3300 3727 3299
3 3730 3726 3731
3 219 3727 3300
3 3727 3726 3735
3 3728 3323 3729
3 3326 3728 3324
3 3730 3729 3323
3 2956 3731 219
3 3724 3730 3323
3 3726 3727 3731
3 3325 3729 3731
3 3730 3731 3729
3 3737 3732 3733
3 3737 3743 3732
3 3714 3717 3738
3 3733 3732 3736
3 5533 3735 3722
3 3730 3734 3726
3 3735 3725 3727
3 3722 3735 3734
3 3736 3724 3740
3 4847 4846 5533
3 3708 3739 3737
3 3746 3743 3739
3 3714 3738 3733
3 3708 3738 3717
3 3708 3716 3745
3 3744 3746 3739
3 3721 3733 3740
3 3736 3740 3733
3 3707 4248 3713
3 4250 4249 3741
3 4864 3742 3746
3 4851 4858 4852
3 3739 3743 3737
3 4850 3743 3742
3 3745 3744 3739
3 4859 3744 3741
3 3745 3739 3708
3 3745 3713 4250
3 4864 3746 255
3 3743 3746 3742
3 2971 2998 4254
3 3325 3747 3324
3 3748 4255 4256
3 3631 4200 3633
3 3329 3749 3011
3 2909 3749 2437
3 4819 3750 2052
3 3750 3335 3751
3 9216 9209 9214
3 7732 9200 9204
3 2504 3751 3754
3 9213 3335 6087
3 3751 9212 3754
3 3758 3769 606
3 3335 9213 9212
3 3767 3754 3753
3 2073 3334 3756
3 3757 3755 3336
3 2504 3756 3028
3 3336 3755 3756
3 3757 3336 3764
3 2520 2522 4258
3 3765 3758 3764
3 3758 3765 3769
3 606 3760 3759
3 3337 3763 2518
3 606 3771 3762
3 3825 3760 3339
3 4869 4867 4261
3 3773 3762 3772
3 606 3776 3771
3 3762 3761 3772
3 3825 3759 3760
3 3339 3823 3824
3 3757 3764 3337
3 3765 3764 3336
3 3756 3765 3336
3 3767 3769 2504
3 3753 4259 3767
3 3768 3777 3767
3 3753 9227 4259
3 3767 3766 3769
3 4265 3752 9223
3 3778 3762 3771
3 2504 3769 3765
3 3769 3766 3776
3 3761 4867 4869
3 3770 3775 3774
3 3777 3771 3776
3 4867 4868 4261
3 4869 3772 3761
3 3773 3772 3770
3 3774 3773 3770
3 3773 3339 3760
3 4869 4870 3770
3 3774 3040 3823
3 3786 3784 3780
3 3774 3775 3783
3 3769 3776 606
3 3777 3776 3766
3 3767 3777 3766
3 4262 3777 3768
3 3771 3777 4262
3 3778 4263 3761
3 4262 4267 4263
3 4265 4260 4264
3 4444 4445 4447
3 508 3781 3785
3 3052 3054 3781
3 3782 3054 3040
3 3040 3783 3782
3 3784 3786 3783
3 3774 3783 3040
3 3783 3775 3784
3 3775 170 3784
3 3780 4446 4445
3 3780 3790 3785
3 3788 3791 3795
3 3780 3781 3786
3 3782 3786 3781
3 4448 4415 4425
3 3788 3801 3798
3 3791 3789 508
3 3785 3792 3791
3 508 3789 3053
3 3793 3797 3798
3 4445 3790 3780
3 3792 3790 3787
3 3785 3790 3792
3 3788 3789 3791
3 603 5092 4444
3 3792 3787 3810
3 9275 7974 7984
3 3793 7997 3794
3 3049 3789 3794
3 3794 3789 3797
3 3791 3792 3795
3 3810 3796 3811
3 3818 3809 3806
3 3800 3798 3801
3 3798 3797 3788
3 3794 3797 3793
3 3801 3788 3817
3 3793 3798 507
3 3802 3804 3808
3 507 3798 3800
3 3799 3812 3808
3 3800 3799 3804
3 3817 3788 3795
3 3800 3801 3799
3 3802 3808 3814
3 5110 5124 4451
3 4453 5103 4452
3 5123 3803 4452
3 3811 3812 3799
3 3807 3804 3802
3 3804 3805 3800
3 3805 3803 8707
3 4441 3819 3821
3 3809 3814 3808
3 5125 5110 5109
3 3805 3807 3803
3 3799 3808 3804
3 3809 3808 3806
3 3819 3818 3806
3 3809 52 3814
3 3787 4444 5092
3 3796 3812 3811
3 3799 3801 3817
3 3792 3810 3811
3 3819 3812 3796
3 3812 3806 3808
3 4442 4443 4419
3 52 3809 3822
3 5101 3816 5095
3 3802 4453 4452
3 5100 3815 5098
3 3807 4452 3803
3 5095 5094 5101
3 3815 5102 3816
3 3792 3817 3795
3 3799 3817 3811
3 3806 3812 3819
3 3813 3820 3822
3 3821 3819 3796
3 3818 3819 4441
3 3820 3813 4439
3 4959 3820 4439
3 5092 3796 3810
3 603 4438 4441
3 3813 3822 3818
3 52 3822 3820
3 3824 3823 3042
3 3774 3823 3339
3 2518 3824 3042
3 3763 3759 3825
3 3339 3824 3825
3 3763 3825 3824
3 3067 3826 3063
3 4457 3826 3065
3 3065 3066 4458
3 3034 5136 5135
3 3342 3828 430
3 3346 3828 3072
3 3829 4461 4466
3 4473 4470 130
3 4468 4471 5137
3 4514 4513 3830
3 3073 4511 4513
3 4189 4190 4185
3 3089 3832 3087
3 3353 3832 3090
3 3834 3833 3083
3 4535 3833 358
3 3834 3083 3845
3 3834 3366 3837
3 3366 3838 3837
3 3835 3838 3842
3 3834 3836 3833
3 5154 3836 3835
3 3838 3366 3101
3 3836 3837 3835
3 3371 3839 3841
3 3841 3839 3858
3 3852 3370 3849
3 3858 3840 3842
3 4531 5151 5161
3 4533 4525 5152
3 3371 3841 3101
3 3842 3838 3858
3 3858 3838 3841
3 5151 3842 3840
3 4535 3843 4534
3 4538 4536 3843
3 3087 3844 3088
3 4536 3844 3843
3 3360 3845 3092
3 3834 3845 3359
3 3359 3360 3847
3 3365 3846 3102
3 3100 3847 3360
3 3102 3847 3103
3 6597 3848 5171
3 5744 5752 5754
3 5180 5179 5177
3 3849 3853 3852
3 5695 4544 4545
3 5681 5159 5680
3 4543 3851 4542
3 3852 3854 3370
3 3853 3849 3367
3 3852 3851 3854
3 5175 5172 5765
3 4542 3853 5179
3 3857 3854 3851
3 202 5679 3858
3 4543 3855 3857
3 14985 5166 5164
3 3839 3854 3856
3 3856 3854 3857
3 4543 3857 3851
3 3856 3857 3855
3 3839 3856 3858
3 202 3858 3856
3 1791 3859 2152
3 2657 3859 2658
3 3384 3860 3378
3 3388 3860 3382
3 8139 3121 7466
3 5182 4 3391
3 8143 8141 7468
3 3862 3861 3863
3 3861 8968 4548
3 3392 3863 3386
3 3376 3864 3375
3 3862 3864 3377
3 3155 3867 3154
3 3868 3865 3393
3 3402 3866 3152
3 3867 3866 3154
3 3395 3867 3148
3 3869 3867 3394
3 9792 8705 3868
3 3868 642 3872
3 9793 3869 3394
3 3865 3869 3393
3 5791 14913 14925
3 4549 3280 4152
3 3872 3871 3868
3 4551 3871 3870
3 14914 3872 642
3 3871 3872 3870
3 2686 50 3873
3 7964 8689 8688
3 3403 4550 3874
3 14922 5183 14925
3 3875 3192 3902
3 3876 3875 3416
3 3417 3876 3416
3 2726 3191 3876
3 3896 3891 3897
3 3887 3890 453
3 3879 3878 2731
3 3431 3878 3422
3 3880 2728 3421
3 3881 3420 3197
3 3420 3879 3880
3 2728 3880 3879
3 3422 3879 3881
3 3420 3881 3879
3 3882 3197 3883
3 3882 3428 3431
3 3885 3883 3197
3 3883 3885 3887
3 3429 3884 3462
3 3882 3884 3428
3 3888 3197 3420
3 3885 3877 3890
3 3886 453 4021
3 3462 3883 3886
3 453 3886 3887
3 3883 3887 3886
3 3889 3420 132
3 3877 3885 3888
3 3899 3889 132
3 3877 3888 3889
3 3893 3890 3877
3 3894 3893 3896
3 3898 3893 4553
3 3901 132 3418
3 3897 3892 3896
3 4019 4021 4020
3 3889 3899 3877
3 3896 3893 3891
3 3893 3894 3890
3 3894 3892 4020
3 3895 3899 3901
3 3902 3909 3900
3 3891 3903 3897
3 3894 3896 3892
3 3897 3903 3919
3 4022 3897 3919
3 4553 3893 3877
3 3898 3895 3906
3 3901 3418 3900
3 3895 3898 4553
3 3902 3416 3875
3 3416 3902 3900
3 132 3901 3899
3 4554 3901 3900
3 3909 3913 3911
3 3891 3905 3903
3 3898 3906 3905
3 4554 3906 3895
3 3904 3906 3907
3 3911 3921 3907
3 3898 3905 3891
3 9565 3904 3921
3 3906 4554 3907
3 3905 3906 3904
3 4554 3909 3907
3 3907 3909 3911
3 8308 8314 9063
3 4027 3455 4025
3 3913 3902 3192
3 3914 3913 3192
3 3917 3910 3916
3 3921 3904 3907
3 3909 3902 3913
3 3922 3921 3911
3 9576 9574 9572
3 4027 4025 4023
3 3192 3413 3914
3 3911 3913 3916
3 3915 3914 3412
3 3911 3916 3910
3 9629 9628 9634
3 3917 3916 3915
3 3913 3914 3916
3 3915 3916 3914
3 9992 10203 9991
3 3927 3926 3923
3 4555 3925 3922
3 9559 9568 9558
3 9557 3919 310
3 4022 3919 3912
3 9625 9601 9609
3 3918 3922 3925
3 3922 3911 3910
3 3921 3918 9565
3 3927 4555 3917
3 3918 3921 3922
3 9633 10510 9991
3 9617 9622 9616
3 9570 9611 9608
3 9558 9569 9571
3 4555 3922 3910
3 9561 3925 9614
3 9620 3923 9621
3 3923 9616 3927
3 3924 3925 4555
3 3917 3926 3927
3 3934 3435 3443
3 3444 4625 3933
3 4660 4659 4644
3 3930 3929 3441
3 3930 3441 3946
3 3435 3928 3930
3 12 3928 3932
3 3932 3928 3935
3 3934 3928 3435
3 4635 4632 4636
3 528 4033 4043
3 3935 4706 3932
3 3444 3934 3443
3 3934 3933 3935
3 3934 3935 3928
3 3935 3933 4706
3 4634 12 3932
3 3942 3941 464
3 12 3937 3929
3 3939 3937 3940
3 3948 3942 464
3 14892 3944 3949
3 3940 3937 3936
3 3939 3938 3945
3 3941 3940 3936
3 3942 3940 3941
3 3954 3941 3936
3 3941 3963 3962
3 3948 3944 3942
3 3938 3940 3942
3 3958 3957 3959
3 2753 3967 3966
3 3943 3949 3944
3 14893 14894 14892
3 14895 3938 3944
3 14894 3438 3436
3 3440 3946 3436
3 3939 3946 3441
3 4651 4652 4643
3 4576 5220 318
3 3965 3958 464
3 3943 3944 3948
3 3949 3943 3952
3 14892 3949 3205
3 3959 3943 3958
3 3971 3955 3969
3 3205 3951 3464
3 3969 3968 3950
3 3958 3943 3948
3 3960 3952 3950
3 4584 4586 4564
3 3957 4558 3976
3 3936 4658 4651
3 3962 3963 3953
3 3979 3971 3969
3 3966 3955 3975
3 5188 3981 5206
3 3959 3978 3952
3 3965 464 3962
3 3957 3958 3965
3 464 3958 3948
3 3959 3957 3976
3 3979 3980 3970
3 3952 3943 3959
3 3968 3960 3950
3 3961 3951 3205
3 3952 3961 3949
3 3951 3961 3960
3 3963 3941 3954
3 3953 3964 3965
3 3954 3947 3963
3 4579 3963 3947
3 4566 4564 4565
3 4556 4558 4559
3 3953 3965 3962
3 3957 3965 3964
3 3967 2753 165
3 3975 3955 3974
3 3968 3967 165
3 3969 3967 3968
3 3972 3968 165
3 3968 3951 3960
3 3952 3978 3950
3 3955 3967 3969
3 4556 3956 4558
3 3971 3974 3955
3 3979 3969 3950
3 3981 3974 3970
3 2759 3972 165
3 3951 3972 2756
3 3973 3974 3981
3 5190 3973 5188
3 3970 3974 3971
3 5211 5195 5200
3 5211 3974 3973
3 3975 5200 3982
3 4562 4558 3957
3 3956 3959 3976
3 3957 3964 4562
3 4566 4563 4564
3 3980 3959 3956
3 3979 3978 3980
3 3971 3979 3970
3 3950 3978 3979
3 3959 3980 3978
3 4557 3956 4556
3 3980 3956 3984
3 3985 3970 3984
3 3997 466 3993
3 3987 4591 3986
3 4557 4560 3983
3 3973 3981 5188
3 3985 3984 3983
3 3970 3980 3984
3 4560 5198 3983
3 3970 3985 3981
3 5251 4592 5252
3 3989 2245 2711
3 2762 3206 3996
3 3991 3987 4004
3 4000 4003 4001
3 2716 3995 2714
3 2712 3989 2711
3 3989 3988 3998
3 3991 3990 227
3 3989 3990 3988
3 3189 3991 227
3 3987 3986 4004
3 3992 3982 3997
3 3996 3987 2762
3 4005 5252 4593
3 3993 3986 4591
3 3994 3998 4001
3 4009 4007 4008
3 2245 3999 2716
3 3989 3999 2245
3 2761 3992 3996
3 3996 3992 4591
3 466 3997 3982
3 4591 3997 3993
3 4001 3998 4002
3 3995 3998 3994
3 3998 3999 3989
3 2716 3999 3995
3 4002 4000 4001
3 4002 4005 4000
3 4002 3998 3988
3 4593 4595 4000
3 3988 4004 4002
3 4002 4004 4005
3 4003 319 4007
3 4001 4003 4009
3 3991 4004 3988
3 4004 3986 4005
3 3993 5252 3986
3 5251 3993 466
3 319 4597 4599
3 5833 5834 5832
3 4604 4601 4599
3 4007 4006 4008
3 4006 4010 4008
3 4017 3994 4008
3 4001 4009 3994
3 4007 4009 4003
3 4006 5834 5833
3 4012 4010 2223
3 4012 2223 4013
3 3995 4015 2714
3 2223 3185 4013
3 4011 4015 4017
3 4014 4013 2704
3 4011 4012 4013
3 4014 2704 3181
3 4014 140 4016
3 4017 3995 3994
3 4016 4015 4011
3 4018 140 2718
3 4015 4016 2714
3 4010 4017 4008
3 4011 4017 4012
3 2715 4018 2718
3 2714 4016 4018
3 453 3894 4020
3 4019 4023 4025
3 3897 4022 4024
3 4019 4020 4023
3 4020 4021 453
3 4021 4019 4624
3 3908 4029 3912
3 4023 4028 4027
3 4024 4023 4020
3 4029 4026 4028
3 3897 4024 3892
3 4024 4022 4028
3 4030 4025 3455
3 4025 3457 4624
3 4037 4026 4041
3 4035 4039 4038
3 4023 4024 4028
3 4027 4026 4035
3 4029 4028 4022
3 4026 4027 4028
3 3912 4029 4022
3 4029 3908 4041
3 528 3460 4031
3 4031 3460 3456
3 3455 4034 4030
3 4034 3455 4035
3 4683 4692 4697
3 4033 4032 4040
3 4031 4030 4034
3 4677 4682 4683
3 3455 4027 4035
3 4033 4034 4038
3 4037 4035 4026
3 4033 4038 4032
3 4628 4626 4627
3 4042 4043 4040
3 4026 4029 4041
3 4038 4039 4032
3 4034 4035 4038
3 4039 4035 4037
3 134 4695 4037
3 4693 4695 4696
3 4040 4032 4690
3 4040 4036 4042
3 9580 3908 9581
3 4037 4041 9585
3 4042 4036 4046
3 3463 4045 3444
3 4040 4043 4033
3 4045 4043 4042
3 4044 4046 4626
3 4044 4628 4706
3 4043 4045 528
3 4625 4045 4042
3 4626 4046 4036
3 4625 4046 4044
3 4049 3231 3228
3 3466 5983 6895
3 5972 5977 5988
3 4050 5977 4047
3 4049 3238 3236
3 4049 4048 4050
3 4049 4050 3231
3 5988 5977 4048
3 5978 4051 3485
3 4048 4049 4051
3 532 4056 4058
3 4055 4060 4052
3 532 4053 3488
3 4052 3470 4053
3 4711 4707 4708
3 3468 4052 4060
3 4056 532 4729
3 4712 4060 4054
3 3249 3495 4063
3 4058 4059 4054
3 4707 4713 4712
3 4713 4716 4710
3 532 4058 4055
3 4059 4058 4056
3 4056 4061 4059
3 4059 2350 4708
3 4054 4060 4055
3 4060 4057 4730
3 4056 4064 4061
3 4067 4064 2359
3 4057 4712 4710
3 4718 4066 4062
3 2350 4063 3495
3 4059 4061 4063
3 4729 4064 4056
3 4064 4067 4065
3 2355 4068 4065
3 4068 4069 4065
3 4730 3474 3468
3 4718 4062 4717
3 2360 4067 2359
3 2355 4065 4067
3 2356 4068 2355
3 4069 4068 75
3 75 1631 4070
3 4069 3249 4061
3 1625 4070 1623
3 1620 3497 4071
3 3249 4071 3496
3 1625 4071 4070
3 4075 4072 3246
3 4074 4076 4075
3 4079 2343 4769
3 4078 4077 4772
3 4732 4731 4074
3 4727 5298 4723
3 4079 3246 3489
3 4075 4073 4732
3 4075 4076 4072
3 4716 4074 4714
3 4769 2804 4770
3 4770 4764 4148
3 4079 4075 3246
3 4077 4769 4772
3 2343 4079 3489
3 4078 4079 4077
3 2393 4080 1956
3 4083 3569 4084
3 3570 1668 4137
3 4080 4082 1957
3 3528 3554 4083
3 4082 4081 4139
3 4081 4082 4083
3 4083 4082 3528
3 4085 3569 3578
3 3570 4084 3562
3 3560 4085 3578
3 3562 4084 4085
3 4137 4086 3570
3 4083 4086 4081
3 3521 3531 4087
3 3530 4092 3531
3 3516 4088 3520
3 3521 4087 4088
3 4092 4087 3531
3 4092 4090 4091
3 4097 4098 4101
3 4094 4091 4090
3 4092 4091 4089
3 4094 4093 3533
3 4092 4089 4087
3 4092 3530 4106
3 4094 3533 4091
3 289 3544 4093
3 4101 4098 4105
3 289 4093 4094
3 4095 289 4103
3 3552 4095 4099
3 4094 4098 289
3 5301 6040 4750
3 4106 4101 4105
3 9713 9720 9709
3 4105 4094 4090
3 4104 4100 4103
3 4095 4103 4117
3 4760 4118 4119
3 4103 4098 4104
3 4111 4760 4102
3 4108 4114 4106
3 4120 4097 4101
3 4737 4738 4739
3 3551 4099 4111
3 4098 4103 289
3 4100 4112 4117
3 9715 4104 4097
3 9722 4118 4100
3 4094 4105 4098
3 4106 4105 4090
3 4092 4106 4090
3 4108 4106 3530
3 4108 3530 4115
3 9729 10067 168
3 4108 4115 4109
3 10068 4114 4107
3 2846 4109 3602
3 4108 4109 4107
3 4109 4116 4107
3 2846 4116 4109
3 4099 4117 4112
3 4102 4739 4738
3 4118 4112 4100
3 4111 4112 4760
3 4107 4110 10068
3 6910 9157 9711
3 4120 4114 4113
3 4106 4114 4101
3 14891 3530 3531
3 3601 4109 4115
3 2855 4116 2846
3 4107 4116 4110
3 4095 4117 4099
3 4100 4117 4103
3 9722 4100 4104
3 4119 4118 4096
3 4097 9716 9715
3 6039 4741 4119
3 4114 4120 4101
3 4120 4113 9716
3 3567 4125 4123
3 4123 4124 4121
3 4123 3566 3568
3 4122 4121 4136
3 3567 4740 4125
3 4121 4122 4123
3 4124 4125 4132
3 4131 4133 4135
3 4132 4125 288
3 4123 4125 4124
3 4126 4128 5303
3 5303 5308 4126
3 4124 4130 4129
3 4133 4127 4134
3 5304 5303 4128
3 5327 455 5330
3 4124 4132 4130
3 4131 4129 4127
3 4126 5314 5315
3 4129 4130 5328
3 4133 4131 4127
3 4131 3572 4136
3 5304 4132 288
3 4130 4132 4128
3 5327 4127 5328
3 4135 4133 3564
3 5330 5329 5352
3 4134 5352 5353
3 4140 4135 3564
3 4131 4135 3572
3 3574 4136 3572
3 4136 489 4122
3 1952 2382 4138
3 4086 4137 4081
3 456 1958 4139
3 4081 4137 4138
3 4082 4139 1957
3 4081 4138 4139
3 4140 3564 4143
3 3574 4140 3565
3 3564 4133 5353
3 4145 3584 4144
3 4146 4141 4144
3 3579 4142 3256
3 5353 5333 3564
3 4142 4143 4141
3 3256 4144 3585
3 4145 4144 4141
3 4141 5333 5334
3 4145 287 14927
3 3256 4142 4146
3 4141 4146 4142
3 3592 4147 3263
3 3588 4147 3593
3 4775 4766 4777
3 4770 4767 4769
3 3605 4149 92
3 4151 3603 4150
3 3274 4150 3271
3 4151 4150 3276
3 3269 4151 3276
3 4149 4151 3168
3 3604 4152 3282
3 3405 4152 3605
3 7235 4780 5371
3 5372 5477 4153
3 5399 592 2893
3 4154 3608 4158
3 4155 4158 4782
3 4155 4783 4169
3 4158 4156 4154
3 4155 4169 4159
3 4157 3609 4163
3 2886 3287 4157
3 4782 4158 3608
3 4156 4158 4155
3 3609 4157 4159
3 4156 4159 4157
3 4168 4791 4792
3 4173 4790 3288
3 4157 4161 2886
3 4161 4160 4164
3 4164 4174 4162
3 3288 2900 4173
3 4166 4163 3609
3 4161 4163 4160
3 4161 4164 2895
3 4174 4164 4160
3 4160 4163 4166
3 4789 3611 4176
3 4168 4169 4170
3 4166 4165 4174
3 4168 4170 4167
3 3611 4791 505
3 4169 4168 3609
3 4168 4167 4791
3 4169 3609 4159
3 4169 236 4170
3 5474 5469 5475
3 4170 236 4172
3 9739 14939 14944
3 4796 4172 5476
3 5473 4788 4782
3 4795 4172 4796
3 2900 4162 4173
3 4790 4174 4165
3 4166 4174 4160
3 4790 4165 4789
3 2858 4175 505
3 4176 4175 2852
3 2861 4176 2852
3 4789 4176 3289
3 3625 4178 4177
3 4181 4177 4182
3 4183 3627 4184
3 4182 4178 3350
3 4513 4516 4518
3 4515 4490 4492
3 3632 4180 4184
3 3632 4186 4180
3 4182 4177 4178
3 4492 4181 4179
3 4516 4182 3350
3 4181 4182 4179
3 3627 4183 3625
3 4185 4183 4180
3 3632 4184 3629
3 4183 4184 4180
3 4186 4185 4180
3 4192 2566 4191
3 4193 3632 3635
3 2119 2122 4188
3 4191 2566 68
3 3350 4185 4190
3 2116 4188 2122
3 4188 4187 4189
3 4189 4186 4193
3 4189 4187 4190
3 4187 4191 4194
3 4190 3831 4518
3 4191 68 2580
3 4192 4191 4187
3 4187 4188 4192
3 2116 4192 4188
3 3632 4193 4186
3 2119 4188 4193
3 4187 4194 4190
3 4191 2579 4194
3 4195 4202 4503
3 4195 4503 4799
3 4798 4799 4498
3 3695 4196 4797
3 2983 3748 4197
3 4200 4197 3748
3 3631 4199 4198
3 4203 4204 4199
3 4201 4199 3631
3 4804 4203 4195
3 4257 4200 3748
3 3633 4200 3328
3 3631 3633 4815
3 4202 4201 3628
3 4195 4199 4202
3 4202 4199 4201
3 4196 602 4203
3 3693 4204 602
3 4199 4204 4198
3 602 4204 4203
3 4177 4205 3628
3 217 4202 4205
3 2928 4206 2926
3 6928 4206 2480
3 5481 3293 4817
3 495 2037 4209
3 2927 2926 4208
3 3636 4208 2926
3 2037 2033 4209
3 4208 4209 2033
3 4212 3309 463
3 4210 3648 4213
3 3308 4211 3306
3 4212 4211 3309
3 4854 4212 463
3 4210 4212 4856
3 4218 4213 3648
3 4219 4218 4220
3 3310 4214 256
3 4214 3306 4211
3 4215 4823 6101
3 4217 4221 3657
3 4217 4216 4221
3 256 4219 3652
3 3652 4217 3663
3 4221 4216 4220
3 4823 4218 5537
3 4218 4823 4220
3 4218 4219 4213
3 3652 4219 4216
3 4220 4215 4221
3 4219 4220 4216
3 4821 5483 4223
3 4223 4221 4215
3 4835 4234 4837
3 4236 4837 4234
3 4821 4223 4215
3 4834 4223 4222
3 312 6107 4224
3 4224 4228 3665
3 6141 5485 6132
3 4829 6323 4826
3 6141 6107 5485
3 6323 4829 4225
3 4228 3669 3665
3 4825 4226 6141
3 4226 4228 4224
3 4228 4227 4229
3 4228 4229 3669
3 4828 4229 4227
3 4232 4230 4231
3 4230 4240 4243
3 387 4231 3672
3 4233 4231 4230
3 3662 3657 4238
3 4240 4236 4241
3 4244 4230 4243
3 3667 4233 3671
3 662 6215 4836
3 4239 4240 4241
3 5488 4841 5490
3 6127 6120 6112
3 4238 387 3662
3 6944 6945 6947
3 6108 4237 4235
3 312 3671 4237
3 4834 3657 4221
3 4236 4238 4837
3 4244 4237 4233
3 4232 4240 4230
3 4236 4240 4232
3 4239 4242 4243
3 4236 4234 4241
3 6944 4241 4234
3 4239 4838 4242
3 4838 142 4840
3 4239 4243 4240
3 4242 5490 4244
3 4242 4244 4243
3 4235 4237 4244
3 8617 8619 8614
3 6087 7729 317
3 4814 3706 4811
3 4248 4246 479
3 3701 4247 3711
3 3707 4247 3710
3 4249 4248 479
3 3745 4250 3741
3 479 5491 4863
3 4249 4862 4860
3 3713 4248 4250
3 4249 4250 4248
3 4844 5533 4858
3 4849 4846 4847
3 3744 4859 255
3 4859 3741 4860
3 4866 4864 255
3 5541 5544 4848
3 3324 4254 3326
3 2971 4254 3747
3 3320 4255 2983
3 4256 4255 131
3 3001 4256 131
3 4257 4256 3009
3 3003 4257 3009
3 4257 3623 3624
3 2072 4258 2522
3 3755 4258 10
3 4265 4259 3752
3 3767 4259 3768
3 4266 4271 4270
3 4267 4264 4266
3 4391 4417 4318
3 3770 3772 4869
3 4262 4263 3771
3 4264 4262 3768
3 4263 3779 4867
3 3771 4263 3778
3 4265 4264 3768
3 4264 4260 4266
3 4259 4265 3768
3 3752 9226 9230
3 4279 4275 4268
3 4868 4269 605
3 4264 4267 4262
3 4269 4267 4266
3 4268 4275 4274
3 4270 4284 605
3 4267 4269 3779
3 4260 4271 4266
3 4275 4279 4270
3 605 4269 4270
3 4272 4271 4260
3 4270 4271 4275
3 4260 9223 9228
3 4272 169 4274
3 4285 4289 4273
3 4316 4312 4308
3 4286 4274 169
3 4274 4287 4282
3 4271 4272 4275
3 4274 4275 4272
3 4282 4268 4274
3 4289 4285 4276
3 7825 7826 7829
3 4288 4295 4294
3 4303 4300 446
3 4290 4282 4291
3 4290 4279 4268
3 4284 4279 4276
3 4314 4331 4332
3 4285 4332 4427
3 7828 9191 7822
3 4288 4287 4281
3 4274 4286 4287
3 4282 4278 4291
3 4276 4279 4290
3 4300 4278 4294
3 4285 4284 4276
3 605 4284 4280
3 4332 4285 4273
3 4284 4285 4280
3 9225 4286 169
3 4286 4281 4287
3 4288 4281 4292
3 4282 4287 4294
3 4288 4292 4296
3 4294 4278 4282
3 4290 4289 4276
3 4313 4283 4311
3 4282 4290 4268
3 4289 4290 4283
3 4305 4291 4278
3 4290 4291 4283
3 9225 9229 4281
3 4296 4292 4277
3 5604 5605 4293
3 4357 4354 4343
3 4288 4296 4295
3 4294 4295 4300
3 4293 4297 4295
3 4295 446 4300
3 4277 7826 5604
3 4295 4296 4293
3 4871 4299 5602
3 446 4295 4297
3 4298 4351 4871
3 5607 4352 4366
3 4341 4353 4339
3 4321 4322 4333
3 4322 4323 4320
3 4304 4300 4303
3 4315 4307 4308
3 4278 4300 4304
3 4302 4337 4323
3 4283 4291 4305
3 4337 4303 446
3 4304 4303 4302
3 4306 4302 4336
3 4302 4306 4304
3 4278 4304 4305
3 4310 4311 4312
3 4308 4306 4301
3 4304 4306 4312
3 4308 4319 4315
3 4344 4327 4315
3 4315 4319 4309
3 4316 4308 4307
3 4365 5023 4374
3 4309 4344 4315
3 4317 4314 4310
3 4313 4289 4283
3 4312 4305 4304
3 4313 4311 4310
3 4312 4306 4308
3 4305 4312 4311
3 4317 4310 4316
3 4289 4313 4273
3 4314 235 4331
3 4313 4314 4332
3 4319 4308 4301
3 4372 595 4363
3 4316 4307 4317
3 4312 4316 4310
3 4327 4325 4326
3 235 4314 4317
3 4318 4331 4347
3 4403 4381 4391
3 4322 4319 4301
3 5023 5035 57
3 4336 4322 4301
3 4340 4342 4337
3 4309 4319 4321
3 4321 4319 4322
3 4322 4336 4323
3 4322 4320 4333
3 4302 4303 4337
3 4339 4340 4341
3 4358 4360 4362
3 4328 4317 4326
3 4324 4363 4361
3 4317 4328 235
3 4327 4326 4307
3 4326 4325 4328
3 4315 4327 4307
3 4327 4324 4361
3 4330 4358 4329
3 4328 4325 4330
3 4358 4362 4329
3 4348 235 4328
3 4359 4358 4330
3 4362 4379 4329
3 235 4348 4347
3 4332 4331 4318
3 4318 4417 4427
3 4332 4273 4313
3 4354 4323 4342
3 57 4321 4333
3 4383 4368 4386
3 4374 4335 4382
3 4357 4333 4320
3 4375 4365 4374
3 4306 4336 4301
3 4302 4323 4336
3 446 4338 4337
3 4340 4337 4338
3 4297 4338 446
3 4340 4338 4299
3 4351 4340 4299
3 4334 4382 4356
3 4299 4871 4351
3 4340 4339 4342
3 4341 4351 4366
3 4367 4341 4366
3 4342 4339 4343
3 4337 4342 4323
3 4343 4339 4355
3 4357 4343 4356
3 5019 5020 5021
3 4327 4344 4324
3 4361 4363 4359
3 4907 4934 4947
3 4346 4349 4371
3 4403 4347 4364
3 235 4347 4331
3 4364 4347 4346
3 4330 4348 4328
3 4347 4348 4346
3 4346 4348 4349
3 4330 4349 4348
3 4334 4355 4368
3 5645 6453 6454
3 4366 4351 4298
3 4340 4351 4341
3 5607 4298 6430
3 5607 6956 6957
3 4353 4367 4376
3 4355 4334 4356
3 4323 4354 4320
3 4342 4343 4354
3 4339 4353 4355
3 4368 4355 4353
3 4357 4356 4335
3 4355 4356 4343
3 4333 4357 4335
3 4354 4357 4320
3 4359 4330 4325
3 4360 4358 4345
3 4361 4359 4325
3 4345 4358 4359
3 4923 4922 4936
3 4360 594 4362
3 4327 4361 4325
3 4372 4363 4324
3 4388 4362 594
3 4413 4379 4362
3 4923 4345 4944
3 4359 4363 4345
3 4380 4390 4401
3 4390 4381 4364
3 5037 5038 6453
3 4999 4998 4952
3 5607 4366 4298
3 4366 4352 4367
3 4376 4367 447
3 4367 4353 4341
3 4387 4384 4386
3 4383 4375 4382
3 4378 4894 4893
3 4886 4882 4883
3 4396 4380 4397
3 4401 4346 4371
3 4329 4371 4349
3 4371 4370 4380
3 5021 4324 4344
3 4372 5021 5020
3 4426 4423 4381
3 4391 4373 4416
3 4335 4356 4382
3 5023 4365 5037
3 4383 4334 4368
3 4873 4375 4385
3 4387 4376 447
3 4368 4353 4376
3 6959 4406 6958
3 4408 4377 4394
3 4894 4888 4893
3 4412 4878 4414
3 4412 4421 4413
3 4370 4371 4379
3 4409 4397 4398
3 4390 4380 604
3 4396 4400 4431
3 4391 4381 4373
3 4383 4382 4334
3 4374 4382 4375
3 4386 4368 4387
3 4375 4383 4385
3 7133 7135 5641
3 4385 4350 4873
3 4405 4383 4386
3 4405 4392 4404
3 4368 4376 4387
3 4386 4384 4405
3 4352 5607 6957
3 4384 4387 4394
3 4894 4388 594
3 4413 4388 4378
3 4411 4880 4409
3 4389 4400 4396
3 4381 4390 604
3 4401 4364 4346
3 4402 4416 4875
3 4318 4347 4403
3 6444 6442 6443
3 5639 5636 5637
3 4418 6963 4407
3 4394 4377 6444
3 4387 4395 4394
3 4418 4408 4395
3 447 4406 4387
3 4395 4393 4418
3 4397 4380 4370
3 4428 4399 4400
3 4397 4370 4398
3 4389 4396 4397
3 4421 4398 4370
3 4422 4421 4412
3 4443 4399 4428
3 4423 4373 4381
3 4880 4429 4879
3 4400 4399 4425
3 4380 4401 4371
3 4364 4401 4390
3 4877 4402 4875
3 4402 4877 4280
3 4381 4403 4364
3 4318 4403 4391
3 4405 4404 4385
3 5637 5636 6441
3 4405 4385 4383
3 4405 4384 6443
3 4352 6957 6958
3 4395 4387 4406
3 6963 6966 6965
3 8511 7148 7150
3 4395 4408 4394
3 7138 4408 4407
3 4409 234 4411
3 4397 4409 4389
3 4433 4411 4430
3 4436 4438 4410
3 4430 4411 234
3 4410 4429 4411
3 4413 4370 4379
3 4412 4413 4878
3 4388 4413 4362
3 4878 4413 4378
3 4434 4420 4430
3 4414 4883 4882
3 4399 4447 4448
3 4415 4424 4423
3 4875 4416 4373
3 4417 4416 4402
3 4402 4280 4417
3 4427 4417 4280
3 6962 7141 15018
3 4408 4418 4407
3 4429 4419 4879
3 4410 4438 4442
3 4430 4881 4434
3 4433 4420 4437
3 4413 4421 4370
3 4422 4412 4414
3 4421 4422 4398
3 4881 4422 4414
3 4426 4381 604
3 4415 4449 4424
3 170 3775 4870
3 4424 4876 4875
3 4448 4425 4399
3 4426 4425 4415
3 4423 4426 4415
3 4431 604 4396
3 4285 4427 4280
3 4318 4427 4332
3 4879 4400 4389
3 4443 4428 4419
3 4442 4429 4410
3 4419 4428 4879
3 234 4422 4881
3 4430 4420 4433
3 4425 4431 4400
3 604 4431 4426
3 4432 4881 4882
3 4420 4434 4891
3 4931 4420 4891
3 4438 4436 3813
3 4881 4430 234
3 4890 4930 4931
3 5609 611 4942
3 4439 3813 4436
3 4410 4433 4436
3 4433 4437 4440
3 4931 4437 4420
3 4437 4435 4440
3 4441 4438 3813
3 4438 603 4442
3 4436 4440 4439
3 5609 4435 4941
3 4440 4436 4433
3 4959 4440 4435
3 4441 3813 3818
3 603 4441 3821
3 4442 603 4443
3 4442 4419 4429
3 603 4444 4443
3 3787 4445 4444
3 603 3821 5092
3 3787 3790 4445
3 3780 3784 4446
3 4399 4443 4447
3 170 5093 3784
3 4445 5093 4448
3 4444 4447 4443
3 4447 4445 4448
3 5093 4445 4446
3 4449 170 4424
3 4415 4448 4449
3 4449 4448 5093
3 5096 5094 5095
3 4942 611 4920
3 5106 5108 5102
3 5123 8707 3803
3 3807 3802 4452
3 4453 3802 3814
3 3814 3816 4453
3 3816 5102 5103
3 4455 4454 372
3 4457 4454 3341
3 8700 4455 372
3 2662 2663 4456
3 1805 4456 2663
3 3341 4455 4456
3 3826 4457 3341
3 4458 4457 3065
3 4459 2540 3038
3 4458 4459 5135
3 4459 3034 5135
3 2540 4459 4458
3 2537 2539 7989
3 7960 7985 7980
3 4464 4472 3345
3 4473 4469 4470
3 3346 4462 3348
3 4472 4462 3345
3 4464 3345 3347
3 4522 250 4523
3 3347 250 4464
3 4521 4522 4520
3 4478 4471 4468
3 430 3828 5137
3 4461 4462 4472
3 4463 5150 4467
3 4467 386 4502
3 4466 4467 4510
3 4469 4461 3829
3 4465 4478 4468
3 4469 3829 4470
3 4465 4468 4469
3 4502 4501 4510
3 4507 4488 4505
3 4473 4475 4465
3 430 4471 4482
3 4463 4472 4464
3 4461 4472 4466
3 4473 4476 4475
3 4469 4473 4465
3 4476 4474 4475
3 4482 4481 3349
3 4476 4473 130
3 4475 4474 4477
3 4476 4487 4485
3 4474 4476 4484
3 4481 4477 4474
3 4482 3349 3830
3 4465 4475 4478
3 4477 4478 4475
3 5139 4483 4489
3 6327 7778 7767
3 4484 4485 4480
3 7768 8521 9174
3 4474 4484 4491
3 4490 4481 4491
3 4471 4477 4482
3 4482 4477 4481
3 4479 9178 5139
3 9179 9178 8522
3 4485 4484 4476
3 4480 4491 4484
3 4487 4476 130
3 4483 9176 4485
3 4499 4494 5141
3 4486 4492 4490
3 4489 4504 4495
3 4483 4485 4487
3 130 4470 4495
3 4470 3829 4501
3 4504 130 4495
3 4505 5678 4489
3 4474 4491 4481
3 4486 4499 5141
3 4496 4491 4480
3 4486 4490 4491
3 4181 4492 217
3 4514 4517 4516
3 6564 4493 4502
3 4505 4489 4495
3 5140 4503 4202
3 4486 4497 4499
3 4506 4470 4501
3 4505 4488 5678
3 4496 4480 9177
3 4497 4496 551
3 4497 551 4500
3 4491 4497 4486
3 4498 4500 4802
3 4800 3699 4797
3 4500 4499 4497
3 4799 4499 4498
3 7773 4801 7780
3 4499 4500 4498
3 4510 4501 3829
3 4501 4493 4506
3 6568 386 6561
3 4501 4502 4493
3 5140 4202 217
3 4799 4503 4494
3 4483 4504 4489
3 130 4504 4487
3 4495 4506 4505
3 4505 4506 4507
3 4506 4495 4470
3 4507 4506 4493
3 4502 6568 6564
3 4488 4507 4509
3 6563 4507 6570
3 6574 6577 6575
3 6564 6570 4493
3 6579 8582 4508
3 4466 4510 3829
3 4502 4510 4467
3 4482 4511 430
3 4513 4511 3830
3 2581 4512 2579
3 4513 4512 3073
3 4514 3830 3349
3 4513 4514 4516
3 4515 4514 3349
3 4515 4517 4514
3 4490 4515 3349
3 4517 4492 4179
3 4182 4516 4179
3 4518 4516 3350
3 4492 4517 4515
3 4179 4516 4517
3 4190 4518 3350
3 4513 4518 3831
3 3855 5144 5159
3 5147 4463 4521
3 4464 4522 4521
3 4520 4524 4526
3 4522 4464 250
3 4528 5146 5148
3 250 3351 4523
3 4520 4522 4524
3 4525 4530 4536
3 4524 4519 4526
3 4522 4523 4529
3 3074 4530 4523
3 5151 5152 5154
3 4531 4532 4533
3 4526 4519 5167
3 4528 5148 4526
3 5158 5160 5156
3 6560 6561 6565
3 4532 5156 4519
3 5166 5146 4528
3 4533 4529 4523
3 4524 4522 4529
3 4536 4530 3074
3 4533 4530 4525
3 5152 5153 5154
3 5161 5679 5155
3 4524 4529 4533
3 4531 5161 5156
3 4524 4533 4532
3 4530 4533 4523
3 4535 4534 3352
3 3844 4534 3843
3 3833 4535 3352
3 4538 4535 358
3 3844 4536 2586
3 4535 4538 3843
3 3351 4537 3074
3 2574 2587 4539
3 5153 4538 358
3 4525 4536 4538
3 4536 4539 2586
3 2574 4539 4537
3 3368 3369 5169
3 5176 5173 5172
3 4541 5174 5684
3 4542 5179 3850
3 3850 4546 4542
3 3851 3853 4542
3 5693 4545 4546
3 4542 4546 4543
3 5710 5163 5165
3 5729 5163 5710
3 5694 5692 5181
3 5707 5708 5712
3 5693 4546 3850
3 5145 4546 4545
3 8968 7470 8155
3 8970 8089 8075
3 5182 4548 4547
3 3386 3863 4548
3 3403 4549 3405
3 5791 4549 3874
3 4551 4550 3403
3 14913 4550 3870
3 3406 4551 3403
3 4551 3152 3871
3 5656 7254 112
3 5126 5109 5656
3 3877 3899 4553
3 3895 4553 3899
3 3901 4554 3895
3 3909 4554 3900
3 3917 4555 3910
3 3924 4555 3927
3 4556 4559 4561
3 3984 4557 3983
3 3956 4557 3984
3 4557 4556 4561
3 3976 4558 3956
3 4559 4558 3977
3 4565 3977 4562
3 4561 4559 226
3 4586 226 4564
3 5184 5193 5194
3 5196 226 4589
3 4557 4561 4560
3 3977 4565 4564
3 4558 4562 3977
3 4569 4570 4566
3 4570 4563 4566
3 3977 4564 4559
3 4563 4582 4584
3 4562 3964 4565
3 4567 4566 4565
3 4567 4565 3964
3 4569 4567 5219
3 3964 3953 4567
3 4575 4568 4576
3 6740 6738 5829
3 4566 4567 4569
3 5219 4567 3953
3 4569 4568 4570
3 4570 4574 4572
3 4563 4570 4572
3 4573 4574 4575
3 4571 4572 4578
3 4574 4570 4568
3 4580 4572 4571
3 5222 318 5220
3 4573 5233 5237
3 4575 4574 4568
3 4574 4573 4578
3 4576 4568 5219
3 4575 318 5233
3 4579 3953 3963
3 4576 4579 5220
3 4580 4571 4581
3 4582 4563 4572
3 4574 4578 4572
3 4573 5237 5238
3 5220 4579 3947
3 3953 4579 4576
3 5245 5249 5243
3 4580 4577 4582
3 5250 6629 6622
3 4580 4581 6738
3 4583 4577 6740
3 4582 4577 4583
3 4583 500 4587
3 4563 4584 4564
3 4583 4590 4582
3 4590 4588 4584
3 8220 6739 6741
3 4560 5196 5192
3 4590 4587 4588
3 4586 4588 4589
3 6739 8223 500
3 4588 4587 4585
3 4589 4588 4585
3 4584 4588 4586
3 4589 4585 5187
3 5196 4561 226
3 4582 4590 4584
3 4587 4590 4583
3 3996 4591 3987
3 4591 3992 3997
3 5217 5218 5216
3 4005 4593 4000
3 4592 5202 4602
3 4003 4595 319
3 4609 4598 4603
3 4597 319 4595
3 4000 4595 4003
3 4597 4593 4596
3 4602 4593 4592
3 4609 4603 4610
3 4593 4597 4595
3 4607 4603 4599
3 5258 4621 4622
3 4007 319 4601
3 4607 4597 4596
3 4598 4604 4599
3 4609 4619 4598
3 5831 4600 4606
3 4599 4601 319
3 4601 4600 5834
3 5191 5202 5201
3 4596 4602 5217
3 4603 4594 4610
3 4598 4599 4603
3 4622 4621 4619
3 4601 4604 4600
3 2159 2161 14897
3 5830 4606 5258
3 4621 4604 4598
3 5253 5830 14899
3 4597 4607 4599
3 4594 4607 4596
3 4608 4610 4611
3 4614 4617 4613
3 4608 4612 4609
3 4609 4612 4619
3 4611 4610 4594
3 4609 4610 4608
3 5218 5217 5191
3 5254 4611 5255
3 4614 4612 4608
3 4619 4612 497
3 5254 4617 4614
3 4613 5836 4616
3 4608 4611 5254
3 4613 4616 4618
3 5199 5797 5794
3 4617 5796 4613
3 5799 498 5800
3 6747 4623 5257
3 5254 4614 4608
3 5798 5801 5793
3 4613 4618 4614
3 4618 4616 5838
3 4623 4622 4619
3 4604 4621 4606
3 4618 5838 497
3 6747 15569 4620
3 4598 4619 4621
3 497 4623 4619
3 4622 15571 5258
3 5258 4605 5830
3 4623 497 5838
3 4620 4622 4623
3 4021 4624 3451
3 4025 4624 4019
3 4045 4625 3444
3 4625 4042 4046
3 4626 4036 4682
3 4626 472 4627
3 472 4630 4627
3 4635 4630 4637
3 4706 4628 3931
3 4626 4628 4044
3 4640 4633 4638
3 3947 3954 4643
3 4633 4630 472
3 4630 4629 4637
3 4657 4666 4669
3 4645 4638 4631
3 4655 4654 4629
3 5228 5226 4643
3 4676 4675 4633
3 4633 4631 4638
3 4636 3932 3931
3 4632 4644 4634
3 4630 4635 4627
3 4636 4632 4634
3 3932 4636 4634
3 3931 4635 4636
3 4655 4629 4650
3 4635 4637 4632
3 4646 4641 4645
3 4640 4650 4629
3 4632 4654 4656
3 5809 5228 5229
3 4629 4630 4640
3 4633 4640 4630
3 4649 5850 5842
3 4655 4661 4663
3 4647 4638 4645
3 4647 4641 5850
3 3954 3936 4651
3 12 4652 4658
3 4637 4654 4632
3 4660 4643 4652
3 4646 4645 4631
3 4647 4645 4641
3 4666 4646 4631
3 4646 177 5851
3 5850 4649 4671
3 4647 4642 4650
3 4705 4673 4679
3 4642 4662 4661
3 5850 5851 5259
3 4662 473 4661
3 4647 4650 4638
3 4655 4650 4642
3 4658 3936 3937
3 4643 3954 4651
3 4634 4659 12
3 4639 4660 4644
3 4653 4655 4663
3 4656 5802 4644
3 4629 4654 4637
3 4656 4654 4653
3 4661 4655 4642
3 4653 4654 4655
3 4653 5229 5802
3 4632 4656 4644
3 4675 4669 4666
3 5270 4657 5265
3 12 4658 3937
3 4651 4658 4652
3 4644 4659 4634
3 4652 12 4659
3 4643 4660 4639
3 4659 4660 4652
3 4647 4671 4642
3 4663 4661 473
3 4649 4672 4662
3 4681 4680 4689
3 4662 4672 4674
3 473 4689 4663
3 5232 5224 5230
3 5225 5222 5220
3 473 4662 4681
3 5806 5808 5804
3 4675 4631 4633
3 4657 4668 4670
3 472 4678 4676
3 4678 4667 4676
3 4657 5264 5265
3 5853 5858 5852
3 4675 4666 4631
3 5264 4667 5262
3 4657 4670 4666
3 4670 4668 5853
3 4649 4662 4671
3 4642 4671 4662
3 5842 4672 4649
3 4679 4674 4684
3 4673 4674 4679
3 4687 4664 4688
3 4684 4672 4648
3 4674 4673 4680
3 4676 4633 472
3 4669 4675 4667
3 4626 4682 4678
3 4667 4675 4676
3 4036 4040 4683
3 4677 4694 5262
3 4626 4678 472
3 4678 4677 5262
3 4702 4679 4684
3 5277 4703 4705
3 4680 4673 4704
3 4689 4680 4665
3 4662 4674 4681
3 4680 4681 4674
3 4683 4682 4036
3 4678 4682 4677
3 4032 4039 4693
3 4683 4690 4692
3 4672 4684 4674
3 4702 4684 4648
3 4672 5842 4648
3 5279 4703 5277
3 240 6802 5278
3 6610 5817 5818
3 4703 5865 5814
3 5815 5811 5813
3 4665 4680 4688
3 4688 4680 4704
3 4663 4689 4665
3 4681 4689 473
3 4692 4690 4693
3 4683 4040 4690
3 4693 4696 4691
3 4677 4683 4697
3 4693 4690 4032
3 4697 4692 5276
3 4695 4693 4039
3 4691 4692 4693
3 4700 4701 5276
3 4669 5264 4657
3 4037 4695 4039
3 4695 134 4696
3 9584 4699 4700
3 9584 4696 134
3 5276 4692 4691
3 4677 4697 4694
3 3908 9580 4041
3 5864 5862 527
3 5274 5275 5271
3 5272 5276 4701
3 9584 134 9583
3 4700 4699 4701
3 5863 5269 5271
3 5273 5263 5272
3 5844 4702 4648
3 5277 4702 4685
3 4679 4702 5277
3 5814 5865 5280
3 5812 4704 4673
3 4688 4704 4687
3 5277 4705 4679
3 5814 4705 4703
3 4706 3931 3932
3 4625 4706 3933
3 4709 4713 4707
3 4054 4059 4708
3 2350 3493 4711
3 4054 4708 4707
3 4072 4709 3491
3 4713 4709 265
3 4074 4716 4076
3 4057 4710 4715
3 4711 3491 4709
3 2350 4711 4708
3 4060 4712 4057
3 4707 4712 4054
3 4716 4713 265
3 4712 4713 4710
3 4733 4735 4731
3 4717 4062 4715
3 4716 4715 4710
3 4718 3472 4066
3 4076 4716 265
3 4716 4714 4719
3 4715 4719 4717
3 4717 4719 4721
3 4717 546 4718
3 4718 546 4726
3 4716 4719 4715
3 4720 4728 4727
3 4720 4733 4736
3 4725 4724 546
3 5298 4719 4714
3 4727 4728 4721
3 5288 4724 5284
3 3479 4722 5281
3 4735 4714 4074
3 4720 4723 4733
3 5299 4724 4728
3 5286 5284 5872
3 4717 4721 4725
3 4725 4721 4728
3 5288 4726 546
3 3472 4726 4722
3 5298 4727 4721
3 4723 4720 4727
3 5299 4728 4720
3 4725 4728 4724
3 2363 4729 532
3 4064 4729 2359
3 4060 4730 3468
3 4715 4730 4057
3 4073 6079 5370
3 4733 4731 416
3 4075 4732 4074
3 4073 4731 4732
3 4733 416 4736
3 4735 4733 4723
3 4736 6009 4734
3 60 6849 5868
3 4714 4735 4723
3 4731 4735 4074
3 6009 4736 416
3 4720 4736 4734
3 4744 4745 4743
3 6912 6066 6069
3 4102 4738 4111
3 4738 4737 4740
3 4102 4741 4739
3 4745 4742 4747
3 5313 4740 6912
3 4125 4740 288
3 4741 4102 4760
3 4744 4743 4746
3 10071 394 8469
3 393 6074 6062
3 4739 4741 4744
3 9159 7689 8467
3 4741 376 4744
3 376 4748 4744
3 4745 4744 4748
3 4742 4745 4753
3 4744 4746 4739
3 6066 4746 4743
3 9743 4747 10275
3 4743 4745 4747
3 5302 4119 4096
3 14906 14907 4751
3 6044 4749 6042
3 14907 14906 14905
3 6038 6039 5301
3 6049 6060 6048
3 4752 4745 4748
3 4757 4752 4758
3 4748 4754 4752
3 4749 6048 4758
3 4752 4753 4745
3 14909 4751 14907
3 376 4754 4748
3 4758 4754 4750
3 4749 6046 6048
3 4757 4751 4752
3 4755 14906 6051
3 4752 4754 4758
3 14905 59 14907
3 4758 4750 6042
3 4756 4757 4758
3 4759 6041 6040
3 6038 5301 4750
3 4118 4760 4112
3 4741 4760 4119
3 288 5313 5304
3 9743 9162 9742
3 5315 4130 4128
3 4126 5311 5312
3 5325 455 5317
3 5345 5349 5340
3 2806 4764 2804
3 4765 4764 3597
3 4775 4765 3595
3 4764 4765 4148
3 5345 5350 5366
3 4771 4777 6016
3 4774 4775 4771
3 4768 6079 4078
3 4774 4767 4770
3 4777 4771 4775
3 4079 4769 4077
3 2343 2805 4773
3 4764 4770 2804
3 4774 4770 4148
3 4778 4776 4777
3 4772 4771 4768
3 4772 4767 4774
3 4078 4772 4768
3 2804 4769 4773
3 2343 4773 4769
3 4775 4774 4148
3 4772 4774 4771
3 4765 4775 4148
3 5365 4775 3595
3 6014 6013 6010
3 5370 416 4731
3 4778 4777 4766
3 4777 4776 6016
3 5366 5350 5363
3 4778 303 6899
3 5371 4779 3281
3 6081 4779 4153
3 5374 3606 5372
3 5371 5372 4153
3 3606 5378 5381
3 5384 5386 5396
3 5406 4785 4786
3 4782 3608 4786
3 4155 4782 4783
3 4783 4782 4788
3 5450 429 5446
3 4783 4788 236
3 5404 5406 3608
3 236 4788 5475
3 5406 4786 3608
3 4785 5468 5473
3 5464 5468 4784
3 4784 5458 5462
3 5473 4782 4786
3 5475 4788 4787
3 4790 4789 3289
3 4792 4789 4165
3 3288 4790 3289
3 4162 4790 4173
3 4792 4791 3611
3 4793 14949 14957
3 4789 4792 3611
3 4792 4165 4166
3 9739 14964 9733
3 4793 14940 14945
3 4791 4167 4794
3 4167 4170 4795
3 4793 4794 4795
3 4795 4794 4167
3 14942 14940 4171
3 4793 4795 4796
3 4196 4798 4797
3 3699 4800 118
3 4804 4798 4196
3 4798 4498 4805
3 4799 4494 4499
3 4799 4798 4804
3 4808 4797 4798
3 4801 4806 4802
3 8524 8523 8522
3 4803 4801 4809
3 551 4802 4500
3 4801 4803 4806
3 4808 4800 4797
3 4809 7772 4807
3 4203 4804 4196
3 4799 4804 4195
3 4802 4805 4498
3 4803 4800 4805
3 4803 4805 4806
3 4805 4802 4806
3 5491 5493 4843
3 4809 4810 4803
3 4798 4805 4808
3 4800 4808 4805
3 8521 7772 7773
3 4809 4807 4810
3 4814 6086 4812
3 4813 3712 118
3 4810 4807 5479
3 4246 3706 4814
3 5479 4811 4810
3 5492 5493 4812
3 4810 4813 118
3 3706 4813 4811
3 6086 4814 4811
3 4246 4814 4812
3 3628 4815 3630
3 3631 4815 4201
3 5481 4816 3293
3 4208 4816 4207
3 6087 5482 7729
3 495 4818 2060
3 4819 4818 4817
3 2054 4820 2052
3 4819 4817 6088
3 3750 4819 3335
3 2060 4818 4820
3 4819 4820 4818
3 4220 4823 4215
3 6094 69 5563
3 4856 4857 5537
3 6096 6097 6095
3 5537 4218 3648
3 4823 4822 6101
3 6109 6108 6111
3 6125 4824 6130
3 6107 6141 4226
3 4228 4825 4227
3 4830 4831 5487
3 4829 4828 4227
3 4830 4827 4826
3 4827 5487 3692
3 4229 4828 3644
3 4829 4227 4825
3 4225 4829 4825
3 4826 4828 4829
3 6326 4830 4826
3 3689 9231 8621
3 4832 4831 4245
3 4831 4832 5487
3 6937 4832 4245
3 3691 4832 174
3 6193 6179 6178
3 6947 6946 6178
3 4834 4222 4835
3 3657 4834 4238
3 4222 5483 4836
3 4835 4833 6945
3 4833 4835 4836
3 4222 4836 4835
3 4238 4834 4837
3 4835 4837 4834
3 6943 4838 4239
3 6156 6128 6135
3 6115 6112 6114
3 4840 5488 4838
3 6135 6144 6145
3 4840 4839 4842
3 6116 4839 6118
3 4244 5490 4235
3 6116 4842 4839
3 5488 4842 4841
3 4812 5491 479
3 7093 7096 7097
3 3723 3735 5533
3 4855 4853 4854
3 4845 463 3647
3 3723 4844 4845
3 4847 3722 3736
3 4847 4850 4849
3 3736 3732 4847
3 5534 4849 4850
3 5545 5542 5543
3 4849 4852 4846
3 4850 4847 3732
3 4848 4851 4852
3 3743 4850 3732
3 5534 4850 3742
3 5544 5541 5542
3 5540 4251 5553
3 4848 4852 4849
3 4858 4851 4251
3 69 5539 5540
3 6097 5537 4857
3 4855 463 4844
3 4856 4854 4853
3 4844 4251 4855
3 5539 4855 4251
3 4856 4853 4857
3 4856 3648 4210
3 4853 5538 4857
3 6102 6094 5563
3 5533 4844 3723
3 4852 4858 4846
3 4860 3741 4249
3 7088 4866 4252
3 4863 4861 4862
3 4252 4859 4860
3 7102 263 7099
3 7089 458 7091
3 4863 4862 4249
3 4862 4861 7090
3 479 4863 4249
3 4863 4843 7116
3 255 4859 4866
3 5541 4864 4253
3 6362 5546 7087
3 4864 4865 5550
3 4252 4866 4859
3 4864 4866 4865
3 4263 4867 3761
3 4868 4867 3779
3 4269 4868 3779
3 4877 4868 605
3 4261 4877 4875
3 4870 4424 170
3 3770 4870 3775
3 4870 4869 4876
3 4293 4296 5604
3 4871 5605 5606
3 6435 6432 6433
3 6964 6961 7737
3 5038 4873 4350
3 4365 4375 4873
3 4907 4912 4934
3 4900 4899 166
3 4424 4875 4373
3 4869 4261 4875
3 4870 4876 4424
3 4869 4875 4876
3 4868 4877 4261
3 4280 4877 605
3 4893 4878 4378
3 4878 4369 4883
3 4400 4879 4428
3 4389 4409 4880
3 4429 4880 4411
3 4389 4880 4879
3 4882 4881 4414
3 4434 4881 4432
3 4884 4886 4896
3 4889 4886 4884
3 4878 4883 4414
3 4886 4883 4369
3 4906 4885 4903
3 4903 4889 4902
3 4892 4911 4890
3 4432 4882 4887
3 4888 4886 4369
3 4897 4887 4882
3 4897 4886 4889
3 4911 4892 4885
3 4893 4888 4369
3 4888 4874 4895
3 4884 4902 4889
3 4885 4887 4889
3 4885 4906 4905
3 4891 4890 4931
3 4434 4432 4891
3 4892 4432 4887
3 4885 4892 4887
3 4890 4891 4892
3 4878 4893 4369
3 4378 4388 4894
3 4935 4934 4912
3 4874 4888 4894
3 4899 4895 4874
3 4900 4895 4899
3 4886 4888 4896
3 4895 4896 4888
3 4886 4897 4882
3 4889 4887 4897
3 4901 4902 4900
3 4902 4901 4898
3 4921 4899 4874
3 4899 4914 4913
3 4900 166 4901
3 4884 4895 4900
3 4926 4901 166
3 4977 4916 4909
3 4902 4898 4903
3 4884 4900 4902
3 4904 4903 4898
3 4885 4889 4903
3 4901 4994 4898
3 4904 444 4905
3 4905 444 4919
3 4885 4905 4911
3 4903 4904 4906
3 4905 4906 4904
3 594 4936 4894
3 591 4915 4938
3 4967 4927 4989
3 4916 4918 4909
3 4917 4918 4916
3 4971 4909 4969
3 444 4978 4985
3 4932 4919 5608
3 4932 4905 4919
3 4930 4920 611
3 4894 4936 4935
3 4913 4914 4908
3 4899 4921 4914
3 4917 4916 4926
3 4907 4924 4912
3 4915 591 4928
3 4914 4924 4915
3 4924 4925 4938
3 166 4913 4917
3 4974 4909 4971
3 4913 4908 4917
3 4908 4927 4917
3 4927 4918 4917
3 4989 4966 4967
3 444 4985 5002
3 4932 4920 4911
3 4911 4905 4932
3 5650 5080 5651
3 4935 4921 4874
3 4914 4921 4912
3 4923 594 4360
3 595 4943 4363
3 4360 4345 4923
3 4363 4943 4944
3 4912 4924 4914
3 4925 4924 4907
3 4907 4947 4960
3 4962 4964 4925
3 4917 4926 166
3 4995 4916 4977
3 4928 4908 4915
3 4927 4908 4928
3 591 4953 4928
3 4954 4953 4939
3 9786 237 10093
3 4940 4969 4909
3 4941 4931 4930
3 4890 4920 4930
3 4941 4930 611
3 4931 4941 4437
3 4910 5608 4919
3 4986 4942 4920
3 247 5082 5080
3 4942 4933 4987
3 4912 4921 4935
3 4947 4922 4945
3 4894 4935 4874
3 4922 4934 4935
3 4923 4936 594
3 4935 4936 4922
3 4948 4951 4946
3 4922 4923 4945
3 4924 4938 4915
3 4938 4925 6440
3 5612 5614 4938
3 4939 4965 4954
3 4918 4927 4967
3 4940 4966 4968
3 4941 611 5609
3 4437 4941 4435
3 4932 5608 4986
3 5084 4957 4987
3 595 5635 4950
3 4944 4943 4937
3 4944 4937 4945
3 4363 4944 4345
3 4944 4945 4923
3 4945 4937 4948
3 4950 4948 4937
3 4962 4925 4960
3 4922 4947 4934
3 4948 4947 4945
3 4937 4943 4950
3 4947 4948 4946
3 4961 5006 5007
3 4951 4952 4946
3 595 4950 4943
3 4950 4949 4951
3 4950 4951 4948
3 4952 4951 4949
3 4999 4988 4998
3 4952 238 4962
3 591 4938 5614
3 4965 4939 5626
3 4966 4954 4929
3 4953 4954 4989
3 4929 9786 9787
3 4981 4983 4973
3 4956 4910 5016
3 4933 4942 4956
3 5094 5096 5610
3 4987 5609 4942
3 4958 4959 4435
3 4958 5609 5610
3 4959 4439 4440
3 5096 4959 4958
3 4962 4946 4952
3 4907 4960 4925
3 4999 4949 5017
3 5037 6453 5022
3 4962 238 4964
3 4960 4946 4962
3 5624 5623 5611
3 4953 5613 4939
3 5623 4964 238
3 4964 4963 6440
3 9786 10093 9783
3 4929 4954 4965
3 4968 4966 4929
3 4940 4918 4967
3 4989 4927 4928
3 4940 4967 4966
3 9787 4968 4929
3 4969 4968 4955
3 4968 4969 4940
3 4971 4969 4972
3 4990 4972 4969
3 4970 4972 5000
3 4969 4955 4990
3 4974 4971 4976
3 5647 5040 5045
3 4970 4971 4972
3 4973 4974 4976
3 4904 4978 444
3 4976 4971 4970
3 4974 4973 4977
3 4904 4996 4978
3 4982 4981 4979
3 4970 4979 4976
3 4973 4976 4981
3 5634 4994 4977
3 4994 4901 4995
3 4996 4904 4898
3 4985 4983 4984
3 4970 5000 4993
3 4979 195 4982
3 5048 5011 5047
3 444 5002 4919
3 4979 4981 4976
3 4983 4981 4980
3 4982 195 5014
3 4981 4982 4980
3 4983 4980 4984
3 4983 4975 5634
3 5013 5003 5010
3 4910 4919 4997
3 4983 4985 4975
3 4985 4984 5002
3 4932 4986 4920
3 4956 4942 4986
3 4933 5651 5084
3 4987 4957 5609
3 4961 5645 7158
3 7160 7165 7163
3 4953 4989 4928
3 4966 4989 4954
3 9787 4990 4955
3 445 4972 4990
3 4972 5001 5000
3 195 4979 4993
3 4992 5040 5030
3 4970 4993 4979
3 5046 5014 195
3 5634 4977 4973
3 4996 4994 5634
3 4916 4995 4926
3 4977 4994 4995
3 4978 4996 4975
3 4898 4994 4996
3 4984 5010 4997
3 5016 5015 5004
3 4999 4952 4949
3 4988 7160 7163
3 5017 5635 5005
3 7161 5006 4961
3 5001 4972 445
3 4993 5000 4992
3 5024 5001 445
3 5026 5041 5027
3 4984 4997 5002
3 4919 5002 4997
3 4984 5013 5010
3 5012 5056 5004
3 5012 4997 5010
3 5052 5003 5048
3 4372 5020 595
3 5006 4999 5018
3 4988 4999 5006
3 4999 5017 5018
3 5007 5018 5032
3 4374 5023 57
3 4929 4965 9786
3 10101 10104 10100
3 4980 5028 5013
3 5001 5039 4992
3 5012 5010 5003
3 5028 4982 5014
3 5014 5047 5028
3 5003 5052 5062
3 5012 5004 5015
3 4980 5013 4984
3 5003 5013 5011
3 195 4993 5030
3 5028 5047 5011
3 5012 5015 4997
3 5016 5004 247
3 247 5080 5650
3 4910 5015 5016
3 5635 5017 4949
3 5018 5017 5005
3 5032 5018 5005
3 5006 5018 5007
3 5005 595 5020
3 5034 4309 4321
3 4372 4324 5021
3 5020 5019 5032
3 4344 4309 5021
3 5021 4309 5034
3 5038 5037 4365
3 4961 5007 5036
3 5022 5036 5033
3 5023 5033 5035
3 9787 9788 445
3 5026 5025 5039
3 5001 5024 5026
3 5058 5043 5070
3 5008 5041 5024
3 10101 5027 5041
3 5043 5042 5009
3 5025 5026 5027
3 5013 5028 5011
3 4982 5028 4980
3 7911 7909 7905
3 5051 7904 5049
3 4993 4992 5030
3 4992 5039 5040
3 5014 5060 5047
3 5050 5051 5061
3 5020 5032 5005
3 5034 5035 5019
3 5022 5033 5023
3 5007 5032 5033
3 57 5034 4321
3 5021 5034 5019
3 5019 5035 5033
3 57 5035 5034
3 5033 5036 5007
3 5036 5022 6453
3 4365 4873 5038
3 5022 5023 5037
3 6441 5038 4350
3 5645 4961 5036
3 5026 5039 5001
3 5039 5025 5040
3 5070 5045 5058
3 5029 5647 5069
3 5024 5041 5026
3 5041 5008 10101
3 5045 5044 4991
3 5027 167 5042
3 5025 5027 5043
3 5045 4991 5075
3 5009 5044 5070
3 5025 5058 5040
3 5030 5059 5046
3 5053 5060 5059
3 5060 5014 5046
3 5047 5031 5048
3 5031 5049 5048
3 5048 5049 5052
3 5051 5049 5031
3 5052 5049 475
3 5053 5061 5051
3 7905 9791 7911
3 5053 5051 5031
3 5050 7902 5051
3 7901 475 7904
3 5056 5003 5062
3 5060 5053 5031
3 5053 5029 5061
3 5054 8685 5068
3 5065 5004 5056
3 7911 7912 7909
3 5056 5062 5063
3 5056 5012 5003
3 5055 7900 5063
3 5043 5058 5025
3 5059 5647 5029
3 5045 5040 5058
3 5647 5059 5030
3 5053 5059 5029
3 5047 5060 5031
3 5059 5060 5046
3 5076 5029 5069
3 5071 5077 49
3 475 5062 5052
3 5063 5062 5055
3 5066 5063 5054
3 5004 5065 247
3 5064 5066 5068
3 5072 5064 5074
3 5056 5063 5065
3 5065 5063 5066
3 5067 5068 8685
3 5066 5064 5072
3 5131 154 5128
3 5091 5090 5081
3 5054 5068 5066
3 5674 5673 5677
3 5648 5057 5069
3 5029 5076 5061
3 5009 5070 5043
3 5045 5070 5044
3 5050 5061 5071
3 5061 5076 5649
3 5064 5079 5074
3 247 5065 5072
3 4957 5085 4450
3 5074 5082 5072
3 5064 5068 5079
3 5074 5073 5080
3 5648 5075 4991
3 5647 5075 5069
3 5069 5057 5076
3 5649 5076 5057
3 5677 6515 5676
3 5649 5077 5071
3 5090 587 5086
3 5675 5068 5067
3 5079 5078 5081
3 5073 5087 5651
3 5650 4933 4956
3 5081 5078 5091
3 5074 5081 5073
3 5072 5082 247
3 5074 5080 5082
3 5090 5086 5087
3 5085 4957 5084
3 4933 5084 4987
3 5084 5083 5085
3 5083 5086 5085
3 5085 5086 5088
3 5087 5086 5083
3 5086 587 5088
3 5087 5083 5651
3 5087 5073 5090
3 5098 5652 5100
3 5101 5097 5098
3 5120 5089 5130
3 5116 5107 632
3 5081 5090 5073
3 5090 5089 5119
3 5127 5091 5078
3 5090 5091 5089
3 3796 5092 3821
3 3787 5092 3810
3 3784 5093 4446
3 4449 5093 170
3 52 3820 5096
3 5097 5094 4450
3 3814 5095 3816
3 5096 5095 52
3 4959 5096 3820
3 5096 4958 5610
3 4450 5088 5097
3 5098 5097 5088
3 5652 5088 587
3 5101 3815 3816
3 5120 5113 5118
3 5107 5104 5105
3 5652 5098 5088
3 5105 5104 5106
3 5097 5101 5094
3 3815 5101 5098
3 3815 5105 5106
3 4451 4452 5103
3 3816 5103 4453
3 4451 5103 5102
3 3815 5100 5105
3 5108 4451 5102
3 5100 5099 5105
3 5105 5099 5111
3 5106 5104 5108
3 3815 5106 5102
3 5111 5113 5107
3 5657 5107 5121
3 5116 5114 5115
3 5110 5122 5109
3 4451 5108 5110
3 5110 5108 5115
3 5108 5104 5115
3 5124 5110 5125
3 5113 5111 5099
3 5107 5105 5111
3 5118 5113 5099
3 5658 6488 6474
3 5099 5652 5118
3 5113 5112 5129
3 7184 5663 6457
3 5122 5655 5109
3 5116 5115 5104
3 5115 5114 5122
3 5107 5116 5104
3 5116 632 7184
3 5125 5117 5124
3 6510 5670 6513
3 587 5119 5118
3 5119 5120 5118
3 5090 5119 587
3 5119 5089 5120
3 5091 5127 5130
3 5128 5668 5665
3 5662 5659 5121
3 632 5107 5657
3 5115 5122 5110
3 6458 5114 7184
3 4451 5123 4452
3 5117 9274 8707
3 5117 5123 5124
3 4451 5124 5123
3 5655 5656 5109
3 5126 5125 5109
3 6510 5126 112
3 6511 9274 6512
3 5133 5671 6514
3 5127 5131 5128
3 5112 5120 5128
3 5128 5120 5130
3 5129 5112 5665
3 5107 5129 5121
3 5091 5130 5089
3 5128 5130 5127
3 5674 5672 5127
3 6464 6468 5669
3 5672 5133 5131
3 8001 5676 8000
3 5131 5127 5672
3 5669 6462 6464
3 5135 5134 3827
3 7971 8702 7977
3 5135 3827 4458
3 3037 5136 3034
3 2537 7989 15105
3 4460 5135 5136
3 4468 5137 3348
3 4471 430 5137
3 4509 6581 4488
3 9183 8526 9181
3 5678 5139 4489
3 9180 5139 5138
3 5141 4492 4486
3 4503 5140 4494
3 4494 5140 5141
3 4492 5141 5140
3 3855 4543 5144
3 5143 5145 5708
3 5145 5144 4543
3 5708 5711 5712
3 4543 4546 5145
3 5143 5680 5159
3 5711 4545 4544
3 5143 5144 5145
3 6567 6566 5731
3 386 5150 5149
3 4520 5147 4521
3 5149 5147 5146
3 5147 4520 5148
3 4526 5148 4520
3 5146 6565 6561
3 5150 386 4467
3 4463 5147 5150
3 5149 5150 5147
3 3840 5679 5161
3 5152 5151 4531
3 4533 5152 4531
3 5153 5152 4525
3 4538 5153 4525
3 3836 5154 358
3 5151 5154 3835
3 358 5154 5153
3 5682 5683 5159
3 5156 4532 4531
3 5155 5158 5156
3 5160 4519 5156
3 5155 5682 5158
3 5162 5160 5157
3 5155 5679 5682
3 5160 5158 5157
3 5143 5159 5144
3 5159 5681 5682
3 5157 5681 5162
3 4526 5167 4528
3 3840 5161 5151
3 5156 5161 5155
3 5165 5162 5142
3 5164 4528 5167
3 5142 5710 5165
3 5733 5163 5729
3 5164 5162 5165
3 5164 5163 14985
3 5710 5142 5709
3 5164 5165 5163
3 5146 5166 4527
3 4528 5164 5166
3 4519 5160 5167
3 5164 5167 5160
3 3849 5168 3367
3 5169 5168 3368
3 3361 3363 5170
3 4540 5169 5171
3 2638 6598 619
3 5171 3848 5173
3 5169 5170 5171
3 6602 6595 6596
3 6602 5766 3848
3 5174 5175 5684
3 5171 5173 4540
3 5766 5173 3848
3 5177 5174 4541
3 3367 5168 5176
3 5684 5175 34
3 5176 5175 5174
3 5175 5176 5172
3 5176 5174 5177
3 5177 3367 5176
3 5177 4541 5180
3 5178 5180 5691
3 5178 5691 5692
3 5177 5179 3853
3 5179 5178 5694
3 5691 5180 4541
3 5179 5180 5178
3 5697 4544 5695
3 5693 5695 4545
3 4548 5182 3386
3 9381 4547 9379
3 3874 4550 14913
3 6498 7237 4552
3 5192 5196 5187
3 5193 5207 5189
3 5206 3985 3983
3 5207 5193 5210
3 8244 8214 8238
3 5186 5213 5197
3 8228 5187 8239
3 5187 5186 5192
3 5206 3981 3985
3 5190 5188 5194
3 5207 5208 5215
3 3982 5200 466
3 5194 5188 5185
3 5189 5209 5218
3 5202 466 5201
3 5189 5207 5209
3 5186 5197 5192
3 5184 5205 5197
3 5193 5184 5210
3 5189 5190 5193
3 5184 5194 5185
3 5190 5194 5193
3 3973 5190 5195
3 5203 5212 5189
3 4561 5196 4560
3 5187 5196 4589
3 8213 8218 8215
3 5205 5185 5198
3 5206 5198 5185
3 4560 5192 5198
3 5197 5213 5214
3 5208 5199 5794
3 3975 3974 5211
3 466 5200 5195
3 466 5195 5201
3 5195 5190 5212
3 4602 5202 5191
3 5202 4592 5251
3 5191 5201 5203
3 5201 5195 5212
3 5793 4615 5255
3 5214 5184 5197
3 5185 5205 5184
3 5192 5205 5198
3 5206 5185 5188
3 3983 5198 5206
3 5199 5208 5207
3 40 5255 5215
3 5214 5797 5199
3 5208 40 5215
3 5209 5215 5216
3 5218 5203 5189
3 5214 5210 5184
3 5207 5210 5199
3 5195 5211 3973
3 3975 5211 5200
3 5189 5212 5190
3 5201 5212 5203
3 8218 5213 8238
3 5213 5204 5214
3 5794 5797 5792
3 5210 5214 5199
3 5216 5215 4611
3 5215 5209 5207
3 4611 4594 5216
3 5216 4594 5217
3 4596 5217 4594
3 4602 5191 5217
3 5203 5218 5191
3 5216 5218 5209
3 4569 5219 4568
3 3953 4576 5219
3 5225 5226 5223
3 5229 5803 5804
3 5810 5234 4664
3 5222 5227 318
3 5220 5226 5225
3 5230 5227 5222
3 5229 5228 4639
3 5225 5808 5222
3 5807 5806 5234
3 5224 5241 5237
3 5226 5220 3947
3 5225 5223 5808
3 3947 4643 5226
3 5228 4643 4639
3 5230 5222 5221
3 5233 5227 5224
3 4639 5802 5229
3 5223 5226 5228
3 5803 4653 4663
3 5805 5803 4665
3 5807 5221 5806
3 5224 5227 5230
3 5819 5813 5818
3 5239 5240 5232
3 5807 5230 5221
3 5240 5231 5820
3 5232 5241 5224
3 5233 4573 4575
3 5810 4664 4687
3 5240 5239 5231
3 5245 5243 5242
3 5240 5241 5232
3 5246 5247 5827
3 4578 4573 5238
3 5224 5237 5233
3 5236 5238 5237
3 5243 5238 5236
3 4571 5238 5249
3 5807 5239 5232
3 5239 5234 5815
3 5820 5231 5819
3 5240 5235 5241
3 5244 5241 5235
3 5237 5241 5236
3 5243 5236 5244
3 5827 5242 5243
3 5236 5241 5244
3 5242 6619 5245
3 5246 5244 5235
3 5243 5244 5827
3 5248 5245 6619
3 4581 5249 5248
3 5826 5235 5820
3 5246 496 5247
3 7402 6611 7401
3 6619 6614 6616
3 7408 5248 321
3 5249 4581 4571
3 5243 5249 5238
3 5248 5249 5245
3 6616 6620 321
3 6739 500 6740
3 5202 5251 466
3 4592 4593 5252
3 3986 5252 4005
3 3993 5251 5252
3 6743 6742 2702
3 5835 5831 5253
3 4611 5215 5255
3 4617 5254 4615
3 5208 5794 40
3 4615 5254 5255
3 8172 8153 6746
3 3121 3373 7466
3 5836 5839 6745
3 15570 14897 15569
3 4621 5258 4606
3 15571 4622 4620
3 5845 5849 14986
3 5845 5842 5259
3 5270 5266 5260
3 5852 5858 6779
3 5856 5261 6782
3 5843 5845 14986
3 5263 5262 4694
3 5263 5264 5262
3 5272 5263 4694
3 5265 5264 5263
3 5264 4669 4667
3 5265 5263 471
3 5266 5265 471
3 5265 5266 5270
3 5269 471 5271
3 5266 471 5269
3 7599 7592 7598
3 5266 5268 6756
3 6778 6776 5267
3 6755 5854 5859
3 5271 471 5273
3 5268 5269 5267
3 5859 5270 5260
3 4668 4657 5270
3 5274 5271 5273
3 4699 5861 5274
3 5276 5272 4694
3 5272 4701 5273
3 5273 471 5263
3 5274 5273 4701
3 4701 4699 5274
3 4699 9584 5861
3 5862 5275 6846
3 5864 5267 5863
3 4697 5276 4694
3 4700 5276 4691
3 240 5278 4685
3 5277 4685 5278
3 6823 6799 6808
3 5279 4686 5865
3 5277 5278 5279
3 6820 6819 6802
3 6829 6818 6832
3 160 5811 5812
3 5288 5287 4722
3 5872 4724 5870
3 3477 5281 5283
3 6850 4724 5299
3 5284 5286 5287
3 5289 5283 5282
3 5282 5283 5286
3 5286 5283 5287
3 5289 5282 5877
3 5290 3477 5283
3 5287 5283 5281
3 5286 5872 5871
3 5281 4722 5287
3 4722 4726 5288
3 4724 5288 546
3 5284 5287 5288
3 5877 5282 5874
3 5289 5285 5290
3 5285 5886 5895
3 5290 5285 5291
3 5291 182 5293
3 5291 5296 5290
3 5292 5293 5907
3 5292 5907 5936
3 5894 5908 182
3 5982 5297 5293
3 5292 5938 5981
3 5295 3478 3482
3 3477 5295 3484
3 5295 5294 5989
3 5294 5295 5296
3 5296 5295 3477
3 5982 5293 5292
3 5294 5296 5297
3 4719 5298 4721
3 4714 4723 5298
3 4734 5866 4720
3 5868 6849 5299
3 6010 6009 416
3 6017 6031 6019
3 5301 6039 5302
3 6040 5301 4759
3 9720 5302 9721
3 5301 5302 4759
3 4128 4132 5304
3 6062 5305 5307
3 288 4740 5313
3 5303 5304 6071
3 5320 5309 5318
3 5307 5308 5303
3 4746 6066 6912
3 5303 6071 4761
3 6062 5307 4761
3 5308 5307 5305
3 5310 6073 6075
3 6074 6072 5305
3 6920 6917 5323
3 5325 5316 5323
3 6073 5308 5305
3 5310 5316 5312
3 6073 5305 6072
3 5311 5310 5312
3 5316 5310 5318
3 5327 5317 455
3 6912 4740 4737
3 5313 5306 6071
3 5328 5315 4762
3 4126 5312 5314
3 4126 5315 4128
3 4762 5315 5314
3 5323 5316 5309
3 5316 5325 5317
3 5314 5317 4762
3 5316 5317 5312
3 6073 5310 5311
3 5309 5316 5318
3 6065 7687 393
3 5320 5319 5326
3 5310 5320 5318
3 6076 5322 5326
3 6918 5322 6915
3 5356 6078 5368
3 7701 7713 7699
3 5326 6921 5320
3 6920 6921 6918
3 5321 5324 5325
3 5361 5368 6078
3 5367 5331 5359
3 5321 5325 5323
3 455 5325 5324
3 6076 5326 5319
3 6918 6921 5322
3 4127 5327 4134
3 5317 5327 4762
3 4129 5328 4127
3 5315 5328 4130
3 5329 5330 5331
3 5367 5351 5329
3 5327 5330 4134
3 5331 5330 455
3 455 5324 5331
3 5331 5324 5359
3 5332 5335 5334
3 5333 4141 4143
3 3564 5333 4143
3 5333 5332 5334
3 5334 4145 4141
3 5332 5351 5335
3 5335 4763 5341
3 287 5334 5335
3 5355 5338 5357
3 5343 303 4778
3 5337 5340 5344
3 5342 5347 287
3 5356 5357 5358
3 5346 5342 5338
3 6028 6036 6030
3 6037 6024 6027
3 3263 4147 5344
3 5340 5337 5345
3 5341 4763 5358
3 5341 5338 5342
3 5346 5338 5355
3 5342 5346 5347
3 5364 4778 4766
3 5343 5339 6027
3 5344 3587 5348
3 3263 5344 5340
3 5337 5362 5350
3 5345 5337 5350
3 5350 5346 5336
3 5347 5346 5362
3 5348 5337 5344
3 3584 14927 3589
3 14927 3587 3589
3 5337 5348 5347
3 5349 3595 4765
3 5340 5349 3598
3 5336 5363 5350
3 5339 5343 5354
3 5335 5351 4763
3 5352 5351 5332
3 5332 5333 5353
3 5352 4134 5330
3 4134 5353 4133
3 5353 5352 5332
3 4766 4775 5365
3 5354 5366 5363
3 5338 5358 5357
3 5336 5346 5355
3 5356 5368 6030
3 5355 5357 5336
3 5338 5341 5358
3 5357 5356 6033
3 5351 5367 4763
3 5359 5324 5360
3 5360 5324 5321
3 5367 5358 4763
3 5361 5360 5321
3 5359 5360 6078
3 5321 6917 6919
3 5361 76 5368
3 5350 5362 5346
3 5337 5347 5362
3 5336 6032 6035
3 5354 5363 5339
3 4778 5364 5343
3 4766 5354 5364
3 3595 5345 5366
3 4766 5365 5354
3 5354 5365 5366
3 5366 5365 3595
3 5331 5367 5329
3 5358 5367 5359
3 6029 6032 6036
3 6078 5356 5358
3 6015 5369 6016
3 6009 6013 5300
3 4073 5370 4731
3 6010 5370 5369
3 3281 7242 7235
3 5372 5371 4780
3 5372 4780 5375
3 5372 3606 5477
3 6506 6504 7258
3 6473 7914 457
3 5373 5376 5374
3 5384 5477 5381
3 5375 4780 6506
3 5374 5375 5373
3 6503 7192 6492
3 5376 427 5379
3 5378 5374 5379
3 5408 5419 5392
3 5374 5376 5379
3 5382 5381 5378
3 5414 5379 427
3 5377 5378 5379
3 5380 5382 5383
3 5391 5385 5386
3 5382 5378 5377
3 5384 5381 5380
3 5383 5382 5377
3 5380 5381 5382
3 5377 5415 5408
3 5393 5383 5421
3 5386 5384 5380
3 5384 4781 5477
3 6080 5391 5386
3 2887 2889 5390
3 5393 6080 5383
3 5386 5385 5388
3 5404 4154 5402
3 5399 2887 5398
3 5398 5390 5397
3 5388 5389 5395
3 5397 5388 5385
3 5390 3275 3272
3 2881 5390 2889
3 5389 5388 5397
3 6080 5386 5380
3 5399 5398 5400
3 5411 5436 5438
3 5416 5421 5408
3 5393 128 5410
3 5387 5391 6080
3 5403 5394 5401
3 4784 5427 5426
3 593 3286 6081
3 5396 5395 4781
3 5384 5396 4781
3 5386 5388 5396
3 5398 5397 5385
3 5389 5397 5390
3 5385 5391 5400
3 5401 5394 5402
3 5385 5400 5398
3 5399 5401 5402
3 5391 5387 5400
3 5387 5403 5401
3 5399 5400 5401
3 5387 5401 5400
3 5404 5402 5394
3 4154 592 5402
3 5393 5403 5387
3 5407 5405 5409
3 5409 5406 5404
3 4154 5404 3608
3 5407 5394 5403
3 5407 5410 5412
3 5409 5404 5394
3 5427 5406 5405
3 5403 5410 5407
3 5430 5422 5411
3 5414 5415 5379
3 5408 5392 5416
3 5407 5409 5394
3 5405 5406 5409
3 5393 5410 5403
3 5423 5421 5416
3 5430 5412 5423
3 5417 5428 5426
3 5423 5410 128
3 5430 5424 5412
3 7194 5376 6492
3 5420 5432 5419
3 7193 427 7192
3 5415 5414 5413
3 5415 5413 5419
3 5379 5415 5377
3 5416 5392 5422
3 5410 5423 5412
3 5417 5424 5431
3 5427 4784 4785
3 5407 5412 5418
3 5418 5412 5424
3 5415 5419 5408
3 5419 5413 5420
3 427 7194 7192
3 7227 7216 5441
3 5393 5421 128
3 5408 5421 5383
3 5392 5429 5422
3 5411 5422 5436
3 5421 5423 128
3 5430 5416 5422
3 5431 5424 5411
3 5418 5424 5417
3 5442 5440 5435
3 5458 5426 5428
3 5405 5417 5426
3 5417 5431 5428
3 5406 5427 4785
3 5405 5426 5427
3 429 5466 5425
3 5458 5466 5456
3 5432 5429 5392
3 5444 5441 5442
3 5430 5411 5424
3 5416 5430 5423
3 5438 5431 5411
3 5428 5431 5425
3 5419 5432 5392
3 428 5432 5420
3 5440 5442 6925
3 5445 5439 5434
3 14933 14932 5433
3 5436 5422 5437
3 5439 5438 5435
3 5437 5422 5429
3 5438 5436 5435
3 5444 5429 428
3 5435 5436 5437
3 5435 5440 5439
3 5438 5425 5431
3 14931 6083 7957
3 5439 5446 5448
3 5442 5435 5437
3 5434 5439 5440
3 7210 7208 6924
3 14930 14928 14929
3 5437 5429 5444
3 5441 6925 5442
3 5449 5454 5455
3 5445 5446 5439
3 5444 428 7227
3 5437 5444 5442
3 14929 5445 5434
3 5446 5445 5443
3 5451 5455 5454
3 5446 429 5448
3 429 5425 5448
3 5453 5450 5446
3 5438 5448 5425
3 5449 5460 5457
3 5450 5456 429
3 5453 5443 5451
3 5456 5450 5457
3 5447 5451 14935
3 5453 5454 5450
3 5457 5452 5456
3 5474 4787 5468
3 5443 5453 5446
3 5454 5453 5451
3 5455 5451 5447
3 5450 5454 5449
3 5467 6084 5
3 14975 14974 14972
3 5457 5450 5449
3 5462 5458 5452
3 5447 6084 5455
3 5460 5470 5457
3 5426 5458 4784
3 5466 5458 5428
3 14953 14954 6053
3 14937 5463 14946
3 5460 5472 5467
3 5465 5470 14966
3 5462 5452 5465
3 5447 5461 6084
3 4784 5462 5464
3 14941 14966 14967
3 14942 5476 14936
3 5471 5462 5465
3 4172 5475 5476
3 5452 5457 5470
3 6085 5471 5465
3 5425 5466 5428
3 5456 5466 429
3 5459 5460 5467
3 5460 5449 5472
3 4787 4788 5473
3 4784 5468 4785
3 5471 5464 5462
3 5469 6085 14936
3 14967 5460 5459
3 5452 5470 5465
3 6085 5465 5463
3 5471 6085 5474
3 5449 5455 5472
3 6084 5472 5455
3 4785 5473 4786
3 4787 5473 5468
3 5471 5474 5464
3 5469 5476 5475
3 236 5475 4172
3 4787 5474 5475
3 14936 5476 5469
3 5476 4171 4796
3 5477 3606 5381
3 6081 5477 4781
3 5478 5479 5480
3 5499 5492 5497
3 5480 5479 4807
3 5479 5478 6086
3 7770 7779 7774
3 483 7022 5508
3 5481 4207 4816
3 4818 5481 4817
3 6089 5482 6088
3 3293 6091 6089
3 4223 5483 4222
3 6100 5483 4821
3 5536 5547 5558
3 6106 6283 6263
3 312 4237 6108
3 4824 6125 6132
3 6170 8614 65
3 6323 6326 4826
3 3692 5487 3690
3 4830 5487 4827
3 4838 5488 4242
3 4842 5488 4840
3 6118 6129 6136
3 6120 4824 6112
3 5488 5490 4242
3 5490 4841 6119
3 4812 6086 5492
3 4863 5491 4843
3 5480 483 5496
3 5493 5494 4843
3 4812 5493 5491
3 5494 5493 5492
3 5496 5497 5478
3 5494 263 7102
3 5501 5505 5507
3 5498 5509 7117
3 5497 5496 5495
3 5478 5480 5496
3 5495 5498 5499
3 5478 5497 5492
3 5502 5498 5495
3 5509 5498 5502
3 5492 5499 5494
3 5495 5499 5497
3 5505 5501 5502
3 5521 5520 5525
3 5505 5495 5508
3 5513 5504 5509
3 5495 5496 5508
3 5513 5509 5501
3 7022 5503 5508
3 5507 5510 5511
3 5501 5507 5511
3 5515 7106 7105
3 5495 5505 5502
3 5507 5505 7766
3 7022 7023 7766
3 7025 7024 7028
3 7766 5505 5503
3 5510 5507 5506
3 483 5508 5496
3 5505 5508 5503
3 5501 5509 5502
3 5504 7103 7117
3 7027 7031 7028
3 5510 5500 5511
3 5514 5511 5500
3 5501 5511 5513
3 5514 5500 5519
3 5513 5516 5504
3 5514 5513 5511
3 5516 5513 5518
3 5500 7033 5519
3 5521 5518 5514
3 5512 7068 7067
3 7067 5515 5518
3 5518 5513 5514
3 7105 5516 5515
3 6343 6344 6337
3 5520 5521 5519
3 7067 5518 5512
3 5516 5518 5515
3 5500 7032 7033
3 5519 5517 5520
3 7050 7051 5532
3 5521 5525 5512
3 5518 5521 5512
3 5519 5521 5514
3 6331 5530 5531
3 205 7069 7068
3 71 7051 7050
3 5523 5526 5528
3 5517 7042 7050
3 5524 6329 5528
3 5520 5532 5526
3 7068 5525 5523
3 5523 5525 5526
3 5520 5526 5525
3 6331 5531 6334
3 5523 5529 205
3 5524 5528 5526
3 5528 5527 5529
3 6334 5529 5527
3 7081 7084 6360
3 6330 6331 6334
3 6361 6340 6358
3 5527 6329 6330
3 6360 7084 7086
3 7050 5532 5517
3 5526 5532 5524
3 4847 5533 3722
3 4858 5533 4846
3 4864 5534 3742
3 4849 5534 4848
3 5555 5545 459
3 69 5538 5539
3 5547 4851 5544
3 5555 5556 5545
3 4823 5537 4822
3 4856 5537 3648
3 5539 5538 4853
3 69 6094 6095
3 4855 5539 4853
3 5540 5539 4251
3 5553 4251 4851
3 69 5540 5536
3 5542 5541 4253
3 5534 5541 4848
3 5542 4253 5543
3 5542 5535 5544
3 7087 5549 5550
3 5543 4253 5549
3 5547 5544 5535
3 4851 4848 5544
3 5570 5571 6367
3 5542 5545 5535
3 72 6416 6415
3 5549 5552 5543
3 5545 5556 5535
3 5553 5547 5536
3 5575 5577 5572
3 69 5561 5563
3 5550 5549 4253
3 5552 5549 6413
3 4864 5550 4253
3 7088 7087 4865
3 6412 6406 6363
3 5592 6374 6379
3 6413 5549 5546
3 459 5552 5551
3 5540 5553 5536
3 4851 5547 5553
3 6378 6396 6391
3 5557 5560 5554
3 6369 6368 5554
3 5555 5554 5556
3 5554 6365 5557
3 5535 5556 5559
3 6103 5484 6099
3 5561 5536 5558
3 5560 5558 5559
3 5536 5561 69
3 5560 5559 5556
3 5547 5559 5558
3 5554 5560 5556
3 5560 5557 5564
3 5564 5558 5560
3 6099 6092 6098
3 5564 5563 5561
3 5564 5557 5565
3 5558 5564 5561
3 6102 6103 6099
3 5565 5557 5548
3 5563 5564 5567
3 5569 5568 5565
3 5563 5567 5562
3 5569 5548 5571
3 5566 5577 5581
3 5564 5565 5567
3 5568 5567 5565
3 5569 5565 5548
3 6281 6103 6105
3 6368 6367 6371
3 5569 5572 5574
3 5570 5575 5572
3 5571 5572 5569
3 6368 6371 6365
3 5572 5571 5570
3 5575 5576 5591
3 5572 5566 5574
3 5588 5590 5583
3 5577 5566 5572
3 6105 5574 5566
3 5569 5574 5568
3 5576 5575 5570
3 5575 5573 5577
3 5570 6367 6370
3 176 5587 5591
3 5573 5578 5577
3 5581 5577 5582
3 5593 5590 5588
3 5581 5582 5579
3 6236 6986 6233
3 6263 6228 6279
3 5582 5577 5578
3 15095 15098 15091
3 5566 6106 6105
3 5578 585 5582
3 7004 7008 585
3 5584 5585 5586
3 5586 5573 5587
3 5586 5578 5573
3 7126 5583 7127
3 5586 5585 5578
3 7128 5585 5584
3 5573 5591 5587
3 5584 5586 5588
3 5590 5593 6398
3 5584 5588 5583
3 5587 5596 5586
3 176 5595 5587
3 348 15075 15084
3 5598 5590 5597
3 5586 5596 5588
3 5597 5590 5589
3 5575 5591 5573
3 176 5591 5576
3 5576 5570 6370
3 5592 6379 6383
3 5595 5593 5587
3 6392 5592 6383
3 5594 5597 15087
3 5598 5583 5590
3 176 6375 6374
3 5593 5595 5592
3 5587 5593 5596
3 5588 5596 5593
3 15104 5589 15088
3 5597 5594 5598
3 5599 5594 15098
3 5598 5594 5599
3 7127 7817 6428
3 7129 7817 7127
3 5602 4299 4338
3 7817 7129 5600
3 5599 5580 5601
3 5605 5602 4293
3 8610 8605 8609
3 6429 5605 5603
3 4277 5604 4296
3 5605 5604 5603
3 5605 6429 5606
3 5605 4871 5602
3 5606 6432 6431
3 5607 6430 6431
3 4298 4871 6430
3 4872 6955 6956
3 4910 4956 5608
3 4986 5608 4956
3 5610 5609 4957
3 5609 4958 4435
3 4957 4450 5610
3 5610 4450 5094
3 238 4998 7163
3 5613 5612 5617
3 5617 5618 5615
3 4953 591 5614
3 5617 5612 5622
3 5624 5615 5618
3 5612 5613 5614
3 4953 5614 5613
3 5631 5630 5627
3 5620 5621 5626
3 5619 5632 5629
3 7898 8677 7899
3 5612 6440 5622
3 5619 5617 5615
3 5623 5618 4963
3 5618 5623 5624
3 5631 5633 5630
3 5619 5616 5620
3 5621 5620 5616
3 4939 5613 5620
3 5629 9248 5616
3 237 4965 5626
3 4963 5618 5622
3 5617 5622 5618
3 4964 5623 4963
3 238 7163 7164
3 5611 7167 7166
3 5625 5624 5611
3 5630 5625 608
3 5624 5625 5633
3 5620 5626 4939
3 237 5626 5621
3 608 7181 7866
3 5629 5616 5619
3 7897 7898 5627
3 607 8678 7898
3 5632 5619 5615
3 8677 9252 7899
3 7873 608 7866
3 5627 7899 5631
3 5628 5632 5631
3 5633 5632 5615
3 5629 5632 5628
3 5633 5615 5624
3 5630 5633 5625
3 5632 5633 5631
3 4983 5634 4973
3 4996 5634 4975
3 4950 5635 4949
3 595 5005 5635
3 5637 4350 4404
3 5639 5637 5640
3 4392 5640 4404
3 5641 6447 6446
3 5638 6446 6445
3 6451 7157 5638
3 5637 4404 5640
3 5639 5638 5644
3 5640 4392 7133
3 5639 5640 6446
3 7135 7133 6442
3 6447 6445 6446
3 7157 6451 6449
3 7175 7180 7168
3 5644 5643 5639
3 5643 5642 7172
3 7157 5644 5638
3 5643 5644 5642
3 5038 6441 6454
3 7159 7158 5645
3 5040 5647 5030
3 8683 5054 7900
3 5075 5647 5045
3 5077 5649 5057
3 5075 5648 5069
3 5061 5649 5071
3 4956 5016 5650
3 247 5650 5016
3 5650 5651 4933
3 5651 5080 5073
3 5118 5652 587
3 5100 5652 5099
3 5664 5663 5659
3 6482 6460 5661
3 6458 7184 6457
3 5653 6495 6508
3 5114 5655 5122
3 5655 5654 5656
3 7254 5654 7248
3 112 5126 5656
3 5121 5659 5657
3 632 5657 5663
3 5662 5665 5660
3 5664 6477 5661
3 5665 5662 5129
3 5659 5658 5664
3 6461 5668 5669
3 5662 5666 5659
3 5664 6489 6477
3 6459 7247 6458
3 5662 5121 5129
3 5666 5662 5660
3 5659 5663 5657
3 6457 5663 5661
3 6481 6489 6474
3 5663 5664 5661
3 5112 5128 5665
3 5668 5128 154
3 6461 6488 5660
3 5659 5666 5658
3 154 5133 6462
3 6471 6470 5667
3 5668 154 5669
3 5660 5665 5668
3 6462 5669 154
3 6465 7185 6464
3 7250 112 7254
3 7974 7973 7968
3 5078 5079 5673
3 5674 5677 5671
3 5674 5127 5078
3 5133 5672 5671
3 5079 5675 5673
3 5673 5675 6515
3 5672 5674 5671
3 5078 5673 5674
3 5068 5675 5079
3 6515 5675 5067
3 9254 9253 7260
3 5133 6514 5132
3 6515 5677 5673
3 5677 5676 8708
3 4488 6581 6582
3 5139 5678 5138
3 3858 5679 3840
3 5682 5679 202
3 5143 5708 5709
3 5681 5680 5142
3 5162 5681 5142
3 5681 5157 5682
3 5158 5682 5157
3 5683 5682 202
3 3856 5683 202
3 3855 5159 5683
3 5687 5684 34
3 5691 5690 5686
3 5744 5745 5752
3 5685 5745 5743
3 5689 5684 5687
3 5690 5689 5686
3 5685 5747 5745
3 5742 5689 5685
3 5742 5743 5738
3 5720 5723 5759
3 5685 5689 5687
3 5686 5689 5688
3 5689 5690 5684
3 5686 5725 5691
3 5691 596 5692
3 4541 5690 5691
3 5702 596 5699
3 5694 5181 5693
3 5694 5693 3850
3 5693 5181 5695
3 5179 5694 3850
3 5692 5694 5178
3 5698 5695 5181
3 5698 5697 5695
3 5698 5181 5699
3 5698 5699 5696
3 5696 5700 5697
3 6522 6520 6528
3 5181 5702 5699
3 5697 5698 5696
3 5715 5705 596
3 5699 596 5705
3 5696 5726 5717
3 5706 5700 146
3 4544 5697 5704
3 5704 5697 5706
3 5181 5692 5702
3 596 5702 5692
3 9836 9301 9302
3 5726 5696 5699
3 5697 5700 5706
3 5713 5712 5704
3 5715 596 5725
3 5705 5703 5727
3 5706 146 6519
3 5704 5706 6520
3 6522 5713 5701
3 5680 5709 5142
3 5711 5708 5145
3 5708 5707 5709
3 5709 5680 5143
3 5707 5740 5709
3 6594 5730 5740
3 5733 5729 5718
3 4545 5711 5145
3 5712 5711 4544
3 4544 5704 5712
3 5713 5704 5701
3 6517 6521 6522
3 5707 5712 5713
3 6555 5730 5714
3 5713 5714 6594
3 5688 5723 5737
3 5719 5715 5722
3 9332 5739 5716
3 5700 5717 146
3 5716 5739 5717
3 6538 6531 6525
3 5732 5718 5729
3 6557 6556 5735
3 5705 5715 5719
3 5722 5721 5719
3 5715 5737 5722
3 5759 5738 5760
3 5720 5724 5721
3 185 9302 5724
3 5725 5737 5715
3 5720 5721 5722
3 5741 5723 5688
3 5720 5722 5723
3 5720 5759 5749
3 185 9836 9302
3 5691 5725 596
3 5737 5725 5686
3 5705 5726 5699
3 5717 5726 5716
3 9304 5703 9303
3 5726 5727 5716
3 5727 9304 5716
3 6530 6541 7270
3 5732 5729 5710
3 5731 5733 5734
3 5740 5732 5710
3 6521 6555 5714
3 6567 6560 6566
3 5731 6566 14985
3 5740 5710 5709
3 5718 5732 5730
3 5734 5733 5718
3 5733 5731 14985
3 6558 5718 5730
3 5734 78 6567
3 6524 6533 553
3 78 5734 5736
3 7346 5736 8030
3 6591 7349 6583
3 5688 5737 5686
3 5722 5737 5723
3 5738 5741 5742
3 5738 436 5760
3 9332 5716 9304
3 5728 6541 6542
3 5707 5713 6594
3 5732 5740 5730
3 5742 5741 5688
3 5759 5741 5738
3 5689 5742 5688
3 5742 5685 5743
3 5747 5687 6607
3 5745 5744 5762
3 5757 5744 5754
3 5751 5745 5762
3 5747 5685 5687
3 5750 5762 5768
3 5175 5765 34
3 5753 5754 5752
3 6607 5687 34
3 5747 5746 5752
3 5748 5788 5775
3 5774 185 5749
3 5720 5749 5724
3 5775 5767 5774
3 7398 7399 7396
3 5743 5751 436
3 5745 5751 5743
3 7390 7391 7386
3 5747 5752 5745
3 5752 5746 5753
3 5758 5746 6607
3 5766 6596 5758
3 5753 5755 5754
3 5754 5755 5757
3 6600 5755 5753
3 5757 487 5764
3 5764 5756 5757
3 5763 5770 277
3 487 5757 5755
3 5757 5756 5769
3 5766 5172 5173
3 5746 5758 6601
3 5759 5723 5741
3 5749 5759 5748
3 5781 5760 7389
3 5759 5760 5748
3 5788 5748 5781
3 5761 5789 7388
3 5744 5763 5768
3 5750 5751 5762
3 5769 5744 5757
3 5763 5769 5770
3 6604 5779 6605
3 5772 5783 5771
3 5766 5765 5172
3 6607 5765 5758
3 6602 3848 6597
3 5765 5766 5758
3 9306 9305 9838
3 8024 8727 8026
3 5744 5768 5762
3 7393 5763 277
3 5769 5756 5770
3 5744 5769 5763
3 5785 5783 5772
3 5770 5756 5772
3 8950 8958 8956
3 9915 9911 9914
3 5785 5756 5764
3 5772 5771 5787
3 7365 8084 8083
3 8086 8096 5773
3 5775 5749 5748
3 5767 9838 9839
3 5748 5760 5781
3 5782 5775 5788
3 5764 5786 5785
3 5783 5776 5784
3 8956 8958 8960
3 7396 277 7395
3 5772 5778 5770
3 9913 5777 9914
3 6605 6599 6604
3 8096 8097 5773
3 7390 5750 7391
3 5788 5790 5761
3 7389 5760 436
3 5781 5780 5788
3 5782 5761 9306
3 5767 5775 5782
3 5785 5772 5756
3 8845 5776 8097
3 8958 8959 8960
3 5771 5783 5784
3 5786 5764 5779
3 5783 5785 5776
3 5779 6604 8102
3 5776 5785 5786
3 9911 9913 9914
3 5778 5787 5777
3 5790 5788 5780
3 5782 5788 5761
3 5789 5790 7382
3 7384 7387 5789
3 7382 5790 5780
3 5761 5790 5789
3 14913 5791 3874
3 7244 5791 5183
3 8210 8211 499
3 8209 8208 8204
3 40 5793 5255
3 5798 5793 5792
3 5792 5793 5794
3 5794 5793 40
3 8206 8211 8210
3 5796 5799 5800
3 4615 5796 4617
3 5799 5796 5795
3 5214 5204 5797
3 8213 8212 5204
3 8206 15106 15108
3 5801 5795 5796
3 5799 5795 15108
3 8254 5800 498
3 5836 5800 5256
3 5796 5800 4613
3 5793 5801 4615
3 5795 5801 5798
3 4644 5802 4639
3 4653 5802 4656
3 5803 5805 5804
3 4653 5803 5229
3 5804 5805 5806
3 5228 5809 5223
3 4688 5805 4665
3 5806 5805 4664
3 5234 5806 4664
3 5808 5806 5221
3 5239 5807 5234
3 5230 5807 5232
3 5808 5221 5222
3 5808 5223 5809
3 5229 5804 5809
3 5808 5809 5804
3 4687 5811 5810
3 5234 5810 5815
3 5812 5811 4687
3 5813 5811 160
3 5812 4687 4704
3 160 5812 5280
3 5813 160 5818
3 5231 5239 5815
3 5280 5812 5814
3 4673 5814 5812
3 5811 5815 5810
3 5815 5813 5231
3 4686 6837 5865
3 5825 5823 5822
3 160 5280 6837
3 5823 5825 5821
3 6610 5818 160
3 5819 5818 5817
3 5817 6841 5821
3 5240 5820 5235
3 5821 5819 5817
3 5826 5246 5235
3 5821 5816 5823
3 5820 5819 5821
3 5823 5824 7404
3 6613 7407 8107
3 5823 5816 6843
3 5822 7402 5825
3 6838 6839 6610
3 7405 278 8851
3 496 5826 5825
3 5825 5826 5821
3 5246 5826 496
3 5821 5826 5820
3 5246 5827 5244
3 6614 5827 5247
3 6615 6617 5247
3 6627 6647 6625
3 4581 5248 7408
3 5829 5250 6739
3 14899 4605 14901
3 5830 5253 5831
3 5832 5835 6742
3 4601 5834 4006
3 6743 5832 6742
3 5833 2223 4010
3 4006 5833 4010
3 6743 5833 5832
3 4600 5831 5834
3 5834 5831 5835
3 6742 5835 5253
3 5834 5835 5832
3 5800 5836 4613
3 5839 5836 5256
3 6754 6753 5837
3 8139 6744 8144
3 6745 5838 4616
3 4623 5838 5257
3 5256 8253 6753
3 6750 6744 6751
3 5257 6745 6748
3 2160 5841 188
3 2159 5841 2160
3 6749 5840 6748
3 5849 5845 5259
3 4648 5842 5844
3 6786 5847 5843
3 5846 4685 5844
3 5845 5844 5842
3 4685 5846 240
3 5849 177 5848
3 5845 5843 5847
3 5844 5847 5846
3 6787 6788 6783
3 5845 5847 5844
3 6786 6785 5846
3 5857 5848 177
3 5856 14986 5855
3 5849 5259 5851
3 5849 5848 14986
3 5851 5850 4641
3 5842 5850 5259
3 4646 5851 4641
3 5849 5851 177
3 5859 5854 5858
3 5855 5852 5261
3 4670 5853 177
3 5858 5853 4668
3 6755 5260 6756
3 6760 6779 6758
3 5855 5261 5856
3 5857 5855 5848
3 6779 6760 6782
3 6783 5856 469
3 5853 5857 177
3 5855 5857 5852
3 4668 5270 5859
3 5858 5854 6779
3 5859 5260 6755
3 4668 5859 5858
3 6761 6773 6771
3 5268 6757 6755
3 6846 5861 4698
3 5274 5861 5275
3 5862 6846 7583
3 7585 5862 7583
3 5271 5275 5863
3 5864 5863 5275
3 5862 5864 5275
3 527 7593 5864
3 5279 5865 4703
3 6837 4686 6831
3 5866 4734 5867
3 5299 4720 5866
3 6011 4734 6009
3 5300 6020 6011
3 5299 5866 5868
3 5867 5868 5866
3 5869 6849 6904
3 5873 5875 5871
3 5873 6850 6849
3 5286 5871 5282
3 5873 5871 5872
3 5875 5874 5871
3 4724 5872 5284
3 5873 5872 5870
3 5873 5870 6850
3 5873 5869 5875
3 5874 588 5878
3 5282 5871 5874
3 5869 6905 5892
3 588 5874 5875
3 5878 588 5893
3 5885 5886 5876
3 5878 5877 5874
3 5289 5877 5876
3 5884 5887 5879
3 5877 5878 5876
3 5906 5898 5901
3 5895 5894 182
3 5883 5887 5888
3 5887 5884 5880
3 588 5875 5892
3 8326 8324 7626
3 5898 5896 5897
3 5886 5285 5876
3 5888 5880 588
3 5902 5904 117
3 5897 5896 5900
3 5885 5884 5882
3 5885 5882 5886
3 5876 5878 5893
3 5894 5886 5882
3 5291 5895 182
3 5888 5887 5880
3 5902 5887 5883
3 5869 5892 5875
3 5883 5888 5890
3 6903 6904 60
3 7617 6854 6855
3 5888 5891 5890
3 5890 5891 7618
3 588 5891 5888
3 7620 7618 5889
3 5889 5891 5892
3 588 5892 5891
3 5884 5893 5880
3 5876 5893 5885
3 5882 5900 5894
3 5940 5941 5942
3 5285 5895 5291
3 5894 5895 5886
3 5882 5884 5897
3 5899 5910 5912
3 5884 5879 5897
3 5898 538 5922
3 5879 5901 5897
3 5898 5897 5901
3 5908 5894 5909
3 5899 5921 5910
3 5897 5900 5882
3 5900 5896 5909
3 5879 5902 5901
3 5902 5918 5917
3 5902 5879 5887
3 5906 5917 5918
3 5293 5920 5907
3 5942 5903 5921
3 5883 5916 5904
3 7614 7615 7613
3 6858 5918 5954
3 10215 9665 10217
3 5902 5917 5901
3 5898 5919 538
3 5920 5293 182
3 5946 5903 5942
3 5894 5900 5909
3 5899 5940 5942
3 5896 5922 5913
3 5908 5909 5910
3 5913 5909 5896
3 5915 5914 5925
3 5911 5912 5913
3 5923 5911 5913
3 5913 5912 5910
3 5924 5915 5911
3 5913 5910 5909
3 5913 538 5923
3 5924 5914 5915
3 5914 5924 5933
3 5911 5915 5912
3 5914 5934 5925
3 5890 5916 5883
3 6853 5916 5881
3 5918 5902 117
3 5906 5901 5917
3 5918 117 5954
3 5931 5927 5905
3 5931 5906 5927
3 5930 5931 5929
3 182 5908 5920
3 5920 5908 5921
3 5920 5921 5903
3 5910 5921 5908
3 5898 5922 5896
3 538 5913 5922
3 5919 5930 538
3 5911 5923 5948
3 5932 5924 5911
3 5933 5924 61
3 5943 5941 5925
3 5899 5915 5940
3 7616 5926 7627
3 9084 9638 9085
3 5906 5918 5927
3 6858 5927 5918
3 5923 538 5930
3 10227 10218 10225
3 568 9674 9664
3 9665 9677 9666
3 5931 5930 5919
3 5930 5929 5949
3 5906 5931 5919
3 5931 5905 9677
3 5948 5932 5911
3 5932 5948 10232
3 61 5955 5933
3 5934 382 5925
3 5933 5955 6860
3 6865 6868 6886
3 382 5945 5943
3 5938 5936 5939
3 5903 5936 5907
3 5946 5939 5936
3 5952 5953 5945
3 5952 5944 5964
3 5967 5938 5937
3 381 5990 5981
3 5939 5935 5953
3 5938 5939 5937
3 5915 5925 5940
3 5941 5940 5925
3 5943 5925 382
3 5939 5946 5935
3 5899 5942 5921
3 5941 5935 5946
3 5956 5958 5962
3 5935 5941 5943
3 5960 5957 5966
3 5935 5943 5953
3 5934 5963 382
3 5945 5944 5952
3 5903 5946 5936
3 5941 5946 5942
3 7614 117 6856
3 7616 7627 5947
3 5949 5948 5923
3 5948 5928 10232
3 5930 5949 5923
3 5949 5929 10220
3 5955 10222 5950
3 5963 6864 5959
3 7648 8329 7645
3 6879 5961 6877
3 5960 5952 5964
3 5937 5939 5953
3 5945 5953 5943
3 5953 5952 5937
3 7614 5954 117
3 6858 5954 5947
3 10227 10231 61
3 5950 6861 6860
3 5969 5963 5959
3 5961 6879 6880
3 5964 5965 5975
3 5975 5971 5984
3 5969 5945 382
3 5956 5961 5968
3 5914 5933 6873
3 6867 6866 6864
3 5983 5957 5984
3 5967 5960 5973
3 6875 5956 6866
3 6875 5951 6878
3 5958 5945 5969
3 6866 5962 5959
3 6864 5934 6862
3 5969 5959 5962
3 5965 5964 5944
3 5957 5960 5964
3 5965 5944 5968
3 5965 114 5971
3 3466 5977 5972
3 5967 5973 381
3 5967 381 5981
3 5937 5960 5967
3 5956 5968 5958
3 5968 5961 5970
3 5963 5969 382
3 5958 5969 5962
3 114 5965 5970
3 5968 5970 5965
3 15007 7661 14999
3 5966 5983 3466
3 4051 5978 5988
3 5973 5972 381
3 5960 5966 5973
3 5972 5973 5966
3 114 5992 5971
3 6895 5991 4047
3 5964 5975 5957
3 5965 5971 5975
3 6898 2332 2334
3 5986 3221 3227
3 4047 5977 3466
3 4048 5977 4050
3 5979 3485 3487
3 5979 3478 5989
3 5979 5989 5980
3 3485 5979 5978
3 5980 5982 5981
3 5990 5980 5981
3 5981 5938 5967
3 5982 5980 5294
3 5297 5982 5294
3 5292 5981 5982
3 5957 5983 5966
3 6895 5983 5974
3 5993 5984 5971
3 5983 5984 5974
3 5993 5974 5984
3 5986 3227 232
3 5993 5996 5995
3 5986 5996 5999
3 5970 6880 114
3 5993 5987 5997
3 4051 5988 4048
3 5988 5978 5990
3 5295 5989 3478
3 5294 5980 5989
3 5990 381 5972
3 5978 5980 5990
3 6895 4047 3466
3 5986 5991 5985
3 6881 5992 114
3 5992 5987 5993
3 5997 6896 5994
3 6895 5995 5985
3 5996 6003 5999
3 5995 5996 5985
3 5974 5993 5995
3 5993 5997 5996
3 5999 6000 5998
3 5986 5985 5996
3 6896 5997 5987
3 5996 5997 5994
3 14997 14994 15000
3 3215 3224 6002
3 6003 5994 6000
3 5999 5998 6005
3 5994 5976 6000
3 14996 14995 6000
3 27 3219 6007
3 6002 3224 3221
3 6008 6002 6001
3 7665 6007 6006
3 5994 6003 5996
3 6000 5999 6003
3 6005 6004 5999
3 3221 6004 6001
3 15009 6005 5998
3 6004 6005 6001
3 6008 6001 15009
3 14997 5998 14995
3 3215 6007 3219
3 6008 6007 6002
3 6001 6005 15009
3 6007 6008 6006
3 416 5370 6010
3 6011 6009 5300
3 5369 6015 6010
3 4776 4778 6899
3 6017 6019 6020
3 4734 6011 5867
3 6019 6026 6012
3 6011 6012 7680
3 6009 6010 6013
3 6015 6014 6010
3 303 5343 6024
3 6013 6014 6021
3 5369 6079 6016
3 6015 4776 6899
3 6016 4768 4771
3 4776 6015 6016
3 6021 6017 6020
3 6900 6021 6014
3 7669 7666 7668
3 7619 7617 7620
3 6026 6019 530
3 6020 6019 6012
3 6011 6020 6012
3 6021 6020 5300
3 6013 6021 5300
3 6014 6899 6900
3 6024 6022 6900
3 6022 6025 6031
3 6023 6026 7666
3 6023 7669 6902
3 6027 5339 6029
3 7675 514 7672
3 7682 6034 6906
3 7666 7667 6901
3 7666 6026 530
3 7679 6026 6023
3 6029 5339 6035
3 6024 5343 6027
3 7716 8474 7706
3 6029 6037 6027
3 5339 5363 6035
3 6029 6028 6037
3 5368 76 6030
3 6919 7697 7705
3 6022 6031 6017
3 6031 6025 8342
3 6033 5336 5357
3 5356 6036 6033
3 6036 5356 6030
3 5336 6033 6032
3 6030 6909 6028
3 8343 7683 8341
3 5336 6035 5363
3 6029 6035 6032
3 6029 6036 6028
3 6033 6036 6032
3 7685 6037 6028
3 6024 6037 6034
3 4754 6038 4750
3 6039 6038 376
3 4741 6039 376
3 5302 6039 4119
3 4759 9713 6041
3 6040 6044 6042
3 6043 6046 6045
3 6040 6041 6044
3 4758 6042 4749
3 4750 6040 6042
3 661 9155 6061
3 377 6049 6059
3 6045 6044 6041
3 6044 6045 6046
3 6041 661 6045
3 6055 6043 6061
3 6043 6049 6046
3 6048 4756 4758
3 6049 6048 6046
3 6058 6055 6056
3 6051 6050 4755
3 6052 6049 6043
3 6049 377 6060
3 14906 4755 14905
3 6050 6051 6060
3 6048 6051 4756
3 6052 6043 6055
3 6059 6052 6047
3 6057 6061 9155
3 9737 14951 14958
3 6061 6043 6045
3 6053 8465 14953
3 6055 6053 6056
3 339 6054 6056
3 6056 6054 6058
3 7686 8465 8466
3 6053 6055 6057
3 6047 6058 6054
3 6055 6058 6052
3 6050 6060 377
3 6052 6059 6049
3 6051 6048 6060
3 661 6061 6045
3 6055 6061 6057
3 9742 6069 6066
3 6064 7688 7687
3 6070 6062 6068
3 102 7690 8471
3 4761 6068 6062
3 6911 7687 8473
3 6070 6065 6062
3 7687 6065 6064
3 10072 10071 8468
3 4761 6069 6068
3 9162 10073 9741
3 6070 6064 6065
3 4761 6071 6069
3 6068 6067 6070
3 6069 5306 6912
3 6067 6068 6069
3 6067 9741 6070
3 6064 6070 9161
3 5313 6071 5304
3 6069 6071 5306
3 7693 7691 7694
3 5319 5320 6075
3 5308 6073 5311
3 6072 5319 6075
3 6062 6074 5305
3 393 6072 6074
3 5310 6075 5320
3 6072 6075 6073
3 7695 7692 7691
3 9150 9138 9140
3 7685 6909 6908
3 6922 5321 6919
3 5359 6078 5358
3 5361 6078 5360
3 4078 6079 4073
3 6016 6079 4768
3 5383 6080 5380
3 5387 6080 5393
3 6081 4153 5477
3 593 6081 5395
3 7193 5413 5414
3 6082 7204 7200
3 6925 5434 5440
3 7227 7210 7216
3 5 6084 5461
3 5472 6084 5467
3 14936 6085 5463
3 5474 6085 5469
3 5479 6086 4811
3 5492 6086 5478
3 317 9217 9213
3 4819 6087 3335
3 6089 6088 4817
3 6087 6088 5482
3 4817 3293 6089
3 6928 2480 6927
3 6935 6090 7728
3 6090 7731 6091
3 7727 3636 6926
3 8475 9752 6090
3 6101 6097 6096
3 6281 6263 6279
3 6100 6096 6098
3 6095 5538 69
3 6102 5563 5562
3 6094 6093 6095
3 6095 6093 6096
3 4857 5538 6095
3 6098 6096 6093
3 6101 6096 6100
3 5537 6097 4822
3 6095 6097 4857
3 6099 6098 6093
3 6098 6092 6100
3 6102 6099 6093
3 6099 5484 6280
3 6261 6100 6092
3 5483 6100 662
3 6101 4821 4215
3 6097 6101 4822
3 6094 6102 6093
3 6102 5562 6103
3 5562 6104 6103
3 6103 6104 6105
3 5567 6104 5562
3 6104 5568 6105
3 5574 6105 5568
3 5566 5581 6106
3 5581 5579 6106
3 6266 7756 6264
3 4224 6107 4226
3 6109 6107 312
3 6110 6113 5490
3 4824 5485 6111
3 6107 6109 5485
3 312 6108 6109
3 6116 6119 4842
3 6114 6112 6111
3 6109 6111 5485
3 6108 6113 6114
3 6115 6127 6112
3 4824 6111 6112
3 5490 6113 4235
3 6114 6113 6110
3 6108 6114 6111
3 6115 6114 6110
3 6119 6116 6115
3 6127 6115 5489
3 5489 6115 6116
3 6115 6110 6119
3 6136 5489 6116
3 6161 7736 6142
3 6144 6118 4839
3 6118 383 6129
3 5490 6119 6110
3 4842 6119 4841
3 6117 6121 6120
3 6123 6130 6121
3 6172 6121 6117
3 6121 385 6123
3 6123 385 6126
3 6940 65 8622
3 6142 6126 385
3 6122 6125 6123
3 6140 65 6139
3 6126 6143 6123
3 6138 6125 6122
3 6132 5485 4824
3 6129 6147 6162
3 6126 6124 6134
3 5489 6136 6173
3 6120 6127 6117
3 6152 4840 142
3 6988 6221 6272
3 6147 6129 383
3 6127 5489 6173
3 6121 6130 6120
3 6123 6125 6130
3 6138 6139 6131
3 6324 5486 6323
3 6138 6132 6125
3 6131 6324 6325
3 6203 6205 6174
3 6151 6163 6142
3 6124 6191 6190
3 6148 6140 6139
3 6145 4839 4840
3 6118 6146 383
3 6118 6136 6116
3 6173 6136 6129
3 6169 6147 6167
3 7733 6948 7735
3 6139 6138 6122
3 6138 6131 6325
3 6122 6143 6148
3 6139 65 6940
3 6190 6134 6124
3 7820 8612 6214
3 6325 6141 6132
3 4825 6141 4225
3 6161 6142 385
3 6142 6133 6151
3 6123 6143 6122
3 6126 6134 6143
3 6145 6144 4839
3 6146 6144 6135
3 6152 6145 4840
3 6135 6145 6156
3 6128 6941 6135
3 6158 6167 6168
3 6167 6147 383
3 6171 6162 6147
3 6122 6148 6139
3 6134 6140 6148
3 7829 7823 7825
3 8611 6160 8612
3 6172 6117 6162
3 6171 7735 6150
3 6151 6133 6203
3 6191 6175 6190
3 6152 142 6155
3 6157 6152 6155
3 6942 6179 6177
3 6153 6179 6182
3 6178 6179 6942
3 6166 6157 6154
3 6155 142 6180
3 6154 6157 6155
3 6145 6152 6157
3 6145 6157 6156
3 6166 6154 6177
3 6156 6157 6197
3 6941 6168 6146
3 6199 6169 6158
3 6941 6159 6168
3 6221 6159 6272
3 6140 6213 6176
3 8605 8610 6149
3 385 6121 6172
3 6161 6150 7736
3 6172 6162 6150
3 6173 6117 6127
3 6142 6163 6126
3 6151 6124 6163
3 6210 6205 6164
3 6257 6259 6211
3 6124 6151 6165
3 6151 6174 6189
3 6237 6216 6218
3 6128 6156 6197
3 6168 6167 383
3 6167 6158 6169
3 6146 6168 383
3 6158 6168 6159
3 6200 6185 6199
3 6169 6186 7733
3 6190 6213 6134
3 8614 6170 6160
3 7735 6171 6137
3 6150 6162 6171
3 6150 6161 6172
3 385 6172 6161
3 6129 6162 6173
3 6173 6162 6117
3 6205 6203 6187
3 6210 6188 6189
3 6245 6252 374
3 6170 6176 6160
3 6140 6176 6170
3 6175 6192 6214
3 6180 6154 6155
3 6153 6166 6177
3 6193 6178 6226
3 6182 6181 6216
3 6942 6177 6154
3 6182 6179 6193
3 142 6943 6180
3 6945 6944 4234
3 6193 6181 6182
3 6193 6227 6181
3 6217 6194 6216
3 6237 6153 6182
3 6238 6240 6220
3 6184 6198 6196
3 6166 6195 6196
3 6197 6241 6128
3 6277 6312 384
3 7734 6948 7733
3 6199 6186 6169
3 6185 7012 7013
3 6133 7736 6949
3 6204 6207 6206
3 6188 6210 6244
3 6165 6212 374
3 6210 6189 6174
3 6212 6189 6188
3 6191 6124 6165
3 6213 6175 6176
3 6165 374 6191
3 6278 6191 374
3 6252 6254 6278
3 7821 6192 6952
3 6946 6215 6226
3 6226 6227 6193
3 6229 6194 6217
3 6183 6195 6268
3 6195 6153 6237
3 6195 6183 6196
3 6238 6196 6183
3 6196 6238 6220
3 6198 6197 6157
3 6197 6184 6241
3 6196 6198 6166
3 6197 6198 6184
3 6200 6199 6158
3 6186 6199 6185
3 6159 6221 6222
3 6185 6200 384
3 6275 6276 6294
3 6243 384 6202
3 6200 6158 6222
3 6243 6202 6201
3 6151 6203 6174
3 6133 6187 6203
3 7734 7013 7748
3 6164 6205 6207
3 6206 6205 6187
3 6205 6206 6207
3 6187 201 6206
3 201 7734 7748
3 649 7744 8487
3 6209 6207 6204
3 6968 6249 6259
3 6209 6225 6207
3 7743 6209 6204
3 6209 6208 6225
3 6205 6210 6174
3 6244 6210 6164
3 6225 6257 6224
3 6251 6439 6247
3 6189 6212 6165
3 6245 6212 6188
3 6134 6213 6140
3 6175 6213 6190
3 6175 6214 6176
3 6214 6192 7820
3 4836 6215 4833
3 6260 6227 6215
3 6217 6216 6181
3 6216 6194 6269
3 6217 6282 6264
3 6217 204 6229
3 6234 6267 6269
3 6218 6268 6195
3 6239 6238 6183
3 6298 6285 6299
3 6988 6273 6274
3 6184 6196 6220
3 6242 6272 6941
3 6201 6202 6221
3 6159 6222 6158
3 6202 6222 6221
3 6292 6201 6274
3 6243 6277 384
3 6207 6225 6164
3 6245 374 6212
3 6256 6259 6258
3 6225 6224 6244
3 6946 6226 6178
3 6227 6226 6215
3 6260 6215 662
3 6281 6279 5484
3 204 6217 6264
3 6282 6181 6227
3 15697 6998 7000
3 6194 6229 6232
3 6229 204 6236
3 6232 6234 6269
3 8520 6289 6300
3 7005 6986 6985
3 6234 6232 6231
3 7006 6265 5579
3 7007 6999 7001
3 6231 6300 6304
3 6234 388 6267
3 6236 6232 6229
3 6990 6989 6991
3 6233 6235 6236
3 6236 6235 6232
3 6216 6237 6182
3 6195 6237 6218
3 6284 6183 6268
3 6238 6219 6240
3 6285 6298 6271
3 6219 6238 6239
3 6240 6219 6293
3 229 6220 6240
3 6184 6220 6241
3 6220 229 6273
3 6128 6241 6242
3 6241 6220 6273
3 6276 6291 6292
3 6243 6223 6277
3 6225 6244 6164
3 6245 6244 6224
3 6246 6224 6257
3 6245 6224 6246
3 6211 6248 6246
3 6248 6253 6951
3 6248 6251 6247
3 6250 6253 6255
3 6249 6248 6211
3 6247 6253 6248
3 6211 6246 6257
3 6438 6956 6955
3 6255 6253 6247
3 6952 6192 6175
3 6248 6249 6251
3 6249 171 6964
3 6951 6245 6246
3 6254 6252 6250
3 6247 6954 6255
3 6951 6250 6252
3 6437 6255 6436
3 6175 6191 6278
3 6431 6432 7130
3 6435 6436 6432
3 7743 7744 6208
3 7843 7842 6972
3 6258 6257 6225
3 6257 6258 6259
3 6225 6208 6258
3 6258 6208 6978
3 6968 6259 6256
3 6249 6211 6259
3 662 6261 6260
3 6282 6228 6264
3 6100 6261 662
3 6279 6262 6280
3 6260 6261 6262
3 6092 6262 6261
3 6106 6263 6281
3 6283 5579 6265
3 6282 6217 6181
3 6266 6264 6228
3 6266 6263 6283
3 6265 7006 6987
3 6263 6266 6228
3 6265 6987 7756
3 388 6239 6284
3 6269 6267 6218
3 6218 6267 6268
3 6267 388 6284
3 6216 6269 6218
3 6269 6194 6232
3 6295 6271 6305
3 6276 6274 229
3 6294 6295 6314
3 6941 6272 6159
3 6988 6272 6242
3 6274 6273 229
3 6241 6273 6242
3 6276 229 6287
3 6201 6221 6988
3 143 6307 7021
3 6243 6290 6223
3 229 6240 6287
3 6275 6291 6276
3 7015 7016 6296
3 8498 7755 8491
3 6252 6278 374
3 6175 6278 6254
3 6228 6262 6279
3 6280 6262 6092
3 6099 6280 6092
3 5484 6279 6280
3 6103 6281 5484
3 6106 6281 6105
3 6227 6262 6282
3 6228 6282 6262
3 5579 6283 6106
3 6266 6283 6265
3 6183 6284 6239
3 6267 6284 6268
3 6299 388 6289
3 6287 6295 6294
3 6292 6290 6243
3 6314 6316 6275
3 6219 6285 6293
3 6295 6293 6285
3 388 6234 6304
3 7014 6310 6311
3 14989 6301 6305
3 6292 6243 6201
3 6320 6290 6286
3 6321 6291 6275
3 6286 6290 6292
3 6276 6292 6274
3 6286 6292 6291
3 6295 6285 6271
3 6240 6293 6287
3 6276 6287 6294
3 6287 6293 6295
3 14987 14989 6271
3 6305 6314 6295
3 6309 6311 6297
3 6223 6306 6277
3 7749 7747 7748
3 6299 6285 6239
3 14987 6298 6289
3 388 6299 6239
3 6289 6298 6299
3 6990 6991 6231
3 7760 7761 7759
3 6306 6307 6302
3 6271 14989 6305
3 6309 6297 6303
3 6277 6306 6308
3 7011 7010 6303
3 6231 6304 6234
3 6289 6304 6300
3 6270 6314 6313
3 6314 6275 6294
3 6307 6306 6223
3 6308 6306 6302
3 6223 6290 6320
3 143 7016 7018
3 7015 7014 6302
3 6308 6303 6312
3 7014 6308 6302
3 7019 6310 7014
3 6983 7753 8480
3 6983 8480 8482
3 7014 6311 6309
3 8476 6311 6310
3 6308 6312 6277
3 7010 6312 6303
3 6313 6314 6305
3 6305 6301 6313
3 6319 6315 6322
3 6318 6316 6314
3 6320 6286 6321
3 6319 6322 6316
3 6314 6270 6318
3 6322 7021 6320
3 6319 6318 6270
3 6315 7021 6322
3 6318 6319 6316
3 6320 7021 6223
3 6275 6316 6321
3 6321 6316 6322
3 7021 6315 6317
3 6321 6322 6320
3 6324 6323 4225
3 6326 6323 5486
3 6325 6324 4225
3 6324 6131 6940
3 6141 6325 4225
3 6325 6132 6138
3 8619 6326 5486
3 6326 3689 4830
3 7779 7778 7771
3 6327 7024 7023
3 7071 7114 7069
3 7123 7108 6419
3 6330 6329 5522
3 5528 6329 5527
3 6337 6356 6357
3 6330 6333 6331
3 6335 6333 6330
3 6339 6333 6350
3 7078 7080 7799
3 5530 6331 6339
3 6335 6330 5522
3 6333 6332 6350
3 5529 6334 5531
3 5527 6330 6334
3 6335 5522 6337
3 6335 6357 6359
3 7792 7793 6345
3 7075 7790 233
3 5522 6342 6343
3 7796 6356 6336
3 6353 7799 7801
3 6338 6340 6339
3 6333 6339 6331
3 6338 6351 6340
3 6340 119 6358
3 5530 6339 6340
3 6342 5522 6329
3 6344 6336 6337
3 5524 6342 6329
3 6343 6342 6341
3 6343 6341 6344
3 5522 6343 6337
3 71 6345 6341
3 6344 6341 6345
3 71 6348 6345
3 8556 8570 8572
3 7045 7047 7057
3 8530 438 8533
3 7053 7057 7048
3 6347 7058 8544
3 71 7050 7053
3 8545 8544 7791
3 7075 6349 7790
3 6337 6357 6335
3 7798 6332 7077
3 6339 6350 6338
3 7078 6353 6354
3 7798 6338 6350
3 7075 7077 6332
3 7079 7077 7075
3 6352 10805 10807
3 6353 15026 7805
3 7078 6351 6338
3 7805 15026 7804
3 6358 119 7807
3 8598 8599 8600
3 7790 6349 7796
3 6357 6356 6349
3 7075 6357 6349
3 6333 6359 6332
3 119 7805 7807
3 6355 6360 6361
3 6335 6359 6333
3 7075 6359 6357
3 6355 7081 6360
3 7083 7081 516
3 6355 6361 6358
3 5530 6361 6360
3 6362 7088 7089
3 6414 6362 7091
3 6418 6363 6406
3 6364 6387 6382
3 6364 6378 6391
3 6399 6386 6407
3 6365 5554 6368
3 5548 5557 6365
3 459 6369 5555
3 6370 6376 6375
3 6371 5571 5548
3 6370 176 5576
3 6369 5554 5555
3 6367 6368 6366
3 5551 6372 6389
3 6368 6369 6390
3 6367 6366 6370
3 6384 6376 6378
3 5571 6371 6367
3 6365 6371 5548
3 6412 6405 6406
3 6384 6364 6382
3 6382 6380 6373
3 5595 6374 5592
3 176 6374 5595
3 6380 6379 6374
3 176 6370 6375
3 6376 6370 6366
3 6376 6366 6378
3 6373 6375 6376
3 6388 6382 6387
3 6377 6403 6395
3 6390 6378 6366
3 6390 6396 6378
3 6380 6374 6373
3 6381 6379 6377
3 6373 6384 6382
3 6377 6379 6380
3 6377 6388 6403
3 6381 348 6383
3 6407 6421 6399
3 6380 6382 6388
3 15085 348 15084
3 6383 15088 6392
3 6376 6384 6373
3 6364 6384 6378
3 6422 6424 15010
3 6393 6411 6403
3 6404 6401 6391
3 6377 6380 6388
3 6387 6364 6401
3 6387 6386 6388
3 6399 6393 6386
3 6388 6386 6393
3 5551 6389 459
3 6389 6372 6396
3 6368 6390 6366
3 6369 6389 6396
3 6372 6405 6404
3 6391 6372 6404
3 6398 5589 5590
3 5593 5592 6392
3 6393 6399 6410
3 6395 348 6381
3 6393 6410 6411
3 15078 15072 15055
3 6377 6395 6381
3 15080 15077 15076
3 6396 6390 6369
3 6372 6391 6396
3 6408 6409 6400
3 6407 6401 6400
3 5593 6392 6398
3 5589 6398 6392
3 6401 6386 6387
3 6410 6399 6385
3 6397 6409 6408
3 6416 6400 6409
3 6391 6401 6364
3 6408 6401 6404
3 6421 6427 6385
3 7814 6402 6410
3 6393 6403 6388
3 6395 6403 6394
3 6405 6372 5551
3 6404 6397 6408
3 6405 5551 6406
3 6397 6404 6405
3 5551 6413 6406
3 6406 6413 6418
3 6400 6421 6407
3 6386 6401 6407
3 6397 6412 6409
3 6400 6401 6408
3 6415 6409 6363
3 6409 6415 6416
3 6425 6410 6385
3 6411 6410 6402
3 6417 6411 6402
3 6411 6394 6403
3 6409 6412 6363
3 6405 6412 6397
3 5552 6413 5551
3 6418 6413 5546
3 6414 6418 6362
3 7092 6419 6414
3 6423 6414 6419
3 6363 6423 6415
3 6424 15011 15010
3 6421 6385 6399
3 7816 6417 6402
3 175 15072 15074
3 6362 6418 5546
3 6363 6418 6414
3 7092 458 7094
3 6415 7107 72
3 6426 7813 6425
3 6427 6421 6422
3 6400 6416 6421
3 6422 6421 6416
3 72 6424 6416
3 6422 6420 6426
3 6414 6423 6363
3 6423 6419 7108
3 72 7107 7109
3 6422 6416 6424
3 7813 8592 7124
3 6425 7814 6410
3 6426 6420 8587
3 6427 6425 6385
3 6422 6426 6427
3 6425 6427 6426
3 7762 6994 6996
3 7128 5584 7126
3 7825 7823 7132
3 6433 6429 291
3 4871 5606 6430
3 6431 6430 5606
3 5606 6433 6432
3 6431 4872 6956
3 8608 7820 7131
3 7130 6255 6954
3 6429 6433 5606
3 6435 6433 291
3 7821 6952 6953
3 6437 6250 6255
3 7132 6435 291
3 6436 6435 6434
3 6436 6434 6437
3 6436 6255 7130
3 6953 6437 6434
3 6254 6250 6437
3 6954 4872 7130
3 6959 4393 4395
3 6964 6251 6249
3 6961 6964 6965
3 4964 6440 4925
3 5622 6440 4963
3 5637 6441 4350
3 6454 6441 5636
3 4392 4405 6443
3 7134 7137 7136
3 4384 4394 6444
3 6443 6442 7133
3 6442 6444 4377
3 4384 6444 6443
3 6445 6447 6452
3 6449 6451 6450
3 5639 6446 5638
3 5641 6446 5640
3 7135 6447 5641
3 6452 6447 293
3 7834 6450 7836
3 8641 8647 9244
3 6449 7152 7154
3 7848 6449 7154
3 7831 7836 7137
3 7152 6450 6448
3 6451 6445 6452
3 6449 7156 7182
3 6452 293 7836
3 6451 6452 6450
3 6454 6453 5038
3 5036 6453 5645
3 5636 665 6454
3 7159 6454 665
3 7175 7169 7173
3 7164 5611 5623
3 7900 7901 7183
3 6516 7260 9253
3 6457 6460 6459
3 5655 6458 5654
3 5114 6458 5655
3 6459 6458 6457
3 6460 6457 5661
3 6508 6500 5653
3 5661 6477 6482
3 5653 6459 6460
3 6461 5667 6488
3 5668 6461 5660
3 5132 6465 5133
3 7186 7185 6467
3 6469 6475 6466
3 6471 6468 6470
3 6465 6464 6462
3 6469 6468 6464
3 5133 6465 6462
3 6465 5132 6467
3 6478 6469 6463
3 6484 6486 6487
3 5132 6514 8708
3 375 6479 7186
3 6469 6464 6463
3 6468 6466 6470
3 6478 6475 6469
3 6466 6468 6469
3 7187 7914 6483
3 6474 6473 457
3 6461 6471 5667
3 5669 6468 6471
3 7186 7918 6463
3 7918 6479 7917
3 5667 6470 6473
3 6486 6470 6466
3 6474 457 6481
3 5658 5666 6488
3 6480 6472 7916
3 6480 6475 6472
3 7190 6490 6494
3 6482 6476 6494
3 6489 5664 5658
3 6477 6476 6482
3 7186 6463 7185
3 6472 6475 6478
3 7917 7920 7922
3 7212 7218 7196
3 6480 196 6485
3 6475 6480 6487
3 457 7914 7189
3 6489 6476 6477
3 6481 457 7189
3 5653 6460 6482
3 6496 6505 6501
3 6501 6505 6483
3 6486 6473 6470
3 6485 6493 6487
3 6496 6501 6502
3 6485 6501 6493
3 6486 6466 6487
3 6473 6486 6484
3 6475 6487 6466
3 6480 6485 6487
3 6488 5666 5660
3 5667 6474 6488
3 6474 6489 5658
3 6476 6489 6481
3 7231 6498 6507
3 6495 6497 6494
3 7201 7198 7199
3 7193 7192 7202
3 5376 5373 6492
3 6492 5373 7258
3 6483 6484 6493
3 6487 6493 6484
3 7189 7191 6481
3 6494 6490 6495
3 6490 6507 6495
3 6495 6509 6508
3 6502 6485 196
3 6503 6496 6491
3 5653 6482 6497
3 6494 6497 6482
3 6490 7232 7231
3 6508 6509 6499
3 14922 4552 7240
3 7248 7247 6500
3 7249 7246 7248
3 6458 7247 5654
3 6493 6501 6483
3 6502 6501 6485
3 6502 196 7197
3 6491 6496 6502
3 7192 6503 6491
3 7258 6505 6492
3 5373 5375 6506
3 6506 7259 7233
3 6492 6505 6503
3 6505 6504 7915
3 4780 7259 6506
3 7238 58 7232
3 7231 6507 6490
3 6507 6498 6509
3 6495 6507 6509
3 6500 6508 6499
3 6498 4552 6509
3 6509 4552 14926
3 7252 7256 7253
3 7973 6513 5670
3 5670 7969 7968
3 6511 7973 9275
3 5125 5126 6512
3 6513 5126 6510
3 6511 6512 6513
3 5126 6513 6512
3 5677 6514 5671
3 6514 5677 8708
3 8684 6515 5067
3 6515 663 8000
3 7222 7934 7937
3 8002 375 6467
3 6519 6520 5706
3 6535 6559 6533
3 6537 6530 6529
3 6532 6538 6539
3 6519 146 6530
3 6520 6519 6518
3 6520 6518 6528
3 6520 5701 5704
3 6555 6521 553
3 6522 6521 5714
3 5713 6522 5714
3 6520 6522 5701
3 6524 6517 6527
3 6531 6538 6545
3 6527 6528 6525
3 6534 6533 6524
3 6528 6537 6525
3 6523 6524 6531
3 6534 6536 6551
3 6550 6551 6536
3 6528 6527 6517
3 6531 6527 6525
3 6528 6517 6522
3 6537 6528 6518
3 6519 6530 6518
3 6541 6530 6540
3 146 5717 6540
3 6540 5717 6542
3 6527 6531 6524
3 6537 6529 6538
3 208 6546 6548
3 6523 6543 6536
3 6534 6524 6523
3 6535 6533 6526
3 6536 6534 6523
3 6526 6533 6534
3 6526 8032 8033
3 6535 5735 6556
3 6543 6523 6545
3 6536 208 6550
3 6530 6537 6518
3 6529 6539 6538
3 6538 6532 6545
3 6525 6537 6538
3 7267 6539 6529
3 6539 584 7345
3 5717 5739 6542
3 6530 146 6540
3 7262 6541 5728
3 7270 6541 7265
3 5728 6542 5739
3 6540 6542 6541
3 6543 6553 6549
3 6536 6543 6546
3 9284 8723 10650
3 6544 10307 10304
3 6531 6545 6523
3 6553 6545 6532
3 6549 6546 6543
3 6549 6548 6546
3 7345 6552 6553
3 6552 584 7279
3 7289 6547 7283
3 7289 7309 7310
3 6553 6552 6554
3 6548 6549 6547
3 208 10652 10306
3 6551 6550 6544
3 8032 6551 6544
3 6551 6526 6534
3 7279 7273 7277
3 6547 6549 6554
3 6545 6553 6543
3 7345 6553 6532
3 6553 6554 6549
3 7284 6554 6552
3 6559 6556 6555
3 5730 6555 6558
3 5735 5736 6557
3 6559 6555 553
3 5734 6557 5736
3 6558 6557 5718
3 6555 6556 6558
3 6557 6558 6556
3 6533 6559 553
3 6535 6556 6559
3 6573 6575 6569
3 5149 6561 386
3 5146 6561 5149
3 6569 6560 6573
3 6569 6561 6560
3 6563 4508 4509
3 4507 6563 4509
3 6568 6569 6562
3 6568 4502 386
3 6570 6562 6563
3 5146 4527 6565
3 4527 14985 6566
3 6560 6565 6566
3 4527 6566 6565
3 5734 6567 5731
3 6567 78 6572
3 6569 6568 6561
3 6564 6568 6562
3 6567 6572 6560
3 6575 6577 6569
3 4493 6570 4507
3 6562 6570 6564
3 5736 7346 78
3 6563 6576 4508
3 78 7346 6590
3 6572 6571 6573
3 6572 6573 6560
3 6585 6588 6571
3 6571 6590 6585
3 6578 6579 6576
3 6571 6575 6573
3 6576 6577 6574
3 6576 6563 6577
3 6576 6574 6578
3 6563 6562 6577
3 6569 6577 6562
3 6574 6584 6578
3 6592 6584 6593
3 8580 8582 251
3 6576 6579 4508
3 8574 8581 8573
3 4488 6582 5678
3 4508 6581 4509
3 6581 6580 6582
3 9181 6582 6580
3 5678 6582 5138
3 6584 6574 6587
3 6586 6593 7353
3 6574 6575 6588
3 6593 6586 6592
3 6572 6590 6571
3 6583 6584 6591
3 7353 6583 7355
3 15023 15019 15025
3 6588 6587 6574
3 6591 6587 6585
3 6571 6588 6575
3 6587 6588 6585
3 5736 5735 8029
3 8826 7350 6589
3 78 6590 6572
3 6585 6590 6589
3 6587 6591 6584
3 6585 6589 7350
3 6584 6592 6578
3 6592 6586 8581
3 6584 6583 6593
3 8564 8581 8568
3 5730 6594 5714
3 5707 6594 5740
3 2638 2632 6598
3 6598 7379 7374
3 6600 6596 6595
3 6601 6596 6600
3 5170 6603 5171
3 619 6603 5170
3 2632 7357 7360
3 6602 7374 6595
3 7374 7375 7376
3 7378 6604 6599
3 7376 6595 7374
3 6600 487 5755
3 5746 6601 5753
3 5758 6596 6601
3 6602 6596 5766
3 7374 6602 6597
3 6598 6603 619
3 5171 6603 6597
3 6605 5779 487
3 7378 6599 7377
3 487 6600 6605
3 6606 6600 6595
3 6599 6605 6606
3 6600 6606 6605
3 5747 6607 5746
3 5765 6607 34
3 5780 7385 7382
3 10169 11924 7397
3 9318 9312 9315
3 5761 9307 9306
3 6801 6829 4686
3 6610 6839 6841
3 5823 7404 5822
3 6614 6617 5828
3 7564 7565 7566
3 6842 6844 5824
3 278 8855 8851
3 8110 7407 8109
3 7401 7403 5247
3 6616 6614 5828
3 6628 36 6643
3 6623 6624 6632
3 6621 6620 5828
3 5248 6619 321
3 5247 6617 6614
3 6624 6623 6625
3 6618 6620 6621
3 6651 6631 6648
3 6614 6619 5242
3 321 6619 6616
3 5828 6620 6616
3 6622 6620 6618
3 6625 5828 6624
3 6631 6647 6645
3 6663 6618 6644
3 5250 5829 6629
3 5828 6617 6624
3 6627 6642 6634
3 6617 6615 6624
3 6624 6615 6632
3 6625 6623 6627
3 5828 6625 6621
3 6623 6642 6627
3 6644 6618 6621
3 6643 6630 6642
3 6645 6627 6634
3 7406 6615 7403
3 6632 7406 6628
3 5829 6738 7408
3 6620 6633 321
3 6641 7410 6640
3 6637 6634 6630
3 6648 6649 6646
3 6645 6648 6631
3 7406 6632 6615
3 6623 6632 6628
3 6622 6633 6620
3 7408 6633 6629
3 6636 6637 6640
3 6639 6634 6637
3 6671 6635 6704
3 6668 6667 6665
3 6640 6630 7409
3 184 6649 6653
3 6630 6643 7409
3 6637 6636 6639
3 36 6628 8110
3 7410 6641 6635
3 6693 6654 7410
3 6653 6649 6652
3 6630 6640 6637
3 6638 8873 6640
3 8882 8873 8111
3 6694 10881 10880
3 6643 6642 6623
3 6634 6642 6630
3 6628 6643 6623
3 6643 36 7409
3 6621 6625 6647
3 6663 6644 6631
3 6648 6645 6626
3 6647 6631 6644
3 6646 6649 6656
3 6659 5250 6622
3 6645 6647 6627
3 6621 6647 6644
3 6649 6648 6626
3 6646 6662 6651
3 6652 6649 6626
3 6649 184 6656
3 6651 6662 6650
3 6659 6650 6661
3 6646 6651 6648
3 6651 6650 6659
3 6634 6652 6626
3 6653 6652 6639
3 6655 6636 6654
3 6653 6639 6655
3 6666 6670 6665
3 6665 6670 6673
3 6636 6655 6639
3 6666 6655 6654
3 184 6658 6656
3 6658 6681 6656
3 6658 184 6700
3 6689 6682 6684
3 6668 184 6667
3 6681 6662 6646
3 6618 6659 6622
3 6683 6660 6661
3 6660 137 8222
3 6659 6661 5250
3 6662 6685 6650
3 6661 6660 6741
3 6646 6656 6681
3 6660 6683 6686
3 6631 6651 6663
3 6659 6663 6651
3 184 6653 6667
3 6679 6664 6675
3 6680 6677 6697
3 6673 6675 6665
3 6671 6670 6666
3 6666 6665 6667
3 6666 6667 6653
3 6668 6665 6664
3 6668 6664 6692
3 184 6668 6700
3 6654 6693 6671
3 6704 6711 6671
3 6671 6666 6654
3 6673 6670 6674
3 6713 6721 6694
3 6669 6670 6671
3 6672 6673 6674
3 6677 6679 6675
3 6674 6670 6669
3 6675 6673 6672
3 6669 6676 6674
3 6676 6695 6696
3 6677 6675 6672
3 6665 6675 6664
3 6671 6711 6669
3 6676 138 6695
3 6696 6672 6674
3 6677 360 6679
3 6729 6731 6732
3 6727 6736 6699
3 360 6680 6725
3 6709 6657 6692
3 6697 6677 6672
3 6680 6706 6714
3 6657 6687 6658
3 6684 6682 6685
3 6684 6662 6681
3 6687 8117 6689
3 6650 6683 6661
3 6686 6683 6682
3 6681 6687 6684
3 6684 6687 6689
3 6682 6683 6685
3 6650 6685 6683
3 6689 6688 6691
3 6660 6686 137
3 6658 6687 6681
3 6709 7413 8117
3 8198 8186 8189
3 6686 6682 6691
3 8117 6687 6657
3 8237 6691 6688
3 8187 8226 8248
3 8230 8202 8225
3 6686 6691 6690
3 6682 6689 6691
3 6679 6701 6664
3 6692 6664 6701
3 7410 6654 6636
3 6635 6671 6693
3 10874 10869 10864
3 6705 138 6676
3 6730 6724 6729
3 6697 6706 6680
3 6676 6696 6674
3 6695 6678 6706
3 6672 6696 6697
3 6696 6695 6706
3 7412 8112 8115
3 6679 6702 6701
3 6723 6736 6727
3 7425 7418 7416
3 6668 6692 6700
3 6657 6700 6692
3 360 6708 6679
3 6701 6702 7414
3 6702 6719 8112
3 359 7413 6703
3 6692 7414 6709
3 7414 6702 7415
3 6722 6710 6721
3 6713 6704 6721
3 6712 6676 6669
3 10875 11248 11251
3 6706 6678 6714
3 6696 6706 6697
3 6723 6727 6728
3 6727 6726 6707
3 360 6725 6717
3 6702 6708 6719
3 7414 6692 6701
3 7413 6709 6703
3 6704 6722 6721
3 12707 8111 7411
3 6713 6711 6704
3 6712 6711 6705
3 6711 6712 6669
3 6705 6676 6712
3 11251 6713 6694
3 6711 6713 6705
3 6728 6714 6678
3 6725 6714 6707
3 6729 6678 6730
3 7443 7441 6715
3 7416 7417 7419
3 360 6717 6708
3 6720 6717 6716
3 6719 6698 8112
3 6716 7418 6720
3 6718 7427 8116
3 6708 6717 6719
3 6719 6717 6720
3 6716 7417 7418
3 6719 6720 6718
3 6722 6704 6635
3 6721 6710 10881
3 6635 6641 6722
3 6710 8881 8880
3 6707 6714 6728
3 6734 7441 7440
3 11249 11250 11254
3 6732 6731 6715
3 6725 6680 6714
3 6717 6725 6716
3 7416 7418 7417
3 6725 6726 6716
3 6726 6727 6699
3 6728 6727 6707
3 6729 6728 6678
3 6723 6728 6732
3 6730 6678 6695
3 6729 6724 6731
3 6695 138 6730
3 138 11248 11254
3 6724 6733 6731
3 6731 6733 7443
3 6723 6732 6715
3 6728 6729 6732
3 11252 10866 11247
3 7443 6733 7448
3 7419 8118 7424
3 6735 6736 6723
3 6735 6715 7441
3 6735 6734 6736
3 6736 6734 7439
3 7439 8118 6736
3 7438 7439 7440
3 6737 7439 7438
3 4580 6738 4577
3 7408 6738 4581
3 5250 6741 6739
3 8233 8246 8222
3 4583 6740 500
3 6738 6740 4577
3 6661 6741 5250
3 137 8233 8222
3 14902 6742 5253
3 3180 6742 246
3 3185 6743 2702
3 5833 6743 2223
3 188 6749 6751
3 6754 8144 6744
3 5836 6745 4616
3 6748 6745 5839
3 7472 8253 8254
3 8253 7472 8172
3 6748 6747 5257
3 15569 6747 5840
3 6748 6752 6750
3 5841 6749 188
3 5840 6749 5841
3 6749 6748 6750
3 6752 6748 5839
3 6744 6750 6754
3 7466 6751 6744
3 188 6751 2657
3 6753 6752 5839
3 6754 6752 6753
3 5256 6753 5839
3 6753 6746 8153
3 6754 5837 8144
3 6750 6752 6754
3 5267 6776 5268
3 6755 6757 6759
3 5266 6756 5260
3 5268 6755 6756
3 6757 5860 6763
3 6755 6759 6758
3 6758 470 6760
3 5854 6755 6758
3 7592 7602 7598
3 470 6758 6759
3 6762 6766 470
3 6779 6782 5261
3 6763 5860 6765
3 6762 6767 6766
3 6763 6759 6757
3 6766 6767 6764
3 6761 6762 6763
3 6763 6762 6759
3 7474 7482 7473
3 7476 7481 8255
3 7502 6773 6765
3 6763 6765 6773
3 6767 6762 6761
3 6766 6764 6768
3 6771 6767 6761
3 7474 7473 7476
3 6764 7474 7476
3 7480 5856 6780
3 7502 6769 6773
3 6772 6769 6775
3 6764 6767 6770
3 6770 6767 6771
3 6761 6763 6773
3 6771 6769 6772
3 7506 8257 7505
3 526 6770 6772
3 7502 6765 22
3 6769 6771 6773
3 6774 7507 7511
3 6775 7517 6772
3 7509 8257 7502
3 6775 6774 7517
3 5864 6777 6778
3 5860 6757 6776
3 7587 7589 527
3 6776 6778 5860
3 5864 6778 5267
3 5860 6778 6777
3 6779 5261 5852
3 6758 6779 5854
3 6768 6780 6782
3 7481 7479 7480
3 6766 6781 470
3 6768 6760 6781
3 6768 6782 6760
3 5856 6782 6780
3 469 6787 6783
3 14986 6783 5843
3 6784 6786 6788
3 6797 6790 6798
3 6786 5846 5847
3 6792 6803 6784
3 6783 6786 5843
3 6784 6785 6786
3 6791 6787 469
3 6792 6791 6793
3 6783 6788 6786
3 6792 6788 6787
3 6789 6791 7478
3 7478 7487 6789
3 6793 6789 7490
3 6798 6796 6797
3 7479 7475 7478
3 6793 6791 6789
3 6791 6792 6787
3 6803 6792 6790
3 7490 7487 7489
3 6792 6793 6790
3 6796 6794 408
3 6793 6794 6798
3 9430 9433 12792
3 6797 6795 6804
3 15120 408 7493
3 6796 6795 6797
3 6799 6804 6805
3 6790 6797 6803
3 6793 6798 6790
3 6796 6798 6794
3 6799 6805 6807
3 6809 6803 6806
3 6813 6799 6807
3 6820 6828 6801
3 6819 5278 6802
3 7568 7571 7567
3 6785 6784 6809
3 6828 6820 6800
3 6806 6797 6804
3 6803 6797 6806
3 6805 6804 6795
3 6804 6799 6806
3 6795 12799 12797
3 6805 21 6807
3 6815 6799 6813
3 6785 6809 6821
3 8269 9057 6826
3 6808 6815 6800
3 6822 6800 6820
3 6821 6802 240
3 6806 6823 6809
3 6808 6822 6821
3 10860 95 10859
3 6818 6828 7568
3 6813 6807 6814
3 6814 6817 8280
3 6825 8269 7562
3 6817 6814 6812
3 6807 6816 6814
3 6815 6813 6811
3 6817 6812 6824
3 6811 6813 6814
3 6815 6811 7571
3 6799 6815 6808
3 21 13545 7561
3 6814 6816 6812
3 6836 6817 6810
3 7569 6817 6836
3 6612 6842 6840
3 6828 6829 6801
3 6801 5279 6819
3 5278 6819 5279
3 6819 6820 6801
3 6802 6821 6822
3 6785 6821 240
3 6823 6821 6809
3 6800 6822 6808
3 6802 6822 6820
3 6799 6823 6806
3 6821 6823 6808
3 6812 6816 7561
3 6810 6817 6824
3 7562 6812 7561
3 9056 7563 8269
3 7562 6824 6812
3 9057 8269 7563
3 7578 8276 7576
3 6612 6835 6834
3 7568 7567 7570
3 6828 6818 6829
3 6833 6832 6818
3 6837 6831 6610
3 6610 6831 6838
3 6830 6838 6831
3 4686 6829 6831
3 6831 6829 6832
3 6818 7570 6833
3 6831 6832 6830
3 356 7565 6833
3 6830 6832 6833
3 7564 6834 7565
3 7564 7577 6834
3 6830 6833 6835
3 6834 6835 6833
3 8272 6810 8273
3 7566 7570 7569
3 160 6837 6610
3 5865 6837 5280
3 6840 6830 6835
3 6839 5816 6841
3 6840 6838 6830
3 6843 6842 5824
3 6612 6840 6835
3 6838 6840 6839
3 5821 6841 5816
3 6610 6841 5817
3 6840 6842 6839
3 6844 278 7405
3 5823 6843 5824
3 5816 6842 6843
3 6842 6845 6844
3 7580 8281 8282
3 6842 6612 6845
3 8282 8281 6834
3 5861 6846 5275
3 7583 6846 4698
3 9582 9583 134
3 3912 9556 3908
3 7594 7600 7590
3 7599 6777 7591
3 60 6902 7623
3 6849 5869 5873
3 4724 6850 5870
3 5299 6849 6850
3 6856 117 5904
3 6854 8324 8326
3 6853 5904 5916
3 6853 5881 6855
3 5890 7618 5881
3 6853 6852 6856
3 7624 8324 6854
3 6855 8325 6853
3 7617 6855 5881
3 6855 6854 8325
3 6853 6856 5904
3 6852 7615 7614
3 9651 9659 9667
3 6857 9664 9666
3 7627 6858 5947
3 9678 6858 6857
3 6861 6859 6860
3 6866 6874 6875
3 5950 6860 5955
3 6862 6860 6859
3 5950 6863 6861
3 6869 6863 6870
3 6862 6859 6864
3 6873 5934 5914
3 10229 5950 10222
3 6865 6867 6868
3 6867 6864 6859
3 6866 5959 6864
3 6867 6859 6869
3 6870 6872 6868
3 6874 6866 6865
3 5962 6866 5956
3 6869 6859 6861
3 6866 6867 6865
3 6863 476 6870
3 6870 476 6882
3 6863 6869 6861
3 6867 6869 6868
3 6882 6872 6870
3 6869 6870 6868
3 6882 476 6884
3 6871 7629 7628
3 6887 7628 6885
3 6868 6872 6886
3 6860 6873 5933
3 5934 6873 6862
3 6888 6865 6886
3 6874 5951 6875
3 7649 7643 7645
3 5956 6875 6877
3 6881 5987 5992
3 5956 6877 5961
3 6878 6877 6875
3 6877 6889 6879
3 5951 7648 7643
3 6893 6889 6876
3 7638 6890 6881
3 6880 5970 5961
3 6893 6879 6889
3 6880 7638 114
3 6893 7638 6879
3 7664 6890 7663
3 10223 10233 10224
3 6871 6872 6882
3 10550 10553 10549
3 6892 6884 6894
3 476 6863 10224
3 6884 6883 6894
3 7642 7639 6876
3 6865 6888 6874
3 6872 6887 6886
3 6874 6888 5951
3 6871 6887 6872
3 6887 6885 8330
3 8330 6886 6887
3 7649 8337 8334
3 6877 6878 6889
3 6876 6889 6878
3 7639 6890 6893
3 6890 7639 7663
3 7637 7630 7635
3 7631 7629 6891
3 6884 6892 6882
3 7629 6892 6891
3 7639 6893 6876
3 6893 6890 7638
3 6883 10237 7633
3 6892 6894 6891
3 5995 6895 5974
3 5991 6895 5985
3 8340 5987 6881
3 5976 5994 6896
3 14993 15009 14992
3 9618 9991 10510
3 27 6898 2334
3 10205 10206 9990
3 6900 6899 303
3 6015 6899 6014
3 6024 6900 303
3 6021 6900 6022
3 530 7667 7666
3 7671 7668 6901
3 7619 7622 7617
3 7678 60 5867
3 7623 6018 7621
3 6904 6905 5869
3 60 6904 6849
3 6905 6904 6903
3 6905 6903 7619
3 6905 5889 5892
3 6906 7681 7682
3 6037 7685 6034
3 7707 7703 7709
3 8400 9137 395
3 6030 7716 6909
3 7715 7684 6908
3 7716 6030 76
3 7685 6908 7684
3 9711 9708 9718
3 9719 168 9731
3 9142 9144 9139
3 7693 5319 6072
3 5313 6912 5306
3 4746 6912 4737
3 189 7702 6915
3 5322 6076 6913
3 8447 8449 8445
3 6917 5321 5323
3 189 6915 6913
3 6914 7698 6918
3 7698 7699 7696
3 5361 6922 76
3 6920 5323 5309
3 6916 7697 6917
3 6914 6918 6915
3 6920 6918 6916
3 7696 7705 7697
3 7705 7696 7704
3 6917 6920 6916
3 6920 5309 6921
3 5320 6921 5309
3 5322 6921 5326
3 5321 6922 5361
3 8474 6919 7705
3 7215 6923 7210
3 6083 7956 7957
3 7202 7209 7193
3 7203 7206 6924
3 7216 6925 5441
3 14929 6925 6083
3 6927 2480 2489
3 6929 6927 2474
3 2489 2474 6927
3 2474 3682 6929
3 6926 3636 6928
3 6928 3636 4206
3 6930 3681 3686
3 6927 6938 6926
3 3686 174 6930
3 6935 6931 6933
3 6932 6930 6933
3 6091 7728 6090
3 6933 6930 174
3 6932 6931 6938
3 6933 174 6936
3 6931 6932 6933
3 6934 6936 6937
3 8618 9195 9197
3 6936 6935 6933
3 8475 6935 6934
3 174 4832 6937
3 6935 6936 6934
3 9197 9198 9199
3 174 6937 6936
3 6938 6927 6929
3 7728 6938 6931
3 6090 6935 8475
3 9207 9208 9204
3 6324 6940 5486
3 6139 6940 6131
3 6135 6941 6146
3 6242 6941 6128
3 6154 6180 6942
3 6178 6942 6180
3 4838 6943 142
3 6944 6943 4239
3 4241 6944 4239
3 4234 4835 6945
3 6946 6945 4833
3 6947 6943 6944
3 6215 6946 4833
3 6947 6178 6180
3 6943 6947 6180
3 6945 6946 6947
3 6187 6949 201
3 6142 7736 6133
3 6133 6949 6187
3 7734 6949 6948
3 7010 6185 384
3 7745 7749 7750
3 6248 6951 6246
3 6250 6951 6253
3 6175 6254 6952
3 6254 6437 6953
3 7132 7821 6434
3 6254 6953 6952
3 6247 6439 6954
3 6439 7737 6955
3 4872 6954 6955
3 6439 6955 6954
3 6956 6438 6957
3 6956 5607 6431
3 6959 6958 6960
3 447 6958 4406
3 6958 447 4367
3 6438 6960 6957
3 4406 6959 4395
3 6958 6957 6960
3 6438 6955 7737
3 4393 6959 6960
3 4393 6960 6961
3 6960 6438 7737
3 6970 6249 6967
3 6974 7141 6962
3 4418 4393 6963
3 6966 6963 4393
3 6964 6439 6251
3 6965 6964 171
3 6965 6970 6969
3 6963 6965 6962
3 4393 6961 6966
3 6965 6966 6961
3 6976 6973 6967
3 6965 171 6970
3 6976 6968 6256
3 6249 6968 6967
3 6973 6969 6967
3 6975 6974 6969
3 6249 6970 171
3 6967 6969 6970
3 6977 6976 6256
3 6981 6971 6980
3 7145 7139 7142
3 6962 6969 6974
3 6967 6968 6976
3 6971 7843 6975
3 6975 6969 6973
3 7151 6972 7842
3 6971 6975 6973
3 6972 6974 6975
3 6978 6256 6258
3 6973 6976 6980
3 6977 6982 6981
3 6973 6980 6971
3 649 6977 6978
3 6978 6977 6256
3 649 7739 7741
3 6979 6984 8490
3 6976 6977 6980
3 6981 6980 6977
3 6982 6977 649
3 6981 6979 7846
3 7741 7739 7740
3 6979 6981 6982
3 8480 7751 7738
3 8476 6297 6311
3 8482 8485 6983
3 8490 6984 8491
3 7003 5579 5582
3 7000 7001 6999
3 6236 204 6986
3 7756 6987 6986
3 6985 6986 6987
3 7756 6986 204
3 6273 6988 6242
3 6201 6988 6274
3 6231 6235 6990
3 8520 14990 14987
3 6233 7757 6235
3 6995 6993 6994
3 7759 6991 6989
3 6300 6231 6991
3 6994 6990 7757
3 6996 6997 6230
3 15697 6992 6998
3 6990 6235 7757
3 6996 6994 6993
3 7002 6995 7005
3 6995 7002 7001
3 6996 6998 6997
3 7763 7762 6230
3 6998 6993 7000
3 6998 6996 6993
3 6992 6997 6998
3 6993 7001 7000
3 7819 6428 7817
3 7001 6993 6995
3 7000 6999 15697
3 7005 6995 7757
3 7008 7007 7002
3 7003 6985 7006
3 7002 7003 7008
3 585 7003 5582
3 6985 7003 7002
3 585 5585 7128
3 6999 7007 6428
3 6986 7005 6233
3 6985 7002 7005
3 6987 7006 6985
3 5579 7003 7006
3 7002 7007 7001
3 6428 7007 7004
3 585 7008 7003
3 7007 7008 7004
3 7011 6303 6297
3 7009 7761 7760
3 7012 7010 7011
3 7752 7011 6297
3 7012 7011 6950
3 7013 7012 6950
3 6185 7010 7012
3 7748 7747 201
3 6185 7013 6186
3 7014 6309 6308
3 6288 8478 7019
3 6302 6307 7018
3 6296 7014 7015
3 143 7018 6307
3 7018 7015 6302
3 7014 6296 7017
3 7015 7018 7016
3 7014 7017 7019
3 6288 7019 7017
3 143 7021 6317
3 7764 7020 7765
3 6223 7021 6307
3 7022 483 7771
3 7023 7022 6327
3 6327 7767 7024
3 5506 5507 7766
3 7041 7044 7026
3 7023 7024 7025
3 7039 7028 7029
3 7025 7782 5506
3 7055 7058 7054
3 7049 7040 7042
3 7034 7028 7024
3 5500 5510 7032
3 7024 7767 7034
3 7041 7031 7027
3 7043 7777 7038
3 7028 7039 7027
3 7041 7027 7044
3 7040 7033 7030
3 7030 7032 7782
3 7031 7782 7025
3 5510 5506 7782
3 7032 7030 7033
3 7037 7040 7041
3 5519 7033 7049
3 7043 7034 206
3 7028 7034 7029
3 8578 251 8574
3 7065 7056 7061
3 7029 7043 7785
3 15025 7788 7065
3 7037 7041 7045
3 7042 5517 7049
3 7776 7777 206
3 8525 8528 7038
3 7785 7039 7029
3 7044 7039 7036
3 7041 7040 7030
3 7040 7037 7042
3 7041 7030 7031
3 7041 7026 7045
3 71 7053 7048
3 7042 7053 7050
3 7777 7043 206
3 7785 7043 7038
3 7039 7044 7027
3 7064 7044 7036
3 7047 7045 7052
3 7052 7045 7026
3 7052 7046 7047
3 7058 7055 6346
3 7048 7047 7054
3 7048 6347 6348
3 71 7048 6348
3 7054 7047 7046
3 5519 7049 5517
3 7040 7049 7033
3 6341 7051 71
3 6341 6342 7051
3 6342 5524 7051
3 5532 7051 5524
3 7061 7056 7060
3 7063 7786 7787
3 7042 7037 7053
3 7057 7053 7037
3 7054 7046 7055
3 7048 7054 7058
3 7062 7055 7066
3 8535 8530 7059
3 7046 7052 7060
3 7052 7026 7061
3 7045 7057 7037
3 7048 7057 7047
3 6346 8543 8544
3 7058 6347 7048
3 7060 7056 7066
3 7787 8535 7063
3 7061 7060 7052
3 7066 7056 7063
3 7026 7064 7061
3 7036 7039 7785
3 7066 7055 7046
3 8530 8546 8534
3 7786 7063 7056
3 7059 7062 7063
3 7044 7064 7026
3 7785 7784 7036
3 7061 7064 7784
3 8564 7789 8573
3 7060 7066 7046
3 7062 7066 7063
3 5512 5525 7068
3 7067 6328 7106
3 205 7068 5523
3 6328 7067 7068
3 7084 7081 7083
3 6328 7068 7069
3 8587 8588 8586
3 7108 7107 6415
3 5530 7086 7812
3 7110 7119 7070
3 8588 7072 8589
3 15010 7072 8588
3 7119 7071 7070
3 7093 7094 7096
3 6336 6344 7793
3 7074 7796 8575
3 7075 233 7079
3 7075 6332 6359
3 233 7790 8583
3 10720 10736 10799
3 7080 7077 7076
3 7798 6350 6332
3 7078 6354 6351
3 7078 7077 7080
3 233 8583 10721
3 7077 7079 7076
3 10798 7080 7076
3 7080 6352 7799
3 8595 8591 8594
3 7082 9189 8590
3 7070 7071 7809
3 7069 7810 7071
3 8589 8590 9189
3 7083 7082 7084
3 7085 7084 7082
3 7086 5530 6360
3 7085 7082 7809
3 205 5529 7811
3 7084 7085 7086
3 7085 7811 7812
3 5549 7087 5546
3 4865 7087 5550
3 4866 7088 4865
3 7089 7088 4252
3 4252 7090 7089
3 7100 7090 4861
3 7090 4252 4860
3 7098 7090 7100
3 7089 7091 6362
3 7092 7091 458
3 7091 7092 6414
3 7096 458 7098
3 7070 7111 7110
3 7094 7123 7092
3 458 7089 7098
3 7120 7123 7093
3 5494 7102 4843
3 7099 263 7103
3 458 7096 7094
3 7097 7096 7095
3 7099 7097 7095
3 7097 7073 7121
3 7090 7098 7089
3 7096 7098 7095
3 7095 7100 7115
3 263 7117 7103
3 7116 7102 7115
3 7095 7098 7100
3 7112 7122 7073
3 8589 7111 7070
3 7099 7115 7102
3 7100 7116 7115
3 5504 5516 7105
3 7097 7104 7073
3 7099 7104 7097
3 7103 5504 7105
3 5515 7067 7106
3 7073 7104 7105
3 7113 7106 6328
3 7073 7105 7106
3 6415 6423 7108
3 7109 7107 7101
3 7092 7123 6419
3 7101 7107 7108
3 7109 7101 7110
3 7109 7072 15011
3 7118 7101 7120
3 7113 7073 7106
3 7072 7109 7111
3 7110 7111 7109
3 7113 7114 7112
3 7110 7101 7118
3 7114 7113 6328
3 7073 7113 7112
3 7069 7114 6328
3 7114 7071 7119
3 7095 7115 7099
3 7116 7100 4861
3 4863 7116 4861
3 4843 7102 7116
3 5498 7117 263
3 5504 7117 5509
3 7118 7120 7121
3 7122 7118 7073
3 7122 7119 7110
3 7114 7119 7112
3 7108 7120 7101
3 7121 7120 7093
3 7097 7121 7093
3 7073 7118 7121
3 7119 7122 7112
3 7110 7118 7122
3 7093 7123 7094
3 7108 7123 7120
3 8591 8600 8592
3 15013 15015 15017
3 7813 7124 15017
3 7124 8599 15013
3 5583 5598 7127
3 7128 7126 6428
3 7129 5599 5601
3 6428 7126 7127
3 6428 7004 7128
3 7128 7004 585
3 5600 7129 5601
3 7127 5599 7129
3 6431 7130 4872
3 6436 7130 6432
3 7132 6434 6435
3 7825 5603 7826
3 8606 8605 8608
3 7132 7131 7821
3 5640 7133 5641
3 6443 7133 4392
3 7136 4377 7138
3 293 7135 7137
3 7136 7135 6442
3 7135 7136 7137
3 6442 4377 7136
3 4377 4408 7138
3 7134 7142 7137
3 7831 7137 7142
3 6963 6962 15018
3 7136 7138 7147
3 7144 7134 7147
3 6450 7834 7835
3 7842 7150 7151
3 7144 7147 7143
3 6972 7141 6974
3 7140 7143 15018
3 7145 7134 7144
3 7139 7832 7831
3 4407 6963 15018
3 7143 7140 7144
3 652 7833 7146
3 7145 7142 7134
3 7144 7140 7149
3 7139 7145 7146
3 7145 7144 7149
3 7145 7148 7146
3 7136 7147 7134
3 7143 7147 7138
3 7150 7148 7149
3 8511 8512 8509
3 7149 7140 7151
3 7145 7149 7148
3 7151 7140 7141
3 651 8506 8513
3 6972 7151 7141
3 7149 7151 7150
3 7154 6448 7153
3 6449 6450 7152
3 7841 6448 7835
3 7848 7849 7847
3 6448 7154 7152
3 7847 7156 7848
3 7888 7878 9234
3 7172 7178 7170
3 7153 7849 7848
3 7861 7179 7155
3 7179 7174 7177
3 5644 7157 5642
3 5645 6454 7159
3 7160 7158 6455
3 7159 665 7171
3 6455 7158 7159
3 7160 6455 7165
3 4988 5006 7161
3 7158 7161 4961
3 4988 7161 7160
3 7169 7166 7162
3 5625 7166 608
3 4988 7163 4998
3 7164 7163 7167
3 238 7164 5623
3 7167 7163 7162
3 7173 7169 6455
3 7163 7165 7162
3 5611 7166 5625
3 7162 7165 7169
3 7164 7167 5611
3 7162 7166 7167
3 7159 7171 7173
3 7168 7180 7865
3 6455 7169 7165
3 7169 7168 7181
3 7172 7171 665
3 7172 5642 7176
3 665 5643 7172
3 7173 7171 7170
3 7177 7176 5642
3 7170 7171 7172
3 7173 7170 7175
3 7159 7173 6455
3 7853 7860 7155
3 7176 7178 7172
3 7170 7178 7863
3 7169 7175 7168
3 7177 5642 7157
3 7176 7174 7178
3 7157 6449 7182
3 7174 7176 7177
3 7860 7855 7861
3 7180 7175 7170
3 7182 7177 7157
3 7851 7179 7156
3 7861 7856 7174
3 7180 7862 7865
3 7169 7181 7166
3 7872 7168 7865
3 7156 7179 7182
3 7177 7182 7179
3 7901 5055 475
3 7183 7903 8681
3 5116 7184 5114
3 5663 7184 632
3 6464 7185 6463
3 6465 6467 7185
3 375 7186 6467
3 7186 6479 7918
3 6483 6505 7915
3 58 7231 7232
3 6494 7191 7190
3 7915 7187 6483
3 7187 7188 7189
3 7191 7189 7188
3 7191 6494 6476
3 7232 7190 7188
3 7190 7191 7188
3 6481 7191 6476
3 7201 6491 7198
3 7193 5414 427
3 7201 7202 7192
3 7203 7205 7202
3 5376 7194 427
3 6492 7192 7194
3 7197 7198 6502
3 7203 7204 7206
3 7917 8686 7916
3 7199 7200 7195
3 7218 7200 7196
3 7198 7197 7196
3 7199 7198 7196
3 6502 7198 6491
3 7199 7196 7200
3 7199 7195 7201
3 7196 7197 7212
3 7221 7218 7219
3 7201 7195 7202
3 6491 7201 7192
3 7195 7203 7202
3 6924 7205 7203
3 7204 7203 7195
3 6924 7208 7205
3 7200 7204 7195
3 7204 6082 7206
3 7209 7205 5420
3 7205 7209 7202
3 7207 7206 6082
3 7206 7207 7215
3 7200 7224 6082
3 7951 7226 7229
3 7215 6924 7206
3 5420 7208 428
3 5420 5413 7209
3 7193 7209 5413
3 7210 6923 7216
3 428 7208 7210
3 7925 7928 7933
3 7949 7225 7217
3 7197 196 7212
3 7916 7212 196
3 7215 7207 7229
3 7200 7221 7224
3 7228 7954 7214
3 6924 7215 7210
3 7954 7228 7230
3 7216 7956 6925
3 7220 7217 7221
3 7225 7224 7217
3 7219 7212 8686
3 7218 7212 7219
3 7220 7219 7211
3 7219 7220 7221
3 7926 7922 7924
3 7949 7213 7225
3 7221 7217 7224
3 7200 7218 7221
3 7217 7220 7223
3 7933 7928 7947
3 7926 7220 7211
3 7223 7949 7217
3 6082 7224 7951
3 522 7952 7950
3 7952 7226 7951
3 7954 7953 7214
3 7215 7229 6923
3 5444 7227 5441
3 7210 7227 428
3 7957 7955 111
3 6925 7956 6083
3 7951 7229 7207
3 7954 7229 7226
3 7954 7230 6923
3 7956 7230 7228
3 7236 7259 7235
3 6498 7231 7237
3 7190 7232 6490
3 7232 7188 7238
3 7233 7238 7187
3 6504 6506 7958
3 7234 7242 7241
3 7240 4552 7237
3 3281 7235 5371
3 7236 7235 7234
3 7236 7234 7239
3 7236 58 7259
3 7231 7239 7237
3 7240 5183 14922
3 7187 7238 7188
3 58 7238 7233
3 7239 7231 58
3 7241 7239 7234
3 7241 7237 7239
3 7240 7237 7241
3 7234 7235 7242
3 7242 7244 7241
3 4779 7243 3281
3 7244 5183 7240
3 3282 7243 3285
3 7242 7245 7244
3 7245 7242 7243
3 5791 7244 3280
3 3282 7245 7243
3 3280 7244 7245
3 642 14916 14914
3 9272 7964 7970
3 6459 6500 7247
3 6500 7249 7248
3 7248 7246 7250
3 5654 7247 7248
3 6500 6499 7249
3 6499 14924 14917
3 7253 7250 7246
3 7256 112 7250
3 3873 7965 3394
3 7959 7251 7962
3 14917 14915 14921
3 7255 7959 7961
3 14918 8704 14920
3 7252 7255 7256
3 5654 7254 5656
3 7250 7254 7248
3 7256 6510 112
3 7959 7255 7252
3 7253 7256 7250
3 7256 7255 7257
3 7256 7257 6510
3 7969 7255 7961
3 6506 7258 5373
3 6505 7258 6504
3 7259 4780 7235
3 7233 7259 58
3 9254 9256 9257
3 8709 8001 7260
3 8002 6467 8003
3 7929 6516 7932
3 7264 7265 7268
3 6541 7262 7265
3 8023 7266 8025
3 7315 631 7313
3 7269 7268 7266
3 7263 7272 7269
3 7274 7262 541
3 7267 7265 7264
3 7265 7274 7268
3 8023 8025 8026
3 7264 7273 7276
3 7267 6529 8004
3 7274 7265 7262
3 7266 8023 7269
3 7306 7271 7272
3 7264 7268 7269
3 7265 7267 7270
3 7270 7267 8004
3 7282 7278 7281
3 7273 7264 7269
3 7324 7306 7328
3 7272 7271 7273
3 7273 7271 7277
3 7264 7276 7267
3 7274 541 8739
3 7268 7274 7266
3 7277 7271 7278
3 7290 7284 6552
3 7279 7276 7273
3 584 7267 7276
3 7271 7312 7278
3 7279 7277 7275
3 7281 7278 209
3 7275 7277 7278
3 7275 7284 7290
3 7279 584 7276
3 7294 7295 8712
3 6547 7284 7283
3 7292 7287 7280
3 7281 7280 7282
3 7283 7282 7280
3 7284 7282 7283
3 7285 7283 7280
3 6547 7289 6548
3 7284 6547 6554
3 7275 7282 7284
3 7288 7281 209
3 7280 7287 7304
3 10114 8012 9277
3 7299 601 7304
3 7292 7281 7288
3 7287 7286 7298
3 7300 7308 7307
3 7286 7287 7294
3 7283 7296 7289
3 7289 7296 7309
3 6552 7279 7290
3 7275 7290 7279
3 11 8009 8011
3 8017 7302 8015
3 7281 7292 7280
3 7294 7292 7288
3 8715 7317 7318
3 7288 7295 7294
3 7292 7294 7287
3 7300 7288 209
3 7295 7307 8005
3 7295 8005 8710
3 7285 7296 7283
3 7309 7296 601
3 7309 7303 7301
3 7297 8017 9284
3 7286 9277 7298
3 7299 7298 7291
3 7303 7299 8010
3 7304 601 7285
3 7308 7300 7314
3 7307 7293 8714
3 601 7299 7303
3 7289 7310 6548
3 8010 8009 7302
3 8015 8008 8017
3 8010 7299 7291
3 7301 7303 7302
3 7280 7304 7285
3 7298 7304 7287
3 7312 7306 7311
3 7324 7315 7305
3 7328 7272 7263
3 7311 7306 7305
3 7295 7300 7307
3 7311 7314 209
3 7305 7315 7313
3 7293 7307 7308
3 7303 7309 601
3 7310 7309 7301
3 10649 7301 8006
3 10650 10316 10649
3 7308 7311 7305
3 209 7278 7312
3 7306 7312 7271
3 209 7312 7311
3 7319 7318 7313
3 7293 7308 7317
3 209 7314 7300
3 7311 7308 7314
3 7305 7306 7324
3 7324 7335 7315
3 7316 7318 7319
3 7316 7323 7343
3 7308 7313 7317
3 7318 7317 7313
3 7319 7313 631
3 7316 8713 8715
3 7322 7319 631
3 7323 7322 7326
3 7322 631 7329
3 8747 8750 8751
3 7327 7326 7320
3 7340 7336 7339
3 7329 631 7333
3 7326 7322 7320
3 7322 7323 7319
3 7341 7344 7339
3 7331 7330 7335
3 7329 7333 8027
3 8746 8743 8021
3 7329 7338 7322
3 8757 8750 8747
3 7323 7326 7321
3 7327 579 7336
3 7326 7327 7340
3 7272 7328 7306
3 7328 7263 7331
3 7333 631 7315
3 7329 7325 7337
3 7324 7328 7331
3 8021 7330 8022
3 8023 7331 7263
3 8825 8021 8022
3 7336 8785 8784
3 10628 10631 10637
3 7335 7333 7315
3 7333 7335 8027
3 8744 7337 7325
3 7334 8753 8751
3 7331 7335 7324
3 7335 7330 8027
3 8785 8773 8784
3 7336 7332 7339
3 8744 7325 8743
3 7338 7337 7334
3 8751 7338 7334
3 7338 7320 7322
3 7332 7341 7339
3 7344 7341 149
3 7326 7340 7321
3 7336 7340 7327
3 10638 10642 10636
3 8718 7344 149
3 8718 8028 8717
3 8710 8005 8721
3 7339 7343 7321
3 7343 7342 8716
3 7342 7343 7344
3 7339 7344 7343
3 6539 7345 6532
3 584 6552 7345
3 8030 5736 8029
3 6590 7346 6589
3 8029 5735 8033
3 7351 7349 7348
3 6589 8030 8826
3 10303 10313 7347
3 6591 6585 7350
3 10648 7348 10314
3 7348 7349 7350
3 7350 7349 6591
3 7351 478 7354
3 6583 7349 7351
3 10337 11157 10342
3 8529 8550 438
3 6593 6583 7353
3 7355 7351 7354
3 10338 10653 10329
3 7355 7352 7353
3 7351 7355 6583
3 7352 7355 7354
3 7357 2632 2634
3 2628 7369 7359
3 2634 2627 7357
3 7359 2627 2628
3 296 7363 7368
3 7357 7358 7361
3 7369 2628 559
3 7357 7359 7358
3 7379 7356 7375
3 6598 2632 7360
3 7361 7358 7364
3 7356 7361 7363
3 7373 7372 7366
3 7364 7372 7362
3 7367 7361 7364
3 7361 7367 7363
3 7366 7364 7358
3 8080 7362 8078
3 8078 618 8076
3 8068 8076 618
3 7369 7366 7358
3 7370 7373 7366
3 8035 7364 7362
3 7367 8035 7368
3 7367 7368 7363
3 8081 8084 7365
3 7359 7369 7358
3 7370 7369 559
3 2647 7370 559
3 7373 7370 2646
3 8036 7371 7373
3 8844 8078 8827
3 7366 7372 7364
3 8827 7372 7371
3 8036 7373 2646
3 7372 7373 7371
3 6597 6598 7374
3 7360 7379 6598
3 296 7381 7363
3 7376 6599 6606
3 6595 7376 6606
3 7375 7380 7377
3 6604 7378 5773
3 6599 7376 7377
3 7377 296 7378
3 296 8083 8088
3 7356 7379 7360
3 7374 7379 7375
3 7375 7356 7380
3 7381 7356 7363
3 7377 7381 296
3 7356 7381 7380
3 7385 5780 7386
3 7384 7382 6608
3 5750 7392 7391
3 7382 7385 6608
3 7384 6608 11925
3 7384 94 7387
3 5781 7389 5780
3 7385 7383 7400
3 5751 7390 436
3 7383 7385 7386
3 94 12695 9319
3 7388 7387 6609
3 6609 9307 9311
3 5789 7387 7388
3 7390 7389 436
3 5780 7389 7386
3 5750 7390 5751
3 7389 7390 7386
3 5768 7393 5750
3 7383 7386 7391
3 5778 7395 277
3 7396 7399 7392
3 5763 7393 5768
3 277 7392 7393
3 9912 9909 9910
3 7383 7399 7400
3 5777 7395 5778
3 7396 7395 7394
3 7394 7398 7396
3 277 7396 7392
3 10166 10168 10169
3 10153 352 9910
3 10169 7394 10166
3 7399 7398 7397
3 7400 7399 7397
3 7399 7383 7392
3 11925 7397 11924
3 7400 6608 7385
3 496 5825 7402
3 7403 7401 6611
3 7402 5822 8107
3 496 7402 7401
3 7406 7403 6611
3 5247 7403 6615
3 5824 6844 7405
3 8107 7404 6613
3 6613 7404 7405
3 5824 7405 7404
3 7407 6611 8107
3 7406 6611 7407
3 7407 6613 8852
3 8110 6628 7406
3 6633 7408 321
3 5829 7408 6629
3 36 9367 8875
3 6640 7409 6638
3 6693 7410 6635
3 6640 7410 6636
3 36 8109 9367
3 12705 12706 12328
3 8114 8115 8116
3 9394 9395 8979
3 8236 359 8235
3 6688 6689 8117
3 6702 8112 7415
3 6709 7414 6703
3 7415 7412 9393
3 6703 7414 7415
3 6716 6726 7417
3 7420 488 7464
3 6726 6699 7417
3 7419 7424 7420
3 7418 7425 7423
3 6718 6720 7418
3 7417 6699 7419
3 6699 6736 8118
3 7464 488 7460
3 7416 7419 7420
3 7434 8907 8919
3 8196 8191 8193
3 38 7423 7426
3 7418 7423 6718
3 7426 7423 7422
3 38 7427 7423
3 7438 7451 6737
3 7420 7424 488
3 7420 7425 7416
3 7422 7423 7425
3 7422 7428 7426
3 7430 7432 7429
3 7427 38 8114
3 6718 7423 7427
3 7464 7428 7422
3 7428 7421 7431
3 38 7426 7436
3 7431 7430 7436
3 7426 7428 7431
3 8883 7430 7429
3 8894 8121 7421
3 7430 7431 7432
3 7435 8121 7434
3 8902 8906 8905
3 7463 8894 7421
3 8831 8056 8832
3 7432 7431 8121
3 8893 7434 8919
3 7435 7432 8121
3 7435 7434 8893
3 7431 7436 7426
3 8886 7436 7430
3 10452 11259 10450
3 283 7441 7444
3 7447 7438 283
3 7447 7442 7452
3 7439 6737 8118
3 7440 7439 6734
3 6734 6735 7441
3 283 7438 7440
3 6715 6731 7443
3 7441 7449 7444
3 7447 7462 7461
3 7453 8123 362
3 7448 6733 581
3 7449 7443 7448
3 7456 7444 7437
3 7444 7456 7457
3 7452 7442 7453
3 7446 7445 7459
3 6737 7446 7424
3 8921 8922 8967
3 7462 283 7444
3 7453 7442 8123
3 10453 7448 581
3 7449 7448 7437
3 7444 7449 7437
3 7441 7443 7449
3 10450 7450 10452
3 10439 10441 35
3 7447 7451 7438
3 7445 7446 7451
3 7445 7451 7452
3 7447 7452 7451
3 7453 362 8921
3 7452 7453 8967
3 7421 7464 7465
3 7459 7460 7446
3 7455 7457 7458
3 8124 8125 8130
3 10452 7456 10455
3 7457 7456 7450
3 7458 7457 7450
3 7457 7455 7462
3 7450 10450 10442
3 628 8125 7458
3 8922 8923 8137
3 7459 7454 7460
3 7465 7454 7463
3 7464 7422 7420
3 7462 7447 283
3 7461 7455 8124
3 7457 7462 7444
3 7461 7462 7455
3 7454 8138 7463
3 8896 8894 8897
3 7465 7464 7460
3 7428 7464 7421
3 7454 7465 7460
3 7421 7465 7463
3 6751 7466 2657
3 8139 7466 6744
3 8179 8153 8172
3 8141 8143 8140
3 8146 8152 8147
3 7471 3861 7469
3 8143 3862 365
3 7471 7469 7468
3 8149 7468 8150
3 8155 7470 8154
3 8146 8150 7468
3 7471 7470 8968
3 8171 8174 8161
3 8141 8146 7468
3 6764 6770 7474
3 7497 7484 91
3 526 7532 6770
3 7531 7482 7532
3 6791 7479 7478
3 7484 7488 7483
3 7481 7473 7483
3 6764 7476 6768
3 6774 7511 7515
3 526 7516 7531
3 7479 6791 469
3 7488 7475 7483
3 469 7480 7479
3 7476 7473 7481
3 5856 7480 469
3 6780 6768 8255
3 7479 7481 7475
3 7480 6780 8255
3 7482 7474 7532
3 7482 7477 7485
3 7484 7483 7473
3 7475 7481 7483
3 7484 7473 7482
3 7484 7497 7488
3 8981 8260 7485
3 91 7484 7485
3 7495 7494 7486
3 6794 7489 408
3 7475 7487 7478
3 7489 7487 7486
3 7486 7487 7488
3 7475 7488 7487
3 7490 7489 6794
3 7492 7493 7494
3 6793 7490 6794
3 7487 7490 6789
3 7491 7496 7499
3 9009 7498 9400
3 7494 7489 7486
3 9413 9431 7491
3 7494 7493 7489
3 15120 7493 7492
3 7488 7497 7486
3 7492 7494 7496
3 7501 7499 7500
3 7496 7491 9432
3 7495 7500 7494
3 91 7501 7495
3 91 7495 7497
3 7486 7497 7495
3 8261 8260 8981
3 8994 345 8992
3 7500 7499 7496
3 7498 9398 9400
3 7494 7500 7496
3 7501 7500 7495
3 91 7485 8260
3 7498 7499 7501
3 7504 7597 8318
3 8257 7506 6775
3 7542 7519 7540
3 6774 7506 7507
3 7602 22 7598
3 7506 6774 6775
3 7504 7503 8256
3 7523 7507 7505
3 8257 6775 6769
3 7507 7506 7505
3 8256 7510 7523
3 7507 346 7511
3 7508 22 7602
3 7504 8256 7509
3 7502 7508 7509
3 7504 7509 7508
3 7556 7537 8982
3 346 7507 7518
3 7514 7511 346
3 7516 7517 7515
3 7522 7535 346
3 8263 8980 345
3 7524 7512 7525
3 7531 7516 7533
3 7522 7520 7536
3 7524 7514 7512
3 7514 7515 7511
3 7516 7515 7513
3 7516 7513 7533
3 6772 7517 526
3 7515 7517 6774
3 526 7517 7516
3 7521 7518 7510
3 7530 7529 7522
3 7528 7521 7510
3 7540 7519 7521
3 7519 7547 7529
3 7534 7512 7514
3 7528 7510 7503
3 7529 7521 7519
3 7530 7522 7518
3 7536 7535 7522
3 8256 7523 7505
3 7518 7523 7510
3 7525 8987 8980
3 7515 7524 7513
3 9400 9398 8998
3 7524 7525 8264
3 8980 8263 7525
3 345 9398 8263
3 7527 7536 7538
3 7538 9397 7527
3 7544 7528 7503
3 7521 7528 7540
3 7548 7547 7519
3 7522 7529 7520
3 7518 7521 7530
3 7529 7530 7521
3 8981 7531 7526
3 7531 7477 7482
3 6770 7532 7474
3 526 7531 7532
3 7533 7513 8264
3 7531 7533 7526
3 7535 7514 346
3 7527 9397 8985
3 7527 7534 7535
3 7535 7534 7514
3 7551 7520 7549
3 7527 7535 7536
3 7529 7549 7520
3 9034 9028 9511
3 7555 7520 7551
3 9397 8982 8266
3 7597 7504 7508
3 9080 7542 7545
3 7545 7528 7544
3 555 9073 9079
3 9434 7541 9959
3 7546 9434 9435
3 7545 7542 7540
3 7542 7541 9434
3 9017 7552 7553
3 7547 7549 7529
3 7605 7544 7503
3 7544 7539 7545
3 7545 7540 7528
3 8322 9081 7539
3 9435 9434 9015
3 7554 7548 7546
3 7519 7542 7548
3 7547 7543 7549
3 7554 7546 280
3 7543 7547 7548
3 7552 7549 7543
3 7555 7551 7556
3 7543 7553 7552
3 9020 9037 8268
3 7552 7551 7549
3 9042 7556 7551
3 7543 7554 7553
3 7551 7552 7550
3 7559 7553 280
3 7552 9017 7550
3 7553 7554 280
3 7543 7548 7554
3 7538 7536 7555
3 7520 7555 7536
3 7555 7556 7538
3 9042 7551 7550
3 9435 9438 9442
3 10489 9019 9021
3 9435 280 7546
3 7558 9018 8268
3 280 9435 9442
3 9017 7558 8268
3 6805 6795 12797
3 13541 13542 13540
3 21 7561 6816
3 7562 7561 7560
3 6825 7562 7560
3 7562 6826 6824
3 9539 9977 8270
3 9538 9058 7563
3 7564 7566 7578
3 7581 7579 7577
3 6833 7565 6834
3 7566 7565 356
3 356 7570 7566
3 7578 7566 6827
3 7570 6818 7568
3 7567 7571 8280
3 6828 6800 7568
3 7571 7568 6800
3 7566 7569 6827
3 7569 7567 8280
3 7570 7567 7569
3 7570 356 6833
3 6815 7571 6800
3 7571 6811 8280
3 6810 9057 8273
3 8275 300 8279
3 9347 8854 8108
3 7575 6844 6845
3 8858 8861 8865
3 7575 8857 6844
3 8281 6845 6612
3 7575 7574 8857
3 6810 8272 6836
3 7577 7579 7573
3 7564 7578 7581
3 7580 7577 7573
3 8272 7578 6827
3 7576 7579 7581
3 7576 7582 7579
3 7582 8862 8866
3 8859 7580 7573
3 7575 8281 7574
3 7564 7581 7577
3 7576 7581 7578
3 7582 7576 8276
3 7573 8866 8861
3 9583 9588 4698
3 9590 7586 7583
3 7584 7586 8283
3 6848 7584 8284
3 7586 7585 7583
3 6848 7585 7584
3 8283 7586 6847
3 7585 7586 7584
3 7585 7587 5862
3 7594 7590 7589
3 7590 7588 7589
3 8319 7604 7596
3 7594 7587 6848
3 7591 7589 7588
3 8284 7595 7600
3 8322 7605 8320
3 7592 7591 7588
3 7593 7591 6777
3 7602 7603 7597
3 22 6765 7598
3 5864 7593 6777
3 7589 7593 527
3 7587 7594 7589
3 7600 7594 6848
3 9066 8321 7609
3 7608 7606 7610
3 7588 7590 7601
3 7601 7590 7606
3 7603 7592 7588
3 8318 7503 7504
3 6765 5860 7598
3 7599 5860 6777
3 7592 7599 7591
3 5860 7599 7598
3 8284 7600 6848
3 7606 7600 7595
3 7590 7600 7606
3 7601 7604 7603
3 7603 7602 7592
3 7508 7602 7597
3 7588 7601 7603
3 7604 7601 7596
3 8319 7596 7605
3 7597 7603 7604
3 7605 7596 8320
3 7605 7539 7544
3 7609 7610 7611
3 7596 7601 7608
3 316 8288 8294
3 8294 8296 8298
3 7601 7606 7608
3 7606 7612 7610
3 9065 9067 9069
3 7610 8321 7608
3 7612 7606 7595
3 7610 7609 8321
3 7611 8298 8296
3 7611 8296 8300
3 8298 7612 7595
3 7610 7612 7611
3 7614 7616 5954
3 8323 9085 9088
3 6852 7614 6856
3 7616 7614 7613
3 8325 7615 6852
3 7615 6851 9086
3 7616 7613 9638
3 5954 7616 5947
3 6905 7619 7620
3 7617 7622 7624
3 5889 7618 5891
3 5881 7618 7617
3 6903 7621 7619
3 380 7624 7622
3 7618 7620 7617
3 6905 7620 5889
3 7623 7621 6903
3 7677 7625 7621
3 7619 7625 7622
3 7676 7673 7677
3 60 7623 6903
3 6018 7623 6902
3 8324 7624 380
3 7617 7624 6854
3 7619 7621 7625
3 7677 7621 6018
3 380 7674 8358
3 9089 7626 9090
3 9667 7627 5926
3 6858 7627 6857
3 6871 6892 7629
3 8331 7628 99
3 7630 7631 7635
3 99 7628 7629
3 9698 8327 9103
3 99 7629 7636
3 7633 7635 6891
3 7636 7631 9103
3 6894 7633 6891
3 10234 10240 6883
3 6883 7633 6894
3 7633 7632 7635
3 9103 8327 7634
3 9125 9126 9127
3 7635 7631 6891
3 7637 7635 7632
3 9103 7631 7630
3 99 7636 7634
3 10546 7637 7632
3 7637 524 9105
3 114 7638 6881
3 7638 6880 6879
3 7642 7643 7641
3 419 11361 7663
3 8332 8335 9107
3 419 7639 7644
3 6876 7643 7642
3 7651 7644 7641
3 7643 6876 6878
3 7642 7641 7644
3 6878 5951 7643
3 7648 5951 6888
3 7650 7646 7651
3 7644 7653 7652
3 8329 6888 8330
3 7643 7649 7641
3 7646 7660 7656
3 7652 7653 7647
3 11045 11031 11060
3 7647 11046 11064
3 8329 7648 6888
3 7643 7648 7645
3 8337 7645 8329
3 7650 7649 8334
3 7650 7640 7660
3 7641 7649 7650
3 7650 7651 7641
3 7651 7646 7653
3 7644 7651 7653
3 7647 11064 11066
3 7656 7653 7646
3 7647 7653 7655
3 9110 9113 9114
3 28 7655 7657
3 7656 7655 7653
3 7655 7656 7657
3 7646 7650 7660
3 7656 7654 7657
3 7659 9109 7658
3 7657 7654 7659
3 9109 9120 7658
3 11017 11023 8339
3 8338 9109 9110
3 7659 7658 9131
3 7640 9115 7660
3 7654 7656 7660
3 419 7652 11078
3 14998 14994 14996
3 8340 6896 5987
3 7662 8340 7664
3 419 7663 7639
3 7664 7661 7662
3 6890 7664 6881
3 7663 7661 7664
3 6006 15009 14993
3 6898 7665 6897
3 6031 8342 530
3 7666 6901 7668
3 6025 7681 8341
3 7672 6901 8464
3 8390 7671 7672
3 7673 7676 7671
3 6902 7669 6018
3 7666 7669 6023
3 8376 8368 8367
3 6018 7669 7676
3 7672 7671 6901
3 7671 7670 7673
3 8464 6901 7667
3 514 8388 8390
3 8383 8369 8356
3 7674 7622 7625
3 7670 8361 7673
3 380 7622 7674
3 8342 8341 8347
3 7720 9137 8349
3 7671 7676 7668
3 7677 7673 7674
3 7676 7677 6018
3 7625 7677 7674
3 7680 5867 6011
3 6902 7679 6023
3 7680 7679 7678
3 6026 7679 6012
3 7679 7680 6012
3 5867 7680 7678
3 6025 6022 7681
3 7682 7681 6022
3 6022 6024 7682
3 6034 7682 6024
3 8349 8346 8348
3 7675 8464 8347
3 7684 8345 8344
3 6034 8344 8343
3 6909 7685 6028
3 6034 7685 7684
3 9737 6910 14964
3 9736 14951 9737
3 6064 9161 7688
3 7687 6911 7692
3 7690 7688 6063
3 7687 7688 8473
3 8467 7690 6063
3 6063 9159 8467
3 7690 102 9163
3 9149 8444 9147
3 7694 5319 7693
3 9166 7692 6911
3 7695 7691 7693
3 6072 393 7693
3 7687 7695 393
3 9150 7694 7691
3 5319 7694 6076
3 7692 7695 7687
3 7693 393 7695
3 7696 7697 7698
3 7704 7696 6077
3 6917 7697 6919
3 7698 7697 6916
3 6918 7698 6916
3 7699 7698 6914
3 7701 7699 6914
3 7696 7699 6077
3 7701 6914 7702
3 7719 395 7720
3 6914 6915 7702
3 7717 7713 7701
3 7702 189 8445
3 7701 7702 8449
3 7710 7712 7714
3 7715 7706 7707
3 7704 6077 7710
3 7704 7703 7705
3 7706 7705 7703
3 7716 76 8474
3 7707 7706 7703
3 7716 7706 6908
3 7709 7703 7710
3 7715 7707 6907
3 7714 7720 7708
3 7709 8348 7707
3 7703 7704 7710
3 8349 8348 7708
3 7712 6077 7713
3 7708 7709 7710
3 7717 7700 7718
3 7714 7708 7710
3 6077 7699 7713
3 7712 7711 7714
3 7717 7701 7700
3 7711 7712 7713
3 7719 7714 7711
3 7714 7719 7720
3 7684 7715 6907
3 6908 7706 7715
3 6909 7716 6908
3 76 6922 8474
3 8453 7700 8447
3 7711 7713 7717
3 7719 7723 7725
3 7717 7718 7723
3 7723 7711 7717
3 7719 7711 7723
3 7722 9137 9136
3 8345 8351 7683
3 8381 8386 8395
3 9134 8377 116
3 8354 514 7675
3 8345 7683 8344
3 7725 8424 8422
3 8403 8398 8404
3 8421 8422 8418
3 8411 8435 8429
3 7718 8424 7723
3 7719 7726 395
3 7724 8408 8406
3 8399 8397 8406
3 3636 7727 3293
3 7728 7727 6926
3 6938 7728 6926
3 6935 7728 6931
3 5482 6089 7730
3 9207 7729 6939
3 6939 7729 7730
3 7730 7729 5482
3 6939 7730 7731
3 6091 7731 7730
3 9199 6937 4245
3 9201 9205 9206
3 6169 7733 6137
3 7734 7733 6186
3 7013 7734 6186
3 6949 7734 201
3 7733 7735 6137
3 6948 6949 7736
3 6150 7735 7736
3 6948 7736 7735
3 6964 7737 6439
3 6960 7737 6961
3 7765 8477 8478
3 7739 7753 7740
3 6978 7744 649
3 7740 7753 6983
3 7740 6983 8495
3 7741 7740 6984
3 6979 7741 6984
3 649 7741 6982
3 7743 6208 6209
3 7746 7743 6204
3 6206 201 7747
3 7743 7742 7744
3 6208 7744 6978
3 7744 7742 8487
3 6950 7750 7749
3 8489 7750 8479
3 7747 6204 6206
3 7746 7745 8488
3 7745 7746 7747
3 7747 7746 6204
3 7013 6950 7748
3 7749 7748 6950
3 7011 7752 6950
3 7747 7749 7745
3 6297 8479 7752
3 8489 9170 8488
3 8487 7751 7753
3 8487 7742 8488
3 8479 6297 8476
3 6950 7752 7750
3 8487 7753 7739
3 8480 7753 7751
3 9172 294 8515
3 8495 6983 8484
3 8506 7843 7845
3 6264 7756 204
3 6265 7756 6266
3 7005 7757 6233
3 6994 7757 6995
3 6300 6991 7759
3 14991 7761 7009
3 7759 6989 7760
3 7759 7758 8520
3 7762 7760 6989
3 7763 7009 7760
3 14990 14991 67
3 7759 7761 7758
3 6994 7762 6989
3 6230 7762 6996
3 8481 7765 9169
3 7762 7763 7760
3 6288 7764 8478
3 7738 8476 8477
3 7022 7766 5503
3 5506 7766 7023
3 7774 5480 4807
3 7776 7769 7781
3 8521 7768 7779
3 7768 7781 7769
3 7022 7771 7778
3 7775 7781 8523
3 4801 7772 4809
3 7769 7778 7779
3 7774 483 5480
3 7769 7779 7768
3 7772 4801 7773
3 4807 7772 7770
3 7780 4801 4802
3 9179 9174 9175
3 7770 7774 4807
3 483 7774 7771
3 8524 9180 8527
3 7767 7776 206
3 7769 7776 7767
3 7776 7775 7777
3 8524 4479 9180
3 7038 7777 8525
3 7767 7778 7769
3 7022 7778 6327
3 7774 7779 7771
3 8521 7779 7770
3 551 9751 4802
3 7773 9751 9175
3 7768 9174 8523
3 7776 7781 7775
3 7030 7782 7031
3 5510 7782 7032
3 15021 15022 15020
3 7065 7061 7784
3 7036 7784 7064
3 7784 7783 15023
3 8528 7785 7038
3 7784 7785 7783
3 7788 7786 7056
3 7786 207 7787
3 8557 8558 8548
3 8530 8529 438
3 7786 7788 207
3 7056 7065 7788
3 8569 8564 8568
3 8561 8562 15024
3 7796 6349 6356
3 8583 7790 7074
3 8537 8539 8532
3 8584 8583 7074
3 8545 6348 6347
3 7793 7792 7795
3 6345 7793 6344
3 7793 7795 7794
3 8577 7791 8542
3 7796 7794 8575
3 7795 7792 8545
3 7791 7794 7795
3 7790 7796 7074
3 6336 7794 7796
3 9187 10735 389
3 7797 10719 10721
3 7077 7078 7798
3 6338 7798 7078
3 10797 10805 6352
3 6353 7078 7799
3 11169 15034 11170
3 7801 7800 7803
3 10807 7799 6352
3 15034 15032 15033
3 8601 8603 409
3 7803 15026 7801
3 7803 15032 15031
3 7803 7802 15026
3 15028 15029 15027
3 6358 7808 6355
3 6353 7805 6354
3 15036 7807 7804
3 15028 15027 15036
3 8595 8598 8591
3 7804 7807 7805
3 7807 7806 7808
3 7807 7808 6358
3 8603 8604 8602
3 7809 7071 7810
3 8590 7809 7082
3 7811 7810 205
3 7809 7810 7085
3 7812 7811 5531
3 7811 7085 7810
3 5530 7812 5531
3 7085 7812 7086
3 8592 8587 8586
3 15017 7815 7813
3 7815 6425 7813
3 7816 7814 7125
3 7125 7814 7815
3 6425 7815 7814
3 15016 7125 15015
3 7816 175 6417
3 147 7819 7818
3 7817 7818 7819
3 15697 147 15696
3 7817 5600 7818
3 6999 6428 7819
3 7820 6149 8612
3 7821 7820 6192
3 6434 7821 6953
3 7820 7821 7131
3 7823 8608 7132
3 9229 7827 4292
3 291 7825 7132
3 291 6429 7825
3 9220 7824 9225
3 8607 9192 9193
3 6429 5603 7825
3 5603 5604 7826
3 4277 7827 7826
3 7827 7828 7826
3 4292 7827 4277
3 7828 7827 7824
3 9191 9190 9192
3 8606 7829 7822
3 7826 7828 7829
3 7822 7829 7828
3 7832 7830 7831
3 9750 7839 9745
3 7139 7831 7142
3 7831 7830 7834
3 7139 7833 7832
3 7837 9754 8627
3 7146 7833 7139
3 652 9745 7840
3 7835 7834 7830
3 6450 6452 7836
3 8628 8627 7838
3 6450 7835 6448
3 7137 7836 293
3 7831 7834 7836
3 7840 8628 7832
3 9755 9762 8646
3 9754 9232 9233
3 7841 8625 6448
3 7833 7840 7832
3 652 9171 9745
3 652 7840 7833
3 7840 7839 8628
3 8628 7835 7830
3 9233 7838 9754
3 6972 6975 7843
3 8512 7842 651
3 7846 7844 7845
3 651 7842 7843
3 8492 6979 8490
3 7844 8492 8494
3 6971 6981 7846
3 7845 7844 8506
3 7846 6979 8492
3 6971 7846 7845
3 7850 7853 7852
3 7156 7847 7851
3 6449 7848 7156
3 7153 7848 7154
3 7153 8626 7849
3 654 7847 7849
3 7874 7877 7887
3 7851 7853 7155
3 7852 7851 7847
3 7851 7852 7853
3 654 8632 7847
3 8631 8630 8629
3 7857 7853 7850
3 7858 7853 7857
3 7877 7881 7883
3 7879 7871 7885
3 7863 7862 7180
3 7856 7178 7174
3 7862 7856 7855
3 7863 7856 7862
3 7857 7850 7878
3 7858 7857 7854
3 7859 7858 7854
3 7858 7855 7860
3 7877 7875 7881
3 7859 159 7864
3 7858 7860 7853
3 7861 7855 7856
3 7179 7861 7174
3 7860 7861 7155
3 7855 7864 7862
3 7868 7867 7897
3 7170 7863 7180
3 7178 7856 7863
3 7859 7864 7855
3 7869 7864 159
3 7862 7864 7869
3 7181 7168 7872
3 7869 7865 7862
3 7873 7868 5630
3 7871 7876 7880
3 7869 7871 7880
3 7873 5630 608
3 7897 7867 7895
3 7869 159 7871
3 7869 7880 7886
3 7875 7885 159
3 7891 7870 7879
3 159 7859 7875
3 7871 7870 7876
3 7886 7872 7865
3 7181 7872 7866
3 7876 7873 7866
3 7868 7873 7867
3 7874 7875 7877
3 7884 7889 7890
3 7881 7859 7854
3 7875 7874 7879
3 7876 7896 7895
3 7876 7867 7873
3 7857 7878 7883
3 8652 336 8656
3 7850 8631 9235
3 7888 9234 9238
3 7889 7879 7874
3 7871 7879 7870
3 7866 7886 7876
3 7886 7866 7872
3 7859 7881 7875
3 7883 7881 7854
3 7887 7877 7888
3 7882 7887 7888
3 7857 7883 7854
3 7888 7883 7878
3 7890 7889 7874
3 7894 7891 7884
3 159 7885 7871
3 7875 7879 7885
3 7869 7886 7865
3 7876 7886 7880
3 7877 7883 7888
3 7887 7882 7890
3 9234 7878 9235
3 9238 9234 9237
3 7874 7887 7890
3 7889 7884 7891
3 8652 7882 9239
3 7890 7882 8652
3 8659 7892 7894
3 7897 7895 7893
3 9778 7892 10088
3 7892 9778 8668
3 8666 7896 7891
3 8666 7891 7894
3 8659 7894 7884
3 8666 7894 7892
3 7896 7876 7870
3 8680 7897 7893
3 7891 7896 7870
3 7893 7895 7896
3 7898 7897 607
3 7868 7897 5627
3 8678 607 8671
3 5631 7899 5628
3 5627 7898 7899
3 8671 8675 8678
3 7901 7900 5055
3 8683 7900 7183
3 7904 7902 7901
3 7183 7901 7903
3 7908 7912 7911
3 7903 6456 8681
3 7901 7902 7903
3 9790 5646 9259
3 5049 7904 475
3 5051 7902 7904
3 7906 7910 7908
3 6456 7903 7907
3 5050 7908 7902
3 7910 7903 7902
3 7906 9791 10109
3 7912 5050 5071
3 7910 7906 7907
3 7903 7910 7907
3 49 7909 7912
3 7902 7908 7910
3 9791 7905 9790
3 7908 7911 7906
3 5050 7912 7908
3 49 7912 5071
3 9259 9260 9258
3 8684 8683 7913
3 6483 7914 6484
3 7189 7914 7187
3 7958 7915 6504
3 7233 7187 7915
3 6480 7916 196
3 7918 7917 6472
3 7920 7917 6479
3 8686 7211 7219
3 6472 6478 7918
3 6463 7918 6478
3 7920 6479 7921
3 56 7946 7945
3 7921 6479 375
3 7922 7920 7919
3 7921 375 7925
3 7920 7921 7933
3 7922 7919 7924
3 7922 7211 8686
3 7927 7925 375
3 7927 7261 7929
3 7928 7939 7947
3 7926 7946 7223
3 375 8002 7927
3 7925 7923 7928
3 7922 7926 7211
3 7926 7924 7946
3 7261 8709 7929
3 7925 7927 7940
3 7923 7934 7928
3 7934 7939 7928
3 9255 6516 9253
3 7929 7938 7940
3 7942 8687 7930
3 7929 7932 7938
3 7935 7942 7930
3 9255 7932 6516
3 7938 7932 7931
3 7920 7933 7919
3 7925 7933 7921
3 7937 7935 7222
3 7943 7936 7939
3 7938 7937 7923
3 7937 7934 7923
3 7947 7919 7933
3 7935 7937 7942
3 7938 7923 7940
3 7931 7941 8687
3 7943 7934 7222
3 7944 7939 7936
3 7925 7940 7923
3 7929 7940 7927
3 7937 7938 7942
3 7931 110 7941
3 8687 7938 7931
3 7946 56 7223
3 7934 7943 7939
3 7947 7944 7924
3 7924 7944 7946
3 7944 7936 7945
3 7945 7946 7944
3 7944 7947 7939
3 7924 7919 7947
3 7223 7948 7949
3 7223 56 7948
3 7213 7949 7948
3 7224 7225 7951
3 7225 7213 7950
3 7951 7225 7952
3 7950 7952 7225
3 522 7226 7952
3 7229 7954 6923
3 7226 522 7953
3 7954 7226 7953
3 7230 7956 7216
3 7228 7214 7955
3 7228 7955 7957
3 7957 111 14931
3 7228 7957 7956
3 6506 7233 7958
3 7915 7958 7233
3 14920 7959 7252
3 7962 7961 7959
3 7964 8688 7970
3 7980 7982 7981
3 7967 7961 7960
3 7969 7257 7255
3 9272 7970 9271
3 7960 7961 7962
3 7963 8688 8689
3 2662 8700 8699
3 7976 7975 7963
3 7965 9793 3394
3 8690 3873 50
3 7964 9272 9793
3 8703 7962 7251
3 8693 8695 8689
3 7981 7960 7980
3 7967 506 7968
3 7978 7974 7968
3 6513 7973 6511
3 7961 7967 7969
3 7968 7969 7967
3 8703 7970 7975
3 8703 9271 7970
3 372 5134 7983
3 7980 7985 7976
3 7992 7982 7987
3 3056 7997 7995
3 5670 7968 7973
3 506 7978 7968
3 7984 7974 7972
3 7973 7974 9275
3 8703 7975 7966
3 8688 7975 7970
3 8689 8695 8698
3 7976 7971 7980
3 7987 7983 4460
3 7990 7978 506
3 7988 7992 7991
3 7972 7974 7978
3 7972 7995 7997
3 9273 8706 9275
3 7986 7977 7982
3 7967 7981 506
3 7960 7981 7967
3 7980 7971 7986
3 7987 7982 7977
3 7981 7982 7993
3 4460 7983 5134
3 8700 7983 7977
3 7997 7984 7972
3 9275 7984 7979
3 7960 7966 7985
3 7976 7985 7966
3 7977 7986 7971
3 7982 7980 7986
3 7983 7987 7977
3 7987 4460 7991
3 2537 15105 5136
3 3057 7999 194
3 194 7989 2539
3 7991 15105 7988
3 7990 7993 7992
3 7994 7990 7988
3 4460 5136 15105
3 7992 7988 7990
3 7991 7992 7987
3 7993 7990 506
3 7981 7993 506
3 7982 7992 7993
3 7989 7996 7988
3 7978 7994 7972
3 7972 7994 7995
3 7988 7996 7994
3 194 7996 7989
3 7994 7996 7995
3 3793 7998 7997
3 7998 7984 7997
3 507 7998 3793
3 7984 7998 7979
3 3056 7995 7999
3 7996 7999 7995
3 9254 8000 663
3 8001 8000 7260
3 8709 7260 6516
3 8003 8001 7261
3 8003 6467 5132
3 7927 8002 7261
3 8001 8003 5132
3 7261 8002 8003
3 6529 6530 8004
3 7270 8004 6530
3 8715 8713 8714
3 8719 8720 8717
3 7301 7302 8006
3 8014 8015 8009
3 8018 8020 8014
3 8007 8014 8020
3 9278 8008 8007
3 9279 8008 9278
3 8011 8009 7291
3 8014 8009 11
3 7303 8010 7302
3 7291 8009 8010
3 8013 7298 8012
3 7291 8013 8011
3 9277 8712 8711
3 10110 8711 8710
3 7298 8013 7291
3 8013 8012 10116
3 8018 8014 11
3 8015 8014 8007
3 8008 8015 8007
3 7302 8009 8015
3 10824 10398 10828
3 9286 9287 8724
3 8017 8008 9284
3 7302 8017 8006
3 9298 9292 9296
3 8020 8018 9286
3 9796 9286 8724
3 9283 8722 9280
3 9286 8018 8016
3 8007 8020 8019
3 8743 8746 8741
3 8027 8021 7325
3 7330 7331 8022
3 7331 8026 8825
3 7269 8023 7263
3 7274 8024 8025
3 8730 8742 8725
3 8023 8026 7331
3 7274 8025 7266
3 8026 8025 8024
3 8728 8726 8727
3 8825 81 8021
3 8021 8027 7330
3 7329 8027 7325
3 10629 10630 10631
3 10298 10299 10826
3 5735 6535 8033
3 7346 8030 6589
3 8029 7347 8030
3 8826 8030 7347
3 8032 6526 6551
3 10304 8032 6544
3 10304 10303 8031
3 8032 8031 8033
3 6526 8033 6535
3 8033 8031 8034
3 8033 8034 8029
3 8032 10304 8031
3 7368 8035 7365
3 7364 8035 7367
3 8036 2646 2648
3 8038 8037 8827
3 8038 7371 8036
3 8038 8036 8050
3 2649 8050 8036
3 3111 8039 8050
3 295 3109 8041
3 8039 8041 8043
3 8040 8041 8042
3 8844 8052 618
3 8042 3109 3108
3 8041 8040 8043
3 3115 8045 3108
3 8042 3108 8048
3 8043 8040 8049
3 8039 8043 8047
3 8070 8842 9338
3 8062 8056 8059
3 622 8045 3116
3 8045 8044 8048
3 8046 8049 8058
3 8831 8833 8061
3 8049 8047 8043
3 8054 8052 8053
3 8045 8048 3108
3 8044 8842 8048
3 8064 8058 8069
3 8049 8046 8053
3 3111 8050 2649
3 8051 8050 8039
3 8039 8047 8051
3 8037 8051 8047
3 8037 8047 8052
3 8053 8052 8047
3 8049 8053 8047
3 8053 8046 8054
3 8059 8054 8046
3 8059 8063 8071
3 8064 8055 8058
3 8055 8064 8074
3 8065 8062 8059
3 8834 8062 8830
3 8091 8101 8094
3 8103 8079 8104
3 8069 8049 8040
3 8058 8055 8066
3 8065 8046 8058
3 8063 8059 8056
3 8060 8066 8067
3 8829 8830 8067
3 8061 8063 8831
3 8068 618 8054
3 8065 8059 8046
3 8062 8060 8830
3 8831 8063 8056
3 8063 8061 8071
3 8064 8040 8042
3 8074 8842 8070
3 8066 8065 8058
3 8062 8065 8060
3 8067 8066 8055
3 8065 8066 8060
3 8090 8075 8089
3 8067 364 8829
3 8072 8068 8071
3 8035 8080 7365
3 8049 8069 8058
3 8040 8064 8069
3 8843 9338 9339
3 8089 364 8067
3 8071 8054 8059
3 8072 8071 8061
3 8100 8072 8061
3 8077 8072 8057
3 8076 8068 8077
3 8077 8073 8076
3 8842 8074 8064
3 8090 8074 8070
3 9338 9340 8070
3 9381 5182 4547
3 8068 8072 8077
3 8078 8076 8073
3 8057 8085 8077
3 8086 5773 7378
3 8078 8081 8080
3 7362 8827 8078
3 8085 8094 8079
3 8086 8095 8096
3 7362 8080 8035
3 8081 8078 8073
3 8081 8073 8084
3 7365 8080 8081
3 8077 8085 8087
3 8095 8086 8082
3 7365 8083 7368
3 8082 8086 8088
3 8087 8073 8077
3 8083 8084 8082
3 8099 8094 8085
3 8092 8087 8093
3 7378 296 8088
3 8087 8092 8095
3 8087 8084 8073
3 8093 8087 8085
3 8082 8088 8083
3 7378 8088 8086
3 8090 8067 8055
3 9343 9344 8075
3 8074 8090 8055
3 9340 8090 8070
3 8091 8099 8105
3 8848 8105 8100
3 8098 8092 8103
3 5784 5776 8845
3 8085 8079 8093
3 8092 8093 8079
3 8099 8085 8057
3 8091 8847 8101
3 8087 8095 8082
3 8096 8095 8092
3 8098 8096 8092
3 5786 8097 5776
3 5786 5779 8102
3 8096 8098 8097
3 8103 8092 8079
3 414 5784 8845
3 8105 8057 8100
3 8091 8094 8099
3 8100 8057 8072
3 8913 8100 8833
3 9371 8955 518
3 8101 8104 8106
3 5773 8097 8102
3 5786 8102 8097
3 8079 8094 8106
3 8098 8103 8849
3 8940 8953 8955
3 8098 8849 414
3 8057 8105 8099
3 8848 8100 8846
3 8101 8106 8094
3 8104 8079 8106
3 7402 8107 6611
3 7404 8107 5822
3 8852 8851 8850
3 9353 9350 9352
3 9345 8109 7407
3 7411 8111 8877
3 7407 8110 7406
3 36 8110 8109
3 7409 8875 6638
3 8882 8111 12707
3 8115 8112 6698
3 7415 8112 7412
3 7430 8883 8886
3 361 8197 8192
3 8886 8114 38
3 8115 8114 8113
3 8115 8113 9394
3 8116 8115 6698
3 8116 6698 6719
3 7427 8114 8116
3 6709 8117 6657
3 6688 8117 7413
3 7424 8118 6737
3 6699 8118 7419
3 8195 8199 8885
3 8197 8119 8192
3 8897 8894 7463
3 8120 8900 8907
3 7421 8121 7431
3 8121 8120 7434
3 100 8832 8841
3 8891 8888 8889
3 8124 7442 7461
3 7442 8124 8123
3 8127 7458 8125
3 8127 8125 8124
3 8131 8125 628
3 8130 8125 8132
3 362 8123 8129
3 8123 8134 8129
3 8124 7455 8127
3 7458 8127 7455
3 9892 9891 9890
3 557 9883 9877
3 8134 8123 8124
3 8129 8126 8936
3 8125 8131 8132
3 8129 8130 8126
3 10449 9891 628
3 8131 8128 8132
3 8128 9884 8133
3 8130 8132 8135
3 8941 8133 557
3 8130 8135 8126
3 8124 8130 8134
3 8130 8129 8134
3 8132 8133 8135
3 8135 8133 8941
3 8928 8136 8930
3 8925 8928 8935
3 7459 7445 8137
3 8967 8137 7445
3 8924 8138 7454
3 8138 282 8898
3 7467 8140 8139
3 3374 8142 365
3 8141 8140 7467
3 8142 8140 365
3 8152 8144 8147
3 8143 7468 7469
3 3121 8142 3374
3 8140 8142 8139
3 3862 8143 7469
3 8140 8143 365
3 8147 8144 5837
3 8139 8144 7467
3 139 8158 8168
3 7470 7471 8149
3 8152 8141 7467
3 8150 8145 8169
3 8153 8147 5837
3 8145 8146 8147
3 8161 8168 8169
3 8151 363 8154
3 7468 8149 7471
3 8149 8148 8151
3 8145 8150 8146
3 8148 8149 8150
3 8157 8158 8156
3 8151 8148 8157
3 8141 8152 8146
3 8144 8152 7467
3 6753 8153 5837
3 7472 8171 8172
3 8154 363 8155
3 8149 8154 7470
3 9391 363 8160
3 9342 9343 9340
3 8156 8158 8162
3 363 8151 8160
3 8158 8157 8148
3 8160 8157 8972
3 8148 8150 8169
3 8158 139 8162
3 8156 8166 8971
3 8977 8971 8976
3 8972 8157 8156
3 8160 8159 9391
3 8170 8161 8169
3 8254 8176 7472
3 139 8164 8162
3 8166 8164 8167
3 8177 8180 139
3 361 8191 8188
3 8168 8177 139
3 8164 8163 8167
3 8163 8182 8188
3 8977 8972 8971
3 8164 8166 8162
3 8971 8166 8165
3 8196 8163 8188
3 8166 8167 8165
3 8169 8168 8158
3 8177 8161 8174
3 8169 8158 8148
3 8169 8145 8170
3 8147 8179 8145
3 8179 8170 8145
3 15106 15107 498
3 8161 8170 8171
3 8172 6746 8253
3 8172 8171 8170
3 498 5799 15106
3 8164 8178 8163
3 8176 8171 7472
3 8174 8173 8177
3 8185 8204 8184
3 8225 8203 8185
3 8173 8174 8176
3 8176 8174 8171
3 8201 8173 8200
3 8205 8201 8200
3 139 8178 8164
3 8182 8178 8183
3 8153 8179 8147
3 8170 8179 8172
3 8175 8178 8180
3 139 8180 8178
3 8181 8182 8183
3 9392 359 9393
3 8183 8178 8175
3 8186 8182 8181
3 8175 8201 8205
3 8183 8175 8185
3 8242 499 8215
3 8203 8181 8183
3 8201 8175 8180
3 8185 8184 8225
3 8189 8186 8181
3 8186 361 8188
3 8189 8181 8227
3 8979 9392 9393
3 8192 8190 8191
3 8167 8163 8196
3 8203 8227 8181
3 9396 8198 8187
3 8883 8884 8887
3 8193 8190 8199
3 8192 8191 361
3 8193 8191 8190
3 8198 8189 8187
3 8192 8119 8887
3 8190 8885 8199
3 8165 8167 8196
3 9392 8979 9396
3 8113 8886 8890
3 8976 8973 8195
3 8199 8973 8193
3 8191 8196 8188
3 8196 8193 8165
3 361 8186 8198
3 8197 8194 8890
3 8194 8197 8198
3 361 8198 8197
3 8885 8190 8884
3 8199 8195 8973
3 15107 8173 8176
3 8208 8184 8204
3 8180 8177 8201
3 8173 8201 8177
3 8225 8184 8230
3 8226 8187 8189
3 8185 8203 8183
3 8202 8247 8227
3 8205 8185 8175
3 8204 8200 8209
3 8200 8204 8205
3 8185 8205 8204
3 8206 8209 15106
3 5795 5798 8207
3 5798 5792 8207
3 5797 8212 5792
3 8206 8210 8208
3 499 8231 8210
3 15106 8209 8200
3 8208 8209 8206
3 8211 8206 8207
3 8231 499 8229
3 8207 5792 8212
3 8213 8211 8212
3 5204 8212 5797
3 8207 8212 8211
3 5204 5213 8218
3 499 8211 8213
3 5186 5187 8228
3 8215 8214 8217
3 8218 8213 5204
3 500 8223 8224
3 8243 8251 8249
3 8240 8242 8217
3 8224 4585 4587
3 8217 8216 8240
3 8238 5213 5186
3 8215 8218 8214
3 8232 8216 8217
3 8220 8223 6739
3 8222 6741 6660
3 8220 8219 8223
3 8246 8232 8245
3 8244 8238 8228
3 8219 8220 8222
3 8222 8220 6741
3 8245 8223 8219
3 8223 8221 8224
3 8224 4587 500
3 8221 8228 8239
3 8184 8231 8230
3 8203 8225 8202
3 8247 8226 8227
3 7413 8236 6688
3 8202 8227 8203
3 8189 8227 8226
3 5187 4585 8239
3 8245 8244 8221
3 8241 8230 8229
3 8208 8231 8184
3 8229 8240 8241
3 8241 8243 8230
3 8210 8231 8208
3 8230 8231 8229
3 8217 8214 8244
3 8245 8232 8244
3 8250 8252 8243
3 8216 8232 8246
3 8243 8249 8230
3 6688 8236 8237
3 8248 8247 8234
3 8237 8236 8235
3 359 8236 7413
3 8235 8234 8237
3 8251 8237 8234
3 8237 6690 6691
3 8218 8238 8214
3 5186 8228 8238
3 4585 8224 8239
3 8221 8239 8224
3 8240 8216 8241
3 8242 8229 499
3 8233 8250 8216
3 8252 8250 137
3 8217 8242 8215
3 8229 8242 8240
3 8243 8241 8250
3 8251 8243 8252
3 8221 8244 8228
3 8217 8244 8232
3 8223 8245 8221
3 8246 8245 8219
3 8222 8246 8219
3 8216 8246 8233
3 8249 8247 8202
3 8248 8234 8235
3 8247 8248 8226
3 9392 8248 8235
3 8247 8249 8234
3 8202 8230 8249
3 8216 8250 8241
3 137 8250 8233
3 8237 8251 6690
3 8249 8251 8234
3 6686 8252 137
3 8252 6690 8251
3 6753 8253 6746
3 8254 8253 5256
3 5800 8254 5256
3 8176 8254 498
3 7476 8255 6768
3 7480 8255 7481
3 7510 8256 7503
3 7509 8256 7505
3 7502 8257 6769
3 7505 8257 7509
3 7527 8985 7534
3 8996 8986 8990
3 8265 7501 8260
3 8259 8261 8262
3 8981 7485 7477
3 8261 8265 8260
3 8264 7526 7533
3 8265 8261 8259
3 7526 8262 8261
3 8262 7526 8264
3 8259 8262 8263
3 7525 8263 8262
3 7524 8264 7513
3 7525 8262 8264
3 9398 8265 8259
3 7501 8265 7498
3 8982 9041 8266
3 90 8988 8266
3 9079 9073 9078
3 9442 7558 7559
3 9017 7559 7558
3 9018 7558 7557
3 7562 8269 6826
3 9056 8269 6825
3 12814 9550 9551
3 8278 9542 9543
3 8271 8275 8274
3 6836 8272 6827
3 8274 8272 8271
3 8272 8276 7578
3 9057 6810 6826
3 8271 8272 8273
3 8271 9058 8275
3 8274 7572 7582
3 300 9542 8279
3 9361 9365 8275
3 8272 8274 8276
3 7582 8276 8274
3 9555 10151 10148
3 9360 9361 9060
3 9538 300 9058
3 9362 9361 8278
3 9542 300 9541
3 9361 8279 8278
3 6814 8280 6811
3 7569 8280 6817
3 6834 8281 6612
3 7574 8281 7580
3 6834 7577 8282
3 7580 8282 7577
3 8289 8283 6847
3 8288 8291 8290
3 8284 316 7595
3 7584 8283 8284
3 8287 9578 9577
3 8310 9083 9597
3 9597 8312 9082
3 8301 8297 8293
3 9578 9586 9587
3 8315 8292 8312
3 8283 8289 8291
3 8295 8294 8288
3 9578 8289 6847
3 8287 8290 8291
3 8292 8290 8287
3 8286 8288 8290
3 8283 8291 8288
3 8287 8291 8289
3 9577 8292 8287
3 8292 8285 8312
3 8301 8305 8299
3 8297 8300 8296
3 8295 8288 8286
3 8296 8294 8293
3 8303 8295 8286
3 8293 8294 8295
3 8297 8296 8293
3 7612 8298 7611
3 8306 8305 8301
3 8297 7607 8300
3 7595 316 8298
3 8294 8298 316
3 9502 9970 9063
3 8316 8301 8317
3 9067 8300 7607
3 7609 7611 8300
3 8295 8303 8293
3 8301 8299 8317
3 8286 8290 8315
3 8305 8308 8299
3 8311 8302 8313
3 8303 8302 8306
3 8314 173 9063
3 9499 9500 9501
3 8306 8301 8293
3 8309 8308 8305
3 8303 8306 8293
3 8302 8305 8306
3 8309 8311 8307
3 8310 9603 9602
3 8309 8305 8302
3 8314 8308 8307
3 8311 8309 8302
3 8307 8308 8309
3 8286 8313 8303
3 9597 9599 8310
3 8313 8302 8303
3 8311 8310 9602
3 8285 9576 8312
3 8311 8313 9083
3 8315 8313 8286
3 8313 8315 9083
3 12115 8314 8307
3 13303 9983 173
3 8292 8315 8290
3 8315 8312 9083
3 8301 8316 8297
3 9072 8316 8304
3 9970 8317 8299
3 8316 8317 8304
3 8319 7597 7604
3 7605 7503 8318
3 7605 8318 8319
3 7597 8319 8318
3 7596 7608 8321
3 9066 9068 9071
3 9066 9067 9065
3 7596 8321 8320
3 9081 8322 555
3 7605 8322 7539
3 9087 9640 8323
3 9638 9084 9652
3 8362 8359 8358
3 8325 8326 9089
3 7615 8325 6851
3 6852 6853 8325
3 9089 8326 7626
3 6854 8326 8325
3 7637 9105 7630
3 9106 9129 9128
3 9120 8338 9118
3 8336 9112 8333
3 8331 6885 7628
3 8329 6885 8331
3 8330 6888 6886
3 6885 8329 8330
3 8335 8331 99
3 7640 7650 8334
3 9107 99 7634
3 9123 9124 8328
3 8331 8333 8337
3 8331 8335 8336
3 8337 7649 7645
3 8334 8333 9116
3 9107 8335 99
3 8336 8335 8332
3 8328 9122 9123
3 8331 8336 8333
3 8331 8337 8329
3 8334 8337 8333
3 7659 9110 9109
3 8338 9114 9117
3 11018 11016 11017
3 8339 11023 11030
3 7664 8340 6881
3 6896 8340 7662
3 8343 8341 6906
3 8352 7683 8351
3 8342 7667 530
3 6025 8341 8342
3 6906 6034 8343
3 8344 6034 7684
3 8345 7684 6907
3 7683 8343 8344
3 6907 8346 8345
3 8355 8351 8346
3 8346 6907 8348
3 8349 8355 8346
3 8342 8347 7667
3 7683 8347 8341
3 7707 8348 6907
3 7708 8348 7709
3 7720 8349 7708
3 8355 8349 7722
3 8350 8355 9133
3 8347 8352 7675
3 8346 8351 8345
3 8352 8351 8350
3 7683 8352 8347
3 8350 8353 8354
3 9133 8353 8350
3 8405 8393 8394
3 8350 8354 8352
3 8354 8353 8392
3 9133 8355 7722
3 8351 8355 8350
3 8367 8387 8379
3 9092 9087 9089
3 380 8359 8324
3 8363 8364 8365
3 7673 8358 7674
3 8362 8358 8356
3 8358 8359 380
3 8357 8324 8359
3 8360 8366 8368
3 8368 8371 8360
3 8356 8358 8361
3 7673 8361 8358
3 8365 8362 8356
3 8359 8362 8357
3 8357 8362 8365
3 8363 9091 9090
3 8365 8364 8357
3 9090 8364 8363
3 8356 8369 8365
3 9093 8366 8360
3 8363 8365 8366
3 8369 8368 8366
3 7670 8384 8361
3 8378 8379 8391
3 8369 8366 8365
3 8377 8370 8376
3 8361 8384 8383
3 8368 8369 9135
3 9098 8372 9096
3 10019 10029 10022
3 8376 8371 8368
3 15140 8374 8375
3 11098 11093 11090
3 9091 8360 9094
3 9134 8374 8370
3 9096 9094 8373
3 8370 8377 9134
3 8374 8373 9094
3 8434 8452 116
3 9702 9703 9701
3 8376 8367 8377
3 8371 8376 8370
3 8367 8379 8377
3 8382 8379 8386
3 8385 8391 8379
3 8395 8394 8398
3 8383 9135 8369
3 8379 8378 8386
3 7670 8390 8388
3 8387 9135 8385
3 8405 8394 8378
3 8410 8431 8401
3 8379 8382 8377
3 8434 8381 8432
3 8361 8383 8356
3 9135 8383 8380
3 8388 8384 7670
3 8383 8384 8380
3 8380 8388 8385
3 8388 8389 8391
3 8395 8378 8394
3 8382 8386 8381
3 8368 9135 8367
3 8385 8379 8387
3 8388 8380 8384
3 8389 8388 514
3 514 8392 8389
3 8392 8353 8393
3 7671 8390 7670
3 514 8390 7672
3 8388 8391 8385
3 8405 8391 8389
3 8354 8392 514
3 8393 8353 7721
3 8393 7721 8394
3 8389 8392 8393
3 8400 8397 8396
3 8395 8386 8378
3 8398 8394 8402
3 8413 8404 8396
3 7726 8397 395
3 8396 8397 8399
3 7726 7725 8406
3 8398 8402 8396
3 7721 9136 8402
3 8398 8396 8404
3 8408 8399 8406
3 8381 8395 8403
3 8400 8402 9136
3 395 8397 8400
3 8413 8407 8410
3 8410 8430 8431
3 7721 8402 8394
3 8396 8402 8400
3 8398 8403 8395
3 8432 8401 8431
3 8413 8396 8399
3 8403 8404 8401
3 8391 8405 8378
3 8393 8405 8389
3 7726 8406 8397
3 7724 8406 7725
3 8419 8456 8414
3 8410 8407 513
3 8417 8408 7724
3 8413 8408 8407
3 9154 10060 10061
3 8417 8407 8408
3 8413 8410 8401
3 8421 8417 7724
3 8420 8425 8435
3 9704 9705 9703
3 8381 8403 8432
3 8404 8413 8401
3 8413 8399 8408
3 8450 8411 8429
3 10066 10064 10063
3 10062 9706 10061
3 8457 8452 8433
3 8417 8416 8407
3 8416 8414 10066
3 8421 7724 8422
3 8456 8419 8411
3 8438 44 8437
3 8417 8420 8419
3 8414 8417 8419
3 8417 8421 8420
3 8425 8420 8418
3 8411 8419 8420
3 8422 7724 7725
3 8420 8421 8418
3 8424 7725 7723
3 8422 8424 8428
3 8425 8418 8426
3 8436 8427 8458
3 7718 512 8424
3 512 8426 8428
3 8418 8428 8426
3 8425 8423 8429
3 8426 512 8441
3 8423 8425 8426
3 8422 8428 8418
3 8437 8427 8436
3 512 8428 8424
3 8423 8436 8429
3 8458 8409 8450
3 10065 8430 513
3 8431 8430 8415
3 8415 10059 8433
3 8432 8403 8401
3 8433 8432 8431
3 8382 8434 116
3 8415 8433 8431
3 8433 8412 8457
3 8381 8434 8382
3 8433 8434 8432
3 8420 8435 8411
3 8425 8429 8435
3 8438 8437 8436
3 8458 8427 8454
3 8426 8441 8440
3 8438 8436 8423
3 8423 8440 8438
3 8449 8447 7700
3 8439 8441 8443
3 8426 8440 8423
3 8448 8440 8439
3 8442 9144 9148
3 8440 8441 8439
3 6076 9150 9140
3 8472 9700 9168
3 8441 512 8443
3 8453 8447 8443
3 9140 189 6913
3 9139 8442 8445
3 8445 8442 8447
3 8442 8443 8447
3 8443 9148 8439
3 8443 512 8453
3 8442 9139 9144
3 9151 44 8448
3 7701 8449 7700
3 8445 8449 7702
3 8462 10062 10064
3 8411 8450 8456
3 8451 8457 9152
3 8375 9134 8452
3 8433 8452 8434
3 8452 8451 9704
3 512 7718 8453
3 7700 8453 7718
3 8461 8459 8460
3 8429 8458 8450
3 8455 8460 8459
3 8460 8456 8461
3 9152 8457 8412
3 8452 8457 8451
3 8436 8458 8429
3 8409 8458 8454
3 10053 9153 332
3 8409 8459 8461
3 8460 8455 8463
3 8456 8450 8461
3 8461 8450 8409
3 10053 8462 9153
3 8462 10053 10062
3 9153 8463 8455
3 10064 8463 8462
3 8347 8464 7667
3 7672 8464 7675
3 8465 6057 9155
3 8465 14958 14953
3 9155 9708 8466
3 9157 8466 9711
3 9160 9159 6063
3 8471 8467 7689
3 9161 8470 9160
3 8470 10072 9160
3 9741 9742 9162
3 10071 8469 8468
3 15141 394 10071
3 7688 7690 8473
3 8467 8471 7690
3 9163 6911 8473
3 9163 8473 7690
3 6919 8474 6922
3 7706 8474 7705
3 9198 8475 6934
3 7732 9208 9752
3 8477 8476 6310
3 8479 8476 7738
3 7019 8478 6310
3 7738 8477 7765
3 7765 8478 7764
3 6310 8478 8477
3 9170 7738 7751
3 7752 8479 7750
3 7738 8481 8480
3 54 8482 8483
3 7738 7765 8481
3 9169 7765 7020
3 8482 54 8485
3 8480 8481 8482
3 8484 8485 8486
3 9169 8483 8482
3 8491 8496 8498
3 8486 7754 8496
3 6983 8485 8484
3 8487 7739 649
3 8485 54 8486
3 7743 8488 7742
3 7745 7750 8489
3 7751 8487 8488
3 8479 7738 9170
3 7745 8489 8488
3 8495 6984 7740
3 8492 8490 7755
3 8496 8491 8484
3 7755 8490 8491
3 8502 7755 8499
3 8492 7844 7846
3 8499 7755 8498
3 8493 8510 8505
3 8502 8492 7755
3 8494 8493 8505
3 8484 8491 8495
3 8495 8491 6984
3 8486 8496 8484
3 8498 8500 8499
3 8497 8500 8496
3 8496 7754 8497
3 8500 650 8499
3 8503 8501 8504
3 8502 8494 8492
3 8496 8500 8498
3 650 8500 8497
3 8507 8504 8502
3 8499 8507 8502
3 8493 8494 8502
3 8501 9172 8518
3 650 8503 8507
3 8493 8502 8504
3 8519 8508 8510
3 8514 7148 8511
3 7844 8494 8506
3 8505 8506 8494
3 650 8507 8499
3 8503 8504 8507
3 9747 9745 9171
3 8514 8517 7148
3 8516 8505 8510
3 8517 652 7146
3 8515 8510 8493
3 9173 8516 8510
3 8512 8511 7150
3 8511 8509 8514
3 7842 8512 7150
3 8513 8512 651
3 8516 8513 8505
3 8512 8513 8509
3 8509 8513 8516
3 8514 9173 9171
3 8518 8493 8504
3 10077 294 10076
3 9173 8510 8508
3 8509 8516 9173
3 7148 8517 7146
3 9171 8517 8514
3 8501 8518 8504
3 8515 8493 8518
3 8510 8515 8519
3 10077 8515 294
3 7759 8520 6300
3 8520 7758 14990
3 7772 8521 7770
3 9174 8521 7773
3 7780 9751 7773
3 9176 9179 9177
3 7768 8523 7781
3 8524 8522 4479
3 9180 8526 8527
3 7775 8523 8524
3 7777 8526 8525
3 9181 8526 5138
3 8527 7775 8524
3 5138 6582 9181
3 8526 7777 8527
3 7777 7775 8527
3 15021 8528 7035
3 7785 8528 7783
3 8529 8535 8551
3 8550 8548 8553
3 8531 8533 10669
3 8534 7062 7059
3 8539 8538 8542
3 8534 6346 7062
3 8537 8546 8533
3 8537 8531 8540
3 10673 10674 10676
3 8537 8533 8531
3 8530 8534 7059
3 8534 8532 8543
3 7063 8535 7059
3 8551 8535 7787
3 8548 8551 8557
3 8560 8559 11155
3 8539 8537 8540
3 8546 8537 8532
3 8540 8538 8539
3 8566 8555 8556
3 8572 8577 8538
3 8534 8543 6346
3 8531 8541 8540
3 8540 8541 8566
3 10669 10668 10672
3 8541 340 8555
3 8545 7791 7795
3 8542 8544 8543
3 8532 8539 8543
3 8542 8543 8539
3 6346 8544 7058
3 8544 8542 7791
3 6348 8545 7792
3 6347 8544 8545
3 8534 8546 8532
3 8530 8533 8546
3 8547 8553 8554
3 10323 10324 10321
3 8557 207 8552
3 8553 8548 8536
3 10687 10691 9186
3 8570 8556 8549
3 8550 8529 8551
3 8550 8547 10671
3 8557 8551 7787
3 8550 8551 8548
3 8552 8562 8561
3 8560 8558 8552
3 8554 8553 8536
3 8550 8553 8547
3 10341 11158 11157
3 10321 10324 10119
3 340 10685 10679
3 8556 8555 8549
3 9184 8565 8570
3 8538 8540 8566
3 207 8557 7787
3 8558 8557 8552
3 8560 8561 8563
3 8548 8558 8536
3 8560 8563 8559
3 10653 11159 10329
3 8561 8560 8552
3 11156 11155 10653
3 8562 8552 207
3 8561 7789 8563
3 15025 207 7788
3 15019 15024 15025
3 7789 8564 8563
3 8559 8563 8569
3 8573 15020 8567
3 6586 7353 8568
3 8585 7797 8584
3 8572 8538 8556
3 8555 8566 8541
3 8538 8566 8556
3 8567 8579 8578
3 8567 8574 8573
3 7353 7352 8568
3 11159 8569 8568
3 8564 8569 8563
3 11159 8568 7352
3 9184 8570 8549
3 8572 8570 8565
3 7794 9188 8575
3 389 10735 10718
3 8565 8576 8572
3 8572 8576 9188
3 7789 15024 15020
3 8578 8574 8567
3 6592 8574 251
3 8574 6592 8581
3 9188 7794 7791
3 8575 8571 8584
3 8576 8565 8585
3 9188 8576 8571
3 8538 8577 8542
3 9188 8577 8572
3 8567 15022 8579
3 8578 8579 9182
3 7035 8525 9183
3 9182 8580 8578
3 6580 6581 8582
3 251 8578 8580
3 8568 8581 6586
3 8573 8581 8564
3 4508 8582 6581
3 251 8582 6579
3 7074 8575 8584
3 10721 10719 10720
3 8571 8576 8585
3 7797 8583 8584
3 8585 8584 8571
3 8565 389 8585
3 6420 15010 8588
3 8593 8594 8586
3 6426 8587 7813
3 8588 8587 6420
3 7111 8589 7072
3 8594 8593 516
3 8590 7070 7809
3 516 8593 9189
3 9189 7082 7083
3 7070 8590 8589
3 8595 516 7081
3 8595 6355 8597
3 8587 8592 7813
3 8592 8586 8594
3 8586 8588 8593
3 8588 8589 9189
3 8595 8594 516
3 8592 8594 8591
3 7081 6355 8595
3 6355 7808 8597
3 8603 8596 8604
3 8599 7124 8600
3 7806 8597 7808
3 8597 8596 8598
3 8597 8598 8595
3 8598 8596 8599
3 8596 8601 8599
3 15014 15013 8599
3 8592 8600 7124
3 8598 8600 8591
3 8597 8604 8596
3 8601 409 15014
3 7804 15028 15036
3 15039 8602 15036
3 8596 8603 8601
3 15039 15044 8602
3 8597 7806 8604
3 15036 8604 7806
3 8605 8606 8609
3 6149 7820 8608
3 7829 8606 7823
3 8609 8606 7822
3 7822 9191 9192
3 8615 8611 8610
3 8606 8608 7823
3 8608 8605 6149
3 9192 8609 7822
3 8610 8609 8607
3 8615 8616 8613
3 6149 8610 8611
3 8615 8610 8616
3 8619 8622 8614
3 6214 8612 6160
3 6149 8611 8612
3 9195 8618 8620
3 9231 8619 8620
3 8617 8611 8615
3 8617 8614 8611
3 8616 8610 8607
3 8615 8613 8617
3 8607 449 8616
3 9196 8616 449
3 8620 8617 8613
3 6940 8622 5486
3 9194 9195 9196
3 4831 8621 4245
3 8619 8617 8620
3 8619 9231 6326
3 8613 9196 9195
3 8620 8618 9231
3 3689 8621 4831
3 9197 8621 8618
3 8614 8622 65
3 5486 8622 8619
3 9764 8642 8649
3 8629 8634 8643
3 8626 6448 8625
3 8624 8625 9233
3 7838 8625 7841
3 8626 8625 8624
3 8624 8636 8626
3 6448 8626 7153
3 7838 7841 8628
3 7839 9750 9749
3 8628 7830 7832
3 7839 8627 8628
3 8630 7850 7852
3 8634 8630 8635
3 7852 8632 8630
3 8635 654 8636
3 8631 8629 9235
3 7850 8630 8631
3 7847 8632 7852
3 8635 8632 654
3 8633 8638 8644
3 9236 8643 656
3 8630 8632 8635
3 8634 8633 8640
3 654 8626 8636
3 8634 8635 8639
3 8624 8637 8636
3 8638 8639 8637
3 8637 8624 9233
3 8638 8637 8623
3 8642 8644 8645
3 8634 8639 8633
3 8637 8639 8636
3 8633 8639 8638
3 8633 8644 9242
3 10080 656 8640
3 8645 8638 8623
3 8648 8641 9244
3 8642 8647 8649
3 8634 8640 8643
3 656 8643 8640
3 8645 8644 8638
3 8642 9764 9242
3 8645 8623 8650
3 8650 9244 8645
3 8646 8650 9232
3 8646 9232 9755
3 8649 655 9764
3 8642 8645 8647
3 9232 8650 8623
3 8646 74 8648
3 8647 8641 8649
3 9244 8650 8646
3 9767 9768 656
3 10276 9767 10596
3 8656 8654 8655
3 8655 7890 8652
3 336 10277 10282
3 8664 8659 8658
3 8657 8658 8654
3 7890 8655 7884
3 8656 8655 8652
3 7884 8655 8654
3 10282 10277 10278
3 8657 8656 10284
3 8657 8653 8658
3 8654 8656 8657
3 8653 8661 8658
3 8663 8664 8661
3 7892 8659 609
3 7884 8654 8659
3 11395 10279 10612
3 8669 8671 607
3 8661 8653 11128
3 8661 8660 9770
3 9772 9769 9771
3 9769 9245 9774
3 9773 10287 10286
3 8661 8664 8658
3 9246 8664 8663
3 10088 8664 9246
3 10286 8665 9777
3 9778 10088 9777
3 7896 8666 7893
3 8671 8672 8670
3 7893 8666 8668
3 7892 8668 8666
3 8669 8668 8667
3 8665 10289 8672
3 607 7897 8680
3 8670 8672 10289
3 10092 10089 9250
3 8669 8667 8672
3 9779 8670 10620
3 8669 8672 8671
3 9777 8672 8667
3 8679 9779 8673
3 5616 9248 5621
3 9252 5629 5628
3 8676 237 5621
3 8670 8675 8671
3 8679 8674 9252
3 9249 8676 9248
3 5008 9785 10097
3 8679 8677 8675
3 9252 8674 5629
3 8675 8677 8678
3 7898 8678 8677
3 9779 8679 8675
3 8674 8679 8673
3 8668 8680 7893
3 607 8680 8669
3 8681 6456 9258
3 8683 8681 7913
3 9254 9257 8682
3 9266 9267 9265
3 8681 8683 7183
3 9256 8684 7913
3 6515 8684 663
3 8685 8684 5067
3 5054 8683 8685
3 8684 8685 8683
3 7916 8686 7212
3 7922 8686 7917
3 7930 8687 7941
3 7938 8687 7942
3 7965 8690 7964
3 7975 8688 7963
3 9269 8691 8693
3 8701 7971 7976
3 8693 8690 50
3 7964 8690 8689
3 8692 1806 2171
3 8699 8696 8697
3 2171 2169 8692
3 8696 8694 8695
3 9269 8693 50
3 8691 8696 8695
3 8691 8692 8696
3 8700 8702 8699
3 8691 8695 8693
3 8698 8695 8694
3 8692 2169 8696
3 8697 2663 2662
3 8696 2169 8697
3 2661 8697 2169
3 8698 8694 8701
3 8689 8698 7963
3 4455 8700 2662
3 8696 8699 8694
3 8700 372 7983
3 7977 8702 8700
3 8698 8701 7976
3 8694 8699 8702
3 7971 8701 8702
3 8702 8701 8694
3 7962 8703 7966
3 9271 8703 7251
3 7251 7959 14920
3 8705 642 3868
3 9792 3868 3393
3 14918 8705 8704
3 507 3805 8707
3 8706 8707 9274
3 5117 8707 5123
3 8706 9273 8707
3 5676 8001 8708
3 5132 8708 8001
3 7929 8709 6516
3 7261 8001 8709
3 8710 401 10110
3 7294 8712 7286
3 9794 10110 10296
3 7298 9277 8012
3 7295 8710 8712
3 8711 8712 8710
3 7316 8716 8713
3 8717 8720 8716
3 7307 8714 8005
3 8715 8714 7293
3 7317 8715 7293
3 7316 8715 7318
3 7343 8716 7316
3 8717 8716 7342
3 8718 8717 7342
3 8028 8719 8717
3 7344 8718 7342
3 8718 149 10630
3 10112 8719 8028
3 8721 8719 10112
3 8714 8720 8005
3 8720 8713 8716
3 8710 8721 401
3 8720 8721 8005
3 8019 9280 8007
3 9280 8722 9278
3 9800 600 9798
3 10118 10650 10300
3 437 9825 8724
3 9282 9283 9795
3 8731 9837 9305
3 8729 8026 8727
3 8732 8737 8730
3 8726 8730 8737
3 8727 8024 8728
3 8729 8727 8726
3 8024 8739 8728
3 8739 8740 8742
3 8738 8734 8736
3 8729 81 8825
3 8732 8730 8725
3 8726 8728 8730
3 9837 8732 8735
3 8726 8738 8729
3 8735 8732 8725
3 8731 8734 8737
3 9301 9836 8735
3 9838 9305 9837
3 8766 9313 9310
3 8755 8766 9314
3 9301 8735 8725
3 8735 8733 9837
3 8755 8760 8781
3 8021 8743 7325
3 8731 8737 8732
3 8737 8734 8738
3 8738 8726 8737
3 81 8738 8736
3 7274 8739 8024
3 8740 8739 541
3 9331 8740 541
3 5721 5724 9302
3 8741 8759 8749
3 8752 8745 578
3 8739 8742 8728
3 9301 8742 8740
3 8746 8021 81
3 7337 8744 7334
3 8741 8748 8743
3 8754 8748 8749
3 7334 8744 8745
3 8748 8745 8744
3 81 8736 8746
3 8766 8781 8734
3 8764 8776 8775
3 579 8750 8757
3 8743 8748 8744
3 8748 8741 8749
3 8760 8746 8736
3 8759 8762 8768
3 7327 7320 8758
3 7320 7338 8751
3 8745 8752 8753
3 8751 8750 8758
3 8789 8791 8782
3 8753 8747 8751
3 8745 8753 7334
3 8747 8753 8752
3 8748 8754 8745
3 8767 8754 8749
3 8781 8760 8736
3 9323 9330 8761
3 8812 8811 8813
3 8782 8763 8787
3 8771 8757 8747
3 8784 7332 7336
3 8751 8758 7320
3 8750 7327 8758
3 8760 8741 8746
3 8762 8759 8755
3 8755 8759 8760
3 8760 8759 8741
3 8755 9314 9323
3 8769 8763 8768
3 9323 8762 8755
3 8762 8761 8768
3 8763 8767 8768
3 8787 9848 8800
3 8783 8747 8752
3 578 8767 8782
3 8775 8774 8786
3 8777 8779 8765
3 9313 9309 9310
3 8734 9313 8766
3 8754 8767 578
3 8768 8767 8749
3 8768 8749 8759
3 8769 8768 8761
3 8769 8761 9330
3 8787 8769 8756
3 8790 8797 8795
3 8792 8764 8796
3 8747 8783 8796
3 8771 8764 8775
3 8752 8791 8783
3 8789 8790 8792
3 12857 9335 8765
3 9335 8773 9333
3 8757 8771 8775
3 8774 8777 9333
3 8764 8794 8776
3 8774 8775 8777
3 8780 8776 299
3 8777 8765 9333
3 8775 8776 8777
3 8776 8780 8779
3 8809 8799 12865
3 8778 12861 12858
3 8776 8779 8777
3 8779 8778 12858
3 12864 8778 13318
3 8779 8780 8778
3 8734 8781 8736
3 8755 8781 8766
3 8763 8769 8787
3 8789 8782 8770
3 8791 8752 578
3 8772 8792 8796
3 8785 7336 579
3 8773 10634 10636
3 8786 8785 579
3 9333 8785 8774
3 8775 8786 8757
3 8785 8786 8774
3 8756 9847 9848
3 8782 8787 8800
3 8769 10142 8756
3 8801 8798 8800
3 8789 8770 8790
3 8791 8789 8772
3 8798 8793 8797
3 8776 8794 299
3 8783 8791 8772
3 578 8782 8791
3 8796 8764 8771
3 8789 8792 8772
3 8802 8793 8798
3 8809 8793 8807
3 8792 8794 8764
3 8770 8797 8790
3 8804 8807 8806
3 299 8794 8795
3 8747 8796 8771
3 8772 8796 8783
3 8798 8797 8770
3 8793 8795 8797
3 8800 8798 8770
3 8798 577 8802
3 9859 13322 8808
3 13319 13320 13321
3 8800 8770 8782
3 8801 8800 8788
3 9846 9845 10408
3 577 8798 8801
3 8805 8802 577
3 8806 8805 8815
3 8805 577 8818
3 8820 8821 8803
3 8804 8815 8816
3 8804 8808 8807
3 8814 8805 8818
3 8815 8805 8803
3 8805 8806 8802
3 8808 8804 8816
3 8807 8799 8809
3 8793 8806 8807
3 9859 8808 580
3 8799 8807 8808
3 12868 8799 13322
3 299 8795 8809
3 8801 8812 577
3 8810 10405 10840
3 9847 9845 9846
3 10407 10406 297
3 8788 8812 8801
3 10403 10405 8811
3 8813 8810 8814
3 8812 8813 8818
3 8817 8814 8810
3 8805 8814 8803
3 8815 8803 8816
3 8806 8815 8804
3 8814 8820 8803
3 8823 8816 8821
3 10842 10840 10841
3 19 10145 8817
3 8812 8818 577
3 8813 8814 8818
3 8819 10143 9336
3 8816 8824 580
3 10145 19 10144
3 8820 10145 8821
3 8823 8821 8819
3 8816 8803 8821
3 8823 9336 9850
3 9854 9855 9860
3 9336 8823 8819
3 8823 8822 8824
3 8823 8824 8816
3 9853 8824 8822
3 7331 8825 8022
3 8729 8825 8026
3 10314 7347 10313
3 7350 8826 7348
3 8038 8827 7371
3 8827 8037 8844
3 8835 8836 8839
3 8841 8832 8836
3 364 9384 8838
3 8830 8829 8828
3 8832 8834 8828
3 8067 8830 8060
3 8056 8834 8832
3 8833 8831 100
3 8832 8828 8836
3 100 8831 8832
3 8913 8833 100
3 8061 8833 8100
3 8062 8834 8056
3 8828 8834 8830
3 8828 8838 8839
3 8915 8919 8910
3 8828 8829 8838
3 8841 8836 8914
3 8970 9385 8089
3 8835 8920 8915
3 364 8838 8829
3 8839 8838 8837
3 8839 8837 8917
3 8828 8839 8836
3 8909 8840 8910
3 8907 8900 7433
3 8914 8836 8835
3 100 8841 8840
3 8842 8064 8042
3 9338 8842 8044
3 8843 9866 9864
3 9341 9864 9865
3 8052 8844 8037
3 618 8078 8844
3 8097 8098 8845
3 414 8845 8098
3 8912 8913 8840
3 7433 8900 8908
3 8091 8848 8847
3 8847 8848 8904
3 8105 8848 8091
3 8909 8899 8911
3 8103 8104 8849
3 8849 8104 8961
3 6613 7405 8851
3 9346 9347 9348
3 8857 8853 8855
3 8850 8851 8854
3 8852 8850 9345
3 6613 8851 8852
3 8853 8857 8858
3 8868 8856 8853
3 8855 8854 8851
3 8854 8855 8863
3 8857 8855 278
3 8855 8853 8863
3 8853 8858 8865
3 9352 9350 9349
3 8857 278 6844
3 8857 7574 8858
3 8859 7574 7580
3 8859 7573 8861
3 7572 9359 7582
3 7574 8859 8858
3 8869 8860 10860
3 8859 8861 8858
3 7573 7579 8866
3 8861 8860 8865
3 9358 9359 9360
3 8860 8861 8862
3 8853 8856 8863
3 8864 8863 8856
3 8863 8864 8854
3 8864 8856 9351
3 9357 10860 8860
3 8853 8865 8868
3 7582 8866 7579
3 8861 8866 8862
3 10853 95 10413
3 8856 8868 8871
3 8865 8869 8868
3 8872 8869 8867
3 8860 8869 8865
3 10855 10858 8867
3 10859 10853 10855
3 9349 12331 12330
3 8872 8868 8869
3 12331 9351 8870
3 8870 8871 8872
3 8872 8871 8868
3 6640 8873 6641
3 8876 8873 6638
3 9368 9345 9346
3 8876 8877 8111
3 36 8875 7409
3 8876 8875 8874
3 8876 8874 8877
3 8876 8111 8873
3 8874 8879 8877
3 9350 8878 9348
3 9368 8874 9367
3 9350 9348 8108
3 8879 8874 9368
3 9353 8879 8878
3 9353 9355 7411
3 8880 12703 12704
3 6722 6641 8881
3 6641 8873 8882
3 8880 8881 8882
3 6641 8882 8881
3 8884 8883 7429
3 8883 8119 8886
3 8893 8891 8889
3 8190 8192 8887
3 8884 7429 8892
3 187 9918 8975
3 8890 8886 8119
3 8114 8886 8113
3 8883 8887 8119
3 8190 8887 8884
3 8195 8885 8888
3 8888 8885 8889
3 8892 8885 8884
3 8893 8892 7429
3 8197 8890 8119
3 8890 8194 9395
3 8915 8920 8918
3 8888 8891 187
3 8893 7429 7435
3 8885 8892 8889
3 8891 8893 8122
3 8893 8889 8892
3 8898 8897 8138
3 8121 8894 8120
3 8905 8899 8901
3 8120 8894 8896
3 8901 8896 8895
3 8120 8896 8900
3 8138 8897 7463
3 8896 8897 8895
3 282 8923 8927
3 8897 8898 8895
3 8895 8903 8905
3 8914 8910 8840
3 8901 8900 8896
3 8900 8901 8908
3 8895 8898 8903
3 8901 8899 8908
3 8927 8926 282
3 8847 8904 518
3 282 8903 8898
3 8903 8902 8905
3 9372 8848 8846
3 8904 8902 9369
3 8905 8901 8895
3 8906 8902 8904
3 8906 9372 8911
3 8905 8906 8911
3 8907 7433 8919
3 8120 8907 7434
3 8909 8908 8899
3 8908 8909 8916
3 8899 8905 8911
3 8912 8909 8911
3 8915 8910 8835
3 8916 7433 8908
3 9372 8906 8904
3 8911 9372 8912
3 8913 8912 8846
3 8840 8909 8912
3 8100 8913 8846
3 8840 8913 100
3 8841 8914 8840
3 8835 8910 8914
3 8917 8920 8839
3 8919 8915 8122
3 8909 8910 8916
3 7433 8916 8910
3 9384 8837 8838
3 8918 187 8891
3 8915 8918 8122
3 8918 8917 9918
3 8919 8122 8893
3 8910 8919 7433
3 8839 8920 8835
3 8918 8920 8917
3 8932 8930 8136
3 8922 8921 8136
3 8923 8922 8136
3 8922 8137 8967
3 8928 8927 8136
3 282 8138 8924
3 8137 8924 7454
3 282 8924 8923
3 8925 8927 8928
3 9371 9370 8940
3 282 8926 8903
3 9370 8926 8925
3 8136 8927 8923
3 8925 8926 8927
3 8932 8921 362
3 8930 8929 8938
3 8936 8933 8129
3 8938 8939 8949
3 8932 8136 8921
3 8938 8935 8930
3 8126 8937 8936
3 8948 8939 8929
3 8933 8932 362
3 8929 8930 8932
3 8129 8933 362
3 8929 8933 8931
3 8943 8954 8949
3 8944 8925 8935
3 8930 8935 8928
3 8944 8935 8934
3 8941 8126 8135
3 8933 8936 8931
3 9875 8946 9907
3 8939 8945 39
3 8939 8938 8929
3 8934 8935 8938
3 8948 8931 8942
3 8939 39 8943
3 8953 8934 8954
3 518 8904 9369
3 9873 8941 557
3 8941 8937 8126
3 8931 9373 8942
3 9374 9908 9373
3 8957 8956 8943
3 8960 414 8961
3 8954 8934 8949
3 8925 8944 8940
3 8948 8945 8939
3 9908 9374 9907
3 9374 8937 9873
3 8957 8963 9916
3 9908 8945 8942
3 9376 8962 8963
3 8931 8948 8929
3 8945 8948 8942
3 8938 8949 8934
3 8939 8943 8949
3 8963 8957 39
3 5777 5787 8951
3 5787 5771 8951
3 8964 8960 8959
3 8943 8956 8954
3 8101 9375 8965
3 8934 8953 8944
3 8953 8952 8955
3 39 8957 8943
3 8952 8953 8954
3 8952 8961 8965
3 8847 9375 8101
3 8958 8950 8951
3 8952 8954 8956
3 8947 9376 8963
3 8950 8956 8957
3 5771 8959 8951
3 8958 8951 8959
3 5784 8964 5771
3 8964 414 8960
3 414 8849 8961
3 8960 8966 8956
3 8965 8961 8104
3 8952 8966 8961
3 8947 9907 9376
3 9909 9915 8962
3 8947 8963 39
3 8963 8962 9916
3 5771 8964 8959
3 414 8964 5784
3 8101 8965 8104
3 8952 8965 8955
3 8956 8966 8952
3 8960 8961 8966
3 7452 8967 7445
3 8967 7453 8921
3 4548 8968 4547
3 8968 3861 7471
3 4547 8155 9379
3 9917 8978 9388
3 8155 9380 9379
3 9385 9383 9384
3 8165 8973 8971
3 8195 8888 8975
3 8160 8972 8159
3 8156 8971 8972
3 8973 8165 8193
3 8195 8975 8976
3 9918 187 8918
3 9384 9390 8837
3 187 8975 8888
3 8975 8974 8976
3 8977 8976 8974
3 8973 8976 8971
3 8977 8974 8978
3 8977 8159 8972
3 8974 8975 9918
3 8969 9379 9387
3 8979 9393 9394
3 8198 9396 8194
3 8987 7525 7512
3 8992 8258 8991
3 7531 8981 7477
3 8261 8981 7526
3 7556 8982 7538
3 9041 8982 7537
3 634 9025 9034
3 9052 9046 343
3 8987 8986 8258
3 7534 8985 7512
3 8986 8985 8984
3 8987 8985 8986
3 8984 8988 8986
3 8989 8997 8991
3 8980 8987 8258
3 7512 8985 8987
3 8266 8988 8984
3 8991 8990 9003
3 8990 8986 8988
3 9003 8989 8991
3 8988 90 8990
3 9010 344 9000
3 8997 9000 9005
3 8980 8992 345
3 8258 8992 8980
3 8994 8992 8997
3 9005 344 9008
3 9399 8994 9001
3 8997 8992 8991
3 9001 8994 8993
3 90 9043 9047
3 9045 9047 9043
3 8990 8991 8996
3 8258 8996 8991
3 9000 8997 8989
3 8993 8994 8997
3 9401 8998 9001
3 8265 9398 7498
3 9049 8990 90
3 9012 9010 9000
3 9003 9013 8989
3 9005 9000 344
3 9401 9001 8993
3 8998 9398 9399
3 9005 9008 9402
3 9408 9413 9002
3 9049 9003 8990
3 9013 9003 8999
3 8995 9054 9954
3 9422 9415 10186
3 9404 9406 9006
3 8997 9005 8993
3 9424 9006 9406
3 9400 9401 9002
3 9410 9405 9406
3 9401 9403 9408
3 9410 9008 344
3 9008 9007 9402
3 7498 9009 7499
3 9413 9009 9002
3 9013 9012 8989
3 9414 9010 9415
3 9011 9013 9014
3 9004 9010 9011
3 8989 9012 9000
3 9011 9010 9012
3 9014 9013 8999
3 9012 9013 9011
3 9048 9014 8999
3 9954 9420 8995
3 555 9068 9073
3 9436 9435 9015
3 9016 9438 9437
3 9437 9444 9016
3 7559 9017 7553
3 9037 9017 8268
3 9021 9018 7557
3 8268 9018 9020
3 15116 15118 15113
3 9025 634 9022
3 9021 9020 9018
3 9020 9021 9022
3 9472 10490 7557
3 9021 9019 9022
3 15111 9026 15110
3 9030 9029 9026
3 9030 9032 9033
3 9025 9029 9024
3 9028 9031 9038
3 9027 9022 9019
3 9030 9033 9024
3 9027 9025 9022
3 9027 15109 9026
3 15109 9027 9019
3 9027 9026 9029
3 343 9510 9509
3 9031 9034 9025
3 9027 9029 9025
3 9030 9026 9023
3 9033 9032 279
3 9024 9029 9030
3 9038 9033 9035
3 9031 9028 9034
3 9524 9513 9971
3 9030 9023 9032
3 9038 9031 9024
3 9511 9509 9510
3 9039 9040 9037
3 9534 9525 9530
3 9046 9510 343
3 9040 9036 9041
3 9042 9037 9040
3 9039 9037 9034
3 9017 9037 7550
3 9033 9038 9024
3 9028 9038 9035
3 9511 9039 9034
3 9040 9039 9036
3 9041 9036 8983
3 9040 7537 9042
3 9041 8983 9043
3 7537 9040 9041
3 7556 9042 7537
3 9037 9042 7550
3 9043 8983 9045
3 90 8266 9043
3 9046 9045 8983
3 9044 9046 9051
3 8983 9510 9046
3 9045 9044 9047
3 9052 9051 9046
3 9044 9045 9046
3 9044 9054 9048
3 9049 9047 9048
3 9014 9048 8995
3 9049 9048 8999
3 9049 8999 9003
3 90 9047 9049
3 9519 9520 9518
3 9955 9512 342
3 9512 9053 9055
3 9048 9054 8995
3 9052 343 9519
3 9050 9051 9052
3 9949 9419 9955
3 9053 9954 9054
3 9044 9051 9054
3 9054 9051 9055
3 9512 9055 9050
3 9054 9055 9053
3 9976 9056 6825
3 9539 9538 9056
3 9058 9057 7563
3 8273 9057 8271
3 8275 9058 300
3 9057 9058 8271
3 9059 9541 9540
3 9540 9552 9059
3 9364 95 9357
3 9363 10413 9364
3 9556 3912 9557
3 9574 8285 9577
3 9062 9502 9982
3 9480 9497 9487
3 9062 9499 9501
3 8308 9063 8299
3 8321 9071 8320
3 9064 9500 9499
3 9075 9077 9596
3 8267 9447 9439
3 9067 9066 7609
3 9068 9066 9065
3 8300 9067 7609
3 9067 7607 9069
3 9073 9068 9074
3 9071 555 8320
3 7607 8316 9072
3 9596 9077 9064
3 15124 9074 9076
3 9959 9015 9434
3 9066 9071 8321
3 555 9071 9068
3 9064 9069 9072
3 7607 9072 9069
3 9074 9068 9065
3 9078 9073 9070
3 9076 9074 9065
3 9070 9073 9074
3 9069 9064 9077
3 9457 9483 9478
3 9077 9065 9069
3 9076 9075 15124
3 9075 9076 9077
3 9065 9077 9076
3 9070 9448 9959
3 9079 9078 7541
3 7541 9080 9079
3 7545 9081 9080
3 7542 9080 7541
3 9081 7545 7539
3 555 9079 9081
3 9080 9081 9079
3 9567 9061 9573
3 9567 9573 9559
3 9597 9083 8312
3 8311 9083 8310
3 9648 9644 9646
3 9651 9652 9649
3 9085 9086 9088
3 9085 8323 9648
3 7615 9086 7613
3 9088 9086 6851
3 9089 6851 8325
3 9087 200 9640
3 9089 9088 6851
3 8323 9088 9087
3 7626 8364 9090
3 9088 9089 9087
3 9091 8363 9093
3 9095 9087 9092
3 8371 9094 8360
3 9095 9091 9097
3 9089 9090 9092
3 9092 9090 9095
3 8366 9093 8363
3 8360 9091 9093
3 8373 9098 9096
3 9091 9094 9097
3 9095 200 9087
3 9090 9091 9095
3 9096 10040 9102
3 9097 200 9095
3 9094 9096 9097
3 8372 10038 10040
3 15140 8373 8374
3 9703 9702 15140
3 10037 10038 10023
3 64 9668 9656
3 9101 9097 9102
3 9643 9641 9642
3 9102 9097 9096
3 9101 9100 9643
3 10040 9096 8372
3 9100 9101 9102
3 7636 9103 7634
3 9698 9103 7630
3 9686 10001 9685
3 462 8327 9682
3 9686 9105 524
3 9105 9104 9698
3 9130 462 9129
3 9108 8332 9107
3 7634 9106 9107
3 9108 9107 9106
3 9128 9108 9106
3 9108 8328 9124
3 9110 7659 7654
3 215 9121 9118
3 9113 7660 9111
3 7654 9113 9110
3 9116 9112 9115
3 9110 9114 8338
3 9124 8336 8332
3 9115 9112 9111
3 7660 9113 7654
3 9114 9113 9111
3 9123 9111 9112
3 9118 9117 215
3 7660 9115 9111
3 9116 9115 7640
3 8334 9116 7640
3 8333 9112 9116
3 9114 9122 9117
3 9128 9127 8328
3 9121 9120 9118
3 8338 9117 9118
3 9121 10006 9119
3 11018 11021 11022
3 9120 9119 11020
3 9109 8338 9120
3 10008 10006 215
3 9119 9120 9121
3 9123 9122 9114
3 9127 9122 8328
3 9111 9123 9114
3 9123 9112 9124
3 8336 9124 9112
3 9124 8332 9108
3 9684 9691 9694
3 215 9117 9126
3 9127 9126 9117
3 10005 10266 15143
3 9122 9127 9117
3 9108 9128 8328
3 9106 9130 9129
3 9125 9127 9128
3 10009 462 9695
3 9125 9128 9129
3 7634 9130 9106
3 462 9130 8327
3 7658 11018 11017
3 11032 11033 8339
3 7659 9132 7657
3 8339 9132 9131
3 9136 9133 7722
3 8353 9133 7721
3 8452 9134 116
3 8374 9134 8375
3 8385 9135 8380
3 8367 9135 8387
3 9133 9136 7721
3 7722 8349 9137
3 395 9137 7720
3 8400 9136 9137
3 9168 9166 6911
3 9147 8446 9146
3 189 9139 8445
3 9142 9139 9138
3 9138 9139 9140
3 189 9140 9139
3 9142 9143 9141
3 8448 9145 9146
3 9142 9138 9143
3 9142 9141 9144
3 9166 9138 9150
3 9699 8444 9143
3 9145 9144 9141
3 9148 8443 8442
3 9146 9145 9141
3 8439 9145 8448
3 9149 9147 9146
3 8448 9146 8446
3 9144 9145 9148
3 9149 9146 9141
3 8439 9148 9145
3 9141 9143 9149
3 9143 8444 9149
3 7694 9150 6076
3 9150 7691 9166
3 10021 10025 10026
3 8448 8446 9151
3 10015 9705 9152
3 9706 10273 9154
3 8463 9153 8462
3 10015 10056 625
3 9708 9155 661
3 8465 9155 8466
3 9708 661 9712
3 9716 4113 9728
3 14964 6910 9733
3 7686 8466 9157
3 8468 8469 9159
3 4751 14909 4753
3 7689 9159 8469
3 9159 9160 8468
3 7688 9161 6063
3 8470 9161 6070
3 6063 9161 9160
3 6066 4743 9743
3 10072 10073 9740
3 9164 8472 9163
3 9699 9700 8472
3 9167 9143 9138
3 9163 102 9164
3 6911 9163 9168
3 9166 7691 7692
3 9167 9166 9165
3 9167 9165 9700
3 9138 9166 9167
3 8472 9168 9163
3 9166 9168 9165
3 8483 9169 7020
3 8481 9169 8482
3 8488 9170 7751
3 8479 9170 8489
3 10074 9746 9747
3 9745 7839 7840
3 9171 9173 8508
3 8518 9172 8515
3 8509 9173 8514
3 9175 9174 7773
3 8523 9174 8522
3 4496 9175 551
3 4480 4485 9176
3 9178 9176 4483
3 9174 9179 8522
3 4496 9177 9175
3 4480 9176 9177
3 5139 9178 4483
3 8522 9178 4479
3 9177 9179 9175
3 9178 9179 9176
3 5139 9180 4479
3 5138 8526 9180
3 6580 9182 9181
3 8526 9183 8525
3 8580 9182 6580
3 8579 9181 9182
3 9181 8579 9183
3 7035 9183 8579
3 8549 8555 10679
3 389 8565 9184
3 10680 9186 9187
3 10686 10728 10681
3 8549 10679 10680
3 9186 10681 10687
3 10680 9184 8549
3 9186 10691 10692
3 8575 9188 8571
3 8577 9188 7791
3 516 9189 7083
3 9189 8593 8588
3 9220 9225 9218
3 9211 9217 9216
3 7828 7824 9191
3 9218 9219 9224
3 9193 9192 9190
3 9192 8607 8609
3 9193 9190 9203
3 8607 9193 449
3 7732 9198 9200
3 6937 9199 6934
3 8613 9195 8620
3 9197 9195 9194
3 8616 9196 8613
3 9196 449 9201
3 9197 9194 9198
3 9197 4245 8621
3 9200 9198 9194
3 8475 9198 7732
3 9197 9199 4245
3 6934 9199 9198
3 9201 9194 9196
3 9200 9194 9201
3 9205 9193 9203
3 9208 9207 6939
3 9201 449 9205
3 9222 9230 9221
3 9221 9215 9219
3 9202 9204 9206
3 9206 9200 9201
3 9204 9202 9207
3 9193 9205 449
3 9206 9205 9203
3 9206 9203 9215
3 9206 9204 9200
3 9209 9207 9202
3 7729 9207 317
3 9752 6939 7731
3 9204 9208 7732
3 9214 9209 9202
3 9227 9211 9216
3 9215 9214 9202
3 9219 9215 9203
3 3753 3754 9212
3 317 9209 9217
3 3335 9212 3751
3 9212 9211 9227
3 317 9213 6087
3 9212 9213 9211
3 9202 9206 9215
3 9214 9210 9216
3 9224 9219 9203
3 9210 9214 9215
3 9210 9226 9216
3 9227 3753 9212
3 9216 9217 9209
3 9213 9217 9211
3 9190 9191 9220
3 9218 9222 9221
3 9224 9203 9190
3 9221 9219 9218
3 9191 7824 9220
3 9229 9225 7824
3 9225 169 9753
3 9215 9221 9210
3 169 4272 9228
3 9223 9230 9222
3 9222 9753 9228
3 4260 4265 9223
3 9190 9220 9224
3 9218 9224 9220
3 4286 9225 4281
3 9228 9753 169
3 9221 9230 9210
3 9227 9226 3752
3 9226 9227 9216
3 4259 9227 3752
3 4260 9228 4272
3 9223 9222 9228
3 7827 9229 7824
3 4281 9229 4292
3 3752 9230 9223
3 9210 9230 9226
3 8621 9231 8618
3 6326 9231 3689
3 9754 9755 9232
3 8623 8637 9233
3 7838 9233 8625
3 9233 9232 8623
3 9236 9234 9235
3 9237 9234 656
3 9235 7878 7850
3 9236 9235 8629
3 8643 9236 8629
3 656 9234 9236
3 656 10080 9767
3 9237 8651 9238
3 9239 9238 8651
3 7882 7888 9238
3 10277 8651 10276
3 9239 336 8652
3 9764 9765 10082
3 8640 8633 9242
3 10083 10084 10085
3 8642 9242 8644
3 8640 9242 9241
3 8645 9244 8647
3 9761 9757 9759
3 8646 8648 9244
3 9776 9769 9774
3 9769 9776 9770
3 9246 10286 9777
3 10289 8665 10622
3 9780 10290 10292
3 9249 9248 8674
3 5621 9248 8676
3 8674 8673 9249
3 10091 9251 9249
3 8676 9249 9251
3 9781 8673 9779
3 10091 8673 9781
3 10089 10092 9251
3 7899 9252 5628
3 8679 9252 8677
3 7260 8000 9254
3 9253 8682 9255
3 9256 9254 663
3 8682 9253 9254
3 9264 9260 9259
3 7931 9255 9267
3 8684 9256 663
3 9256 7913 9257
3 9258 7913 8681
3 7913 9258 9257
3 6456 9259 9258
3 9257 9258 9260
3 6456 7907 10109
3 9257 9260 8682
3 9262 9264 5646
3 9262 9261 9263
3 9265 9263 9261
3 9260 9268 8682
3 9263 9260 9264
3 9260 9263 9268
3 5646 9264 9259
3 9262 9263 9264
3 9267 9266 110
3 9268 9255 8682
3 7931 9267 110
3 9265 9261 9266
3 9255 9265 9267
3 9263 9265 9268
3 9255 9268 9265
3 50 2664 9269
3 2664 2684 9270
3 1806 9269 9270
3 2664 9270 9269
3 14920 9271 7251
3 9272 9271 8704
3 9792 8704 8705
3 9272 9792 9793
3 7998 9273 7979
3 8707 9273 507
3 6512 9274 5117
3 9275 9274 6511
3 9273 9275 7979
3 9275 8706 9274
3 9299 9288 10130
3 11 9295 9290
3 8712 9277 7286
3 10114 9277 8711
3 9280 9278 8007
3 9279 9278 8722
3 600 9279 8722
3 9279 8723 9284
3 9795 9796 8724
3 9827 9828 10139
3 9803 9815 9816
3 8722 9798 600
3 9280 8019 9796
3 9799 9797 9798
3 9283 9280 9796
3 9798 9283 9282
3 9279 9284 8008
3 8723 10300 10650
3 10312 10313 10303
3 10652 6548 7310
3 8020 9286 8019
3 9287 9286 8016
3 9292 9290 9296
3 9293 9292 8016
3 8016 8018 9293
3 10131 10825 10824
3 9298 9299 10135
3 10135 9823 10138
3 11 9290 9293
3 8011 9295 11
3 9287 8016 9292
3 9289 10135 10138
3 9289 9291 9292
3 9292 9291 9287
3 11 9293 8018
3 9292 9293 9290
3 10114 9794 10113
3 9297 9821 10115
3 8011 8013 10116
3 9290 9295 9294
3 9290 9294 9821
3 9298 9296 9288
3 10132 10131 9288
3 9290 9821 10132
3 9299 9298 9288
3 9289 9292 9298
3 10130 10131 10824
3 10136 9823 10135
3 9291 9824 15142
3 9818 9828 9830
3 8742 9301 8725
3 9301 9303 9302
3 9303 9301 8740
3 5703 5721 9302
3 9303 9331 9332
3 5703 9302 9303
3 5703 9304 5727
3 9303 8740 9331
3 5767 5782 9306
3 9305 9308 9309
3 5761 9311 9307
3 9309 9308 597
3 9315 9307 6609
3 9307 9321 9308
3 9305 9306 9308
3 9307 9308 9306
3 9309 597 9310
3 9305 9309 8731
3 9317 9322 597
3 8766 9310 9314
3 5761 7388 9311
3 6609 9311 7388
3 9318 6609 9319
3 9842 9841 9326
3 8734 8731 9313
3 9309 9313 8731
3 9324 9317 9312
3 8761 8762 9323
3 6609 7387 9319
3 9317 9315 9312
3 11208 11545 11211
3 12304 11544 12303
3 9324 9322 9317
3 9321 9317 597
3 6609 9318 9315
3 9318 9316 11879
3 94 9319 7387
3 9318 9319 9316
3 9320 9324 9326
3 9841 9843 9844
3 9308 9321 597
3 9315 9321 9307
3 9328 9322 9320
3 9310 597 9322
3 9328 9323 9314
3 297 9843 9841
3 9326 9324 9327
3 9320 9322 9324
3 11880 9327 11879
3 10402 426 10404
3 9327 9324 9312
3 9325 9840 9842
3 11879 9312 9318
3 12303 11544 9325
3 9328 9320 9844
3 9310 9328 9314
3 10142 297 9845
3 9329 10142 8769
3 9843 9330 9323
3 8769 9330 9329
3 7262 9331 541
3 9332 9331 5728
3 5739 9332 5728
3 9303 9332 9304
3 12856 399 12855
3 8785 9333 8773
3 12551 12571 13045
3 13317 10634 9335
3 8765 9335 9333
3 13317 12855 12854
3 10144 9863 10143
3 10143 10147 9336
3 9856 12920 12907
3 8822 9857 9853
3 9339 9338 8044
3 9340 9338 8843
3 8045 9339 8044
3 9339 622 9866
3 9342 9340 8843
3 9340 8075 8090
3 9342 9864 9341
3 9382 9343 9341
3 9864 9342 8843
3 9343 9342 9341
3 9382 4 9381
3 8075 9344 8970
3 9382 9344 9343
3 8969 8970 9344
3 8852 9345 7407
3 9346 9345 8850
3 9347 9346 8850
3 8879 9368 8878
3 8854 9347 8850
3 9348 9347 8108
3 9350 8108 9349
3 8878 9346 9348
3 9351 8108 8864
3 9351 8856 8871
3 9349 12330 9352
3 8878 9350 9353
3 8870 9351 8871
3 9351 9349 8108
3 9356 9352 284
3 8877 9353 7411
3 9353 8877 8879
3 9352 9356 9355
3 12327 11580 11571
3 12701 12328 12706
3 9352 9355 9353
3 12706 9355 9354
3 11933 9356 284
3 9355 9356 9354
3 8860 8862 9357
3 9358 9357 8862
3 9359 9358 8862
3 9360 9366 9358
3 7582 9359 8862
3 9360 9359 7572
3 9365 7572 8274
3 9543 9362 8278
3 9360 7572 9365
3 8279 9361 8275
3 8277 10148 9871
3 9060 9361 9362
3 9871 9060 9362
3 10148 9554 9555
3 9357 9358 9364
3 9366 9364 9358
3 8275 9365 8274
3 9360 9365 9361
3 9366 9060 9871
3 9364 9366 9363
3 9368 9367 8109
3 8875 9367 8874
3 9345 9368 8109
3 9346 8878 9368
3 8902 8926 9370
3 8955 9371 8940
3 8940 9370 8925
3 8902 9370 9369
3 518 9369 9371
3 9370 9371 9369
3 8848 9372 8904
3 8912 9372 8846
3 8936 9373 8931
3 9373 8937 9374
3 8937 8941 9873
3 9907 8946 9376
3 518 8955 9375
3 8965 9375 8955
3 9378 9376 8946
3 9378 9909 9376
3 9880 9879 9875
3 10155 10154 10152
3 9879 9378 8946
3 9909 9378 9377
3 8155 9917 9380
3 9381 9379 8969
3 9383 9386 9388
3 9379 9380 9387
3 8969 9344 9382
3 5182 9381 4
3 4 9382 9341
3 8969 9382 9381
3 9383 9385 9386
3 9390 8917 8837
3 9385 9384 364
3 9384 9383 9390
3 8089 9385 364
3 9386 9385 8970
3 9387 8970 8969
3 9388 9386 9380
3 9380 9386 9387
3 8970 9387 9386
3 9917 9388 9380
3 9388 8978 9389
3 9389 9390 9388
3 9919 8978 8974
3 9388 9390 9383
3 8917 9390 9389
3 8977 9391 8159
3 9917 9391 8978
3 8248 9392 8187
3 359 9392 8235
3 7415 9393 359
3 9394 9393 7412
3 8115 9394 7412
3 9395 9394 8113
3 8890 9395 8113
3 9395 8194 9396
3 9392 9396 8187
3 9395 9396 8979
3 9397 7538 8982
3 8985 9397 8984
3 8263 9398 8259
3 9399 9398 345
3 8994 9399 345
3 8998 9399 9001
3 9401 9400 8998
3 9009 9400 9002
3 8993 9005 9402
3 9402 9007 9403
3 9403 9007 9404
3 8993 9402 9401
3 9403 9006 9412
3 9401 9402 9403
3 9410 9406 9423
3 9006 9403 9404
3 9414 344 9010
3 9410 9416 9928
3 9423 9404 9007
3 9405 9920 9411
3 9427 9426 9412
3 9413 9429 9431
3 9412 9408 9403
3 9413 7491 9009
3 9409 9414 9415
3 9409 9422 9922
3 9008 9410 9007
3 344 9414 9416
3 9427 9957 9425
3 9406 9411 9424
3 9427 9006 9424
3 9412 9407 9428
3 9408 9428 9413
3 9428 9407 9429
3 9415 9010 9004
3 9416 9414 9409
3 9419 9949 9418
3 9415 9004 9418
3 9921 9927 9928
3 344 9416 9410
3 342 10173 9951
3 9415 9422 9409
3 9418 9004 9419
3 9417 10185 10186
3 9011 9420 9004
3 9512 9955 9053
3 8995 9420 9014
3 9004 9420 9419
3 9953 9924 9421
3 9921 9922 9925
3 10186 9415 9418
3 9922 9422 9421
3 9404 9423 9406
3 9007 9410 9423
3 9956 12431 12056
3 9412 9426 9407
3 9958 9957 9424
3 12423 12416 12422
3 9427 9412 9006
3 12424 12425 9425
3 9411 9958 9424
3 9426 9427 9425
3 9412 9428 9408
3 9407 12419 9429
3 213 9433 9429
3 9413 9428 9429
3 12420 12421 213
3 15122 7492 9432
3 9433 9431 9429
3 9430 15122 9432
3 7491 9431 9432
3 9430 9432 9431
3 12791 15121 12792
3 9431 9433 9430
3 7542 9434 7546
3 9959 7541 9078
3 9436 9015 8267
3 9435 9436 9438
3 9437 9436 8267
3 9436 9437 9438
3 9444 8267 9439
3 9444 9440 9016
3 9441 9438 9016
3 280 9442 7559
3 9443 9447 9448
3 9447 9450 9439
3 9453 9462 536
3 9016 9472 9441
3 9472 9016 9470
3 7557 7558 9441
3 9438 9441 9442
3 9442 9441 7558
3 15124 9443 9448
3 9491 15125 15126
3 8267 9444 9437
3 536 9444 9439
3 536 9462 9471
3 9466 9482 9445
3 15109 15117 15110
3 9448 9447 8267
3 9443 9489 9450
3 9959 8267 9015
3 9448 9070 15124
3 9449 9484 9479
3 9451 9454 9453
3 9443 9450 9447
3 9451 9450 9449
3 9453 9454 9452
3 9439 9451 536
3 9455 9458 9461
3 536 9451 9453
3 9464 9461 9458
3 9453 9452 9458
3 9490 9479 9484
3 9454 9483 9452
3 9962 9960 9963
3 9460 9964 9471
3 9485 9495 9480
3 9474 9477 537
3 9449 9479 9483
3 9477 9478 9473
3 9461 9464 9459
3 9458 9455 9463
3 9459 9464 9467
3 9960 9962 9961
3 9466 9962 9455
3 9471 9470 9440
3 9464 9458 9452
3 9475 9482 9476
3 9458 9462 9453
3 9471 9462 9460
3 10188 9455 9962
3 9462 9463 9460
3 9474 9452 9457
3 9464 9474 9467
3 9455 9461 9466
3 9488 9969 537
3 9459 9466 9461
3 9969 9469 9467
3 9469 9459 9467
3 537 9477 9486
3 9505 9481 9494
3 9966 9469 9468
3 9469 9968 9476
3 9440 536 9471
3 9472 9470 9446
3 9460 10188 9964
3 9470 9471 9965
3 9446 15116 10490
3 9441 9472 7557
3 9485 9473 9456
3 9481 9488 9486
3 9467 9474 537
3 9452 9474 9464
3 9469 9476 9459
3 9482 9459 9476
3 9465 9475 9476
3 9478 9477 9457
3 9486 9477 9473
3 9452 9483 9457
3 9456 9473 9478
3 9489 9449 9450
3 9456 9478 9479
3 9493 9485 9456
3 9062 9594 9496
3 9487 9486 9473
3 9507 9494 262
3 9445 9482 9475
3 9459 9482 9466
3 9449 9483 9454
3 9478 9483 9479
3 15125 9491 9484
3 9479 9490 9456
3 9456 9490 9493
3 9486 9487 9481
3 9487 9473 9485
3 9481 9506 9488
3 9485 9480 9487
3 9487 9497 9494
3 9969 9468 9469
3 537 9486 9488
3 15125 9489 9443
3 9449 9489 9484
3 9484 9491 9490
3 9493 172 9492
3 9443 15124 15125
3 172 9490 9491
3 9596 9499 172
3 9496 9984 9495
3 172 9493 9490
3 9493 9492 9495
3 9505 9507 9503
3 9481 9487 9494
3 9493 9495 9485
3 9496 9495 9492
3 9504 172 9499
3 9592 9594 9982
3 9480 9984 9593
3 262 9494 9497
3 11080 11068 9507
3 12101 12100 11068
3 9064 9072 9500
3 9496 9504 9062
3 9072 8304 9500
3 9970 8304 8317
3 9970 9500 8304
3 9982 9502 9063
3 9062 9501 9502
3 9502 9501 9970
3 15130 15128 15129
3 9505 9506 9481
3 172 9504 9492
3 9062 9504 9499
3 9507 9505 9494
3 9506 9505 9503
3 15129 15128 15132
3 9506 9468 9488
3 11082 11080 262
3 9498 15135 15133
3 9503 9507 9508
3 262 11080 9507
3 9028 9035 9509
3 9035 9974 9509
3 8983 9036 9510
3 9511 9510 9036
3 9511 9036 9039
3 9509 9511 9028
3 9522 9517 9523
3 9050 9517 9512
3 10486 10926 11306
3 9517 9522 9515
3 9951 9417 9949
3 11302 10925 11301
3 9521 9516 9526
3 9517 9521 9526
3 10174 10173 9516
3 9519 9523 9052
3 9517 9515 9521
3 9520 9519 343
3 9972 9522 9518
3 9520 343 9509
3 9519 9518 9523
3 9534 9536 279
3 9524 9531 9513
3 9515 10190 9535
3 10174 9528 9514
3 9523 9517 9050
3 9518 9524 9972
3 9523 9050 9052
3 9518 9522 9523
3 9520 9529 9518
3 9532 9530 9525
3 9516 9512 9526
3 9529 9524 9518
3 9517 9526 9512
3 9516 9521 9528
3 9515 9522 9972
3 9521 9535 11303
3 9530 9529 9520
3 9524 9532 9531
3 9520 9974 9530
3 9536 9035 9033
3 9530 9532 9529
3 9532 9524 9529
3 9525 9531 9532
3 11302 9975 24
3 9528 9521 11303
3 10190 9515 9971
3 9536 9534 9530
3 9533 11301 11303
3 9536 9530 9974
3 279 9536 9033
3 13545 13543 7560
3 9537 9978 9977
3 9056 9977 9539
3 9541 9538 9539
3 9540 9539 8270
3 9539 9540 9541
3 9549 9540 8270
3 9550 9540 9549
3 8279 9542 8278
3 300 9538 9541
3 9059 9546 9541
3 9543 8277 9362
3 9542 9546 9543
3 9554 9548 9547
3 10196 10192 10194
3 10192 9544 10194
3 164 12480 12491
3 12495 12482 12486
3 9541 9546 9542
3 9546 9059 9548
3 9543 9546 9548
3 9553 9545 12496
3 9553 9059 9552
3 9553 12496 12501
3 9549 8270 10194
3 9550 9549 9544
3 9551 9550 9544
3 9550 9545 9552
3 10494 9544 10192
3 164 12491 12814
3 9550 9552 9540
3 9553 9552 9545
3 12482 12495 12496
3 9059 9553 9548
3 9548 9554 9543
3 9555 9547 9981
3 10415 10149 10414
3 9363 9366 9871
3 3912 3919 9557
3 9587 9581 9061
3 9557 310 9559
3 9556 9557 9573
3 9569 9564 9560
3 3918 3925 9561
3 9566 3903 9563
3 9559 9558 9567
3 9623 9615 9606
3 9570 9575 9571
3 9614 3925 3924
3 9568 9562 9569
3 310 3903 9566
3 3904 9565 9563
3 3904 9563 3905
3 9563 9562 9566
3 9560 9564 9561
3 9565 9562 9563
3 3918 9564 9565
3 9565 9564 9562
3 9568 9566 9562
3 9559 310 9566
3 9572 9558 9571
3 9574 9567 9572
3 9566 9568 9559
3 9562 9564 9569
3 9560 9570 9571
3 9558 9568 9569
3 9615 9611 9614
3 9610 9575 9570
3 9560 9571 9569
3 9610 9608 29
3 9576 9572 9082
3 9567 9558 9572
3 9556 9573 9061
3 9559 9573 9557
3 8285 8292 9577
3 9061 9567 9574
3 9082 9572 9575
3 9571 9575 9572
3 8312 9576 9082
3 9574 9576 8285
3 8287 8289 9578
3 9574 9577 9587
3 9588 7583 4698
3 9580 9581 9579
3 7583 9588 9590
3 9582 9585 9580
3 9581 3908 9556
3 9582 9580 9579
3 9556 9061 9581
3 9587 9586 9581
3 9583 9582 9579
3 134 4037 9585
3 9586 9589 9579
3 5861 9584 4698
3 4696 9584 4700
3 4698 9584 9583
3 9580 9585 4041
3 134 9585 9582
3 9590 6847 7586
3 9579 9581 9586
3 9574 9587 9061
3 9577 9578 9587
3 9589 9583 9579
3 6847 9590 9578
3 9578 9589 9586
3 9583 9589 9588
3 9588 9589 9590
3 9578 9590 9589
3 13303 13304 12819
3 9984 9480 9495
3 262 9497 9595
3 9593 9497 9480
3 9591 12819 12820
3 9593 9592 10197
3 9594 9062 9982
3 9984 9594 9592
3 9497 9593 9595
3 10197 11083 9593
3 9499 9596 9064
3 15126 9596 172
3 9082 9598 9597
3 9597 9598 9599
3 9610 9082 9575
3 9599 9598 29
3 9604 9605 9612
3 8307 8311 9602
3 12533 9605 9604
3 9987 11731 11732
3 9601 9625 9988
3 9603 9599 12533
3 9603 8310 9599
3 12117 12115 8307
3 9599 9605 12533
3 9600 9602 9603
3 9605 9599 29
3 9601 12109 12110
3 9607 9605 29
3 9609 9612 9607
3 9607 29 9608
3 9606 9624 9609
3 9598 9610 29
3 9607 9606 9609
3 9611 9570 9560
3 9607 9608 9623
3 9622 9986 9615
3 9612 9601 9604
3 9610 9598 9082
3 9570 9608 9610
3 9614 9611 9560
3 9607 9623 9606
3 9607 9612 9605
3 9601 9612 9609
3 10199 9626 10200
3 9624 9625 9609
3 9561 9614 9560
3 9614 3924 9615
3 3924 3927 9616
3 9613 9624 9986
3 9617 9616 3923
3 3924 9616 9615
3 9620 9617 3923
3 9622 9617 3920
3 9620 9621 9637
3 10944 9989 9992
3 320 9621 3926
3 10201 10200 9626
3 9621 3923 3926
3 9620 9619 10202
3 320 3915 9629
3 9620 9637 9619
3 9986 3920 9613
3 9615 9616 9622
3 9608 9611 9623
3 9615 9623 9611
3 9986 9624 9606
3 9625 9624 9613
3 9627 9625 9613
3 9627 9988 9625
3 9626 10509 10201
3 10203 10202 9619
3 10509 9613 3920
3 10199 9988 9626
3 9632 9630 3408
3 9990 10207 10205
3 3915 3412 9629
3 3412 3414 9630
3 3410 2332 9635
3 9628 9629 9630
3 10206 6898 6897
3 9630 9632 9636
3 3410 9632 3408
3 9636 9632 9631
3 9633 9637 9634
3 9636 10205 9628
3 9634 9628 10207
3 320 9634 9621
3 9631 9635 2332
3 9632 3410 9635
3 10205 9636 9631
3 9630 9636 9628
3 9634 9637 9621
3 9991 9637 9633
3 7616 9638 5926
3 9085 9638 7613
3 9642 8323 9640
3 9647 9649 9653
3 9643 200 9101
3 9100 9645 9643
3 9658 9680 9673
3 9642 9641 9644
3 9643 9642 9640
3 9658 9644 9641
3 9643 9640 200
3 10046 9645 9100
3 9646 9644 9639
3 8323 9642 9644
3 9663 9645 9099
3 9641 9643 9645
3 9639 9649 9646
3 9648 9646 9084
3 9653 9649 9654
3 9657 9647 9653
3 9085 9648 9084
3 9644 9648 8323
3 9656 9650 9654
3 9651 9649 9647
3 10525 9661 10523
3 9653 9660 9657
3 9651 9647 9659
3 5926 9638 9652
3 9649 9652 9646
3 5926 9652 9651
3 9654 9649 9639
3 9660 9655 9657
3 9654 9639 9656
3 9650 9653 9654
3 10210 10514 10512
3 9670 9662 10209
3 9658 9639 9644
3 9639 9658 9656
3 9660 9653 9650
3 9657 9655 9671
3 9663 9641 9645
3 9658 9641 9663
3 9670 9647 9657
3 9664 9659 568
3 9668 9661 9650
3 9660 9650 9661
3 9656 9673 64
3 10522 10525 10524
3 10210 10513 10211
3 10214 10226 10216
3 10584 11092 10039
3 9658 9663 9680
3 9674 9666 9664
3 9667 9664 6857
3 9993 10208 10209
3 10213 10215 10217
3 10215 10219 9665
3 9678 9666 9677
3 9664 9667 9659
3 7627 9667 6857
3 9656 9668 9650
3 9681 9668 64
3 11106 11113 11114
3 10527 10955 10528
3 9647 9670 9659
3 9671 9670 9657
3 9671 9655 10211
3 9670 9671 9662
3 10588 9663 9099
3 9681 9995 10564
3 9658 9673 9656
3 9995 9673 9672
3 9993 10212 10208
3 9665 9666 9674
3 10512 9675 10212
3 10213 9676 10212
3 10208 9674 568
3 9994 10213 10216
3 5931 9677 5929
3 9678 9677 5905
3 6858 9678 5905
3 6857 9666 9678
3 64 9673 9995
3 10523 10526 10955
3 10588 9680 9663
3 9673 9680 9672
3 9995 9681 64
3 9681 9679 10526
3 9685 9682 9104
3 9687 9682 9685
3 9104 9686 9685
3 9688 10000 23
3 9684 9688 9691
3 9696 9694 9691
3 9104 9105 9686
3 9687 9685 9683
3 10251 9686 524
3 10003 10001 10002
3 10000 9999 9998
3 9687 9684 9689
3 9696 9691 9690
3 9684 9687 9688
3 9687 9689 9682
3 9695 9684 9694
3 9692 9688 23
3 9692 9690 9691
3 9697 9693 9696
3 10261 10258 413
3 9688 9692 9691
3 9695 462 9689
3 10010 10014 10013
3 9695 9689 9684
3 10011 9694 9693
3 9129 10009 9125
3 9697 413 10258
3 9694 9696 9693
3 9105 9698 7630
3 9696 9690 9697
3 9682 9698 9104
3 9699 9143 9700
3 9700 9165 9168
3 9167 9700 9143
3 10015 10017 9701
3 9702 8372 9098
3 9098 8373 15140
3 9701 10017 10029
3 8375 9704 9703
3 8451 9705 9704
3 8452 9704 8375
3 9705 8451 9152
3 9152 10056 10015
3 9701 9703 9705
3 10271 10272 421
3 10058 10060 9707
3 9152 8412 10057
3 10065 10058 10059
3 9712 661 9713
3 9717 9718 9708
3 4759 5302 9720
3 9718 9717 9156
3 9719 9710 9718
3 9733 9738 9731
3 9708 9711 8466
3 6910 9711 9710
3 9713 661 6041
3 9717 9712 9709
3 9720 9713 4759
3 9712 9713 9709
3 9722 9715 9721
3 9724 9725 9714
3 4097 4120 9716
3 9715 9724 9721
3 10067 9723 9728
3 9724 9714 9721
3 9712 9717 9708
3 9717 9730 9725
3 9719 9718 9156
3 9711 9718 9710
3 9729 9726 9723
3 9731 168 9734
3 9721 5302 4096
3 9720 9714 9730
3 9720 9721 9714
3 9722 9721 4096
3 4118 9722 4096
3 4104 9715 9722
3 168 9719 9729
3 9726 9719 9156
3 9728 9726 9716
3 9717 9725 9156
3 9717 9709 9730
3 9724 9716 9726
3 9156 9725 9726
3 9726 9725 9724
3 4796 4171 14940
3 9710 9719 9738
3 10067 9728 4113
3 9726 9728 9723
3 9726 9729 9719
3 10067 9729 9723
3 9720 9730 9709
3 9714 9725 9730
3 10067 10069 168
3 9731 9727 9733
3 14957 14956 505
3 9734 14948 9731
3 9739 9733 9727
3 9710 9733 6910
3 10069 9734 168
3 9734 9732 14948
3 14939 14938 14944
3 9737 7686 9157
3 14962 14963 548
3 14960 14961 14962
3 6910 9737 9157
3 14961 9736 14962
3 9731 9738 9719
3 9733 9710 9738
3 9739 9727 14939
3 9739 9735 14964
3 8470 10073 10072
3 10073 14910 9740
3 6070 9741 8470
3 9742 9741 6067
3 6069 9742 6067
3 9743 9742 6066
3 4743 4747 9743
3 10275 4747 4742
3 8508 10074 9171
3 9744 10075 10076
3 9746 9760 10079
3 647 9760 10078
3 9759 9760 647
3 10074 9747 9171
3 9748 10079 9760
3 9243 9756 9761
3 8627 9749 7837
3 7839 9749 8627
3 9757 9749 9748
3 10079 9745 9747
3 9749 9750 9748
3 4802 9751 7780
3 551 9175 9751
3 6090 9752 7731
3 7732 9752 8475
3 9222 9218 9753
3 9218 9225 9753
3 8627 9754 7838
3 9755 9754 7837
3 7837 9756 9755
3 9762 74 8646
3 7837 9749 9757
3 9762 9763 74
3 9760 9759 9748
3 7837 9757 9756
3 647 9758 9759
3 9759 9757 9748
3 9759 9758 9761
3 10079 9748 9750
3 9760 9746 10078
3 9243 9761 9758
3 9757 9761 9756
3 9755 9756 9762
3 9763 9756 9243
3 9240 10081 10082
3 9756 9763 9762
3 9242 9764 9241
3 10081 9766 9241
3 9764 655 9765
3 9237 9768 8651
3 10081 10085 9766
3 10084 10597 10596
3 656 9768 9237
3 10276 9768 9767
3 9769 9770 9771
3 9773 9774 9775
3 8661 9770 8663
3 9771 9770 8660
3 9771 8660 11127
3 9769 9772 9245
3 9775 10287 9773
3 9771 329 9772
3 9776 9246 8663
3 9775 8662 10287
3 9776 9774 9773
3 9776 9773 10286
3 9774 9245 9775
3 9776 8663 9770
3 8672 9777 8665
3 9778 9777 8667
3 8668 9778 8667
3 10088 7892 609
3 8670 9779 8675
3 9247 10290 9781
3 10290 9780 9781
3 10292 10090 10293
3 9247 9781 9779
3 9780 10089 10091
3 10108 10105 10095
3 9784 9785 445
3 5024 9785 5008
3 445 4990 9787
3 10093 10094 9783
3 10096 10098 9782
3 445 9785 5024
3 10094 10098 9784
3 237 9786 4965
3 9787 9786 9783
3 9787 9783 9788
3 9787 4955 4968
3 10094 9788 9783
3 445 9788 9784
3 10092 9789 9251
3 10093 9789 9782
3 9790 9259 9791
3 7911 9791 7906
3 10109 9791 9259
3 9793 9792 3393
3 8704 9792 9272
3 9793 3393 3869
3 7964 9793 7965
3 10112 401 8721
3 10113 9794 9276
3 9827 8724 9825
3 9828 9832 10139
3 9796 8019 9286
3 9283 9796 9795
3 9817 9816 9812
3 9797 9802 9800
3 9799 9798 9282
3 9800 9798 9797
3 9282 9281 9799
3 9813 9799 9281
3 9801 9809 9810
3 9805 9802 9809
3 10329 10330 10332
3 600 9800 9805
3 9808 9810 9811
3 9810 9809 9802
3 9811 9797 9812
3 9803 10320 10321
3 10338 10334 10328
3 600 9807 8723
3 9802 9805 9800
3 10117 9807 9804
3 10117 9806 9807
3 10300 10301 10118
3 9804 9807 9805
3 9807 9806 10300
3 9811 9802 9797
3 10336 10317 10119
3 10339 9809 9801
3 9805 9809 9804
3 9811 9810 9802
3 9810 9808 10336
3 9799 9813 9797
3 9808 9811 9815
3 9814 9816 10129
3 9815 9803 10317
3 9817 9813 9281
3 9797 9813 9812
3 9814 10129 10120
3 9816 9820 9803
3 9811 9812 9815
3 9816 9815 9812
3 9812 9813 9817
3 9816 9814 9820
3 9817 9281 9832
3 9816 9817 10129
3 9828 9827 9300
3 9818 272 10120
3 9814 10125 9820
3 10127 10319 9819
3 9814 10128 10125
3 9803 9820 9819
3 10115 9294 10113
3 9821 9297 10132
3 10828 10835 10830
3 10130 10134 9299
3 10839 9823 10136
3 10349 10121 10347
3 10393 10657 10659
3 9300 9825 9829
3 437 9291 15142
3 9827 9825 9300
3 10399 11161 11163
3 9830 9300 9831
3 9830 9828 9300
3 8724 9827 9795
3 9818 9832 9828
3 10139 9281 9282
3 437 9829 9825
3 9829 9826 9831
3 9300 9829 9831
3 9818 9830 272
3 9835 9831 9826
3 9834 10354 9835
3 9832 9818 10129
3 10139 9832 9281
3 10399 11162 11161
3 10388 10374 10386
3 9824 10662 10663
3 10357 10349 10348
3 10663 9835 9826
3 10354 9834 10353
3 9839 185 5774
3 8735 9836 8733
3 9837 8731 8732
3 9838 9837 8733
3 8733 9836 9839
3 9306 9838 5767
3 5767 9839 5774
3 8733 9839 9838
3 10400 9840 9325
3 10406 10408 9845
3 9843 297 9329
3 9320 9326 9841
3 9325 9842 9326
3 9842 9840 10407
3 9330 9843 9329
3 9323 9328 9844
3 9841 9844 9320
3 9323 9844 9843
3 10406 9845 297
3 8811 8812 9846
3 8812 8788 9846
3 9847 8756 10142
3 9846 8788 9847
3 9848 9847 8788
3 8800 9848 8788
3 8756 9848 8787
3 9849 9851 9854
3 9860 9853 9857
3 8823 9850 8822
3 9851 9850 9336
3 9851 9336 10147
3 9854 9851 540
3 10849 540 10146
3 12918 12923 12917
3 9861 9853 9337
3 9853 9862 8824
3 10849 10851 540
3 9855 9854 9852
3 12919 12917 12923
3 9337 9853 9860
3 12908 12901 12907
3 9337 9855 9856
3 9850 9857 8822
3 9860 9857 9849
3 12910 9861 9337
3 12866 13812 13319
3 9862 9859 580
3 13322 9859 13812
3 9854 9860 9849
3 9337 9860 9855
3 12910 9337 12909
3 9858 9859 9862
3 9862 580 8824
3 9858 9862 9861
3 11218 10846 11217
3 540 9851 10147
3 8843 9339 9866
3 9866 9867 9868
3 3391 9865 3124
3 9341 9865 4
3 9867 622 3127
3 9864 9866 9868
3 9868 9867 3126
3 622 9867 9866
3 3126 3130 9869
3 9864 9868 3124
3 3125 9869 2660
3 3126 9869 9868
3 10148 9870 9871
3 10418 9555 9981
3 8277 9871 9362
3 9871 9870 9363
3 9364 10413 95
3 9870 10148 10151
3 9877 9876 557
3 9374 9873 9875
3 9877 9874 9876
3 9874 9877 9885
3 9873 9876 9875
3 9876 9880 9875
3 557 9876 9873
3 9880 9876 9901
3 9883 557 9884
3 9888 9885 9877
3 9874 9894 9897
3 10154 9878 9897
3 9875 9879 8946
3 9879 9878 10155
3 9901 9876 9874
3 9879 9880 9878
3 9889 10419 9899
3 9885 9886 9882
3 9893 9882 9886
3 9897 9894 9896
3 9884 557 8133
3 9898 9888 9881
3 9892 9884 8128
3 9883 9884 9881
3 9888 9886 9885
3 9905 9895 9882
3 9886 9888 9898
3 9899 9886 9898
3 9903 9882 9893
3 9905 10161 10476
3 9877 9883 9888
3 9881 9888 9883
3 9892 9881 9884
3 8128 8131 9891
3 10442 628 7458
3 10425 10157 10426
3 628 9891 8131
3 9890 10420 9892
3 9892 9889 9898
3 8128 9891 9892
3 9903 9904 9902
3 9906 9903 9893
3 9895 9885 9882
3 9896 9894 9887
3 9887 9894 9895
3 9885 9895 9894
3 10478 9887 10477
3 9896 285 9897
3 10152 10153 10155
3 9878 9880 9901
3 9892 9898 9881
3 9898 9889 9899
3 9906 9899 556
3 9899 9893 9886
3 10431 10432 10421
3 10459 9900 10432
3 9874 9897 9901
3 9878 9901 9897
3 127 11886 10162
3 9903 9905 9882
3 9893 9899 9906
3 9903 9902 9905
3 9904 9906 10421
3 10158 9904 10432
3 10158 10160 9902
3 9902 10160 10161
3 10421 9906 556
3 9903 9906 9904
3 9908 9907 8947
3 9875 9907 9374
3 8945 9908 8947
3 9373 9908 8942
3 10166 9911 9912
3 9376 9909 8962
3 9377 10155 10153
3 9912 9910 352
3 7395 9913 7394
3 5777 8951 9914
3 10166 9912 352
3 9915 9912 9911
3 5777 9913 7395
3 10166 9913 9911
3 8951 8950 9914
3 9914 9916 9915
3 9915 9909 9912
3 9916 9914 8950
3 9916 8950 8957
3 8962 9915 9916
3 8155 363 9917
3 9917 363 9391
3 8917 9389 9918
3 9919 9918 9389
3 8978 9919 9389
3 8974 9918 9919
3 9927 9405 9928
3 9927 9920 9405
3 9924 9922 9421
3 9929 9921 9925
3 10185 9951 9952
3 9922 9921 9928
3 9947 9931 9946
3 9924 9925 9922
3 9952 9953 10185
3 9924 9923 9925
3 9932 9929 9925
3 9923 10181 10184
3 26 9920 9930
3 9920 9927 9929
3 9405 9410 9928
3 9929 9927 9921
3 9416 9409 9928
3 9928 9409 9922
3 9923 9933 9925
3 9929 9935 9930
3 9929 9930 9920
3 12043 12047 12052
3 9934 9933 9923
3 9939 9934 9938
3 9948 9931 9947
3 9935 9932 9948
3 9931 9932 9933
3 9925 9933 9932
3 9934 241 9938
3 9931 9933 9934
3 9930 9935 9926
3 9929 9932 9935
3 10481 10480 10483
3 9936 15178 10922
3 10178 9952 9950
3 9940 9939 9937
3 10480 9938 241
3 9938 9937 9939
3 9940 9937 9941
3 9940 9945 9946
3 9943 9940 9936
3 9940 9944 9945
3 10480 9937 9938
3 9936 9940 9941
3 15179 10172 10923
3 12062 12432 12433
3 9936 15179 15178
3 9944 9943 9942
3 12049 12059 11644
3 9944 454 9945
3 9947 9945 454
3 9939 9946 9931
3 9940 9946 9939
3 9947 9946 9945
3 12060 12058 9947
3 12058 9948 9947
3 9935 9948 9926
3 9931 9948 9932
3 10173 342 9516
3 9418 9949 9417
3 10174 10485 10177
3 10180 9952 10178
3 342 9951 9949
3 9951 9950 9952
3 9950 10174 10177
3 9953 10181 9924
3 10185 9953 9421
3 10178 10179 10180
3 9955 9954 9053
3 9420 9954 9419
3 9949 9955 342
3 9954 9955 9419
3 12057 12032 12042
3 12427 12423 12424
3 9424 9957 9427
3 12427 12424 9956
3 12431 9411 26
3 9956 9957 9958
3 9070 9959 9078
3 8267 9959 9448
3 9963 10187 6
3 9962 9466 9961
3 9466 9445 9961
3 10188 9463 9455
3 10491 9964 9963
3 10188 9963 9964
3 10491 6 10487
3 9470 9965 9446
3 9471 9964 9965
3 9964 10491 15118
3 15129 15132 9468
3 9968 9967 9465
3 9476 9968 9465
3 9966 239 9967
3 9966 9968 9469
3 537 9969 9467
3 9468 9969 9488
3 9970 8299 9063
3 9500 9970 9501
3 9527 10190 9973
3 9533 10190 9527
3 9524 9971 9972
3 9515 9972 9971
3 9509 9974 9520
3 9971 9513 9973
3 9536 9974 9035
3 13541 9976 6825
3 9533 9527 9975
3 9977 9976 9537
3 9976 9977 9056
3 9537 13540 9978
3 353 10935 9978
3 9977 9978 10195
3 9980 10935 10504
3 9979 10497 10495
3 10504 10935 10492
3 9980 10504 10493
3 9548 12501 9547
3 10418 9981 411
3 9983 9063 173
3 9982 9591 9592
3 9591 9982 9983
3 9063 9983 9982
3 9594 9984 9496
3 9593 9984 9592
3 9983 13303 12819
3 11059 98 11069
3 9615 9986 9606
3 3920 9986 9622
3 11076 11039 452
3 11729 11731 10199
3 9626 9988 9627
3 9988 9987 12109
3 10942 10945 9618
3 10199 10200 254
3 6897 7665 14993
3 10942 10204 10941
3 9992 9991 9618
3 9637 9991 9619
3 10949 10950 10942
3 9989 10201 10203
3 10513 10512 9993
3 10213 10212 9675
3 9994 10225 10218
3 10220 10219 10215
3 11088 11091 10267
3 10563 10250 11013
3 10545 10546 10553
3 10253 378 10004
3 9683 10001 9999
3 9997 9998 9999
3 10000 9683 9999
3 9997 9999 10003
3 23 10000 9998
3 9683 10000 9688
3 9685 10001 9683
3 10251 10002 9686
3 10252 10002 9996
3 10003 10004 9997
3 10001 10003 9999
3 10253 10004 10003
3 10005 10263 10262
3 10253 10003 10002
3 10266 10006 15143
3 215 10006 9121
3 10005 10262 10266
3 10013 10008 9125
3 10010 10013 10009
3 9125 10008 9126
3 10008 10007 15143
3 462 10009 9129
3 10009 9695 10010
3 10011 9695 9694
3 10011 10012 10010
3 10012 10011 9693
3 9695 10011 10010
3 10258 10012 9693
3 15143 10014 10005
3 10008 10013 10007
3 10009 10013 9125
3 10010 10012 10014
3 10014 10012 10263
3 10017 10020 10018
3 9701 9705 10015
3 10016 10017 10018
3 10031 10016 10018
3 10020 625 10018
3 10036 10016 10035
3 10025 10024 625
3 10018 10028 10031
3 10037 10023 10029
3 10023 8372 9702
3 10017 10015 10020
3 625 10020 10015
3 10273 10272 15144
3 63 10042 10051
3 10036 10022 10016
3 10019 10037 10029
3 10029 9702 9701
3 10037 249 10030
3 625 10056 10025
3 10021 10270 10028
3 10026 10025 9707
3 10021 10024 10025
3 10060 10026 9707
3 10026 9154 15144
3 421 10052 10271
3 10043 10592 11089
3 10021 10028 10024
3 10028 10027 10031
3 10022 10029 10017
3 9702 10029 10023
3 10045 10046 10040
3 10023 10038 8372
3 10034 10031 10027
3 10035 10016 10031
3 11123 11122 10269
3 10590 10589 10268
3 10592 10043 10032
3 10019 10022 10036
3 10042 10047 10048
3 10034 10047 10043
3 10034 10035 10031
3 10035 10033 10036
3 11087 10036 10033
3 249 10019 10036
3 249 10037 10019
3 10038 10037 10030
3 10030 10584 10045
3 10040 10046 9102
3 249 10585 10030
3 10584 10267 11092
3 10038 10045 10040
3 10046 10045 10039
3 10043 10047 10032
3 10051 10041 10050
3 10048 10034 10027
3 10269 10591 10592
3 10035 10043 10033
3 11097 10591 11102
3 11087 11086 249
3 10030 10045 10038
3 10046 10039 9099
3 9645 10046 9099
3 9102 10046 9100
3 10048 10047 10034
3 11120 10042 10590
3 10049 10048 10027
3 10050 63 10051
3 10027 10028 10270
3 10052 10041 10049
3 10048 10049 10051
3 10042 10048 10051
3 10041 10051 10049
3 10274 10053 332
3 10271 10049 10270
3 10062 10053 9706
3 10063 10065 513
3 10274 10054 10273
3 10062 10055 10063
3 10057 10056 9152
3 10025 10056 9707
3 10058 10057 8412
3 10056 10057 9707
3 10059 10058 8412
3 10058 10055 10060
3 8433 10059 8412
3 10059 8415 10065
3 10061 10060 10055
3 10026 10060 9154
3 10061 10055 10062
3 9154 10061 9706
3 10055 10065 10063
3 8460 10064 8456
3 10066 513 8416
3 10066 8456 10064
3 10064 8460 8463
3 10063 10064 10062
3 10065 10055 10058
3 10065 8415 8430
3 10066 10063 513
3 8456 10066 8414
3 4113 4114 10068
3 10069 10067 2856
3 2856 10068 4110
3 4113 10068 10067
3 10070 10069 2856
3 9734 10069 9732
3 10070 2856 2857
3 10070 2858 14956
3 8468 9160 10072
3 15141 10071 9740
3 8470 9741 10073
3 9740 10071 10072
3 10275 9162 9743
3 14910 4742 14909
3 8508 8519 10077
3 10078 10075 9744
3 9746 10074 10075
3 8515 10077 8519
3 10075 10077 10076
3 10077 10075 10074
3 8508 10077 10074
3 9745 10079 9750
3 10075 10078 9746
3 9746 10079 9747
3 9241 10080 8640
3 9767 10080 9766
3 10082 10081 9241
3 10084 10083 335
3 9764 10082 9241
3 9240 10082 9765
3 10598 10599 10086
3 10081 9240 10083
3 9766 10085 9767
3 10083 10085 10081
3 9767 10085 10084
3 10613 11397 10607
3 9239 8651 10277
3 10618 55 10293
3 10288 10615 10616
3 8664 10088 609
3 9777 10088 9246
3 10089 9251 10091
3 10623 10089 9780
3 10289 10619 10620
3 589 10105 10107
3 8673 10091 9249
3 10091 9781 9780
3 10108 9250 10107
3 9789 10092 9782
3 9789 10093 237
3 10094 10093 9782
3 10092 10096 9782
3 9788 10094 9784
3 167 5027 10101
3 10098 10094 9782
3 9250 10096 10092
3 10096 10095 10098
3 9784 10097 9785
3 10103 10099 10102
3 10095 10097 10098
3 9784 10098 10097
3 10104 5008 10097
3 10095 10102 10097
3 10102 10104 10097
3 167 10101 10100
3 10102 10105 10103
3 10099 10100 10104
3 10104 10101 5008
3 10105 10102 10095
3 10099 10104 10102
3 10095 10096 10108
3 589 10103 10105
3 9250 10089 10623
3 10291 10106 10292
3 10295 589 10107
3 9250 10108 10096
3 10105 10108 10107
3 6456 10109 9259
3 7906 10109 7907
3 10296 10110 401
3 10114 10110 9794
3 10112 10624 10111
3 9276 9794 10298
3 10624 10112 8028
3 10112 10111 10296
3 9276 10825 10115
3 10113 10116 10114
3 10114 8711 10110
3 10113 9294 10116
3 9294 10115 9821
3 9276 10115 10113
3 9295 10116 9294
3 8012 10114 10116
3 10340 9804 10339
3 10301 10117 9285
3 10117 10301 9806
3 7301 10649 7310
3 10319 10320 9819
3 10336 10327 10326
3 10654 10655 10353
3 10128 10123 10124
3 10349 10358 10121
3 10128 9814 10120
3 10356 10355 272
3 10126 10665 10127
3 10350 10123 272
3 10123 10122 10346
3 10344 10371 10345
3 9820 10125 9819
3 10125 10124 10345
3 10693 10695 569
3 10345 10346 10344
3 10347 10373 10344
3 9819 10125 10127
3 10126 10127 10125
3 10123 10128 10120
3 10125 10128 10124
3 9832 10129 9817
3 10120 10129 9818
3 10131 10130 9288
3 10831 10134 9822
3 10132 9288 9296
3 10825 10398 10824
3 10132 9296 9290
3 9297 10131 10132
3 400 10835 10828
3 11433 10831 10833
3 9822 10134 10130
3 10134 10133 11436
3 9298 10135 9289
3 10136 10135 9299
3 10134 10136 9299
3 10839 10136 271
3 11436 11435 271
3 10397 11165 152
3 11163 10138 9823
3 9291 10138 9824
3 9282 9795 10139
3 9827 10139 9795
3 11205 11210 11200
3 11205 11212 11210
3 10401 9840 10400
3 10401 10402 10141
3 297 10142 9329
3 9847 10142 9845
3 10144 10143 8819
3 9863 10848 10147
3 10145 10144 8819
3 10144 19 11220
3 8821 10145 8819
3 8817 10145 8820
3 10848 10146 10147
3 10852 10410 10849
3 9863 10147 10143
3 10147 10146 540
3 9554 10148 8277
3 9555 10418 10151
3 10414 9363 9870
3 10854 10417 10853
3 12499 411 12490
3 10150 12520 12522
3 12720 10415 10416
3 10414 10149 10413
3 11922 11554 11553
3 10166 352 10168
3 9377 10153 9910
3 10153 10152 10170
3 9897 285 10154
3 11557 11551 11548
3 9879 10155 9377
3 10154 10155 9878
3 9890 10449 10448
3 10424 10425 10426
3 10421 556 10422
3 10425 10428 10157
3 10160 10159 10161
3 9902 9904 10158
3 10475 11885 11554
3 10478 9896 9887
3 10158 9900 10160
3 10165 10164 10162
3 10476 10161 10159
3 9905 9902 10161
3 10159 10160 10162
3 10164 10165 10163
3 9900 10158 10432
3 12735 13457 10474
3 10165 10162 10160
3 10163 13211 12321
3 10160 9900 10165
3 9900 10459 10446
3 10168 10153 10170
3 9913 10166 7394
3 10152 11559 10170
3 11556 12326 10167
3 10153 10168 352
3 10169 10168 10167
3 10167 12326 11924
3 7398 10169 7397
3 11559 10152 11555
3 10168 10170 10167
3 10930 10932 10934
3 10481 9936 9941
3 10481 9941 9937
3 10931 10919 10171
3 9516 9528 10174
3 9951 10173 9950
3 10176 10177 10485
3 9950 10173 10174
3 10485 11640 10924
3 10182 10175 10183
3 10482 10179 10182
3 10177 10178 9950
3 10485 10174 9514
3 10177 10176 10178
3 10176 10179 10178
3 10180 9953 9952
3 10182 10179 10176
3 241 9934 10184
3 10184 10179 241
3 10181 10180 10184
3 9924 10181 9923
3 9953 10180 10181
3 10924 10182 10176
3 10926 10183 10175
3 10171 10919 10483
3 10182 10183 10482
3 9923 10184 9934
3 10179 10184 10180
3 9421 9422 10186
3 9951 10185 9417
3 9417 10186 9418
3 9421 10186 10185
3 9463 10188 9460
3 9963 9960 10187
3 9962 9963 10188
3 9535 10190 9533
3 9446 15118 15116
3 9973 10190 9971
3 12416 12413 12422
3 12409 12038 12788
3 10495 10494 10192
3 9544 9549 10194
3 10501 10502 10497
3 10502 10499 11711
3 10195 8270 9977
3 9980 10493 10196
3 10196 9978 9980
3 8270 10195 10194
3 10194 10195 10196
3 9978 10196 10195
3 10198 9592 9591
3 11083 11081 11082
3 9985 10197 10198
3 9592 10198 10197
3 11729 10199 254
3 9988 10199 9987
3 9627 10509 9626
3 9989 10948 10947
3 9617 10202 3920
3 9989 10200 10201
3 9619 9991 10203
3 3920 10202 10201
3 9989 10203 9992
3 10201 10202 10203
3 10205 10207 9628
3 10941 10204 9990
3 10206 10205 9631
3 10207 9990 10204
3 6898 10206 9631
3 15001 9990 15002
3 10510 10207 10204
3 9634 10207 9633
3 9674 10208 9676
3 10209 10208 568
3 9670 10209 568
3 9993 10209 9662
3 9662 9671 10211
3 10530 10531 10211
3 9655 10522 10211
3 10211 10522 10530
3 10208 10212 9676
3 10512 10212 9993
3 9675 10214 10216
3 10213 9994 10215
3 10520 10514 10518
3 10515 10518 10517
3 10218 10215 9994
3 9677 10219 5929
3 9675 10216 10213
3 10214 10519 10226
3 9674 10217 9665
3 10213 10217 9676
3 10221 10225 10226
3 10219 10220 5929
3 9665 10219 9677
3 10220 10215 10218
3 10218 5928 10220
3 5949 10220 5928
3 10234 10228 10241
3 10227 5928 10218
3 61 10222 5955
3 10229 10230 10223
3 10235 10230 10229
3 6883 6884 10228
3 5950 10224 6863
3 10223 10228 10233
3 10226 10225 9994
3 10225 10221 10227
3 10216 10226 9994
3 10226 412 10236
3 10231 10227 10221
3 10232 61 5932
3 10239 10242 10230
3 10240 10234 248
3 10229 10222 10235
3 10224 10229 10223
3 10236 10230 10235
3 10241 10243 10234
3 10235 10231 10221
3 61 10231 10222
3 5928 10227 10232
3 61 10232 10227
3 10224 10233 476
3 10228 6884 10233
3 6883 10228 10234
3 10242 10241 10228
3 10231 10235 10222
3 10236 10235 10221
3 10226 10236 10221
3 10540 10543 10515
3 248 10556 10557
3 10237 7632 7633
3 10236 10239 10230
3 10245 10243 10238
3 412 10239 10236
3 10242 10239 10238
3 10550 10240 248
3 6883 10240 10237
3 10242 10228 10223
3 10241 10238 10243
3 10230 10242 10223
3 10238 10241 10242
3 10246 10239 412
3 10248 10245 10249
3 10521 10518 10515
3 10248 248 10243
3 10246 10238 10239
3 10245 10244 10249
3 10244 10245 10246
3 10246 10245 10238
3 10516 10543 10244
3 10541 10542 10247
3 10245 10248 10243
3 10247 11011 10556
3 10244 10543 10541
3 10248 10249 10247
3 10587 11100 11107
3 10565 11103 11104
3 10545 10544 10547
3 10002 10251 9996
3 10257 10254 10255
3 378 10252 10257
3 10002 10252 10253
3 378 10253 10252
3 10251 10545 9996
3 10552 10257 10252
3 10255 378 10257
3 10562 11012 10558
3 10552 10252 9996
3 10257 10256 11012
3 9697 10258 9693
3 10261 10259 10260
3 10262 10260 10259
3 10260 10012 10258
3 10014 10263 10005
3 10566 10567 96
3 10258 10261 10260
3 10567 10262 10264
3 10012 10260 10263
3 10262 10263 10260
3 10566 10573 10266
3 10262 10259 10264
3 10265 10573 10578
3 10566 10266 10262
3 10266 10265 10583
3 11087 11101 11086
3 10588 9672 9680
3 10042 11120 10047
3 11738 11123 11124
3 10590 11124 11123
3 10594 421 10272
3 10027 10270 10049
3 10049 10271 10052
3 10595 10270 10021
3 10271 10595 10272
3 10272 10595 15144
3 9706 10053 10274
3 10272 10273 10054
3 14910 10275 4742
3 9706 10274 10273
3 9162 10275 10073
3 10596 9767 10084
3 9239 10277 336
3 10278 10276 10598
3 10278 10277 10276
3 10604 10606 10086
3 10614 10282 10280
3 11131 11126 11127
3 8656 10283 10284
3 10086 10599 10604
3 10283 8656 336
3 10608 10614 10280
3 443 11394 11396
3 10280 10282 10278
3 10282 10281 10283
3 10282 10283 336
3 10284 10283 10281
3 10279 11395 11130
3 10284 8653 8657
3 10286 9246 9776
3 10598 10086 10278
3 10622 10286 10087
3 10621 10287 8662
3 10286 10287 10087
3 10617 10288 10616
3 10621 10288 10617
3 10619 9247 10620
3 10619 10290 9247
3 10292 10290 10090
3 10106 10294 10292
3 10619 10618 10090
3 10623 10294 10107
3 55 10291 10293
3 10292 10293 10291
3 10295 10294 10106
3 10623 10107 9250
3 10112 10296 401
3 10294 10295 10107
3 10298 10296 10111
3 10626 10627 10641
3 10625 10297 10627
3 10296 10298 9794
3 10624 10299 10111
3 10297 10625 10299
3 10826 10827 10828
3 9807 10300 8723
3 10301 10300 9806
3 10309 10301 9285
3 6544 6550 10306
3 10648 10315 478
3 10303 7347 8034
3 8031 10303 8034
3 10311 10312 10302
3 10307 6544 10306
3 10302 10303 10304
3 10301 10308 10118
3 10307 10308 10309
3 208 10306 6550
3 10307 10306 10305
3 10308 10307 10305
3 10304 10307 10302
3 10308 10305 10651
3 10308 10301 10309
3 10333 9285 10340
3 10309 10302 10307
3 10309 10311 10302
3 10335 10310 10333
3 9285 10311 10309
3 10312 10311 10310
3 10312 10310 10313
3 10302 10312 10303
3 10315 10313 10310
3 8826 10314 7348
3 7347 10314 8826
3 10313 10315 10648
3 10335 10315 10310
3 10648 478 7351
3 10651 10316 10650
3 10316 10651 10652
3 9815 10317 9808
3 10321 10317 9803
3 569 10665 10699
3 10325 148 10324
3 569 10319 10127
3 10320 10319 10318
3 10321 10320 10318
3 9819 10320 9803
3 10318 10323 10321
3 10321 10119 10317
3 10693 569 10699
3 10325 8547 8554
3 10318 10695 10694
3 10324 10323 10322
3 10325 10324 10322
3 10324 148 10327
3 10325 10322 10675
3 148 10325 8554
3 10337 10326 148
3 9801 9810 10336
3 10324 10327 10119
3 148 10326 10327
3 10341 10337 148
3 7354 10330 7352
3 7354 478 10330
3 10333 10310 10311
3 478 10315 10335
3 7352 10330 10329
3 10340 9285 10117
3 10339 10334 10331
3 478 10332 10330
3 10332 10331 10334
3 9285 10333 10311
3 10335 10331 10332
3 10340 10331 10333
3 10343 10337 10342
3 10331 10335 10333
3 10332 478 10335
3 10327 10336 10119
3 10336 10326 9801
3 10341 148 8554
3 10342 10328 10334
3 10338 10328 11156
3 10332 10338 10329
3 9809 10339 9804
3 9801 10326 10343
3 9804 10340 10117
3 10331 10340 10339
3 8536 11158 8554
3 11158 10341 8554
3 10334 10339 10342
3 10343 10339 9801
3 10337 10343 10326
3 10339 10343 10342
3 10347 10344 10346
3 10121 10362 10365
3 10125 10345 10126
3 10346 10345 10124
3 10123 10346 10124
3 10347 10346 10122
3 10350 10349 10352
3 10373 10347 10121
3 10349 10350 10348
3 10656 10389 10655
3 10352 10347 10122
3 10357 10348 10823
3 10123 10350 10122
3 9831 9835 10354
3 10362 10121 10358
3 10357 10358 10349
3 10347 10352 10349
3 10122 10350 10352
3 10654 10353 9834
3 10348 10350 10363
3 10355 10354 10353
3 9830 10356 272
3 10363 10355 10353
3 272 10355 10350
3 9831 10354 10356
3 10355 10356 10354
3 10823 10348 10389
3 10358 10357 10351
3 10361 10358 10351
3 10362 10361 10369
3 10366 10361 10351
3 10366 390 10368
3 10370 10369 10359
3 10365 10381 10364
3 10351 10823 10366
3 10369 10361 10359
3 10361 10362 10358
3 10701 10381 10376
3 10355 10363 10350
3 10655 10363 10353
3 10381 10360 10391
3 10372 10699 10665
3 10360 10365 10362
3 10365 10364 10371
3 10377 10383 10384
3 10361 10366 10378
3 11192 11188 402
3 10378 10368 10379
3 10387 10384 390
3 10383 10379 10368
3 10822 10359 10378
3 10362 10369 10360
3 10370 82 10382
3 10360 10369 10370
3 10371 10344 10373
3 10371 10364 10372
3 10707 10701 10700
3 10674 10666 10682
3 10121 10365 10373
3 10371 10373 10365
3 10374 10388 10396
3 11195 11194 10377
3 10375 10379 11182
3 10822 10390 10370
3 10711 10768 10703
3 340 10668 10676
3 10384 10368 390
3 11773 11195 10374
3 10822 10378 10375
3 10361 10378 10359
3 11182 10379 10367
3 10378 10379 10375
3 10375 11182 11184
3 10811 10780 10814
3 10365 10360 10381
3 10391 10370 10382
3 10772 10727 82
3 10391 10376 10381
3 10384 10383 10368
3 11194 10383 10377
3 10389 10387 390
3 10377 10384 10386
3 11165 10397 10393
3 10377 10386 10374
3 10387 10386 10384
3 10388 10386 10392
3 390 10823 10389
3 10387 10385 10392
3 10388 10392 10395
3 10397 10394 10396
3 10363 10655 10348
3 10385 10387 10389
3 10822 10370 10359
3 10380 11187 10810
3 10370 10391 10360
3 10376 10391 10382
3 10387 10392 10386
3 10395 10392 10385
3 10395 10656 10657
3 10395 10657 10393
3 152 11165 11763
3 11773 11774 11778
3 10656 10395 10385
3 10397 10395 10393
3 10397 10396 10388
3 11769 10394 11768
3 10397 10388 10395
3 10394 10397 152
3 10398 10825 10826
3 10398 10826 10828
3 11436 11432 11435
3 11160 11161 10137
3 11209 11208 11212
3 10401 10400 10140
3 10402 10401 10140
3 10401 10141 10407
3 11205 10402 10140
3 10403 10404 10840
3 10405 8810 8813
3 10402 10404 10141
3 10840 10404 426
3 10141 10404 10403
3 8811 10405 8813
3 10840 10405 10403
3 297 9842 10407
3 10408 10406 10141
3 10401 10407 9840
3 10141 10406 10407
3 10403 10408 10141
3 10408 8811 9846
3 11220 10846 11218
3 10409 11232 10850
3 12918 12937 12923
3 10412 540 10411
3 12925 12924 10411
3 12927 12913 12923
3 540 10412 9854
3 10412 10411 12918
3 10414 10413 9363
3 10853 10413 10149
3 9870 10151 10414
3 10149 10415 9872
3 10414 10151 10415
3 10416 10415 10151
3 10151 10150 10416
3 10416 10150 12720
3 12719 12713 12711
3 12329 11937 10856
3 12520 411 12512
3 10151 10418 10150
3 10420 10419 9889
3 10422 10419 10156
3 9892 10420 9889
3 10420 9890 10448
3 556 10419 10422
3 10421 10157 10431
3 10422 10156 10424
3 10421 10422 10426
3 10434 10436 10429
3 10430 10427 10434
3 10424 10156 10438
3 10424 10423 10425
3 10423 10427 10425
3 10425 10427 10428
3 10421 10426 10157
3 10424 10426 10422
3 10434 10437 10436
3 10428 10427 558
3 10466 10447 10469
3 10165 10446 10163
3 11260 10891 10901
3 10465 10430 10434
3 10893 35 10887
3 10471 10460 10473
3 10463 10428 10447
3 10428 558 10447
3 10421 10432 9904
3 10432 10431 10459
3 11955 12730 281
3 10428 10463 10157
3 10434 10423 10437
3 10465 10434 10429
3 10423 10438 10437
3 10438 10435 10437
3 10435 10439 10436
3 35 10893 10891
3 10438 10423 10424
3 10436 10437 10435
3 10156 10448 10438
3 10442 10440 10464
3 10441 10439 10435
3 10891 10439 35
3 10441 10435 10457
3 10442 10450 10440
3 10457 10435 10438
3 10441 10440 10889
3 7450 10442 7458
3 10443 10440 10441
3 10443 10438 10448
3 10440 10443 10464
3 11266 11267 11265
3 10466 10433 10447
3 10447 10468 10463
3 281 12730 12733
3 9900 10446 10165
3 13212 10446 10445
3 10472 558 10430
3 10468 10447 10433
3 10420 10448 10156
3 9891 10449 9890
3 10464 628 10442
3 10443 10448 10449
3 7450 7456 10452
3 10456 10892 11259
3 10455 7448 10453
3 10870 10863 581
3 10455 7456 7437
3 10452 10451 11259
3 10863 10861 10862
3 10455 10453 10451
3 10867 10862 10861
3 10890 10897 10888
3 10452 10455 10451
3 7448 10455 7437
3 10887 10456 10862
3 10887 35 10889
3 10438 10443 10457
3 10441 10457 10443
3 10429 10436 10891
3 10910 10467 10458
3 10462 10459 10431
3 10446 10459 10445
3 10911 10912 11628
3 10473 11264 10470
3 13457 13209 10468
3 10445 10459 10462
3 10463 10431 10157
3 10445 10462 10461
3 10461 10462 10463
3 10463 10462 10431
3 10443 10449 10464
3 628 10464 10449
3 11260 10465 10429
3 10472 10465 10458
3 10469 10447 558
3 10466 10471 10473
3 10458 10467 10472
3 10910 10458 10444
3 10468 10433 13457
3 10463 10468 10461
3 10472 10469 558
3 10471 10469 10467
3 10460 11628 11264
3 10466 10474 10433
3 10469 10471 10466
3 10911 10471 10467
3 10472 10430 10465
3 10469 10472 10467
3 11264 10473 10460
3 10474 10473 10470
3 281 13208 10470
3 13208 12733 12735
3 11884 11881 11882
3 11547 11550 11545
3 11884 11882 11883
3 10476 10475 10477
3 9896 10478 285
3 10479 10477 9887
3 10475 11552 10477
3 11545 11550 298
3 9895 10479 9887
3 10476 10479 9905
3 241 10482 10480
3 10483 10183 10171
3 10172 15179 10481
3 9937 10480 10481
3 10482 241 10179
3 10183 10480 10482
3 10481 10483 10172
3 10183 10483 10480
3 15165 15160 15169
3 10919 10923 10172
3 9514 11300 10485
3 10924 11640 10175
3 11305 11640 11300
3 10929 10927 10486
3 15112 15119 10189
3 15112 15117 15109
3 10489 7557 10490
3 15119 15112 15113
3 7557 10489 9021
3 15109 10489 10488
3 9446 10490 9472
3 10489 10490 10488
3 6 10491 9963
3 10491 10487 15118
3 13260 13539 13259
3 10503 10504 12411
3 10495 10493 9979
3 10196 10493 10192
3 10192 10493 10495
3 9551 10494 10193
3 10496 10497 10500
3 10193 10494 10495
3 10500 10508 10496
3 10502 10501 10499
3 10503 10500 10497
3 10497 10496 10501
3 10504 10505 12411
3 12429 461 12427
3 10499 10501 10938
3 10938 10940 10499
3 10503 10497 9979
3 10506 10500 10498
3 10496 11340 10938
3 11710 11711 10499
3 10193 10495 10502
3 10497 10502 10495
3 10504 10503 9979
3 10498 10500 10503
3 10504 9979 10493
3 10505 10504 10492
3 10492 10191 10505
3 10191 12410 12411
3 10506 10498 12038
3 273 11310 10506
3 11339 10936 11313
3 10508 11340 10496
3 11310 10508 10506
3 10508 10507 11340
3 9613 10509 9627
3 3920 10201 10509
3 10207 10510 9633
3 10942 10510 10204
3 14997 15000 15006
3 10942 9618 10510
3 10513 9993 9662
3 10210 10534 10514
3 10211 10513 9662
3 10210 10512 10513
3 10517 10514 115
3 10517 10518 10514
3 10539 10538 115
3 10244 10246 10516
3 10246 412 10516
3 10519 10516 412
3 10536 10539 115
3 10519 10521 10516
3 10214 9675 10518
3 10520 9675 10512
3 10226 10519 412
3 10521 10214 10518
3 10514 10520 10512
3 10518 9675 10520
3 10516 10521 10515
3 10214 10521 10519
3 9655 9660 10525
3 567 11000 10530
3 10526 9661 9681
3 9661 10526 10523
3 10525 10522 9655
3 10524 10523 10955
3 9661 10525 9660
3 10524 10525 10523
3 10528 10563 10527
3 10526 9679 10528
3 9669 11110 11111
3 10954 567 10524
3 10528 9679 10563
3 10527 11115 10955
3 10992 11001 10994
3 10532 10529 10535
3 567 10530 10522
3 10531 10530 10529
3 10532 10531 10529
3 10211 10531 10210
3 10984 10991 10994
3 115 10514 10534
3 10960 10957 477
3 10535 10536 10532
3 10531 10534 10210
3 115 10534 10532
3 10997 10535 10529
3 10535 10533 10536
3 10537 10959 10957
3 10538 10515 10517
3 10539 10959 10537
3 10247 10249 10541
3 115 10538 10517
3 10538 10537 10540
3 10536 10958 10959
3 10537 10538 10539
3 11005 10960 477
3 10541 10249 10244
3 10956 10540 10537
3 10956 10541 10540
3 10982 10989 10974
3 10544 10554 10547
3 10515 10543 10516
3 10541 10543 10540
3 10248 10556 248
3 9996 10545 10547
3 10251 524 10548
3 524 7637 10546
3 10549 10546 7632
3 10546 10545 10548
3 10554 10559 11009
3 10552 10547 10558
3 10546 10548 524
3 10545 10251 10548
3 7632 10237 10549
3 10550 10549 10237
3 10550 10237 10240
3 10544 10545 10553
3 11005 10542 10960
3 10256 10552 10558
3 10257 10552 10256
3 9996 10547 10552
3 10549 10553 10546
3 10544 10553 10550
3 10554 10544 10559
3 10554 10551 10558
3 10544 10550 10557
3 10542 11011 10247
3 10247 10556 10248
3 10559 10557 10555
3 248 10557 10550
3 10555 10557 10556
3 199 10561 10562
3 10254 10257 11012
3 10557 10559 10544
3 10559 10555 11009
3 10551 11008 10558
3 477 10957 10969
3 11012 10561 10254
3 10979 11006 10969
3 10563 9669 10527
3 10564 10563 9679
3 9681 10564 9679
3 11391 10564 9995
3 10563 11013 9669
3 11099 11100 11098
3 11042 11355 11356
3 10580 10578 10574
3 96 10567 10264
3 10566 10262 10567
3 10575 10572 10577
3 10568 10572 10570
3 10572 10568 10582
3 10570 10572 10575
3 10566 96 10570
3 10579 10578 10571
3 11014 451 11713
3 10569 10571 10577
3 10575 10573 10566
3 10578 10573 10571
3 10574 10579 10581
3 10574 11354 11022
3 10573 10575 10571
3 10570 10575 10566
3 11014 11713 10576
3 11716 10577 10582
3 10575 10577 10571
3 10577 10572 10582
3 10579 10571 10569
3 10574 11022 11021
3 10581 10579 10569
3 10574 10578 10579
3 9119 10006 10580
3 10583 10580 10006
3 11356 10576 11713
3 11025 11354 179
3 11014 10582 10568
3 10582 10576 11716
3 10266 10583 10006
3 10578 10583 10265
3 10045 10584 10039
3 10585 10584 10030
3 11086 10585 249
3 10584 10585 10267
3 11375 11095 11369
3 11093 11098 11100
3 11088 10267 11086
3 11093 10587 11088
3 10039 11092 11367
3 10588 10587 11107
3 11120 10269 10592
3 63 10589 11121
3 10042 11121 10590
3 10591 511 11102
3 10592 10591 10044
3 10592 10044 11089
3 11120 10592 10032
3 11740 12156 129
3 11369 11368 11371
3 10270 10595 10271
3 10272 10054 10594
3 15144 10595 10021
3 10084 335 10597
3 10276 10596 10598
3 10285 10601 10600
3 10599 10598 10601
3 10597 10601 10596
3 10601 10285 10599
3 502 10605 10602
3 10605 10603 10604
3 10596 10601 10598
3 10597 335 10600
3 10601 10597 10600
3 11140 10610 11139
3 10599 10285 10602
3 10607 10608 10606
3 10605 10604 10599
3 10606 10604 10603
3 10602 10605 10599
3 10605 502 11134
3 10603 10613 10606
3 10086 10606 10280
3 10603 10605 11134
3 11394 11126 11129
3 10614 10608 10279
3 10606 10608 10280
3 10608 10612 10279
3 11133 10609 10611
3 10606 10613 10607
3 11138 11137 11136
3 11138 11139 11397
3 10612 10607 11397
3 11395 10612 10610
3 11134 10613 10603
3 11397 10613 10611
3 11130 10614 10279
3 10282 10614 10281
3 10618 10616 10615
3 10616 10289 10617
3 10090 10290 10619
3 10622 10617 10289
3 10617 10087 10621
3 55 10618 10615
3 10090 10618 10293
3 10289 10616 10619
3 10619 10616 10618
3 9779 10620 9247
3 10289 10620 8670
3 10286 10622 8665
3 10287 10621 10087
3 10617 10622 10087
3 9780 10292 10623
3 10294 10623 10292
3 10628 10641 10645
3 10299 10624 10297
3 10628 10645 10629
3 10827 10625 400
3 11745 11403 11145
3 10643 10644 10627
3 10629 10297 10624
3 10627 10626 10643
3 10631 10628 10629
3 10641 10647 10626
3 10624 8028 10629
3 8028 8718 10630
3 10630 149 10631
3 8028 10630 10629
3 7341 10642 10639
3 8773 9335 10634
3 12854 12855 12544
3 11143 10646 11144
3 10635 10638 11142
3 8784 8773 10636
3 13317 9335 9334
3 10634 10633 10636
3 149 10639 10631
3 10646 11153 11144
3 11142 10638 10633
3 8784 10636 7332
3 10637 10631 10639
3 11151 10637 10635
3 10635 10637 10639
3 7332 10642 7341
3 7341 10639 149
3 10639 10638 10635
3 10647 11143 10626
3 10833 10831 10834
3 10645 10627 10297
3 10637 11151 10628
3 10636 10642 7332
3 10639 10642 10638
3 10643 10626 11148
3 10644 10643 10640
3 10829 10644 10640
3 10625 10644 400
3 10627 10645 10641
3 10297 10629 10645
3 10641 11151 10647
3 11151 10635 11152
3 11151 10641 10628
3 11143 10647 10646
3 7348 10648 7351
3 10313 10648 10314
3 10650 10649 7297
3 7310 10649 10316
3 9284 10650 7297
3 10651 10650 10118
3 10308 10651 10118
3 10652 10651 10305
3 10306 10652 10305
3 6548 10652 208
3 11155 11156 11154
3 8559 8569 11159
3 10654 9834 10661
3 10655 10654 9833
3 10656 10655 9833
3 10655 10389 10348
3 10656 9833 10657
3 10389 10656 10385
3 10660 10657 9833
3 10660 10659 10657
3 10660 9833 10661
3 11163 9823 10839
3 10658 11160 10659
3 11166 11165 10659
3 9833 10654 10661
3 10659 10660 10658
3 10663 9834 9835
3 10660 10661 10664
3 10660 10664 10658
3 9834 10663 10664
3 10663 9826 15142
3 10662 10664 10663
3 10664 10661 9834
3 10664 10662 11164
3 10127 10665 569
3 10371 10665 10126
3 8541 10668 340
3 10694 10698 10323
3 10669 8533 10670
3 10667 10669 10670
3 8531 10672 8541
3 10673 10668 10667
3 10670 8533 438
3 10668 10669 10667
3 438 8550 10671
3 10698 10322 10323
3 8547 10675 10671
3 10694 10697 10698
3 10669 10672 8531
3 10668 8541 10672
3 10697 10696 10667
3 10673 10666 10674
3 10677 10682 10683
3 10680 10681 9186
3 10325 10675 8547
3 10698 10675 10322
3 10673 10676 10668
3 10674 340 10676
3 10677 10683 10700
3 10708 10678 10684
3 340 10674 10685
3 10674 10682 10684
3 340 10679 8555
3 10680 10679 10686
3 10680 9187 9184
3 10686 10679 10678
3 10728 10708 10710
3 10687 10681 9185
3 10683 10682 10666
3 10684 10682 10677
3 10666 10706 10683
3 10683 10372 10700
3 10684 10723 10708
3 10684 10678 10685
3 10684 10685 10674
3 10679 10685 10678
3 10728 10686 10678
3 10680 10686 10681
3 10690 10687 9185
3 10691 10690 10704
3 10688 10690 10712
3 10722 10743 10745
3 10689 10704 10705
3 10692 10735 9187
3 10712 10690 10729
3 10704 10690 10688
3 10690 10691 10687
3 10691 10689 10692
3 10705 10713 10689
3 10715 10716 10717
3 10673 10696 10706
3 10319 10695 10318
3 10667 10696 10673
3 10697 10667 10670
3 569 10695 10319
3 10694 10695 10693
3 10694 10693 10696
3 10706 10696 10693
3 10671 10697 10670
3 10696 10697 10694
3 10697 10671 10698
3 10675 10698 10671
3 10372 10683 10699
3 10693 10699 10683
3 10364 10707 10372
3 10381 10701 10707
3 10709 10724 10725
3 10677 10700 10701
3 10701 10724 10677
3 10725 10376 10727
3 10711 9185 10710
3 10742 10711 10702
3 10704 10688 10705
3 10691 10704 10689
3 10747 10733 10734
3 10748 10750 10705
3 10683 10706 10693
3 10673 10706 10666
3 10372 10707 10700
3 10381 10707 10364
3 10723 10684 10677
3 10710 10708 10702
3 10725 10701 10376
3 10702 10708 10709
3 10711 10710 10702
3 10728 9185 10681
3 10770 10726 10742
3 10729 10711 10703
3 10729 10690 9185
3 10730 10712 10703
3 10740 10738 10739
3 10692 10689 10715
3 10786 10737 10767
3 7797 10718 10719
3 10689 10713 10715
3 10716 10715 10713
3 156 10716 10713
3 10716 10714 10717
3 10717 10719 10718
3 10718 7797 8585
3 389 10718 8585
3 10719 10717 10714
3 10719 10736 10720
3 10720 7076 7079
3 10721 7079 233
3 10736 10719 10714
3 7797 10721 8583
3 7079 10721 10720
3 10712 10730 10733
3 10722 10753 10749
3 10724 10723 10677
3 10708 10723 10709
3 10725 10724 10701
3 10723 10724 10709
3 10376 10382 10727
3 10709 10725 10770
3 10703 10768 10769
3 10770 10742 10702
3 82 10727 10382
3 10727 10726 10770
3 10708 10728 10678
3 9185 10728 10710
3 10712 10729 10703
3 9185 10711 10729
3 10769 10730 10703
3 10730 493 10732
3 10781 10744 10745
3 10734 10733 10731
3 10773 10732 493
3 10733 10732 10731
3 10734 10731 10743
3 10712 10733 10688
3 10749 10748 10734
3 10688 10747 10705
3 10692 10717 10735
3 10718 10735 10717
3 10736 10714 10739
3 10737 10788 10738
3 10754 10759 10777
3 156 10750 10754
3 10714 10716 10740
3 10786 10788 10737
3 10740 10739 10714
3 10808 10738 10788
3 10716 156 10740
3 10755 10754 10750
3 10771 10741 10742
3 10771 10772 10800
3 10771 10742 10726
3 10768 10742 10741
3 10781 11167 10773
3 10722 10734 10743
3 10813 11411 493
3 11426 11177 494
3 11167 10743 10731
3 10776 10756 10775
3 10760 10753 10761
3 10777 10738 10740
3 10733 10747 10688
3 10748 10747 10734
3 10749 10734 10722
3 10748 10746 10750
3 308 10774 10756
3 10746 10748 10749
3 10750 10746 10755
3 10705 10750 156
3 10751 10756 10774
3 10760 10746 10749
3 10746 10758 10755
3 10758 10762 10765
3 10775 10722 10745
3 10753 10751 10761
3 10759 10754 10752
3 10740 156 10754
3 10746 10760 10758
3 10754 10755 10752
3 10775 10753 10722
3 10776 10745 10744
3 10793 10751 10791
3 10755 10758 10752
3 10757 10762 10758
3 10762 10764 10765
3 10766 10759 10752
3 10777 10737 10738
3 10753 10760 10749
3 10758 10760 10757
3 10794 10751 10793
3 10760 10761 10757
3 10794 10761 10751
3 422 10764 10762
3 15145 15157 15158
3 10737 10766 10767
3 15158 10796 10804
3 10758 10765 10752
3 10764 10763 10765
3 10763 10767 10766
3 10752 10765 10766
3 10763 10766 10765
3 10778 10767 10763
3 10806 10787 210
3 10742 10768 10711
3 10769 10768 10741
3 10800 10789 10741
3 10769 493 10730
3 10709 10770 10702
3 10770 10725 10727
3 10772 10726 10727
3 10771 10726 10772
3 10380 10810 10390
3 10772 10810 10800
3 10732 10773 10731
3 10813 493 10769
3 10790 10774 308
3 10774 10792 10791
3 10776 10775 10745
3 10753 10775 10756
3 10795 10776 10744
3 308 10756 10776
3 10754 10777 10740
3 10737 10777 10759
3 10763 10803 10778
3 10796 10785 11171
3 10806 10805 10779
3 10797 10788 10779
3 10811 11413 10780
3 10813 10789 10814
3 11167 10781 10745
3 11410 10781 10773
3 10790 308 10817
3 11750 11751 11753
3 11749 11406 11168
3 11409 15147 15150
3 11412 11174 10795
3 10818 10784 10816
3 10796 10803 10804
3 15590 73 15585
3 10767 10778 10787
3 10786 10779 10788
3 10779 10786 10787
3 10787 10786 10767
3 10805 10797 10779
3 10739 10738 10808
3 10741 10771 10800
3 10811 10814 10789
3 308 10815 10802
3 10792 10790 11407
3 10792 10774 10790
3 15153 15151 15152
3 10790 15159 11407
3 10791 10792 11406
3 10762 10794 422
3 10757 10794 10762
3 10761 10794 10757
3 422 10794 10793
3 10744 11410 11412
3 10795 10784 10802
3 10804 10763 10764
3 15596 15595 15594
3 10798 6352 7080
3 10798 7076 10799
3 7076 10720 10799
3 6352 10798 10797
3 10736 10739 10808
3 10797 10798 10799
3 10772 82 10810
3 10789 10800 10811
3 11415 10780 11417
3 11411 11172 11410
3 11177 10816 10784
3 308 10802 10817
3 10804 10803 10763
3 11170 10803 10796
3 422 15603 10764
3 10764 15603 10804
3 10779 10787 10806
3 7801 10807 7800
3 15033 10806 210
3 10807 10806 7800
3 10807 7801 7799
3 10806 10807 10805
3 10797 10808 10788
3 10808 10799 10736
3 10810 11187 10809
3 10811 11176 11413
3 10390 10810 82
3 10800 10810 10809
3 10809 11176 10800
3 11175 11413 11192
3 11176 10812 11413
3 11186 11193 11187
3 10789 10813 10769
3 11411 10813 10801
3 11415 11414 11416
3 10813 10814 10801
3 308 10776 10815
3 10795 10815 10776
3 11181 11757 11425
3 15159 10790 10817
3 10802 10818 10817
3 10819 15159 10818
3 10784 10818 10802
3 10816 11425 10818
3 11177 11426 10816
3 424 12206 12578
3 11182 10367 11185
3 11192 402 11175
3 10396 10394 11769
3 11770 11768 10394
3 11184 10822 10375
3 10390 10822 10380
3 10366 10823 390
3 10357 10823 10351
3 10130 10824 9822
3 10825 10131 9297
3 10115 10825 9297
3 10826 10825 9276
3 10298 10826 9276
3 10827 10826 10299
3 10625 10827 10299
3 10827 400 10828
3 10644 10829 10835
3 10824 10828 9822
3 10836 10838 11743
3 9822 10828 10830
3 10134 10831 10133
3 9822 10830 10831
3 10834 10830 10829
3 10832 10833 10836
3 11447 11439 11463
3 11432 11436 11433
3 10831 10830 10834
3 11432 11433 11434
3 10838 10640 10837
3 10833 10834 10836
3 10644 10835 400
3 10830 10835 10829
3 10838 10834 10829
3 10834 10838 10836
3 10626 11143 11148
3 11743 11400 11402
3 10640 10838 10829
3 10838 10837 11743
3 11435 10839 271
3 11163 10839 10399
3 11207 10402 11205
3 10841 8817 10842
3 11199 10844 10845
3 10841 10840 10845
3 8817 8810 10842
3 10840 10842 8810
3 11214 11216 11225
3 10847 19 10841
3 11199 10840 426
3 10843 11213 10844
3 11199 10845 10840
3 10846 10845 10844
3 11213 10846 10844
3 10848 11219 10409
3 10845 10847 10841
3 11220 10847 10846
3 9863 11220 11219
3 10850 10848 10409
3 10146 10848 10850
3 10851 10849 10410
3 11232 10409 571
3 10852 11235 10410
3 10851 10410 12925
3 540 10851 10411
3 10146 10852 10849
3 10850 11238 11235
3 10854 10853 10149
3 10853 10417 10855
3 10149 9872 10854
3 12715 9872 12712
3 10857 10855 10417
3 10857 10858 10855
3 11939 12708 11931
3 11579 37 11578
3 13179 10417 12715
3 10856 12332 10858
3 10858 8872 8867
3 10856 10858 10857
3 8867 8869 10860
3 95 10853 10859
3 95 10860 9357
3 10860 10859 8867
3 10861 10863 10870
3 10896 10908 10907
3 10887 10862 10454
3 10863 10862 10456
3 10456 10453 10863
3 581 10863 10453
3 10866 10870 11247
3 138 6705 11248
3 10862 10867 10454
3 10861 10868 10867
3 11247 581 6733
3 10868 10866 10871
3 10861 10870 10868
3 10865 10902 10906
3 10866 11252 10871
3 10865 10867 10868
3 10878 10879 10874
3 10873 10869 10877
3 11247 10870 581
3 10868 10870 10866
3 10864 10869 10871
3 10868 10871 10869
3 11256 10882 11258
3 10876 10877 10874
3 10873 186 10896
3 10865 10869 10873
3 10878 10874 10864
3 10874 10872 10876
3 11249 11248 10875
3 10879 10872 10874
3 11569 10886 10876
3 10885 10886 10883
3 10874 10877 10869
3 186 10877 10876
3 10878 10864 11249
3 10878 10875 10879
3 10880 10875 11251
3 10879 10875 10880
3 6694 6721 10881
3 11255 11570 11929
3 12704 10881 6710
3 10881 12704 11929
3 11569 11572 10884
3 10884 11572 10882
3 11604 11611 11606
3 10895 10902 10907
3 11572 11569 11255
3 11256 10884 10882
3 10886 10885 10876
3 10900 10885 11589
3 11569 10876 10872
3 10886 10884 11256
3 10894 10890 10893
3 35 10441 10889
3 10454 10898 10894
3 11260 11261 10458
3 10440 10450 11259
3 10456 10887 10892
3 10894 10887 10454
3 10901 10891 10890
3 10891 10436 10439
3 10901 10890 10888
3 10887 10889 10892
3 10892 10889 11259
3 10894 10893 10887
3 10891 10893 10890
3 10898 10454 10906
3 10890 10894 10897
3 10902 10873 10896
3 10896 10907 10902
3 10900 186 10885
3 10900 10896 186
3 10898 10897 10894
3 10895 10907 10904
3 10906 10454 10867
3 10897 10898 10895
3 11587 11582 11583
3 10888 10897 10904
3 11589 10885 10883
3 10900 10899 10908
3 10901 10888 10909
3 11260 10458 10465
3 10895 10898 10906
3 10873 10902 10865
3 11586 11585 11592
3 11262 10905 10909
3 10895 10904 10897
3 10904 10903 11592
3 10888 10904 11262
3 10915 10916 10914
3 10865 10906 10867
3 10895 10906 10902
3 10896 10900 10908
3 10904 10907 10903
3 11583 10908 10899
3 10903 10907 10908
3 11262 10909 10888
3 10909 10905 11261
3 10471 10911 10460
3 10467 10910 10911
3 10444 10913 10910
3 504 11284 11285
3 10913 10911 10910
3 10913 10444 10915
3 10915 10444 10916
3 10911 10913 10912
3 11270 11275 11274
3 10915 11267 10913
3 10916 10444 10905
3 10914 11265 11267
3 11263 10916 10905
3 10917 10916 11263
3 341 11597 11600
3 10914 10916 10917
3 504 11270 11274
3 10918 12344 11955
3 10931 10930 10919
3 10484 15171 10923
3 10933 15163 10484
3 15164 15173 10920
3 15164 15171 15163
3 12434 9942 15607
3 9936 10922 9943
3 10921 15617 15607
3 10484 10923 10919
3 10920 15178 15179
3 10182 10924 10175
3 10176 10485 10924
3 10925 11300 11301
3 11307 10486 15699
3 10175 11640 11306
3 10927 10926 10486
3 11308 10928 10932
3 10183 10927 10171
3 11307 10929 10486
3 10931 10927 10929
3 10484 10919 10930
3 10932 10930 10931
3 10933 10934 181
3 10927 10931 10171
3 10932 10931 10929
3 11308 10932 10929
3 10932 10928 10934
3 15165 15605 15161
3 10484 10930 10933
3 9978 10935 9980
3 10934 10933 10930
3 13259 10935 353
3 11319 11324 11318
3 11316 10937 11317
3 10507 11310 11312
3 11340 11312 11314
3 10496 10938 10501
3 10939 10938 10937
3 11316 11315 12454
3 10939 533 10940
3 533 12084 10940
3 10499 10940 11710
3 15001 10941 9990
3 10942 10941 10511
3 10949 10511 15008
3 10511 10949 10942
3 11344 11343 11346
3 10944 10948 9989
3 10945 9992 9618
3 10943 10946 10948
3 10943 10944 10945
3 10945 10944 9992
3 10950 11344 10943
3 11062 11722 11725
3 9989 10947 10200
3 11725 10947 10946
3 10943 10948 10944
3 10947 10948 10946
3 10943 10945 10950
3 10950 10945 10942
3 218 11343 10949
3 14999 11361 11362
3 28 11046 7655
3 10952 11350 10943
3 10950 10949 11343
3 10951 11045 11061
3 11104 11106 11114
3 12127 12130 12125
3 11111 11112 11115
3 10984 10998 10993
3 10528 10955 10526
3 10524 10955 10954
3 10956 10537 10957
3 10541 10956 10542
3 10536 10533 10964
3 10562 10963 199
3 10964 10958 10536
3 10973 10978 10969
3 10536 10959 10539
3 10957 10959 10958
3 10542 10956 10960
3 10957 10960 10956
3 10969 10957 10973
3 10965 10967 10968
3 11010 11008 10551
3 10987 10974 10979
3 11007 11006 10974
3 10533 10992 10996
3 10964 10533 10965
3 10967 10965 549
3 10965 10968 10964
3 10966 10967 10975
3 10983 10560 10977
3 10975 10967 10980
3 10964 10968 10958
3 10967 10966 10971
3 10972 10978 10971
3 10957 10958 10973
3 10979 10969 10961
3 10970 10975 10980
3 62 12154 12152
3 10971 10966 10972
3 10968 10967 10971
3 10972 10966 11004
3 10977 10560 10982
3 10958 10968 10973
3 10973 10968 10978
3 10977 10987 10961
3 11006 11007 11010
3 10980 10967 549
3 10981 10975 10970
3 10961 10972 10977
3 10986 10981 10985
3 10986 11003 11004
3 10971 10978 10968
3 10961 10978 10972
3 10979 10961 10987
3 10979 10974 11006
3 10991 10980 549
3 10999 10991 10993
3 12143 12151 12154
3 10975 11002 10966
3 10962 10989 10988
3 10989 10963 11007
3 10996 10994 549
3 11003 10983 10977
3 11392 11117 11119
3 10985 10976 10986
3 10981 62 10985
3 11003 10986 10976
3 10977 10982 10987
3 10987 10982 10974
3 10988 10989 10982
3 10982 10560 10988
3 10962 10963 10989
3 11119 12134 10998
3 10990 12138 12143
3 549 10965 10996
3 10993 10991 10984
3 10997 10533 10535
3 10529 11000 10997
3 11119 10984 11392
3 10993 10990 10999
3 549 10994 10991
3 11001 10995 11392
3 567 10954 11352
3 11118 10995 11352
3 10533 10996 10965
3 10994 10996 10992
3 10530 11000 10529
3 10533 10997 10992
3 12135 12134 197
3 10990 10993 10998
3 12143 10999 10990
3 10970 10980 10999
3 11352 11000 567
3 11001 11000 10995
3 10992 10997 11001
3 11000 11001 10997
3 10981 10986 11002
3 10966 11002 10986
3 10983 11003 10976
3 11004 10977 10972
3 10986 11004 10966
3 10977 11004 11003
3 11006 11005 477
3 11009 11005 10551
3 11006 477 10969
3 10974 10989 11007
3 11008 11007 10963
3 11005 11010 10551
3 10963 10562 11008
3 10558 11008 10562
3 11009 10551 10554
3 11009 10555 11011
3 11006 11010 11005
3 11008 11010 11007
3 11009 11011 10542
3 10556 11011 10555
3 10558 11012 10256
3 10561 11012 10562
3 11099 11013 10250
3 10565 11114 11109
3 11353 12086 11015
3 10582 11014 10576
3 11048 11028 11047
3 11023 11019 11044
3 9131 11017 8339
3 7658 11017 9131
3 11023 11017 11024
3 7658 11020 11018
3 10574 11021 10580
3 11024 11019 11023
3 11024 11026 11019
3 9120 11020 7658
3 11021 9119 10580
3 11018 11020 11021
3 11021 11020 9119
3 11354 10574 10581
3 11018 11022 11016
3 11024 11017 11016
3 11044 11027 11023
3 11016 11025 11024
3 11024 11025 11026
3 11016 11022 11354
3 11025 179 11026
3 179 11034 11026
3 11037 11044 11035
3 11031 11038 11040
3 11023 11027 11030
3 11034 11047 11028
3 11059 11069 11043
3 11029 11036 11049
3 11071 11029 11049
3 11030 11038 11032
3 11038 11030 11027
3 452 11039 11040
3 11033 11041 28
3 11041 11032 11031
3 9132 11033 28
3 8339 11033 9132
3 11041 11033 11032
3 11355 11047 179
3 11035 11036 11029
3 11036 11026 11034
3 11037 11035 11029
3 11028 11054 11034
3 11050 11043 11049
3 11072 11029 11071
3 452 11027 11044
3 452 11038 11027
3 11031 11032 11038
3 452 11072 11076
3 11045 11060 11061
3 452 11040 11038
3 11051 11040 11039
3 11031 11045 11041
3 11046 7647 7655
3 179 10581 11355
3 11015 11358 11353
3 11054 11049 11036
3 11057 11058 11050
3 11035 11044 11019
3 452 11044 11037
3 11040 11051 11060
3 11052 11065 11064
3 11041 11052 11046
3 11065 11052 11045
3 179 11047 11034
3 11047 11357 11048
3 11048 11357 11717
3 11048 11719 11055
3 11036 11034 11054
3 11073 11043 11069
3 11028 11055 11050
3 11050 11055 11057
3 11723 11360 11039
3 11063 10952 11346
3 11041 11045 11052
3 11065 11045 10951
3 10951 11063 11346
3 11078 7647 11066
3 11028 11050 11054
3 11049 11054 11050
3 11048 11055 11028
3 354 12107 11057
3 11721 354 11718
3 12823 12824 11081
3 354 11057 11055
3 11058 11057 11056
3 11058 11056 11059
3 11050 11058 11043
3 11067 12105 12102
3 9591 12820 10198
3 11040 11060 11031
3 11061 11060 11051
3 11061 11051 11722
3 10951 11061 11063
3 11039 11360 11722
3 11350 10946 10943
3 11061 11062 11063
3 11350 11063 11062
3 11052 11064 11046
3 11066 11064 11053
3 11349 11065 10951
3 11065 11053 11064
3 11349 11346 11348
3 7663 11361 7661
3 12107 11721 12102
3 9508 11068 9498
3 9507 11068 9508
3 12095 12104 11721
3 11071 11073 11363
3 11074 11070 11076
3 11070 11363 11366
3 11725 11727 11729
3 11073 11049 11043
3 11363 11069 98
3 11029 11072 11037
3 11074 11072 11071
3 11363 11073 11069
3 11049 11073 11071
3 11363 11074 11071
3 11075 11076 11070
3 11365 12118 11733
3 11062 11061 11722
3 11074 11076 11072
3 11039 11076 11075
3 98 11059 11084
3 12106 11085 11059
3 7647 11078 7652
3 11361 11078 11066
3 15180 15181 11081
3 11085 11077 11084
3 11082 262 9595
3 11068 11080 15181
3 12823 11083 9985
3 15180 11079 12105
3 9593 11082 9595
3 11082 11081 15181
3 9985 12822 12823
3 9593 11083 11082
3 11085 11084 11059
3 11736 11735 12119
3 12106 11059 11056
3 11085 11079 12824
3 10036 11087 249
3 11088 11086 10586
3 10033 11089 11087
3 10044 11097 11101
3 11094 11093 11088
3 11088 10587 11091
3 10043 11089 10033
3 11101 11089 10044
3 11094 10586 11096
3 10565 11098 11103
3 10587 10588 11091
3 10588 9099 11367
3 10267 11091 11092
3 11091 10588 11367
3 11094 11088 10586
3 11103 11098 11090
3 11097 11096 10586
3 11090 11093 11094
3 11102 11369 11095
3 11094 11096 11090
3 10586 11101 11097
3 11090 11096 11095
3 11097 10044 10591
3 11095 11096 11097
3 11099 10565 11013
3 11093 11100 10587
3 10250 10564 11391
3 10565 11099 11098
3 11391 11099 10250
3 11100 11391 11107
3 11086 11101 10586
3 11101 11087 11089
3 11370 11373 11122
3 11095 11097 11102
3 11372 11103 11090
3 11104 11103 198
3 11382 11379 11389
3 11104 198 11106
3 12123 11105 12120
3 11013 11109 9669
3 11389 11368 11382
3 11105 11113 11106
3 9995 9672 11107
3 10588 11107 9672
3 12128 12127 11108
3 11109 11110 9669
3 10565 11109 11013
3 11110 11109 11108
3 11110 11108 12127
3 11110 10953 11111
3 11111 10953 11112
3 9669 11111 10527
3 10953 11116 11112
3 11116 11117 11112
3 11113 11105 12128
3 11114 11113 11108
3 11109 11114 11108
3 11104 11114 10565
3 10955 11115 10954
3 11111 11115 10527
3 12144 12135 12124
3 11117 11116 197
3 197 12134 11119
3 11117 10995 11118
3 10954 11112 11118
3 11117 11118 11112
3 10984 11119 10998
3 11117 197 11119
3 10047 11120 10032
3 11123 11120 10590
3 63 11121 10042
3 10589 10590 11121
3 10269 11120 11123
3 11370 11369 11373
3 11124 10590 10268
3 10593 11122 11123
3 379 11738 11125
3 11738 379 11381
3 11128 8660 8661
3 11124 10268 11125
3 329 11127 11393
3 8660 11128 11127
3 10284 11132 8653
3 10284 10281 11130
3 11127 11128 11131
3 11132 11130 11131
3 11130 10281 10614
3 11130 11129 11131
3 11131 11128 11132
3 11126 11131 11129
3 8653 11132 11128
3 10284 11130 11132
3 502 11133 11134
3 10611 10613 11134
3 10611 11134 11133
3 11138 11135 11137
3 11135 11138 11141
3 11135 3 11137
3 11139 11138 11136
3 11138 10611 11141
3 10610 11140 443
3 10610 10612 11397
3 10611 10609 11141
3 11139 11136 11140
3 11135 11141 10609
3 12854 11142 10633
3 10635 11142 10632
3 11144 11149 11143
3 11146 10640 10643
3 11153 10646 11405
3 11149 11144 313
3 11403 12161 11145
3 11519 11500 11484
3 11149 11150 11143
3 10837 10640 11398
3 12161 12162 11746
3 11150 11401 11146
3 11150 11148 11143
3 10643 11148 11146
3 12162 11149 313
3 11150 11149 11147
3 12161 11403 11147
3 11150 11146 11148
3 11152 10635 10632
3 10647 11151 10646
3 12545 12170 11747
3 11151 11152 11405
3 12172 11152 10632
3 11746 12162 12164
3 11156 11157 11154
3 8536 8558 11155
3 10653 11155 8559
3 8536 11155 11154
3 10338 11156 10653
3 11157 11156 10328
3 10342 11157 10328
3 10341 11157 10337
3 8536 11154 11158
3 11158 11154 11157
3 10329 11159 7352
3 8559 11159 10653
3 11160 10658 11161
3 11166 11160 10137
3 10664 11161 10658
3 11164 9824 11163
3 11762 10839 11435
3 10137 11161 11162
3 11164 11163 11161
3 10138 11163 9824
3 10664 11164 11161
3 9824 11164 10662
3 10393 10659 11165
3 10659 11160 11166
3 11198 10137 11162
3 11438 11443 11166
3 10743 11167 10745
3 10731 10773 11167
3 12206 11408 11751
3 11750 11749 11168
3 15598 15587 15597
3 15035 15581 15580
3 11170 10778 10803
3 15582 15030 15593
3 11169 11170 11171
3 10796 11171 11170
3 11415 10801 10814
3 10795 11174 10784
3 11415 11416 10801
3 11178 12582 12591
3 11412 10795 10744
3 11178 11174 11173
3 402 11191 15183
3 11419 11414 11417
3 10800 11176 10811
3 11193 11176 10809
3 11178 10784 11174
3 11177 10784 11178
3 11173 11180 11178
3 11754 11178 11180
3 11416 11420 11172
3 12245 122 15190
3 11420 11180 11173
3 11754 11180 11179
3 11181 11426 11756
3 11757 12209 11428
3 11194 10367 10383
3 11184 11182 10820
3 11431 292 11761
3 11182 11185 10820
3 11184 10820 11186
3 11184 10380 10822
3 11194 11185 10367
3 10820 11185 11183
3 11186 10820 11188
3 11186 11192 11193
3 10380 11184 11187
3 11186 11187 11184
3 11430 10820 11431
3 11191 11430 11190
3 11760 11805 11759
3 11189 11805 11803
3 11759 11430 11429
3 11845 11807 11803
3 11191 11188 11430
3 11191 11190 15185
3 11193 11192 10812
3 11188 11192 11186
3 11176 11193 10812
3 11187 11193 10809
3 11196 11194 10821
3 11185 11194 11183
3 10374 11195 10377
3 10821 11194 11195
3 11772 10821 11778
3 11183 11196 292
3 11503 11450 11852
3 11438 11166 10137
3 11444 11763 11443
3 10137 11198 11438
3 11205 11202 11207
3 10844 11199 11201
3 11889 11907 11906
3 10844 11201 10843
3 11199 11202 11201
3 11204 11201 11206
3 11207 11199 426
3 11206 11202 11200
3 11905 11907 11894
3 11221 12318 11915
3 11206 11201 11202
3 11203 12318 12319
3 11205 10140 11212
3 11200 11202 11205
3 11903 11200 11902
3 11204 11206 11203
3 11199 11207 11202
3 10402 11207 426
3 11209 10140 10400
3 11209 11544 11208
3 10400 9325 11209
3 11545 298 11211
3 11208 11211 11210
3 11210 11211 11904
3 11545 11208 11544
3 298 11906 11904
3 11209 11212 10140
3 11210 11212 11208
3 11216 11213 10843
3 11217 11216 11222
3 11216 10843 11224
3 11228 11223 571
3 11222 11223 11228
3 11229 10409 11219
3 12319 12318 11221
3 11222 11216 11214
3 11216 11217 11213
3 11218 11217 11215
3 11215 11229 11218
3 10144 11220 9863
3 9863 11219 10848
3 11229 11215 11228
3 11220 19 10847
3 11220 11218 11219
3 11230 11227 11561
3 11224 11225 11216
3 11222 11214 11223
3 11217 11222 11215
3 11227 11230 11231
3 11223 11214 11231
3 12319 10843 11204
3 11224 11221 11225
3 491 11899 11909
3 11214 11225 11227
3 11920 11225 11221
3 11896 11899 491
3 11221 11915 11920
3 11227 11226 11561
3 571 10409 11229
3 11222 11228 11215
3 11218 11229 11219
3 571 11229 11228
3 11241 11243 11233
3 11245 11243 11242
3 11227 11231 11214
3 11231 11230 11566
3 11239 11232 571
3 10850 11232 11238
3 11237 11239 11240
3 11562 242 11236
3 11234 11238 11237
3 11237 11233 11927
3 10850 11235 10852
3 11236 11235 11234
3 11562 11236 11234
3 242 12926 11236
3 11240 571 11223
3 11233 11562 11927
3 11238 11232 11239
3 11235 11238 11234
3 11240 11239 571
3 11238 11239 11237
3 11566 11223 11231
3 11237 11241 11233
3 11246 11566 11244
3 11928 11567 11568
3 11241 11246 11243
3 11244 11928 11242
3 11566 11246 11240
3 11242 13728 11245
3 11244 11566 11567
3 11243 11246 11242
3 11245 570 11564
3 11233 11243 11245
3 11240 11246 11241
3 11242 11246 11244
3 6724 11253 6733
3 11250 6724 6730
3 11251 11248 6705
3 10875 10878 11249
3 10864 11252 11249
3 11252 11253 11250
3 138 11250 6730
3 11250 11249 11252
3 6713 11251 6705
3 11251 6694 10880
3 11252 10864 10871
3 11252 11247 11253
3 6733 11253 11247
3 6724 11250 11253
3 11249 11254 11248
3 11250 138 11254
3 11255 11569 11570
3 11571 11574 11573
3 11577 11257 11258
3 10886 11256 10883
3 11594 11596 11595
3 11258 11621 11256
3 10882 11581 11577
3 11257 11620 11621
3 11259 10451 10456
3 10440 11259 10889
3 10891 11260 10429
3 10901 10909 11261
3 10905 10444 11261
3 10444 10458 11261
3 10908 11586 10903
3 341 10917 11263
3 10905 11262 11263
3 11263 11262 11591
3 11264 10912 11266
3 11299 11264 10918
3 10914 11600 11271
3 504 11265 11270
3 11266 504 11285
3 11267 11266 10912
3 10913 11267 10912
3 10914 11267 10915
3 11271 11265 10914
3 11270 11271 11272
3 11600 11597 11269
3 11294 11287 11289
3 11270 11265 11271
3 11274 11275 11273
3 11600 10914 10917
3 11271 11269 11272
3 11597 11601 11269
3 11268 11270 11272
3 11277 11273 11275
3 11266 11285 11264
3 11275 11270 11268
3 11274 11273 11286
3 11276 11275 11268
3 11275 11276 11277
3 11268 11283 11288
3 11288 11276 11268
3 11280 11277 88
3 11633 11279 11634
3 11945 13190 12337
3 13204 13205 486
3 11945 12337 12338
3 11632 11637 11634
3 12338 11280 88
3 11633 11280 11279
3 11273 11633 11636
3 11636 12343 11281
3 11272 11283 11268
3 341 11591 11590
3 11269 11283 11272
3 11283 11282 11288
3 11286 11284 11274
3 11284 11291 11285
3 11291 11284 11281
3 10918 11264 11285
3 11286 11273 11636
3 11284 11286 11281
3 11290 11289 11287
3 11630 11948 11949
3 11289 11288 11282
3 11288 11289 11290
3 11282 11292 11289
3 11295 11292 503
3 11631 11290 11287
3 88 11276 11290
3 11291 11281 12343
3 10918 11285 11291
3 11282 11599 11605
3 11295 11294 11292
3 11295 11297 11964
3 11978 11947 11979
3 11292 11294 11289
3 11947 11946 11948
3 11298 11297 11295
3 11293 11294 11295
3 11602 11593 11606
3 11998 11961 11942
3 11298 11295 503
3 11960 11638 11959
3 11604 11298 503
3 11297 11298 11612
3 11264 11299 10470
3 12344 10918 11952
3 11301 11300 9514
3 11305 11300 10925
3 11303 9514 9528
3 9533 9975 11302
3 10925 11302 24
3 9533 11302 11301
3 9533 11303 9535
3 9514 11303 11301
3 12023 11305 10925
3 15700 12023 11304
3 11307 15699 474
3 10175 11306 10926
3 15700 15698 15699
3 15699 10486 11306
3 11308 11307 474
3 11339 11309 12039
3 11307 11308 10929
3 11318 11320 11323
3 11310 10507 10508
3 12039 11310 273
3 11321 11320 11318
3 10939 11316 533
3 11309 11339 11313
3 11314 11312 11311
3 11311 11312 11313
3 11309 11313 11312
3 11314 11311 11317
3 11314 10937 11340
3 11315 11317 11320
3 11315 11320 11321
3 10939 10937 11316
3 11317 10937 11314
3 11319 11323 11311
3 11316 11317 11315
3 11319 11311 11313
3 11322 11324 11325
3 10936 11642 11313
3 11328 11325 11336
3 11323 11317 11311
3 11327 11643 11318
3 11703 12450 12449
3 12812 12454 12456
3 11328 11322 11325
3 11321 11643 20
3 11318 11323 11319
3 11317 11323 11320
3 11313 11642 11319
3 11327 11324 11334
3 11642 11324 11319
3 11642 11333 11336
3 11331 11332 11334
3 11694 11695 11693
3 11334 11324 11322
3 11643 11326 20
3 11330 11647 11646
3 11647 11331 11328
3 11329 11646 11647
3 11654 11329 11653
3 11338 11645 11335
3 11694 11334 11332
3 11647 11328 442
3 11330 11338 11331
3 11338 11332 11331
3 11694 11326 11334
3 11339 11333 10936
3 12025 12028 12030
3 11327 11334 11326
3 11331 11334 11322
3 11645 11330 11646
3 11697 11692 11698
3 11336 11325 11642
3 12025 11336 11333
3 12032 12041 12029
3 12032 12024 12027
3 11645 11338 11330
3 11695 11338 11335
3 11309 11310 12039
3 11333 11339 11337
3 11340 10507 11312
3 10938 11340 10937
3 12452 12454 11315
3 12457 12461 11341
3 10940 12084 12476
3 11342 11710 12476
3 15004 11347 218
3 11344 11346 10952
3 10943 11344 10952
3 10950 11343 11344
3 14998 14999 15004
3 11348 11066 11053
3 11343 11347 11346
3 11347 11348 11346
3 218 11347 11343
3 11348 11347 11345
3 11348 11345 11362
3 11348 11053 11349
3 11065 11349 11053
3 11346 11349 10951
3 11063 11350 10952
3 11726 11350 11062
3 11118 11352 10954
3 10963 10962 11351
3 11000 11352 10995
3 11359 11717 12087
3 11357 11042 11358
3 179 11354 10581
3 11016 11354 11025
3 11715 10581 10569
3 11047 11355 11042
3 11355 11715 11356
3 11356 11715 11716
3 11358 11042 11356
3 11717 11357 11015
3 11353 11358 11356
3 11015 11357 11358
3 12087 11717 11015
3 12099 12094 12090
3 11360 11728 11727
3 11726 11725 10946
3 11078 11361 419
3 11362 11361 11066
3 11348 11362 11066
3 15004 14999 11345
3 12118 12119 11735
3 11074 11363 11070
3 12118 11364 11733
3 12110 12112 9601
3 11363 12119 11366
3 9987 10199 11731
3 12119 11363 98
3 11730 11366 11365
3 10039 11367 9099
3 11091 11367 11092
3 11376 11370 10593
3 11390 198 11371
3 11373 11102 511
3 11390 11368 11389
3 11376 10593 11381
3 11368 11369 11370
3 11372 198 11103
3 11090 11375 11372
3 11375 11090 11095
3 198 11372 11371
3 11102 11373 11369
3 11122 11373 511
3 12536 12537 12158
3 11379 11382 11376
3 11369 11371 11375
3 11372 11375 11371
3 10593 11738 11381
3 11376 11374 11379
3 11377 11742 11388
3 12120 11105 11385
3 11387 11379 11374
3 11386 11374 11376
3 11388 11379 11387
3 11106 15182 11385
3 12121 11737 12120
3 11739 11378 11381
3 12156 12157 11378
3 11368 11370 11382
3 11376 11382 11370
3 11740 11383 11387
3 12538 12159 12539
3 12121 11742 11377
3 11384 11742 15182
3 15182 11106 198
3 12120 11385 11380
3 11376 11381 11386
3 11378 11386 11381
3 11740 11387 11374
3 11388 11387 11383
3 11388 11383 12536
3 11388 11384 11389
3 11388 11389 11379
3 11390 11389 11384
3 11390 11384 15182
3 11368 11390 11371
3 11107 11391 9995
3 11099 11391 11100
3 10994 11392 10984
3 10995 11117 11392
3 11396 11395 10610
3 11127 11126 11393
3 11129 11395 11396
3 11130 11395 11129
3 443 11396 10610
3 11129 11396 11394
3 11138 11397 10611
3 11397 11139 10610
3 10640 11146 11398
3 11401 11400 11398
3 11745 11744 11399
3 10836 11743 10832
3 11401 11398 11146
3 11400 11399 11402
3 11150 11147 11403
3 11399 11400 11401
3 11399 11744 11402
3 11850 11852 12267
3 11399 11401 11403
3 11403 11401 11150
3 12165 12163 313
3 12164 12167 11404
3 11151 11405 10646
3 11152 11153 11405
3 10791 11406 10783
3 11407 11406 10792
3 12204 11407 10782
3 11407 11168 11406
3 15156 391 15602
3 12204 11168 11407
3 11406 11749 10783
3 11411 11410 10773
3 11412 11410 11172
3 493 11411 10773
3 11416 11411 10801
3 11420 11412 11172
3 11174 11412 11173
3 11192 11413 10812
3 11413 11175 11417
3 11417 11175 11421
3 11179 11180 11420
3 10814 10780 11415
3 10780 11413 11417
3 11420 11416 11414
3 11416 11172 11411
3 11421 11419 11417
3 11414 11415 11417
3 11421 15193 15183
3 11807 15184 11189
3 11422 11419 11418
3 11420 11423 11179
3 11420 11414 11423
3 11420 11173 11412
3 15193 11175 402
3 11418 11419 11421
3 15188 11418 15186
3 11179 11422 122
3 11414 11419 11423
3 11422 11423 11419
3 12242 12248 11804
3 12257 12250 12241
3 10818 11425 10819
3 11426 11425 10816
3 11756 11426 494
3 11425 11426 11181
3 12579 11756 12580
3 12208 12593 12592
3 11761 11758 11760
3 11757 10819 11425
3 15185 11189 15184
3 11188 10820 11430
3 11431 10820 11183
3 292 11431 11183
3 11429 11430 11431
3 11434 10833 10832
3 11432 11197 11435
3 10831 11433 10133
3 11434 11433 10833
3 11849 11434 12267
3 11432 11434 11849
3 11197 11437 11435
3 11435 11437 11762
3 10134 11436 271
3 11433 11436 10133
3 11464 11460 11463
3 11762 11437 11198
3 11440 11442 11445
3 11445 11438 11198
3 11437 11440 11198
3 11497 11465 11464
3 11497 11437 11197
3 11440 11439 11442
3 11446 11441 11442
3 11454 11765 11449
3 11446 11442 11439
3 11443 11442 11441
3 11442 11443 11438
3 11443 11441 11444
3 11452 11455 11441
3 11763 11459 152
3 11440 11445 11198
3 11442 11438 11445
3 11439 11447 11446
3 11453 11452 11447
3 11497 11464 11440
3 11453 11451 11452
3 11441 11446 11452
3 11458 12214 11456
3 11461 11444 11441
3 11764 11767 11766
3 11475 11479 11485
3 11466 11447 11463
3 11458 11486 11457
3 11455 11452 11451
3 11447 11452 11446
3 11454 11455 11456
3 11447 314 11453
3 11453 314 11462
3 11454 11456 11765
3 11459 11461 11449
3 11456 11455 11451
3 11455 11454 11461
3 11456 11451 11467
3 11456 11448 11765
3 11467 11462 11458
3 11520 11496 83
3 11453 11462 11467
3 12213 11777 11781
3 11459 11444 11461
3 11459 11449 11770
3 11464 11439 11440
3 11447 11466 314
3 11455 11461 11441
3 11461 11454 11449
3 11470 11473 11854
3 11458 11462 11486
3 11464 11463 11439
3 11466 11463 11460
3 11432 11849 11197
3 11460 11464 11498
3 12268 11850 12267
3 11460 11498 11450
3 11450 11471 11460
3 11473 11470 11469
3 11456 11467 11458
3 11453 11467 11451
3 314 11466 11470
3 11481 11468 11474
3 11469 11470 11471
3 11479 11475 11476
3 11471 11470 11466
3 11472 11473 11474
3 11460 11471 11466
3 11471 11450 11480
3 11491 11490 11472
3 314 11470 11854
3 11474 11473 11469
3 11472 11487 11854
3 11476 11474 11469
3 11474 11468 11491
3 11479 11476 11483
3 11506 11475 11485
3 11471 11480 11469
3 11476 11475 11482
3 11502 11516 11499
3 11499 11484 11485
3 11508 11510 11513
3 11514 11512 11509
3 11483 11476 11469
3 11499 11485 11502
3 11503 11480 11450
3 11480 11477 11483
3 11476 11481 11474
3 11514 11481 11478
3 11513 11475 11506
3 11481 11482 11478
3 11480 11483 11469
3 11477 11479 11483
3 11517 11484 11499
3 11504 11534 11522
3 11502 11479 11477
3 11500 11485 11484
3 11462 11487 11486
3 11489 11486 11490
3 11854 11462 314
3 11490 11487 11472
3 11488 11491 11493
3 11488 11493 11496
3 11490 11486 11487
3 11524 11488 11496
3 11472 11474 11491
3 11489 11490 11488
3 11493 11491 11494
3 11488 11490 11491
3 11492 11493 11494
3 11861 11862 11866
3 11494 11491 11468
3 11495 11493 11492
3 11514 11468 11481
3 11510 11512 11478
3 11861 11860 11864
3 11495 83 11496
3 11857 11501 11855
3 11524 11489 11488
3 11437 11497 11440
3 11497 11197 11849
3 11464 11465 11498
3 11465 12267 11852
3 11480 11503 11516
3 11517 11499 11518
3 11522 11519 11484
3 11500 396 11506
3 11797 11788 439
3 11521 11496 11520
3 11479 11502 11485
3 11516 11502 11477
3 11450 11498 11852
3 11517 11518 11504
3 15194 11745 11534
3 11532 11527 11505
3 11505 11529 11531
3 11532 11539 11519
3 11508 11506 396
3 11482 11475 11513
3 12663 12272 11875
3 11494 11511 11492
3 12663 13155 11523
3 11510 11508 11507
3 12687 11509 12689
3 11868 11869 11859
3 11512 11510 11507
3 11478 11482 11513
3 11514 11511 11494
3 11492 11863 11861
3 12691 11512 11507
3 11509 11511 11514
3 11508 11513 11506
3 11513 11510 11478
3 11468 11514 11494
3 11512 11514 11478
3 11865 12269 11864
3 11521 11457 11524
3 11480 11516 11477
3 11518 11516 11503
3 11499 11516 11518
3 11522 11517 11504
3 11853 11518 11503
3 15194 11518 150
3 11484 11517 11522
3 11527 11532 11519
3 11520 83 11858
3 11520 11515 11521
3 11525 11533 11855
3 11521 11515 11533
3 15194 11744 11745
3 11519 11522 11527
3 11541 11505 11531
3 11523 11538 12272
3 11489 11524 11457
3 11496 11521 11524
3 11809 11810 12219
3 11780 439 11776
3 11872 12203 12270
3 11529 11505 11527
3 11530 11522 11534
3 11529 11528 11535
3 11529 11530 11873
3 12271 11145 12161
3 11530 11529 11527
3 11529 11535 11531
3 11522 11530 11527
3 11526 11872 11873
3 11531 11535 11542
3 11523 11532 11538
3 11532 11505 11541
3 11523 13155 11539
3 11855 11533 11515
3 11533 11525 12217
3 11534 11504 15194
3 11530 11534 11526
3 11535 11528 12270
3 11542 11535 397
3 11873 11528 11529
3 11404 12171 12174
3 12177 11540 11542
3 12274 12282 151
3 11538 11541 11877
3 12272 12280 11875
3 11519 11539 11500
3 11523 11539 11532
3 12174 12175 11536
3 12302 11876 11877
3 11877 11541 11531
3 11532 11541 11538
3 12177 11542 397
3 11877 11542 11540
3 12315 12304 12305
3 7397 11925 7400
3 11209 9325 11544
3 9327 11880 9326
3 11544 11547 11545
3 11543 12314 11550
3 12316 12307 12312
3 11557 11555 10154
3 12304 11547 11544
3 12314 11543 12315
3 11551 10478 11552
3 11555 10152 10154
3 11546 11922 11921
3 11891 11885 11893
3 11543 11550 11547
3 11550 11549 11892
3 10478 10477 11552
3 11548 11555 11557
3 11552 10475 11554
3 11548 11551 11552
3 10476 11882 10475
3 11921 11553 11549
3 11885 10475 11882
3 11553 11921 11922
3 11558 11548 11922
3 10170 11556 10167
3 11548 11558 11555
3 12316 12695 12307
3 10154 285 11557
3 11551 11557 285
3 12310 11558 11546
3 11559 11558 11556
3 11558 11559 11555
3 10170 11559 11556
3 491 11894 11896
3 11911 11560 11908
3 11918 11561 11226
3 11567 11561 243
3 11245 11564 11565
3 11565 11562 11233
3 13646 13917 13745
3 12971 529 12960
3 570 13744 13648
3 11565 11564 11563
3 11565 11563 13590
3 11245 11565 11233
3 11566 11240 11223
3 11567 11566 11230
3 11561 11567 11230
3 11567 243 11568
3 13731 13732 13746
3 13197 12726 13194
3 10886 11569 10884
3 11570 11569 10872
3 10879 11570 10872
3 10880 10881 11929
3 12705 12702 12703
3 12327 11941 11580
3 11573 11572 11255
3 11572 11573 11574
3 11255 432 11573
3 12702 11573 432
3 11580 11574 11571
3 10882 11574 11581
3 11932 11933 11935
3 12333 12710 12708
3 11576 11581 11580
3 11576 11579 11578
3 10882 11577 11258
3 11578 11577 11576
3 11579 11576 11930
3 11578 37 11624
3 12335 11575 11938
3 13187 13183 13186
3 12328 11932 12327
3 11580 11575 11930
3 11580 11581 11574
3 11577 11581 11576
3 11583 11588 11587
3 11283 11269 11601
3 11620 11588 11589
3 11583 11582 11585
3 11617 11620 11257
3 11625 11622 11614
3 11585 11582 11590
3 11585 11591 11592
3 10908 11583 11586
3 11585 11586 11583
3 11588 11583 10899
3 11595 11587 11616
3 11589 11588 10899
3 11584 11587 11588
3 10900 11589 10899
3 11589 10883 11620
3 11582 11595 11596
3 341 11590 11597
3 11592 11591 11262
3 11590 11591 11585
3 10904 11592 11262
3 11586 11592 10903
3 11582 11587 11595
3 11605 11602 503
3 11594 11614 11610
3 11608 11612 11604
3 11616 11587 11584
3 11594 11609 11596
3 11598 11596 11593
3 11590 11582 11596
3 11598 11590 11596
3 11599 11607 11598
3 11599 11598 11593
3 11590 11598 11597
3 11599 11593 11602
3 11282 11283 11601
3 11271 11600 11269
3 10917 341 11600
3 11607 11597 11598
3 11601 11607 11282
3 11610 11606 11609
3 11605 503 11292
3 11610 11603 11606
3 11612 11608 11296
3 11611 503 11602
3 11604 11603 11608
3 11282 11605 11292
3 11599 11602 11605
3 11609 11606 11593
3 11604 11606 11603
3 11282 11607 11599
3 11597 11607 11601
3 11614 11622 11610
3 11608 11603 11619
3 11596 11609 11593
3 11610 11609 11594
3 11595 11616 11594
3 11615 11623 11626
3 503 11611 11604
3 11602 11606 11611
3 11612 11296 11959
3 11604 11612 11298
3 13186 11579 13188
3 12348 11960 11997
3 11584 11617 11614
3 11624 11617 11257
3 11610 11622 11623
3 11944 11943 11615
3 11584 11614 11616
3 11594 11616 11614
3 11620 11617 11584
3 11618 11622 11625
3 11618 11627 11626
3 11618 11623 11622
3 11623 11619 11603
3 11943 11619 11615
3 11620 11584 11588
3 11620 10883 11621
3 11256 11621 10883
3 11257 11621 11258
3 11625 11614 11617
3 11626 11623 11618
3 11619 11623 11615
3 11610 11623 11603
3 11578 11624 11257
3 11627 11624 37
3 11617 11624 11625
3 11618 11625 11624
3 11618 11624 11627
3 11615 11626 11613
3 13185 13186 13183
3 11626 11627 13185
3 10911 11628 10460
3 10912 11264 11628
3 11290 11631 88
3 13228 13231 13234
3 11287 11947 11948
3 12339 11629 13191
3 11948 11631 11287
3 88 11631 11630
3 13450 13447 269
3 11636 11281 11286
3 11633 11277 11280
3 11634 11637 11633
3 12337 11634 11279
3 13443 11278 13442
3 11951 11635 11637
3 11952 10918 11291
3 11637 11636 11633
3 11635 12343 11636
3 11951 11637 11632
3 11636 11637 11635
3 11971 11974 11975
3 11959 11963 11297
3 11300 11640 10485
3 24 11639 12023
3 11306 11640 11305
3 12081 11699 12448
3 12461 12469 12470
3 11642 10936 11333
3 11324 11642 11325
3 11318 11643 11321
3 11326 11643 11327
3 11650 12025 11649
3 12026 11333 12027
3 11659 11654 11655
3 11697 11648 440
3 11330 11331 11647
3 11659 11646 11329
3 442 11650 11647
3 11647 11652 11653
3 11335 11645 11648
3 11645 11659 11656
3 442 11336 12025
3 12033 11651 11652
3 12025 11650 442
3 11649 12033 11652
3 12030 12031 12033
3 11651 11654 11653
3 11649 11652 11650
3 11653 11652 11651
3 11654 11651 12061
3 11647 11653 11329
3 11657 11658 11662
3 11645 11646 11659
3 12064 12066 12063
3 11656 11655 11658
3 11645 11656 11648
3 11665 11662 11658
3 11669 11671 11657
3 11663 11664 11658
3 11655 12064 11665
3 11658 11657 11663
3 11654 11659 11329
3 11656 11659 11655
3 15612 15609 15613
3 11669 11667 11668
3 11669 11657 11667
3 11692 11697 11705
3 11665 11658 11655
3 11662 11660 11670
3 11671 11663 11657
3 11661 11706 11664
3 11658 11664 11656
3 11661 11664 11663
3 15610 12065 12063
3 11662 11665 12065
3 15176 15170 15174
3 15197 12437 178
3 11670 11667 11662
3 11668 11667 11666
3 15198 15196 15197
3 11668 178 11669
3 178 11676 11669
3 11663 11671 11661
3 11670 11660 15622
3 11667 11670 11666
3 11676 11677 11669
3 11705 11707 11708
3 12435 12439 12436
3 11686 12071 11680
3 11678 11677 11674
3 11681 11680 11683
3 12437 12435 11674
3 11684 11691 11683
3 11677 11671 11669
3 12075 441 12448
3 12437 11676 178
3 11677 11676 11674
3 11674 12436 11678
3 11679 11675 11707
3 11681 11678 11672
3 11684 11675 11679
3 11671 11677 11679
3 11691 11677 11678
3 11680 11681 11685
3 11680 11685 11686
3 11672 11682 11685
3 12071 12072 11680
3 12439 11682 11672
3 12801 12802 12068
3 11673 12083 11684
3 11678 11681 11683
3 11679 11677 11691
3 11673 11684 11683
3 11672 11685 11681
3 11685 11687 11686
3 158 11687 12803
3 11687 11690 11686
3 11687 11682 12802
3 11690 11687 158
3 14306 14299 14305
3 14304 12074 14309
3 12803 12805 158
3 12445 12444 12447
3 14028 158 12805
3 11690 11689 12445
3 11683 11691 11678
3 11679 11691 11684
3 11705 11697 440
3 11701 20 11696
3 11699 11704 11692
3 11694 11696 11326
3 11332 11338 11695
3 11696 11694 11693
3 11697 11695 11335
3 11698 11695 11697
3 11698 11692 11704
3 11326 11696 20
3 11648 11697 11335
3 11705 440 11706
3 11692 12075 11699
3 11693 11695 11698
3 11702 12081 11700
3 11700 11701 11702
3 11699 12075 12448
3 11701 11700 11703
3 11702 11696 11693
3 14020 13302 11703
3 11696 11702 11701
3 11704 11693 11698
3 13302 12450 11703
3 20 11701 11703
3 11699 11702 11704
3 11693 11704 11702
3 11707 11705 11706
3 12083 11707 11675
3 11664 11706 440
3 11707 11706 11661
3 11707 11661 11671
3 11707 12083 11708
3 12078 12077 11708
3 11705 11708 12076
3 11321 12452 11315
3 12460 11709 12459
3 12476 11710 10940
3 11711 11710 11342
3 11712 11711 11342
3 10502 11711 10193
3 12480 12477 12479
3 10193 11712 164
3 12092 451 12089
3 11356 11713 11353
3 10581 11715 11355
3 11714 12086 12092
3 11716 11715 10569
3 10577 11716 10569
3 10576 11356 11716
3 12087 11015 12086
3 11718 11717 11359
3 12088 12091 11359
3 354 11055 11719
3 11717 11719 11048
3 354 11719 11718
3 12088 11359 12087
3 12103 9498 12100
3 11359 11721 11718
3 12102 11721 12104
3 11039 11722 11051
3 11725 11722 11360
3 11039 11075 11723
3 11723 11075 11728
3 11724 11727 11728
3 11733 11730 11365
3 11727 11725 11360
3 10947 11725 254
3 11350 11726 10946
3 11062 11725 11726
3 11360 11723 11728
3 11729 11727 11724
3 11075 11070 11728
3 11070 11366 11730
3 11729 11724 11731
3 11725 11729 254
3 11724 11728 11730
3 11070 11730 11728
3 11734 11730 11733
3 11734 11731 11724
3 12110 12111 12817
3 9988 12109 9601
3 12111 11733 11364
3 11734 11732 11731
3 11730 11734 11724
3 11732 11734 11733
3 11736 98 11084
3 10198 12820 9985
3 11077 13305 11084
3 12821 13305 12822
3 12158 12828 12536
3 13308 13569 13568
3 11123 11738 10593
3 11125 11738 11124
3 11374 11386 12157
3 11381 379 11739
3 12539 12541 11741
3 13314 13310 13311
3 12827 11377 12828
3 15182 11742 11380
3 11388 11742 11384
3 11400 11743 10837
3 11743 11402 12268
3 11403 11745 11399
3 11851 11744 150
3 11145 12160 11745
3 11745 11526 11534
3 11147 11149 12162
3 11536 12203 11404
3 11747 12163 12165
3 12171 11404 12167
3 12204 12205 11748
3 11752 11753 11751
3 11168 12204 11750
3 15151 11409 15150
3 11751 11750 11748
3 11409 11749 11750
3 11751 11748 12578
3 11753 11752 120
3 15146 15155 15148
3 11751 11408 11752
3 11753 11409 11750
3 11755 11179 122
3 12582 11424 12581
3 11424 11754 11755
3 11179 11755 11754
3 12590 12252 12207
3 11756 12579 12593
3 11756 12211 11181
3 15211 12205 12577
3 11772 11196 10821
3 11792 11798 11758
3 11430 11759 11190
3 11760 11759 11429
3 11761 11760 11429
3 11758 11798 11805
3 11431 11761 11429
3 292 11772 11793
3 11162 11762 11198
3 10839 11762 10399
3 11443 11763 11166
3 11763 11444 11459
3 11771 11783 11785
3 11765 11767 11449
3 11766 11765 11448
3 11765 11766 11767
3 11781 11766 11448
3 11777 439 11780
3 11768 11767 11764
3 11770 11767 11768
3 11775 11774 11768
3 10396 11769 10374
3 11774 11769 11768
3 11195 11773 10821
3 11770 10394 152
3 11449 11767 11770
3 11771 11774 11775
3 11196 11772 292
3 11784 11783 11776
3 11787 11758 11793
3 10374 11769 11773
3 11773 11769 11774
3 11775 11768 11764
3 11774 11771 11778
3 11764 11766 11780
3 11775 11764 11776
3 11789 11786 11779
3 11783 11784 11782
3 11456 12214 12213
3 11809 11795 11797
3 11773 11778 10821
3 11771 11772 11778
3 11811 11813 11836
3 11789 11779 11791
3 11764 11780 11776
3 11781 11780 11766
3 12213 11781 11448
3 11780 11781 11777
3 11783 11771 11775
3 11761 11793 11758
3 11776 11783 11775
3 11785 11783 11782
3 439 11794 11776
3 11788 11786 11784
3 11785 11782 11787
3 11771 11785 11772
3 11782 11784 11786
3 11776 11794 11784
3 11789 11782 11786
3 11791 11792 11789
3 439 11808 11797
3 11797 11811 11788
3 11790 11791 11818
3 11782 11789 11787
3 11802 11801 11790
3 11787 11789 11792
3 11819 12232 11813
3 11791 11790 11792
3 11801 11798 11792
3 11787 11792 11758
3 292 11793 11761
3 11785 11793 11772
3 439 11788 11794
3 11784 11794 11788
3 11814 11816 11817
3 11836 11786 11788
3 11806 11807 11845
3 12245 15190 12244
3 11808 11777 11799
3 11812 11811 11797
3 11801 11792 11790
3 11803 11798 11796
3 12218 12212 12216
3 11810 11809 11799
3 11816 11812 11795
3 11839 11827 86
3 11790 11827 11802
3 11798 11801 11834
3 11802 11827 11839
3 11798 11834 11796
3 11847 11796 11838
3 11189 11759 11805
3 11838 11834 11802
3 11848 12242 11804
3 11758 11805 11760
3 11798 11803 11805
3 15191 11418 15183
3 15185 15191 15183
3 11796 11847 11845
3 15191 15185 15184
3 11777 11808 439
3 11809 11808 11799
3 11808 11809 11797
3 12212 12215 12217
3 11525 11835 11810
3 11501 11817 12219
3 11812 11797 11795
3 11813 11811 11800
3 11816 11795 11817
3 11800 11811 11812
3 11813 11800 11819
3 11836 11779 11786
3 11815 11819 11821
3 11816 11822 11812
3 11821 11819 11822
3 11823 11820 11822
3 11795 12219 11817
3 11814 11823 11816
3 12222 11501 11857
3 11824 12220 330
3 12232 11791 11779
3 11818 11828 11827
3 11821 11822 11820
3 12232 11815 11818
3 11826 12617 11824
3 12238 11829 12234
3 11822 11819 11800
3 11830 11831 11832
3 11822 11800 11812
3 11822 11816 11823
3 11824 11814 12220
3 11824 11823 11814
3 11826 11824 330
3 11823 11824 12617
3 12597 12596 12605
3 12625 12638 12237
3 12605 330 12224
3 13356 12619 11826
3 11790 11818 11827
3 11828 11818 11815
3 11821 11820 12236
3 86 11827 11828
3 11815 11821 11832
3 11829 12635 12234
3 11828 11832 11831
3 12265 12628 12627
3 11832 11828 11815
3 11831 11830 12634
3 12617 11820 11823
3 11830 11832 12234
3 12239 11837 11839
3 11848 11846 11841
3 11801 11802 11834
3 11802 11839 11838
3 11855 11835 11525
3 12219 11835 11501
3 11811 11836 11788
3 11779 11836 11813
3 86 11831 12239
3 11834 11838 11796
3 11833 11840 11837
3 11838 11837 11840
3 12239 11839 86
3 11838 11839 11837
3 11842 11840 11833
3 11842 11846 11840
3 11841 11842 11843
3 12240 11841 11843
3 11833 12632 11842
3 11844 11846 11848
3 12628 11833 12626
3 13109 220 11843
3 11838 11840 11846
3 12266 11844 11848
3 11796 11845 11803
3 11845 11844 12266
3 11841 11846 11842
3 11846 11844 11847
3 11846 11847 11838
3 11845 11847 11844
3 12242 11848 11841
3 11848 11804 12266
3 12267 11434 10832
3 11497 11849 11465
3 11851 11402 11744
3 11850 11853 11852
3 11853 11851 150
3 11851 11850 12268
3 11465 11852 11498
3 11851 11853 11850
3 11518 11853 150
3 11503 11852 11853
3 11472 11854 11473
3 11462 11854 11487
3 11857 11855 11515
3 11835 11855 11501
3 11515 11858 11857
3 12224 330 12220
3 11515 11520 11858
3 11857 11856 12222
3 11858 83 11864
3 11857 11858 12269
3 12681 12684 11867
3 13055 403 13058
3 83 11495 11861
3 11860 11871 11865
3 11495 11492 11861
3 11863 11492 11511
3 12687 12689 12690
3 11861 11866 11860
3 11509 11863 11511
3 11861 11863 11862
3 11861 11864 83
3 11864 11860 11865
3 11860 11868 11871
3 12228 624 12229
3 11862 12686 11869
3 11868 11866 11869
3 12679 12685 257
3 12675 12679 257
3 13361 11871 11859
3 11860 11866 11868
3 11862 11869 11866
3 11869 11867 12684
3 13361 11859 13362
3 11870 13360 12608
3 11859 11871 11868
3 11870 12230 12231
3 11526 12160 12271
3 11872 12271 12203
3 11526 11873 11530
3 12270 11873 11872
3 12187 12191 12192
3 12175 12177 397
3 12280 12276 11875
3 12272 12663 11523
3 11876 12275 12274
3 11538 12273 12272
3 11542 11877 11531
3 11877 11540 12302
3 9327 9312 11879
3 12304 11878 12306
3 9316 12695 12306
3 11879 11878 11880
3 12303 11880 11878
3 9325 9326 11880
3 11890 11884 11888
3 11553 11885 11891
3 10159 11883 10476
3 11885 11882 11881
3 11884 11883 10159
3 11882 10476 11883
3 11886 10159 10162
3 11903 11203 11206
3 11881 11893 11885
3 11554 11885 11553
3 11910 11900 11887
3 10159 11886 11884
3 11886 11888 11884
3 11899 11898 11908
3 127 11888 11886
3 11888 11887 11890
3 11890 11881 11884
3 11887 11895 11890
3 11896 11894 11895
3 11897 11893 11881
3 11889 11906 11892
3 11549 11553 11891
3 11550 11892 298
3 11549 11891 11892
3 11897 11881 11890
3 11891 11893 11889
3 12317 11903 11905
3 11895 11897 11890
3 11895 11887 11896
3 11897 11895 11894
3 11900 11896 11887
3 11900 11899 11896
3 11905 11894 12317
3 11897 11889 11893
3 127 11901 11910
3 12323 12324 12322
3 11898 11911 11908
3 11909 11920 11915
3 11910 11887 11888
3 11899 11900 11898
3 12320 12321 13211
3 11898 11900 11901
3 11904 11200 11210
3 11904 11906 11902
3 11200 11903 11206
3 11905 11903 11902
3 298 11904 11211
3 11200 11904 11902
3 11905 11902 11907
3 12317 11894 491
3 11892 11906 298
3 11889 11897 11907
3 11907 11897 11894
3 11902 11906 11907
3 11917 11560 11914
3 11899 11916 11909
3 11916 11899 11908
3 11227 11225 11920
3 127 11910 11888
3 11900 11910 11901
3 11901 12322 11898
3 12321 12323 127
3 12739 12742 13459
3 12698 11913 12696
3 11911 11898 12322
3 11913 12324 12696
3 12698 11560 11913
3 243 11561 11918
3 12319 11221 11224
3 491 11909 11915
3 11917 11916 11908
3 11920 11226 11227
3 11560 11917 11908
3 11918 11917 11914
3 11918 11914 13732
3 11918 11226 11919
3 11909 11916 11919
3 11919 11916 11917
3 11909 11919 11920
3 11920 11919 11226
3 11546 12313 12311
3 11546 11558 11922
3 11548 11552 11922
3 11554 11922 11552
3 12312 12309 12310
3 11926 7384 11925
3 10167 11924 10169
3 11925 11924 11923
3 11925 11923 11926
3 7400 11925 6608
3 11926 11923 12308
3 7384 11926 94
3 11562 11234 11927
3 11234 11237 11927
3 11567 11928 11244
3 13727 11568 13726
3 11255 11929 432
3 10880 11929 11570
3 11580 11930 11576
3 12336 11930 11575
3 11575 11935 11938
3 12721 12722 13180
3 11933 9354 9356
3 11935 11933 11936
3 11933 284 11936
3 11933 11932 12701
3 11936 11937 12329
3 13189 12335 11931
3 11938 11935 11934
3 11941 11575 11580
3 11936 284 11937
3 11935 11936 11934
3 12330 11937 284
3 11937 12331 12332
3 12335 11934 11939
3 11940 12336 12335
3 12329 11939 11934
3 10856 10857 12334
3 12722 13184 13187
3 11930 12336 11579
3 11932 11935 11941
3 11575 11941 11935
3 11944 12357 11942
3 12351 405 11999
3 11619 11943 11608
3 11944 11615 11613
3 12357 11613 12354
3 11942 11943 11944
3 11280 12338 11279
3 13190 13191 12723
3 11947 11287 11294
3 11964 11963 11979
3 11294 11293 11947
3 11293 11964 11979
3 11949 11948 11946
3 11631 11948 11630
3 11950 11949 11946
3 11630 11949 11629
3 11975 11977 11966
3 11950 351 12342
3 13443 13444 11632
3 11953 11951 486
3 11953 11635 11951
3 11956 11952 11953
3 13438 13210 12732
3 11953 11952 12343
3 12344 11956 11954
3 11958 12730 11954
3 10918 11955 11299
3 12730 11955 11954
3 12346 486 13202
3 12724 11958 12729
3 12729 11958 11954
3 11957 12724 12726
3 11956 11953 12346
3 12731 12730 11958
3 11960 11959 11296
3 11963 11959 11638
3 11943 11961 11296
3 11991 11992 11985
3 11942 11961 11943
3 11960 11296 11961
3 11962 11971 11982
3 11977 11950 11946
3 11967 11963 11638
3 11978 11946 11947
3 11295 11964 11293
3 11297 11963 11964
3 11968 11967 11638
3 11965 11968 11972
3 11969 11963 11967
3 11969 11965 11971
3 11638 12348 11968
3 11969 11967 11965
3 11983 11984 11980
3 11965 11967 11968
3 11965 11982 11971
3 11969 11966 11979
3 11987 11983 11970
3 11981 11987 12000
3 11971 11962 11974
3 11969 11971 11975
3 11984 11968 302
3 11987 11981 11982
3 11962 11990 11974
3 12768 13226 12744
3 11981 11996 11962
3 11975 11974 11973
3 11976 11975 11973
3 11975 11966 11969
3 13227 11976 11973
3 11977 351 11950
3 11977 11946 11978
3 351 11977 11976
3 11979 11947 11293
3 11977 11978 11966
3 11969 11979 11963
3 11978 11979 11966
3 302 11991 11980
3 12000 12350 11995
3 12022 12770 12019
3 11996 11990 11962
3 11965 11972 11982
3 11982 11972 11987
3 11984 11983 11972
3 11994 11983 11980
3 11968 11984 11972
3 302 11980 11984
3 11991 302 11997
3 12769 12005 406
3 11993 11980 11991
3 11993 11985 12002
3 11983 11987 11972
3 12000 11987 11970
3 406 12016 12019
3 12766 12760 12761
3 11996 11981 12001
3 13215 12745 125
3 12744 12745 12349
3 11990 11989 12744
3 302 12348 11997
3 11993 11991 11985
3 11998 11992 11997
3 12355 12353 12351
3 12351 11999 12002
3 11993 11986 11994
3 11993 11994 11980
3 12350 11994 11986
3 11994 12350 11970
3 12746 12747 12748
3 11981 12000 12001
3 11989 11990 11996
3 11998 11997 11960
3 11991 11997 11992
3 11961 11998 11960
3 12360 11998 11942
3 12362 405 12353
3 12002 12003 11993
3 12350 12000 11970
3 12001 12000 11995
3 11995 12771 12751
3 11996 12001 12750
3 12351 12002 11985
3 12003 12002 11999
3 12006 12003 11999
3 11986 12003 12005
3 12006 11999 12008
3 12385 12380 12007
3 12006 12011 12010
3 12003 12010 12005
3 12008 11999 405
3 12006 12004 12011
3 12007 12013 12014
3 12373 309 12374
3 12365 12370 12362
3 12006 12008 12371
3 12009 12014 12013
3 12005 12012 406
3 12006 12010 12003
3 12012 12010 12009
3 12014 12011 12004
3 12010 12011 12009
3 12009 12013 12012
3 12389 12383 12376
3 12009 12011 12014
3 12017 12013 12007
3 12004 12366 12014
3 12376 12388 12387
3 406 12012 12016
3 12017 12381 12016
3 12017 12016 12012
3 12020 12019 12016
3 12013 12017 12012
3 12017 12007 12377
3 12375 12765 12015
3 12765 12020 12015
3 12020 12016 12015
3 12755 12757 12018
3 12373 12374 12375
3 12018 12019 12020
3 12762 12761 12021
3 12022 12757 11988
3 12771 11988 12751
3 12771 12350 12770
3 24 12023 10925
3 11304 12023 11639
3 12024 12026 12027
3 12042 12032 12029
3 11333 12026 12025
3 12026 12028 12025
3 12027 11333 11337
3 12028 12026 12024
3 12027 12037 12032
3 12036 12037 12039
3 12046 12024 12045
3 12028 11644 12030
3 461 12423 12427
3 26 12043 12054
3 12030 11644 12031
3 12025 12030 11649
3 12059 12049 12050
3 15612 12432 12062
3 12037 12027 11337
3 12043 12055 12054
3 12030 12033 11649
3 12033 12031 12432
3 12434 12035 9942
3 12434 15607 15609
3 9942 12035 9944
3 12059 12050 12034
3 10506 12038 12409
3 12041 12408 12029
3 12039 12037 11337
3 12037 12036 12041
3 10498 12410 12038
3 12415 12414 12408
3 11339 12039 11337
3 12039 273 12409
3 9930 12043 26
3 12052 12047 12058
3 12037 12041 12032
3 12041 12036 12788
3 12053 12042 12029
3 12042 12040 12045
3 9926 12047 9930
3 12053 12055 12042
3 12414 12429 12408
3 12054 12056 12431
3 9926 12058 12047
3 12028 12046 11644
3 12024 12046 12028
3 12040 12051 12045
3 12058 9926 9948
3 12043 9930 12047
3 12035 12050 454
3 12040 12043 12052
3 12045 12049 12046
3 12048 12060 12050
3 12034 12050 12035
3 12048 12050 12049
3 12048 12049 12051
3 12045 12051 12049
3 12048 12051 12052
3 12052 12051 12040
3 12429 12053 12029
3 12053 12044 12055
3 12055 12043 12040
3 12056 12054 12044
3 12055 12040 12042
3 12044 12054 12055
3 12427 12056 12044
3 9956 9958 12431
3 12032 12057 12024
3 12042 12045 12057
3 12060 9947 454
3 12052 12058 12048
3 12433 12059 12034
3 11644 12059 12031
3 12058 12060 12048
3 454 12050 12060
3 11651 12033 12432
3 12066 12061 97
3 12062 12433 12434
3 12432 15612 12061
3 15613 15608 15611
3 11660 11662 12065
3 11655 11654 12064
3 12066 12064 11654
3 11665 12064 12065
3 12063 12065 12064
3 12061 12066 11654
3 15611 12066 97
3 11668 11666 15198
3 15201 15705 12067
3 11682 12439 12068
3 12801 12442 13263
3 13547 13265 13549
3 13554 13559 12069
3 14305 12444 12446
3 11673 12079 12078
3 11686 11690 12445
3 12072 12073 12079
3 11680 12072 11683
3 12073 12072 12071
3 12447 12073 12071
3 14309 12079 12070
3 14302 12070 14300
3 12075 12077 441
3 11692 12076 12075
3 12077 12074 14315
3 11705 12076 11692
3 12077 12076 11708
3 12076 12077 12075
3 12078 11708 11673
3 11673 12072 12079
3 12074 12077 12078
3 12070 12079 12073
3 12074 12078 12079
3 14301 14312 14313
3 13797 13798 13537
3 11699 12081 11702
3 14020 12080 13801
3 12455 12453 12082
3 11321 12082 12452
3 11684 12083 11675
3 11673 11708 12083
3 12812 12084 533
3 12476 12084 11709
3 11341 12461 12470
3 12085 12479 12477
3 451 12092 11713
3 25 12088 15203
3 15204 11714 15203
3 15204 12088 12087
3 12093 12090 12094
3 11359 12091 11721
3 12096 12094 12091
3 11353 12092 12086
3 12088 12096 12091
3 12095 12091 12098
3 11713 12092 11353
3 11714 12092 12089
3 12099 448 12097
3 25 12093 12096
3 12095 12098 11720
3 12095 11720 12104
3 11721 12091 12095
3 25 12096 12088
3 12093 12094 12096
3 12097 15136 12103
3 12097 12103 12098
3 12091 12094 12098
3 12098 12094 12099
3 448 12099 12090
3 12098 12099 12097
3 12101 11068 11067
3 12103 12100 11720
3 12101 11067 12102
3 12100 12101 12104
3 11067 15180 12105
3 12105 12107 12102
3 12098 12103 11720
3 15135 15131 15139
3 12100 12104 11720
3 12101 12102 12104
3 11079 12106 12105
3 12107 354 11721
3 11085 12106 11079
3 12107 12106 11056
3 12106 12107 12105
3 11057 12107 11056
3 12116 12534 13304
3 12533 12112 12113
3 9987 11732 12109
3 12110 12109 11732
3 12111 12110 11732
3 12110 12108 12112
3 11733 12111 11732
3 12818 12817 11364
3 12113 12112 12108
3 9601 12112 9604
3 12116 12113 12108
3 9600 9603 12533
3 12817 12108 12110
3 8314 12115 173
3 8307 9602 12117
3 12115 12114 13303
3 12116 12108 12817
3 12114 12115 12535
3 9602 9600 12117
3 12535 12117 9600
3 12119 12118 11365
3 12818 12118 11735
3 11366 12119 11365
3 11736 12119 98
3 11737 12122 12120
3 12120 12122 12123
3 11742 12121 11380
3 12827 12121 11377
3 12832 12835 12543
3 12123 12122 431
3 12123 431 12129
3 12126 12127 12125
3 12148 12141 12145
3 12139 12138 12136
3 11116 10953 12126
3 12126 10953 12127
3 12127 10953 11110
3 197 12126 12125
3 11108 11113 12128
3 12127 12128 12130
3 11105 12123 12128
3 12130 12123 12129
3 12141 12129 431
3 12124 12135 12133
3 12123 12130 12128
3 12129 12124 12133
3 12137 12139 12140
3 12134 12136 10998
3 12832 12837 12835
3 13574 599 12142
3 12125 12130 12133
3 12129 12133 12130
3 12135 197 12125
3 12136 12134 12131
3 12135 12125 12133
3 12131 12134 12135
3 12136 12131 12139
3 10998 12136 10990
3 12131 12140 12139
3 13570 13571 13567
3 12142 12137 13574
3 12138 12137 12142
3 12140 12131 12144
3 12138 12139 12137
3 12124 12129 12148
3 12140 12145 12155
3 431 12831 12834
3 12141 12132 12145
3 12154 10981 10970
3 12143 10970 10999
3 12138 12142 12149
3 12146 12151 12150
3 12135 12144 12131
3 12124 12140 12144
3 12155 12145 13573
3 12124 12145 12140
3 12141 12148 12129
3 12151 12149 12150
3 12140 12155 12137
3 12145 12124 12148
3 12149 12142 12150
3 12143 12138 12149
3 10981 12154 62
3 12142 599 12150
3 12143 12149 12151
3 13566 13567 13573
3 12151 12146 12152
3 13575 12147 13572
3 12143 12154 10970
3 12151 12152 12154
3 13573 12145 12132
3 12155 12153 13575
3 11378 12157 11386
3 12157 11740 11374
3 11740 12157 12156
3 12537 11383 11740
3 12841 12828 11741
3 12160 11145 12271
3 11740 12540 12537
3 11526 11745 12160
3 12162 12161 11147
3 12271 12161 11746
3 313 12163 12162
3 11404 12203 12164
3 12165 313 11153
3 12167 12164 12163
3 12162 12163 12164
3 12167 12163 11747
3 11153 11152 12172
3 11153 12166 12545
3 12166 12172 12853
3 12170 13045 12169
3 12169 12167 11747
3 12169 12171 12167
3 11747 12170 12169
3 12182 12171 12169
3 12165 12545 11747
3 12168 12182 12169
3 12853 12544 12886
3 12169 13045 12168
3 12182 12571 12173
3 12171 11874 12174
3 12853 12172 10632
3 11153 12172 12166
3 12196 12189 12186
3 11874 12171 12183
3 12175 12174 11874
3 11536 11404 12174
3 12178 12177 12175
3 11536 12175 397
3 12183 12184 11874
3 12191 12176 12181
3 12178 12175 11874
3 12177 12176 12179
3 12181 12178 12184
3 12176 12177 12178
3 12187 12645 12286
3 12302 12179 11537
3 12184 12173 12186
3 12197 12200 12199
3 12184 12178 11874
3 12199 12200 12575
3 12571 12182 12168
3 12183 12182 12173
3 12182 12183 12171
3 12183 12173 12184
3 12186 12173 80
3 12180 12181 12184
3 12653 12287 12293
3 12179 12176 12286
3 12186 80 12193
3 12180 12184 12189
3 12192 12181 12180
3 12285 12284 11537
3 12549 12548 12193
3 12548 12553 12188
3 12184 12186 12189
3 12193 12194 12196
3 12195 12194 12188
3 586 12199 12195
3 12192 12191 12181
3 12286 12191 12187
3 12198 12192 12180
3 12187 12192 12573
3 12548 12549 12547
3 12194 12193 12188
3 12558 12553 12555
3 12196 12194 12190
3 15210 12554 15207
3 12190 12194 12195
3 12196 12190 12202
3 12186 12193 12196
3 12574 12185 12573
3 12185 12645 12573
3 12201 12190 12575
3 12197 12572 12574
3 13049 15217 15216
3 12200 12197 12198
3 12201 12200 12198
3 12195 12575 12190
3 12198 12180 12201
3 12202 12180 12189
3 12190 12201 12202
3 12180 12202 12201
3 12203 11536 12270
3 12164 12203 11746
3 12205 12204 10782
3 11750 12204 11748
3 10782 12576 12205
3 12576 10819 12577
3 12245 11424 11755
3 12205 12578 11748
3 12250 12256 12207
3 12588 11427 12587
3 12209 12210 70
3 12209 11757 12210
3 12210 12208 12592
3 12211 11757 11181
3 12208 12210 12211
3 11757 12211 12210
3 11521 12215 11457
3 11525 11810 12216
3 12213 11448 11456
3 11777 12213 12212
3 11457 12214 11458
3 12212 12213 12214
3 11521 11533 12217
3 12212 11457 12215
3 11810 11799 12216
3 12218 12216 11799
3 12217 12215 11521
3 11525 12216 12217
3 11799 11777 12218
3 12212 12218 11777
3 11809 12219 11795
3 12219 11810 11835
3 11814 11817 12220
3 12222 12594 11501
3 12229 12227 12228
3 12223 12224 12220
3 12227 12222 11856
3 12221 12223 12594
3 12594 11817 11501
3 12223 12221 12224
3 12221 12227 12226
3 12224 12221 12226
3 13355 12600 12595
3 13357 13053 13356
3 12221 12222 12227
3 12226 12225 12597
3 12227 11856 12228
3 12225 12226 12227
3 11856 11865 12228
3 11865 11871 12231
3 12602 12601 12598
3 12227 12229 12225
3 624 12228 12230
3 11865 12230 12228
3 11870 12231 11871
3 12230 11865 12231
3 11813 12232 11779
3 11815 12232 11819
3 12621 12620 12625
3 12235 12236 12618
3 11832 12235 12234
3 12235 12237 12238
3 12236 12235 11832
3 12233 12621 12235
3 11821 12236 11832
3 11820 12617 12618
3 12233 12619 12620
3 12621 12625 12237
3 12235 12238 12234
3 12640 12237 12638
3 12629 12634 12635
3 12636 12265 12627
3 12243 12240 220
3 12240 12249 11841
3 12588 12587 12585
3 12252 12255 12250
3 12242 11841 12249
3 11422 15188 122
3 12586 12259 12251
3 12243 12241 12246
3 12246 12242 12249
3 12255 12252 11424
3 122 12245 11755
3 12248 12247 12244
3 12247 12246 12241
3 12248 12246 12247
3 12250 12247 12241
3 12244 12247 12255
3 12248 12244 15189
3 12242 12246 12248
3 12240 12243 12249
3 12246 12249 12243
3 12257 12253 12256
3 12252 12250 12207
3 12243 12260 12258
3 12260 12263 12254
3 12252 12590 12581
3 12255 11424 12245
3 12586 13125 12585
3 12583 12579 12207
3 12243 220 12260
3 13381 12263 12260
3 12244 12255 12245
3 12250 12255 12247
3 12257 12256 12250
3 12256 12253 12583
3 12241 12258 12257
3 12642 12259 12257
3 12243 12258 12241
3 12642 12258 12254
3 12253 12257 12259
3 12257 12258 12642
3 13109 13110 13381
3 12258 12260 12254
3 12631 13109 12632
3 13380 13379 13698
3 13114 12262 13113
3 12263 12264 12254
3 13381 12260 220
3 12263 12262 12264
3 13112 13113 12262
3 13115 13114 12643
3 12626 11833 11837
3 12636 13098 12265
3 15187 12266 11804
3 11845 12266 11806
3 11849 12267 11465
3 12268 12267 10832
3 11743 12268 10832
3 11851 12268 11402
3 11857 12269 11856
3 11864 12269 11858
3 11535 12270 11536
3 11873 12270 11528
3 12203 12271 11746
3 12271 11872 11526
3 11538 11877 12273
3 11875 13153 12663
3 12274 12273 11876
3 12272 12273 12280
3 11876 12302 12275
3 12274 151 12276
3 12646 12647 12285
3 12274 12275 12282
3 12279 12290 12278
3 12278 12297 12279
3 12667 12277 12665
3 12294 12296 12278
3 151 12282 12292
3 12299 12301 12277
3 151 12292 12290
3 12297 12278 12296
3 12273 12274 12280
3 12276 12280 12274
3 12646 12651 12647
3 12281 12288 12283
3 12275 11537 12284
3 12283 12282 12275
3 12651 12281 12647
3 12282 12283 12292
3 12286 11537 12179
3 12283 12284 12647
3 12573 12645 12187
3 12645 12646 12285
3 12286 12176 12191
3 11537 12286 12285
3 12664 12665 12666
3 12292 12288 12293
3 12281 12651 13130
3 12653 12293 12288
3 12291 12277 12294
3 12290 12279 151
3 12293 12655 12289
3 12278 12290 12291
3 12289 12655 12657
3 12298 12300 12656
3 12288 12292 12283
3 12292 12289 12290
3 13136 12287 13144
3 12292 12293 12289
3 12296 12301 12295
3 12278 12291 12294
3 12688 12692 12693
3 12297 12276 12279
3 12277 12296 12294
3 13154 12661 13153
3 13154 12296 12295
3 12276 12297 13153
3 12657 12290 12289
3 12654 12660 12656
3 12300 12665 12277
3 12299 12669 12676
3 12291 12657 12656
3 12298 12666 12665
3 12277 12301 12296
3 12676 12301 12299
3 12179 12302 11540
3 12275 12302 11537
3 11880 12303 9325
3 12304 12303 11878
3 11878 11879 12306
3 12304 11543 11547
3 12695 12305 12306
3 12308 94 11926
3 9316 12306 11879
3 12304 12306 12305
3 12308 11923 12309
3 12307 12308 12312
3 11923 12326 12309
3 94 12308 12307
3 11556 11558 12310
3 12308 12309 12312
3 12310 11546 12311
3 11556 12310 12309
3 11546 11921 12313
3 12314 12315 12311
3 12310 12311 12312
3 12312 12311 12316
3 11921 11549 12313
3 12314 11549 11550
3 12311 12313 12314
3 12314 12313 11549
3 12304 12315 11543
3 12695 12316 12305
3 12311 12315 12316
3 12305 12316 12315
3 12318 491 11915
3 11903 12317 11203
3 11203 12317 12318
3 12318 12317 491
3 10843 12319 11224
3 11203 12319 11204
3 12321 127 10164
3 12322 12324 11913
3 10163 12321 10164
3 12321 12320 12323
3 12323 12322 11901
3 11911 12322 11913
3 12323 11901 127
3 12324 12323 12320
3 12742 12324 12320
3 12696 12324 11912
3 12736 12733 12347
3 12697 12700 12699
3 12309 12326 11556
3 11924 12326 11923
3 12328 12327 11571
3 11941 12327 11932
3 11571 11573 12702
3 12702 12705 12328
3 10856 12334 12329
3 11936 12329 11934
3 9352 12330 284
3 9349 9351 12331
3 8870 10858 12332
3 11937 12330 12331
3 11937 12332 10856
3 8870 12332 12331
3 12329 12334 12709
3 10417 10854 12715
3 10417 12334 10857
3 12708 12709 12333
3 11934 12335 11938
3 11931 12335 11939
3 12335 12336 11575
3 13189 13188 11940
3 11634 12337 11278
3 12338 12337 11279
3 88 11630 12338
3 12339 11630 11629
3 11945 12338 12339
3 11630 12339 12338
3 12342 13192 11950
3 13238 13241 12340
3 12768 13229 13227
3 13451 13453 13452
3 13239 351 13228
3 12342 12341 13192
3 11953 12343 11635
3 11291 12343 11952
3 11956 12344 11952
3 11955 12344 11954
3 12725 13194 12726
3 11957 11958 12724
3 486 12346 11953
3 12729 12346 12345
3 13439 12743 11957
3 12739 12737 12738
3 11968 12348 302
3 11638 11960 12348
3 13221 13215 13214
3 13226 11973 11974
3 11986 12769 12350
3 12350 12769 12770
3 12359 11985 11992
3 12363 12352 12353
3 13180 12722 11931
3 12353 12352 12361
3 12359 12351 11985
3 12356 12718 12716
3 12722 13181 13184
3 12355 12358 12363
3 12360 12355 12359
3 11942 12357 12358
3 12523 12520 12512
3 12361 12362 12353
3 11613 12357 11944
3 12358 12357 12354
3 12354 13182 12363
3 12358 12355 12360
3 12360 12359 11992
3 12351 12359 12355
3 11998 12360 11992
3 12358 12360 11942
3 12361 12352 12718
3 12361 12356 12362
3 12362 12356 12365
3 12816 12531 12365
3 12355 12363 12353
3 12354 12363 12358
3 12714 12713 12525
3 12519 12499 12498
3 12716 12714 12717
3 12518 12530 12364
3 12366 12004 12369
3 12386 12366 9
3 12004 12006 12371
3 12531 12530 12367
3 12362 12368 405
3 12367 12369 12371
3 12369 12004 12371
3 12370 12531 12367
3 12367 12368 12370
3 12362 12370 12368
3 12008 12368 12371
3 12371 12368 12367
3 12386 12385 12014
3 12398 12391 12372
3 12379 12373 12015
3 12373 12383 12382
3 14493 309 14398
3 12375 12374 12021
3 12021 12760 12765
3 12015 12373 12375
3 12379 12381 12377
3 12377 12388 12376
3 12380 12377 12007
3 12377 12376 12379
3 12778 13243 12384
3 14488 14449 14492
3 12379 12015 12381
3 12382 12383 12378
3 12385 12007 12014
3 12380 12372 12387
3 12016 12381 12015
3 12017 12377 12381
3 12383 12373 12379
3 14449 14488 14489
3 12379 12376 12383
3 12389 12376 12778
3 12774 13243 621
3 12383 12389 12378
3 12014 12366 12386
3 12380 12385 12390
3 12516 12395 12396
3 12386 12396 12390
3 12391 12387 12372
3 12387 12392 12778
3 12377 12380 12388
3 12387 12388 12380
3 12778 12376 12387
3 12378 12389 12384
3 12380 12390 12372
3 12385 12386 12390
3 12395 12398 12396
3 12391 12399 12397
3 12778 12392 621
3 12387 12391 12392
3 12509 12511 12507
3 12489 12782 12783
3 12779 12781 12786
3 12394 12785 12775
3 12372 12390 12396
3 12399 12400 12397
3 9 12517 12386
3 12516 12510 12393
3 12391 12398 12399
3 13244 13242 13245
3 12396 12398 12372
3 12399 12398 12395
3 12393 12402 12395
3 12779 12780 12781
3 12399 12395 12402
3 12404 12780 12400
3 12404 12400 12399
3 12403 12783 12404
3 12405 12402 12393
3 12404 12401 12780
3 12403 12405 12504
3 12487 12485 12481
3 12399 12402 12404
3 12404 12402 12405
3 12513 12393 12510
3 12404 12405 12403
3 14492 14612 14614
3 13774 13465 13772
3 309 14493 14494
3 12746 12752 12754
3 12409 12788 12036
3 12410 12412 12415
3 12039 12409 12036
3 10506 12409 273
3 12411 12410 10498
3 12410 10191 12412
3 12411 10498 10503
3 10191 12411 10505
3 12417 12416 12412
3 12414 12412 461
3 10191 12790 12417
3 12413 12430 12421
3 12429 12414 461
3 12408 12788 12415
3 12410 12415 12038
3 12412 12414 12415
3 12417 12412 10191
3 12418 12421 12420
3 10492 13259 12790
3 12413 12416 12417
3 9429 12419 12420
3 12416 12423 461
3 9425 12419 9426
3 12420 12419 12418
3 12418 12422 12421
3 9429 12420 213
3 13539 13260 12426
3 12428 12426 12794
3 12421 12422 12413
3 12423 12422 12418
3 12425 12418 12419
3 12424 9425 9957
3 9956 12424 9957
3 12425 12423 12418
3 9425 12425 12419
3 12423 12425 12424
3 12426 12428 13539
3 13545 13262 13543
3 12056 12427 9956
3 12044 12053 12429
3 12417 12790 12413
3 12793 12428 12794
3 12044 12429 12427
3 12029 12408 12429
3 12789 12430 12413
3 12793 12430 12428
3 9411 12431 9958
3 12054 12431 26
3 11651 12432 12061
3 12433 12432 12031
3 12059 12433 12031
3 12434 12433 12034
3 12035 12434 12034
3 10922 15607 9942
3 11674 11676 12437
3 12435 12067 12438
3 11678 12436 11672
3 11674 12435 12436
3 15197 178 15198
3 12067 12435 12437
3 12067 15705 15708
3 12438 15708 12440
3 12436 12439 11672
3 12438 12439 12435
3 12440 501 12442
3 12068 12438 12440
3 12440 12442 12801
3 12810 12805 12804
3 13266 12442 501
3 12806 12808 12804
3 14028 11690 158
3 14022 13556 14021
3 14305 11688 14306
3 12073 12447 12070
3 12445 12071 11686
3 12446 12445 11689
3 14026 14025 11688
3 14305 12446 11688
3 12445 12447 12071
3 12444 14305 14300
3 14316 12448 441
3 12081 12448 12080
3 11703 12449 20
3 12082 11321 12449
3 12455 12450 11641
3 12449 12450 12082
3 12473 12467 12463
3 12812 12457 12459
3 12082 12453 12452
3 533 11316 12454
3 12082 12450 12455
3 12456 12454 12453
3 12452 12453 12454
3 12453 12451 12456
3 12455 11641 12463
3 12451 12453 12455
3 12457 12456 12451
3 12812 11709 12084
3 12462 12461 12465
3 12459 12457 11341
3 12462 12458 12461
3 12462 12472 12458
3 12460 12459 11341
3 12459 11709 12812
3 11341 12470 12500
3 12460 12085 12476
3 12465 12457 12451
3 12469 12461 12458
3 12455 12463 12467
3 12473 12472 12462
3 12475 12463 11641
3 12468 13793 12474
3 12464 12469 13248
3 12494 12500 12464
3 12457 12465 12461
3 12467 12465 12451
3 13249 13252 13251
3 13247 13792 13534
3 12465 12467 12462
3 12455 12467 12451
3 12450 13302 11641
3 13796 13798 13797
3 13248 12469 12458
3 12470 12469 12464
3 12464 315 12494
3 12471 12460 11341
3 12489 12487 12484
3 12479 12481 12478
3 12462 12467 12473
3 13249 12472 12466
3 12473 12463 12475
3 12466 12472 12473
3 12466 12473 12474
3 12468 12474 12473
3 12475 11641 13302
3 12473 12475 12468
3 12460 12476 11709
3 12476 12085 12477
3 12085 12483 12479
3 12477 12480 11342
3 12491 12482 12814
3 11712 11342 12480
3 12085 12460 12483
3 12480 164 11712
3 12479 12478 12480
3 12480 12478 12492
3 12483 12493 12481
3 12485 517 12486
3 12486 12478 12485
3 12482 12492 12486
3 12493 12483 12471
3 12479 12483 12481
3 12484 12493 12494
3 315 12781 12782
3 12478 12481 12485
3 12481 12493 12487
3 12497 12488 12495
3 12490 411 9981
3 12484 12782 12489
3 517 12485 12487
3 12501 12502 12515
3 12497 12486 517
3 12403 12504 12505
3 517 12487 12489
3 12515 9981 9547
3 12514 12488 12497
3 12492 12491 12480
3 12814 12482 9545
3 12486 12492 12478
3 12491 12492 12482
3 12494 12493 12471
3 12487 12493 12484
3 12494 12471 12500
3 12494 315 12782
3 12497 12495 12486
3 12515 12502 12488
3 12482 12496 9545
3 12495 12488 12502
3 12403 12505 12489
3 12509 12507 12503
3 517 12505 12506
3 12512 411 12499
3 12488 12499 12490
3 12519 12498 12511
3 11341 12500 12471
3 12464 12500 12470
3 9553 12501 9548
3 12496 12495 12502
3 12515 12488 12490
3 12496 12502 12501
3 12532 12510 12516
3 12506 12507 12497
3 12393 12504 12405
3 12504 12503 12505
3 12506 12505 12503
3 517 12489 12505
3 12507 12506 12503
3 517 12506 12497
3 12503 12513 12509
3 12507 12498 12514
3 12518 12508 12528
3 12511 12498 12507
3 12503 12504 12513
3 12509 12508 12511
3 12395 12516 12393
3 12508 12509 12510
3 12508 12518 12511
3 12523 12522 12520
3 12518 12524 12511
3 10418 12520 10150
3 12393 12513 12504
3 12509 12513 12510
3 12507 12514 12497
3 12499 12514 12498
3 9981 12515 12490
3 12501 12515 9547
3 12396 12517 12516
3 9 12528 12532
3 12386 12517 12396
3 12532 12517 9
3 12508 12532 12528
3 12524 12518 12815
3 12524 12519 12511
3 12499 12519 12512
3 411 12520 10418
3 12815 12518 12364
3 12815 12816 12527
3 12521 12526 12522
3 12527 12526 12521
3 12719 12720 12526
3 12519 12524 12512
3 12521 12522 12523
3 12521 12523 12524
3 12524 12523 12512
3 12711 301 12710
3 12526 12720 12522
3 12521 12815 12527
3 12526 12525 12719
3 12716 12717 12356
3 12525 12526 12527
3 12366 12529 9
3 12518 12528 12530
3 12367 12529 12369
3 9 12529 12528
3 12528 12529 12530
3 12367 12530 12529
3 12365 12531 12370
3 12364 12530 12531
3 12510 12532 12508
3 12532 12516 12517
3 12112 12533 9604
3 9600 12533 12113
3 12118 12818 11364
3 11736 13305 11735
3 12113 12535 9600
3 12114 12535 12116
3 11388 12536 11377
3 12537 12536 11383
3 12540 12539 12537
3 12537 12539 12826
3 12541 12539 12159
3 129 12538 12540
3 12158 12826 11741
3 129 12540 11740
3 12538 12539 12540
3 626 12844 12542
3 12841 12842 12836
3 12843 12830 12837
3 12541 12159 12542
3 431 12122 12831
3 10632 12854 12853
3 12890 12885 12895
3 11153 12545 12165
3 12888 12545 12166
3 12876 12166 12853
3 12544 12855 12874
3 12874 12875 12886
3 12548 12547 12552
3 12549 12193 80
3 12559 244 12556
3 80 12551 12549
3 12546 12887 12885
3 12556 12555 12550
3 12552 12553 12548
3 12551 80 12571
3 12546 12549 12551
3 12552 12547 12562
3 12552 12550 12553
3 12555 12553 12550
3 12557 12558 12555
3 12566 12556 12565
3 12557 15209 586
3 12550 12559 12556
3 12557 12555 12554
3 12556 244 12565
3 12554 12555 12556
3 12554 15210 15209
3 12558 586 12195
3 586 12558 12557
3 12195 12188 12558
3 12552 12562 12561
3 12550 12561 12559
3 12869 12867 12877
3 12869 12863 12870
3 12552 12561 12550
3 12880 12561 12560
3 12890 12562 12547
3 12561 12562 12560
3 12564 13814 13815
3 12569 13923 15652
3 13814 12892 12881
3 12566 12554 12556
3 244 12892 13814
3 12565 12564 12566
3 12568 12567 12564
3 12566 12564 12567
3 12567 12568 12570
3 12570 15206 12567
3 12881 13816 13813
3 12570 12568 12563
3 12896 12902 15212
3 13338 13341 15213
3 15212 12570 12563
3 12569 15652 15206
3 12168 13045 12571
3 80 12173 12571
3 13046 12572 12197
3 12649 13128 12648
3 12192 12198 12573
3 12574 12573 12198
3 12197 12574 12198
3 12185 12574 12572
3 12199 12575 12195
3 12201 12575 12200
3 15159 12576 10782
3 12577 10819 11757
3 11428 12577 11757
3 12205 12576 12577
3 424 12578 12205
3 11751 12578 12206
3 12580 11756 494
3 12207 12256 12583
3 12590 494 12581
3 12579 12580 12590
3 494 11177 12591
3 12252 12581 11424
3 11424 12582 11754
3 12581 494 12591
3 12586 12585 12587
3 11427 12579 12583
3 12583 12253 12586
3 12583 12586 12587
3 12585 13123 13124
3 12259 12586 12253
3 13125 12586 12251
3 12588 12585 12584
3 12583 12587 11427
3 70 12210 12592
3 12588 12592 12593
3 12579 12590 12207
3 12588 12584 12589
3 494 12590 12580
3 11178 12591 11177
3 12581 12591 12582
3 12588 12589 12592
3 70 12592 12589
3 12593 11427 12588
3 12211 12593 12208
3 12221 12594 12222
3 11817 12594 12223
3 12599 12225 12229
3 12622 13075 13097
3 12224 12226 12597
3 13355 13053 13357
3 12225 12599 12601
3 12596 12597 12600
3 12609 12613 12599
3 12598 12604 12602
3 12229 624 12599
3 624 12608 12609
3 12601 12600 12597
3 12600 12601 12602
3 12225 12601 12597
3 12599 12598 12601
3 12616 12603 12604
3 12611 12604 12614
3 13063 13061 13060
3 12603 12614 12604
3 12613 12598 12599
3 12610 12614 12615
3 12597 12605 12224
3 12605 12596 13357
3 12608 624 12230
3 12609 12608 12607
3 13361 13360 11870
3 13360 13358 13359
3 11870 12608 12230
3 12607 13057 12609
3 13064 12613 12609
3 12599 624 12609
3 13071 13077 13068
3 12602 12611 12595
3 12604 12611 12602
3 13070 12610 13067
3 12613 12604 12598
3 13064 13055 12612
3 13064 12609 12606
3 12613 12612 12616
3 12603 13061 12614
3 12611 12614 12610
3 12603 13058 13060
3 13063 12615 13061
3 12613 12616 12604
3 13058 12616 12612
3 12619 12617 11826
3 12617 12233 12618
3 12235 12618 12233
3 11820 12618 12236
3 12619 11825 12620
3 12617 12619 12233
3 12624 12620 11825
3 12620 13097 12625
3 12235 12621 12237
3 12233 12620 12621
3 13076 13072 12622
3 12610 13065 13067
3 13096 531 13094
3 12640 12637 11829
3 13076 12624 11825
3 12624 12622 13097
3 12620 12624 13097
3 12638 12625 12623
3 12626 12239 12633
3 12626 12627 12628
3 12633 12629 12627
3 13099 13098 12630
3 12641 12628 12265
3 11842 12632 11843
3 12629 12633 12634
3 12629 12637 12630
3 12629 12630 12636
3 12637 12629 11829
3 13103 12265 13098
3 12263 13381 12262
3 11833 12628 12632
3 12632 12628 12641
3 12626 12633 12627
3 12634 12633 12239
3 11831 12634 12239
3 12635 12634 11830
3 12234 12635 11830
3 11829 12629 12635
3 12629 12636 12627
3 13098 12636 12630
3 12640 12238 12237
3 12630 12637 12639
3 531 13081 13094
3 12639 521 13099
3 12640 12639 12637
3 13093 13091 13095
3 12238 12640 11829
3 12639 12640 12638
3 12641 12265 13103
3 12632 12641 12631
3 12259 12642 12251
3 12254 12264 12642
3 13117 12643 13120
3 13127 13122 13126
3 12646 12645 12185
3 13116 12644 13115
3 12286 12645 12285
3 12572 13128 12649
3 12649 12646 12185
3 12283 12647 12281
3 12284 12285 12647
3 13388 12650 12648
3 12650 12651 12649
3 12572 12649 12185
3 12650 12649 12648
3 13388 13389 13129
3 13130 12653 12288
3 12649 12651 12646
3 13130 12651 12650
3 13138 13132 13137
3 12652 13138 13137
3 13130 12288 12281
3 13131 12653 12652
3 13133 13144 13139
3 13390 13135 13152
3 12287 12655 12293
3 12655 12654 12657
3 12291 12656 12300
3 13135 13390 13134
3 12656 12657 12654
3 12291 12290 12657
3 13163 13422 13421
3 13407 12656 12660
3 12655 13136 12654
3 13401 264 13410
3 12654 13136 13134
3 12660 12659 13407
3 12693 12692 12694
3 12662 11507 11508
3 13155 11508 396
3 12691 12692 12688
3 12661 12662 12663
3 12663 12662 13155
3 12670 12672 12668
3 12669 12299 12667
3 12298 12665 12300
3 12667 12665 12664
3 13406 13404 13410
3 12666 264 12674
3 12670 12669 12667
3 12277 12667 12299
3 12673 12672 12670
3 13395 13161 13156
3 12668 12675 12669
3 12295 12301 12676
3 12670 12664 12673
3 12668 12669 12670
3 12674 12673 12664
3 13169 13166 13162
3 13161 13162 13156
3 13158 12677 12680
3 12664 12666 12674
3 12673 12671 13161
3 12674 13398 13168
3 12673 12674 13168
3 12680 12679 12675
3 12693 12676 12678
3 12675 12678 12669
3 257 12678 12675
3 13395 13159 12672
3 11869 12684 11859
3 12690 13178 257
3 12669 12678 12676
3 12680 12675 12668
3 12681 12679 12677
3 13159 12668 12672
3 12677 12679 12680
3 12684 12681 13396
3 12681 11867 12683
3 13158 13160 13396
3 13358 13665 13667
3 11867 12686 12683
3 12686 11862 12687
3 13396 12681 12677
3 12684 12682 13362
3 12681 12685 12679
3 12690 12685 12683
3 11869 12686 11867
3 11862 11863 12687
3 11509 12691 12689
3 12686 12687 12690
3 12691 11507 12692
3 257 12685 12690
3 12691 11509 11512
3 12690 12689 12688
3 12688 12693 13178
3 12690 12683 12686
3 12692 11507 12662
3 12689 12691 12688
3 12662 12661 12692
3 12694 12295 12693
3 12676 12693 12295
3 13178 12678 257
3 12692 12661 12694
3 12694 12661 13154
3 9319 12695 9316
3 12307 12695 94
3 12738 12696 11912
3 12698 12696 12325
3 13430 13434 13436
3 13434 13437 12697
3 12699 12698 12325
3 12698 12699 12700
3 12325 539 12699
3 13436 12699 539
3 13746 12697 13435
3 11914 11560 12700
3 11933 12701 9354
3 11932 12328 12701
3 12703 12702 432
3 11571 12702 12328
3 12704 12703 432
3 12703 8880 12705
3 12704 432 11929
3 8880 12704 6710
3 12706 12705 12707
3 7411 9355 12706
3 12706 9354 12701
3 12705 8880 12707
3 8882 12707 8880
3 7411 12706 12707
3 12709 12708 11939
3 12333 12711 12710
3 12329 12709 11939
3 12333 12709 12334
3 12716 12718 12721
3 12708 12710 13180
3 12712 12711 12333
3 12714 12525 12527
3 12333 12334 13179
3 12719 12712 9872
3 301 12711 12713
3 12719 12711 12712
3 12816 12717 12527
3 301 12713 12714
3 9872 12715 10854
3 12712 12333 13179
3 12356 12361 12718
3 301 12714 12716
3 12527 12717 12714
3 12356 12717 12365
3 13181 12722 12718
3 301 12721 12710
3 10415 12720 9872
3 12713 12719 12525
3 12522 12720 10150
3 9872 12720 12719
3 12716 12721 301
3 12721 12718 12722
3 13181 12718 12352
3 13181 13425 13184
3 13193 13452 12723
3 13448 13453 13454
3 12727 12724 12345
3 12727 12726 12724
3 12345 13202 12727
3 12725 12727 12728
3 13201 13197 13194
3 13199 13439 12726
3 12345 12346 13202
3 12726 12727 12725
3 486 11951 13204
3 13203 13441 13205
3 12346 12729 11956
3 12724 12729 12345
3 12731 11958 11957
3 12730 12347 12733
3 12726 13197 13200
3 12347 12730 12731
3 12325 12738 13210
3 12347 12731 12743
3 12736 12740 12734
3 12735 10474 13208
3 13209 13460 10461
3 10445 10461 13460
3 12736 12735 12733
3 13209 10461 10468
3 12740 12736 12347
3 12736 12734 13458
3 12737 12740 12732
3 12696 12738 12325
3 12739 12738 11912
3 12738 12737 13210
3 13459 12742 12741
3 12739 12734 12740
3 12740 12347 12743
3 12740 12737 12739
3 12739 11912 12742
3 13212 12741 13211
3 12324 12742 11912
3 13211 12742 12320
3 11957 12743 12731
3 12740 12743 12732
3 12745 12744 11989
3 12768 12744 12349
3 12747 11989 12750
3 12745 11989 12747
3 12748 12752 12746
3 13225 13213 13223
3 12747 12750 12748
3 12747 12746 12749
3 12751 12001 11995
3 12748 12751 12752
3 12754 12758 12746
3 13225 13220 13461
3 11996 12750 11989
3 12001 12748 12750
3 12752 12751 11988
3 12001 12751 12748
3 12752 12755 12754
3 12021 12761 12760
3 12753 12766 12763
3 12749 12746 12758
3 12752 11988 12757
3 12753 12756 12758
3 12760 12755 12018
3 12753 12754 12755
3 12753 12763 13463
3 13224 13772 13465
3 12018 12757 12022
3 12752 12757 12755
3 12753 12758 12754
3 12758 12756 13461
3 12747 12759 12745
3 13220 12759 12749
3 12765 12018 12020
3 12374 12762 12021
3 12763 12761 12407
3 12755 12766 12753
3 309 12762 12374
3 12407 12761 12762
3 12407 12764 12763
3 12764 13463 12763
3 12407 12762 14494
3 13463 12406 13462
3 12021 12765 12375
3 12018 12765 12760
3 12760 12766 12755
3 12763 12766 12761
3 13214 13219 13218
3 13231 13228 13229
3 13215 13221 12349
3 11976 13227 351
3 12005 12769 11986
3 12770 12769 406
3 12019 12770 406
3 12771 12770 12022
3 11988 12771 12022
3 11995 12350 12771
3 621 12397 12774
3 12772 13792 14394
3 12775 12774 12397
3 13535 12775 12777
3 12775 12397 12394
3 13243 12774 12773
3 12779 12786 12787
3 12773 12774 12775
3 12466 13253 13250
3 12777 12776 13535
3 12785 12780 12779
3 13247 13535 12776
3 13243 12778 621
3 12389 12778 12384
3 315 13248 12786
3 12785 12779 12787
3 12400 12780 12394
3 12781 12780 12401
3 12782 12781 12401
3 12786 12781 315
3 12783 12782 12401
3 12782 12484 12494
3 12404 12783 12401
3 12489 12783 12403
3 12458 12472 13249
3 12787 12776 12777
3 12775 12785 12777
3 12780 12785 12394
3 13248 315 12464
3 12787 12786 12784
3 12787 12784 13251
3 12787 12777 12785
3 12415 12788 12038
3 12041 12788 12408
3 13259 10492 10935
3 12430 12789 12428
3 10492 12790 10191
3 12413 12790 12789
3 13261 12796 12800
3 13261 15121 12791
3 9433 213 12792
3 12798 213 12421
3 12791 12792 12793
3 12792 213 12798
3 12426 13544 12794
3 12791 12793 12794
3 6796 15123 12799
3 12794 12796 13261
3 12796 12794 13544
3 13546 6805 12797
3 12795 12800 12797
3 13544 13545 12796
3 12430 12798 12421
3 12792 12798 12793
3 15123 6796 408
3 12797 12799 12795
3 13261 12800 12795
3 13546 12800 12796
3 12802 12801 12441
3 12440 12801 12068
3 12441 12803 12802
3 12068 12802 11682
3 12803 12441 12806
3 12806 12805 12803
3 12808 12441 13263
3 13549 13807 13547
3 13558 12804 13807
3 12443 14026 14028
3 12441 12801 13263
3 12805 12806 12804
3 13263 12442 13267
3 12808 12807 12809
3 12441 12808 12806
3 13272 12807 13271
3 13274 13547 12809
3 12808 12809 13807
3 14027 12069 14022
3 12443 12805 12810
3 15710 15709 15200
3 13279 13281 13278
3 12454 12812 533
3 12812 12456 12457
3 12081 12080 14020
3 13804 13795 13254
3 9550 12814 9545
3 164 12814 9551
3 12524 12815 12521
3 12816 12815 12364
3 12531 12816 12364
3 12717 12816 12365
3 11364 12817 12111
3 12116 12817 12534
3 12821 12818 11735
3 12817 12818 12534
3 12534 12818 12821
3 9983 12819 9591
3 12821 12825 12534
3 12823 12822 11077
3 13305 11736 11084
3 12825 12820 12819
3 9985 12820 12822
3 12822 12820 12825
3 12824 12823 11077
3 11083 12823 11081
3 11085 12824 11077
3 12824 11079 15180
3 12825 12819 13304
3 12822 12825 12821
3 12537 12826 12158
3 12539 11741 12826
3 12121 12827 11737
3 11377 12536 12828
3 11741 12828 12158
3 12543 12827 12828
3 11741 12842 12841
3 12832 12543 12840
3 13308 12833 12838
3 12835 12122 11737
3 12837 12838 12831
3 12541 12842 11741
3 12837 12832 12843
3 13308 12830 12851
3 12141 12839 12132
3 12838 12834 12831
3 12839 12834 12833
3 12122 12835 12831
3 12543 12835 11737
3 12847 12844 626
3 12840 12843 12832
3 12838 12837 12830
3 12835 12837 12831
3 13308 12838 12830
3 12834 12838 12833
3 12834 12839 12141
3 13568 12839 12833
3 12543 12828 12841
3 12843 12840 12836
3 12836 12840 12841
3 12543 12841 12840
3 12541 12844 12842
3 13811 12845 13309
3 12842 12850 12836
3 12852 12843 12836
3 12542 12844 12541
3 13307 12846 13577
3 12849 13315 13314
3 12847 12842 12844
3 13309 13315 13576
3 12842 12847 12850
3 13565 113 13566
3 12830 12843 12851
3 12847 13307 13577
3 13310 13316 13311
3 13576 12850 12847
3 12852 12850 12849
3 12843 12852 13314
3 13308 12851 12848
3 12850 12852 12836
3 12852 12849 13314
3 10632 11142 12854
3 12853 12886 12876
3 10633 10634 13317
3 12544 12853 12854
3 12856 12855 9334
3 12874 12855 399
3 12857 9334 9335
3 12856 9334 12857
3 12858 8765 8779
3 8765 12858 12857
3 12864 12861 8778
3 12857 12858 12860
3 12882 12873 12872
3 12860 399 12856
3 12861 12860 12858
3 12860 12861 12863
3 299 12865 13318
3 12861 12859 12863
3 12866 12868 13322
3 12864 13321 12861
3 12870 12863 12859
3 12879 12863 12869
3 13318 8778 8780
3 13319 13321 12862
3 13318 12862 12864
3 299 8809 12865
3 12910 13583 13812
3 12868 12862 12865
3 12872 12873 12859
3 12559 12871 244
3 8799 12868 12865
3 13319 12868 12866
3 12880 12891 12871
3 399 12860 12879
3 12859 13320 12872
3 12869 12870 12867
3 12880 12871 12559
3 12873 12867 12870
3 9856 12907 12909
3 12882 12893 12873
3 12859 12873 12870
3 13323 12882 12872
3 12889 12869 12877
3 12888 12887 12170
3 399 12879 12878
3 12549 12885 12547
3 12876 12886 12887
3 12888 12876 12887
3 12890 12878 12889
3 399 12878 12874
3 12877 12560 12890
3 12874 12878 12895
3 12863 12879 12860
3 12879 12869 12889
3 12561 12880 12559
3 12891 12560 12877
3 13323 12872 13580
3 12884 12563 12568
3 12892 12882 12881
3 12882 12892 12893
3 13323 12881 12882
3 12896 12894 12902
3 12564 12884 12568
3 12896 12884 12897
3 12546 12885 12549
3 12895 12885 12875
3 12874 12886 12544
3 12887 12886 12875
3 12885 12887 12875
3 12887 12546 13045
3 12545 12888 12170
3 12166 12876 12888
3 12890 12889 12877
3 12879 12889 12878
3 12562 12890 12560
3 12885 12890 12547
3 12891 12867 12893
3 12560 12891 12880
3 12892 12871 12893
3 13814 12881 13813
3 12891 12893 12871
3 12873 12893 12867
3 12897 12894 12896
3 12894 12905 12903
3 12874 12895 12875
3 12890 12895 12878
3 12897 12884 12883
3 12903 12900 12902
3 12883 12899 12897
3 12899 12906 12897
3 13816 12881 13323
3 12912 12906 12898
3 13584 12899 12883
3 12899 12898 12906
3 12955 13026 13338
3 15212 12569 12570
3 13813 13584 12883
3 12910 9858 9861
3 12903 12902 12894
3 12902 12900 15212
3 12906 12914 12905
3 12900 12903 648
3 12914 12913 12904
3 12905 12916 12903
3 12897 12906 12894
3 12905 12904 12915
3 12908 12912 12898
3 12894 12906 12905
3 12908 12907 183
3 12909 12907 12901
3 12912 12908 183
3 12899 13585 12898
3 12910 12909 13582
3 9856 12909 9337
3 13582 12901 13581
3 13582 13583 12910
3 12947 12904 12927
3 12940 12942 12936
3 12912 183 12919
3 12905 12914 12904
3 12919 12920 12917
3 12917 12921 12918
3 12906 12912 12914
3 12913 12914 12912
3 12915 12904 12947
3 12916 12915 12911
3 12953 12911 12951
3 12903 12916 648
3 12921 12917 12920
3 9852 10412 12918
3 12924 12918 10411
3 12923 12913 12919
3 12912 12919 12913
3 12920 12919 183
3 12907 12920 183
3 12921 12920 9856
3 9855 12921 9856
3 12918 12921 9852
3 12925 10410 12926
3 12932 12930 12931
3 12924 12928 12937
3 12913 12927 12904
3 10411 10851 12925
3 12924 12922 12928
3 11235 12926 10410
3 12924 12925 12930
3 242 13588 12931
3 12924 12930 12922
3 12938 12927 12923
3 12936 12911 12915
3 12946 12928 12922
3 12940 12927 12938
3 13589 13588 242
3 12934 12922 12932
3 12925 12926 12930
3 12931 12930 12926
3 242 12931 12926
3 12931 12929 12932
3 12935 12932 12929
3 12935 12934 12932
3 12957 12960 12958
3 12941 12969 12962
3 12943 12934 12933
3 574 12939 12946
3 12935 12929 12959
3 12934 12935 12933
3 12940 12938 12939
3 12940 574 12970
3 12924 12937 12918
3 12938 12937 12928
3 12937 12938 12923
3 12939 12938 12928
3 12939 12928 12946
3 12940 12939 574
3 12970 12945 12969
3 12940 12936 12947
3 12934 12943 574
3 12943 12945 574
3 12965 12966 12941
3 12911 12936 12949
3 12943 12956 12945
3 12956 12943 12933
3 12944 12956 12958
3 12963 12965 12964
3 12962 12945 12944
3 12942 12969 12941
3 12922 12934 12946
3 12946 12934 574
3 12940 12947 12927
3 12915 12947 12936
3 480 12999 12993
3 12949 12951 12911
3 12936 12942 12949
3 12950 12949 12942
3 12941 12950 12942
3 12950 12948 12951
3 12954 12951 12948
3 12916 12953 648
3 12967 12948 12966
3 13026 13027 13025
3 12911 12953 12916
3 12953 12951 12954
3 13005 12948 12967
3 12954 12952 12955
3 13337 13027 13024
3 648 12953 12955
3 12961 12959 13595
3 12944 12945 12956
3 12959 12933 12935
3 12957 12958 12961
3 12961 12956 12933
3 12957 12971 12960
3 13591 13587 13588
3 13634 32 13625
3 12974 13011 13014
3 12958 12960 13013
3 12956 12961 12958
3 12933 12959 12961
3 13014 13006 12974
3 12941 12962 12964
3 13012 12964 12962
3 12960 529 13006
3 13012 12962 12944
3 12965 12963 12975
3 12965 12967 12966
3 12950 12966 12948
3 12941 12966 12950
3 12967 12965 135
3 13007 12981 135
3 12954 12948 13005
3 135 12981 13017
3 13028 13016 12968
3 12942 12940 12970
3 12962 12969 12945
3 12945 12970 574
3 12942 12970 12969
3 13599 12959 13587
3 13594 13587 13324
3 13622 13616 13611
3 13332 13608 13331
3 13593 12971 12957
3 13612 13622 13624
3 13329 13006 13330
3 12975 12977 135
3 13335 12963 13012
3 135 12965 12975
3 12983 12986 12980
3 12979 12982 12978
3 12963 12977 12975
3 12979 12977 12976
3 12979 12983 12982
3 13008 13015 12999
3 12983 12980 12982
3 12979 12978 12981
3 12989 12994 14338
3 12982 12987 12978
3 12978 12987 12993
3 13017 12967 135
3 12983 12979 12976
3 12987 12982 12989
3 12985 12976 13334
3 12983 12976 12985
3 12984 12987 12989
3 12990 12984 12996
3 13604 13329 13326
3 12995 12991 12994
3 12983 12985 12988
3 13327 13328 13329
3 12989 12982 12980
3 12990 12987 12984
3 13328 12985 12974
3 12986 12983 12988
3 12995 12994 12980
3 12989 12980 12994
3 14339 14338 14336
3 12990 480 12993
3 13918 13658 14335
3 13003 12992 14342
3 12992 13002 12998
3 12996 12998 12990
3 12998 13018 13010
3 12978 12993 13015
3 12995 12980 12986
3 14336 14338 12991
3 12986 481 12995
3 14160 12995 481
3 12984 14338 14346
3 12996 12992 12998
3 12997 13032 13016
3 13008 12981 13015
3 13003 13002 12992
3 13031 13019 12999
3 13010 480 12998
3 12999 12997 13008
3 13018 13001 13029
3 13001 13003 13004
3 13037 12997 13019
3 14340 14342 12992
3 13002 13001 13018
3 13001 13004 13000
3 13001 13002 13003
3 13017 13005 12967
3 13003 224 13004
3 12954 13005 12968
3 13610 13607 13331
3 13334 13011 12974
3 12977 13007 135
3 12979 12981 13007
3 13016 13008 12997
3 12968 13005 13017
3 13018 13009 13010
3 13009 13038 13030
3 12998 13002 13018
3 13010 13009 13019
3 13012 12963 12964
3 13012 13013 13011
3 13013 13012 12944
3 13011 13335 13012
3 12958 13013 12944
3 12960 13006 13014
3 13011 13013 13014
3 12960 13014 13013
3 12978 13015 12981
3 12999 13015 12993
3 13035 13037 13030
3 12968 13016 13021
3 12981 13008 13017
3 13008 13016 13028
3 13029 13001 13000
3 13039 13044 13029
3 13030 13019 13009
3 12999 13019 12997
3 13043 259 13040
3 12968 13021 12952
3 13016 13022 13021
3 13027 13022 13024
3 13032 13022 13016
3 13024 13022 13020
3 13042 13041 13354
3 13921 13923 13339
3 13336 13020 13035
3 13023 13337 13024
3 15213 15214 15212
3 648 13338 12900
3 13027 12952 13021
3 13026 13025 13338
3 12952 13027 13026
3 13022 13027 13021
3 12968 13017 13028
3 13008 13028 13017
3 357 13342 13033
3 13039 13344 13345
3 13038 13044 13036
3 13035 13030 259
3 480 13031 12999
3 13010 13019 13031
3 13032 12997 13037
3 13022 13032 13020
3 13346 13034 13344
3 13029 13000 13033
3 13660 15244 13661
3 13336 13035 259
3 13035 13020 13032
3 13009 13018 13044
3 13030 13040 259
3 13030 13037 13019
3 13032 13037 13035
3 13038 13009 13044
3 13040 13038 13036
3 13029 13342 13039
3 13342 13344 13039
3 13034 13662 13036
3 13346 13349 13034
3 13349 13351 13034
3 13921 14162 13920
3 13662 13351 13663
3 13354 13041 13352
3 13040 13662 13663
3 13042 13354 13043
3 13029 13044 13018
3 13044 13039 13036
3 12887 13045 12170
3 13045 12546 12551
3 12197 13049 13048
3 13051 13048 13052
3 15223 15230 15225
3 576 13703 13700
3 13049 12197 12199
3 15216 13052 13048
3 586 15217 12199
3 15217 13049 12199
3 13052 15227 13050
3 13699 13700 13146
3 13048 13051 13046
3 13050 13987 13393
3 15240 15227 13052
3 13051 13052 13050
3 12610 13070 12611
3 13356 11825 12619
3 13054 13667 13669
3 13057 13056 12606
3 12606 13056 13055
3 13055 13056 14198
3 12606 12609 13057
3 13054 13669 13677
3 13359 13057 12607
3 13054 13056 13057
3 13060 13058 14197
3 12616 13058 12603
3 14183 13680 13679
3 13929 13931 13364
3 14197 13058 403
3 14202 13062 13063
3 12614 13061 12615
3 12603 13060 13061
3 13365 13927 13929
3 13686 13086 13691
3 13063 13060 14202
3 13363 13063 13062
3 13055 13064 12606
3 12612 12613 13064
3 13069 13073 87
3 12610 12615 13065
3 13071 13073 13066
3 13075 531 13097
3 87 13067 13065
3 13072 13077 13071
3 13071 13067 13073
3 13355 13366 13053
3 13368 13682 13369
3 13066 13080 13074
3 13071 13070 13067
3 12611 13070 13068
3 13072 13071 13066
3 13070 13071 13068
3 13072 13066 13074
3 13076 12622 12624
3 87 13073 13067
3 13078 13073 13069
3 13073 13078 13080
3 13083 13081 13074
3 12622 13072 13075
3 13074 13075 13072
3 13356 13076 11825
3 13053 13366 13077
3 13072 13076 13077
3 13053 13077 13076
3 13084 13089 13087
3 13083 13085 13087
3 13370 13374 13375
3 13090 12639 13092
3 13073 13080 13066
3 13083 13080 13078
3 13074 13080 13083
3 13373 13091 13094
3 13376 13079 13378
3 13105 13982 13108
3 13083 13078 13085
3 13081 13083 13087
3 13367 13088 13078
3 13084 13085 13088
3 13367 13078 13069
3 13087 13085 13084
3 13682 13069 87
3 13685 13692 13686
3 13689 13690 13688
3 13087 13079 13081
3 13078 13088 13085
3 13086 13692 13688
3 13089 211 13372
3 13087 13089 13378
3 13092 12639 12638
3 13106 13102 13104
3 13373 13370 13091
3 13092 13095 13090
3 13093 13092 12638
3 13093 13095 13092
3 12638 12623 13093
3 13096 13093 12623
3 13373 13081 13079
3 13091 13093 13096
3 13370 13095 13091
3 13095 13082 13090
3 13096 12623 13097
3 13091 13096 13094
3 13096 13097 531
3 12625 13097 12623
3 13098 13099 13104
3 13101 12631 12641
3 12639 13099 12630
3 13104 13099 521
3 13106 13090 13107
3 13118 13696 13697
3 13103 13380 13101
3 12631 13111 13110
3 13106 521 13090
3 13108 13695 13102
3 13380 13103 13098
3 12641 13103 13101
3 13106 13104 521
3 13380 13104 13102
3 13082 13095 13370
3 14221 13982 14219
3 13107 13090 13082
3 13106 13105 13108
3 13375 13107 13082
3 13105 13106 13107
3 13983 13980 13984
3 13695 13108 13100
3 12632 13109 11843
3 13109 12631 13110
3 13111 12631 13101
3 13110 13111 13386
3 13698 13385 13386
3 13386 13112 13110
3 13113 13112 12261
3 12262 13110 13112
3 13120 13119 13117
3 13113 12643 13114
3 13116 13115 13117
3 12262 13114 12264
3 13121 404 13122
3 12264 13114 13115
3 13119 13382 123
3 13117 13115 12643
3 123 13116 13117
3 13120 12643 13113
3 13119 13120 13384
3 13387 13384 13385
3 13113 12261 13120
3 13384 13120 12261
3 13123 13122 404
3 12644 13121 13127
3 12642 13126 12251
3 12585 13124 12584
3 13125 13123 12585
3 13126 13125 12251
3 13123 404 13124
3 13125 13122 13123
3 12264 13115 13126
3 13127 13126 13115
3 12644 13127 13115
3 13121 13122 13127
3 13046 13128 12572
3 13389 13128 231
3 13393 13392 231
3 13709 13146 13703
3 13138 13130 12650
3 12653 13130 12652
3 13131 575 13139
3 12653 13131 12287
3 13146 13709 13145
3 13131 13137 575
3 13140 13133 13139
3 12660 13134 12659
3 12654 13134 12660
3 13134 13133 13135
3 13135 13140 13143
3 13152 13143 13151
3 12287 13136 12655
3 13134 13136 13133
3 12652 13130 13138
3 575 13137 13132
3 13388 13138 12650
3 13129 13145 13138
3 13140 13139 575
3 13144 13133 13136
3 13143 13149 13142
3 13133 13140 13135
3 13147 13149 13150
3 14231 14232 14230
3 33 13418 14238
3 13150 13140 575
3 14236 13142 14357
3 12287 13131 13144
3 13139 13144 13131
3 13146 13145 13129
3 13132 13138 13145
3 13699 13146 13129
3 13149 13706 13142
3 13710 13132 13708
3 13703 13146 13700
3 13423 13414 13418
3 13152 13135 13143
3 13150 13149 13143
3 13707 13147 13708
3 13140 13150 13143
3 13150 575 13710
3 14233 14235 14238
3 13151 13148 13152
3 13148 13418 13416
3 13390 13152 12658
3 13154 13153 12297
3 12663 13153 12661
3 12296 13154 12297
3 13154 12295 12694
3 11508 13155 12662
3 13155 396 11539
3 13176 13157 13395
3 13159 13157 13158
3 13156 13162 13177
3 13665 13396 13160
3 13159 13158 12680
3 13157 13711 13158
3 12668 13159 12680
3 13161 13395 12672
3 13666 13711 13397
3 13665 13358 13362
3 12673 13161 12672
3 13162 13161 12671
3 13167 13168 13398
3 484 13162 13166
3 13162 12671 13167
3 13402 13409 13400
3 13169 13173 13164
3 13171 13172 13400
3 13172 13169 13165
3 13162 13167 13169
3 13166 13164 13719
3 13168 13167 12671
3 13167 13165 13169
3 12673 13168 12671
3 12674 264 13398
3 13173 13171 13174
3 13164 13166 13169
3 13401 13398 264
3 13169 13172 13173
3 13400 13409 13171
3 13401 13403 13398
3 13172 13171 13173
3 13171 13409 13174
3 13173 13174 15273
3 153 15273 13175
3 13174 13175 15273
3 15299 13925 13676
3 13174 13170 13175
3 13397 222 13666
3 13714 13177 484
3 13395 13177 13176
3 12688 13178 12690
3 12678 13178 12693
3 10417 13179 12334
3 12712 13179 12715
3 12708 13180 11931
3 12721 13180 12710
3 12352 13182 13181
3 13425 13182 12354
3 12363 13182 12352
3 13425 12354 11613
3 13185 11613 11626
3 13186 13185 11627
3 13425 13181 13182
3 13187 13184 13183
3 13186 11627 37
3 13185 13183 13425
3 37 11579 13186
3 11940 13188 12336
3 13189 13187 13188
3 13187 13189 12722
3 12336 13188 11579
3 13187 13186 13188
3 12335 13189 11940
3 12722 13189 11931
3 13191 13190 11945
3 13448 13190 12723
3 11629 13192 13191
3 13238 13193 13191
3 13192 11629 11950
3 12341 13191 13192
3 12723 13191 13193
3 13238 13191 12341
3 13770 13194 12725
3 13196 13197 13198
3 13198 13429 13427
3 13740 13729 13739
3 13438 13430 539
3 539 13210 13438
3 13201 13194 126
3 13197 13196 13200
3 13201 13720 13198
3 13431 13427 13195
3 13200 13430 13199
3 13439 12732 12743
3 13430 13200 13196
3 12726 13200 13199
3 13720 13201 126
3 13197 13201 13198
3 13205 13202 486
3 12727 13202 12728
3 11632 11634 13443
3 13449 13206 13750
3 11632 13204 11951
3 13205 13204 13203
3 13207 13441 13449
3 13205 12728 13202
3 13426 13720 13752
3 12725 12728 13748
3 13449 13441 13440
3 13750 13207 13449
3 10470 13208 10474
3 12733 13208 281
3 13458 13209 13457
3 13209 13458 13459
3 12325 13210 539
3 12737 12732 13210
3 13212 13211 10163
3 12742 13211 12741
3 10446 13212 10163
3 13460 13212 10445
3 13467 13470 13466
3 13218 12767 13222
3 13223 13219 13220
3 13218 13222 13214
3 12745 13215 12349
3 125 13214 13215
3 13478 13469 13466
3 13235 13484 13483
3 13232 13233 13236
3 13227 13228 351
3 13219 13214 125
3 13216 13472 13218
3 13219 125 13220
3 13216 13218 13219
3 12759 13220 125
3 12749 12758 13461
3 13222 13221 13214
3 13221 13217 13229
3 13232 13222 12767
3 13221 13222 13217
3 13471 13213 13474
3 13219 13223 13216
3 13224 12756 13464
3 13474 13465 13475
3 13461 13220 12749
3 13465 13225 13224
3 12744 13226 11990
3 13227 13226 12768
3 13226 13227 11973
3 12768 13221 13229
3 13231 13217 13232
3 13239 12342 351
3 13231 13229 13217
3 13227 13229 13228
3 13230 13236 13237
3 13241 13238 13234
3 13217 13222 13232
3 13234 13231 13230
3 13232 12767 13233
3 13230 13231 13232
3 13240 13218 13235
3 12767 13240 13233
3 13234 13230 13241
3 13234 13238 13239
3 13467 13469 13472
3 13469 13235 13472
3 13236 350 13237
3 13232 13236 13230
3 350 13482 13494
3 13447 13454 269
3 13193 13238 12340
3 13239 13238 12341
3 12342 13239 12341
3 13228 13234 13239
3 13218 13240 12767
3 13483 13240 13235
3 13230 13237 13241
3 13241 13237 13455
3 14394 14019 14395
3 14448 14491 14490
3 13244 13243 12773
3 13245 13243 13244
3 13534 13244 12773
3 13244 12772 14399
3 13245 13242 14489
3 12384 13243 13245
3 13246 13250 13253
3 13247 12776 13258
3 12776 13252 13258
3 13792 13788 13536
3 13249 13248 12458
3 12786 13248 12784
3 13250 13249 12466
3 12787 13251 12776
3 12466 12474 13253
3 13251 13252 12776
3 12784 13249 13251
3 13252 13249 13250
3 13250 13246 13252
3 13246 13257 13258
3 13255 13256 13537
3 13253 590 13256
3 14276 14267 14272
3 14264 13789 13790
3 12474 13793 590
3 13255 13804 13802
3 13256 590 13793
3 13803 13256 13255
3 13805 13806 13803
3 13789 13536 13788
3 13246 13258 13252
3 13258 13257 13788
3 13259 353 13260
3 12790 13259 12789
3 353 13540 13260
3 13542 13541 13543
3 12795 15123 15121
3 12794 13261 12791
3 13542 12426 13260
3 7560 7561 13545
3 13267 12442 13266
3 12808 13263 12807
3 640 13282 13286
3 13270 13271 13267
3 13265 13551 13553
3 15707 15704 15703
3 13263 13267 12807
3 13266 12811 13268
3 13280 13273 13275
3 13270 13269 13271
3 13267 13266 13268
3 13267 13268 13270
3 13269 13275 13281
3 13268 12811 13270
3 13270 13276 13275
3 13271 13269 13272
3 13267 13271 12807
3 13269 13281 13283
3 13274 13272 640
3 13547 13274 640
3 13270 13275 13269
3 12807 13274 12809
3 13270 12811 13276
3 13278 13264 13279
3 12811 15703 15712
3 13280 334 13277
3 13290 13285 13289
3 13276 13280 13275
3 13273 13278 13281
3 13272 13269 13283
3 334 13280 13276
3 13273 13280 13277
3 13281 13275 13273
3 13283 13281 13279
3 13292 13293 13297
3 13290 13296 13301
3 13291 13283 13279
3 13272 13283 13282
3 13284 13294 13300
3 15315 15316 15314
3 13291 13279 13292
3 13295 13548 13550
3 13282 13291 13289
3 13548 13286 13285
3 13300 13294 13290
3 13282 13283 13291
3 13286 13289 13285
3 13282 13289 13286
3 13289 13288 13290
3 13296 13288 13297
3 13290 13288 13296
3 13292 13279 13264
3 13289 13291 13288
3 13287 13296 13297
3 13288 13291 13292
3 15312 13550 13284
3 13292 13264 13293
3 13285 13290 13294
3 15303 13284 13300
3 13551 13295 13552
3 13299 13301 30
3 13296 13298 13301
3 13292 13297 13288
3 13287 13297 13293
3 15304 15318 15321
3 13296 13287 13298
3 15303 15305 15313
3 13301 13300 13290
3 13299 15311 15306
3 30 13301 13298
3 13301 13299 13300
3 14020 11703 11700
3 13302 12813 12468
3 12115 13303 173
3 13304 13303 12114
3 12116 13304 12114
3 12825 13304 12534
3 12822 13305 11077
3 11735 13305 12821
3 12848 13311 13313
3 13313 13311 13312
3 12847 626 13307
3 113 13567 13566
3 13811 0 13579
3 13315 12845 13310
3 13310 13314 13315
3 12829 13311 13316
3 13312 13306 13313
3 13314 13311 12848
3 13569 13306 13565
3 13311 12829 13312
3 12848 13313 13308
3 12848 12851 13314
3 13314 12851 12843
3 13576 13315 12849
3 12845 13315 13309
3 12855 13317 9334
3 13310 12845 13316
3 10633 13317 12854
3 299 13318 8780
3 12862 13318 12865
3 13320 13319 398
3 12868 13319 12862
3 13320 398 13580
3 13320 12859 13321
3 12861 13321 12859
3 12862 13321 12864
3 8808 13322 8799
3 13812 9859 9858
3 13581 13323 13580
3 12908 12898 13585
3 13646 13631 13654
3 13596 12973 13597
3 12986 13601 481
3 13327 13601 12986
3 13600 13603 13606
3 12988 13327 12986
3 12988 12985 13328
3 13325 13612 13624
3 13328 12974 13329
3 12988 13328 13327
3 12974 13006 13329
3 13330 13006 529
3 13330 13332 13331
3 13326 13329 13330
3 13332 13330 529
3 13608 12973 13609
3 529 12973 13332
3 13608 13332 12973
3 12985 13334 12974
3 14336 14160 13918
3 13334 12976 12977
3 13011 13334 13335
3 12977 13335 13334
3 13043 13354 259
3 13024 13020 13336
3 13340 13339 13341
3 13027 13337 13025
3 13338 648 12955
3 13340 13341 13025
3 13340 13025 13337
3 13921 13340 13023
3 13337 13023 13340
3 13023 14162 13921
3 13341 13339 15213
3 13025 13341 13338
3 13033 13342 13029
3 13343 13346 13659
3 357 13344 13342
3 13034 13345 13344
3 13344 13659 13346
3 13034 13036 13345
3 13039 13345 13036
3 13348 13349 13350
3 13349 13346 13350
3 15268 15261 15267
3 13346 13343 13347
3 13661 13041 13042
3 13350 13346 13347
3 13351 13349 13348
3 13347 79 13350
3 15270 13350 79
3 13351 13348 13919
3 13663 13043 13040
3 13352 13041 13924
3 13023 13024 13353
3 259 13354 13336
3 13353 13352 14162
3 13352 13353 13354
3 13353 13336 13354
3 12600 13355 12596
3 13366 13355 12595
3 13357 13356 11826
3 13076 13356 13053
3 13357 11826 330
3 13357 12596 13355
3 13396 13665 12682
3 13359 13668 13057
3 13360 13359 12607
3 13358 13667 13668
3 12608 13360 12607
3 11871 13361 11870
3 11859 12684 13362
3 13358 13360 13361
3 13665 13362 12682
3 13358 13361 13362
3 13063 13363 12615
3 13062 13927 13363
3 13929 13927 13681
3 13948 13683 13941
3 14203 13927 13062
3 13368 13683 13685
3 12595 13068 13366
3 13077 13366 13068
3 13069 13682 13691
3 13088 13367 13086
3 13369 87 13363
3 13364 13683 13365
3 13363 13365 13369
3 13683 13369 13365
3 13376 13378 13372
3 13377 13370 13376
3 13965 13970 14218
3 13973 13983 14225
3 13964 13372 211
3 13372 13371 13376
3 13081 13373 13094
3 13079 13370 13373
3 13975 13371 13967
3 13375 13105 13107
3 13370 13375 13082
3 13375 13374 14225
3 13377 13376 13371
3 13079 13376 13370
3 13371 13975 13973
3 13370 13377 13374
3 13087 13378 13079
3 13372 13378 13089
3 14224 13387 13100
3 13698 13386 13111
3 13104 13380 13098
3 13380 13102 13695
3 13109 13381 220
3 12262 13381 13110
3 14223 14221 14224
3 13696 13382 13119
3 13382 13696 13118
3 13385 13384 12261
3 13384 13383 13696
3 13386 13385 12261
3 13387 13385 13379
3 13112 13386 12261
3 13698 13111 13101
3 13387 13379 13695
3 13383 13384 13387
3 13389 13388 12648
3 13138 13388 13129
3 13128 13389 12648
3 13393 231 13051
3 13405 13404 13407
3 13134 13390 12659
3 13392 13389 231
3 13701 13702 14226
3 13699 13392 13391
3 13129 13389 13392
3 13050 13393 13051
3 13391 13392 13393
3 14231 13141 14232
3 13394 13707 13708
3 13395 13156 13177
3 13157 13159 13395
3 12684 13396 12682
3 13158 13396 12677
3 13157 13176 13712
3 13675 13671 13672
3 13400 13403 13401
3 13167 13398 13165
3 13410 13411 13401
3 13415 13412 12658
3 13403 13172 13165
3 13402 13400 13399
3 264 12666 13406
3 13399 13400 13401
3 13399 13417 13422
3 13174 13409 13170
3 13172 13403 13400
3 13398 13403 13165
3 13405 12659 13390
3 13411 13399 13401
3 13390 12658 13405
3 13405 12658 13412
3 12666 12298 13406
3 13407 13406 12298
3 13407 12298 12656
3 13407 12659 13405
3 13163 13409 13402
3 13163 13408 13409
3 13170 13409 13408
3 13406 13410 264
3 13410 13404 13411
3 13412 13404 13405
3 13411 13404 13412
3 13402 13399 13422
3 13412 13415 13417
3 13152 13148 13416
3 13417 13411 13412
3 13416 13418 13414
3 13416 12658 13152
3 13417 13415 13414
3 13414 13415 13416
3 13416 13415 12658
3 13419 13417 13414
3 13411 13417 13399
3 14236 14233 14238
3 13419 13423 13413
3 13419 13414 13423
3 13163 13402 13422
3 13417 13419 13422
3 33 13420 13423
3 13419 13413 13421
3 13421 13422 13419
3 33 13423 13418
3 13423 13420 13413
3 13185 13425 11613
3 15277 13716 15275
3 13425 13183 13184
3 13763 13456 13762
3 13426 13768 13769
3 13196 13198 13427
3 13721 13429 13720
3 13721 13426 13722
3 13429 13740 13427
3 13720 13429 13198
3 13429 13428 13740
3 13431 13196 13427
3 13434 13431 13433
3 13195 13739 13725
3 13196 13431 13430
3 13731 13730 11568
3 13434 13430 13431
3 13739 13724 13725
3 13433 13432 13434
3 13437 13434 13432
3 13430 13436 539
3 13730 13432 13726
3 12700 13746 11914
3 13434 12697 13436
3 12699 13436 12697
3 13730 13437 13432
3 12697 13437 13435
3 13439 13438 12732
3 13430 13438 13199
3 12726 13439 11957
3 13438 13439 13199
3 13440 13441 13446
3 13447 13450 13440
3 13205 13441 13207
3 13446 13441 13203
3 13203 13204 13444
3 13190 13448 11278
3 11278 13443 11634
3 13442 13446 13444
3 11632 13444 13204
3 13442 13444 13443
3 13451 14009 14008
3 13737 13769 630
3 13444 13446 13203
3 13447 13446 13442
3 13446 13447 13440
3 13448 13447 13442
3 11278 13448 13442
3 13452 13453 12723
3 13450 13449 13440
3 13206 13449 13445
3 14002 13450 269
3 13449 13450 13445
3 13455 13452 12340
3 13455 13237 13498
3 13193 12340 13452
3 12340 13241 13455
3 13451 14008 13454
3 12723 13453 13448
3 13448 13454 13447
3 13451 13454 13453
3 13778 13496 13779
3 13451 13452 13455
3 13762 13750 13206
3 13770 13456 13763
3 10474 13457 10433
3 13458 13457 12735
3 12736 13458 12735
3 13459 13458 12734
3 13459 12734 12739
3 12741 13212 13460
3 13209 13459 13460
3 12741 13460 13459
3 12756 13224 13461
3 13225 13461 13224
3 12753 13463 13464
3 13773 13462 14001
3 12406 13463 12764
3 13463 13462 13464
3 13224 13464 13462
3 12753 13464 12756
3 13225 13465 13213
3 13772 13224 13462
3 13223 13467 13216
3 13471 13468 13470
3 13471 13223 13213
3 13467 13466 13469
3 13468 13474 13475
3 13480 13466 13492
3 13500 13480 13488
3 13478 13484 13469
3 13471 13470 13467
3 13470 13468 13481
3 13223 13471 13467
3 13213 13465 13474
3 13218 13472 13235
3 13467 13472 13216
3 13500 13488 13473
3 13487 13506 13479
3 13475 13465 614
3 13468 13471 13474
3 14261 13475 614
3 13503 13504 13477
3 13995 13775 14262
3 13481 13502 13489
3 13995 13996 13998
3 13491 13489 13502
3 13480 13478 13466
3 13485 13484 13478
3 13482 13483 13479
3 13487 13479 13485
3 13470 13481 13492
3 13480 270 13488
3 13468 13475 13504
3 13780 13503 13509
3 13483 13482 13233
3 13494 13479 13493
3 13240 13483 13233
3 13235 13469 13484
3 13485 13478 13473
3 13483 13484 13479
3 13487 13485 13473
3 13479 13484 13485
3 13512 13515 13528
3 13479 13494 13482
3 13511 13487 13515
3 13487 13486 13506
3 13508 13488 270
3 13488 13515 13473
3 13492 13489 13480
3 13509 13503 13477
3 13510 13490 13517
3 13490 13510 13491
3 13510 13517 13518
3 270 13526 13527
3 13470 13492 13466
3 13489 13492 13481
3 14010 13777 14011
3 14009 13455 13498
3 13494 14010 13779
3 13499 13496 13498
3 14010 14011 13497
3 14011 13495 13778
3 13499 13498 13237
3 14006 14007 13495
3 13777 14010 13506
3 13497 14011 13778
3 13499 13237 350
3 13498 13496 14009
3 13494 13779 350
3 13499 350 13779
3 13473 13478 13500
3 13480 13500 13478
3 13526 13510 13525
3 14115 14082 14096
3 13468 13504 13481
3 13490 13491 13502
3 13490 13502 13503
3 13503 13502 13481
3 13477 13504 13475
3 13481 13504 13503
3 13505 13518 13523
3 14115 14096 14116
3 13777 13506 13486
3 13479 13506 13493
3 13507 13512 13530
3 13529 13784 13530
3 13491 13510 13526
3 13512 13508 13501
3 14381 13509 13477
3 13781 13780 13476
3 13513 13517 13780
3 13510 13505 13525
3 13515 13487 13473
3 13507 13530 13784
3 13516 13512 13501
3 13512 13507 13515
3 13519 13781 13522
3 13510 13518 13505
3 15528 15532 15531
3 13527 13501 13508
3 13515 13488 13528
3 13507 13511 13515
3 14411 14106 14115
3 13516 572 13531
3 13780 13517 13490
3 13518 13517 13513
3 13513 13519 13518
3 13524 13519 542
3 13513 13780 13781
3 14687 14015 14671
3 13781 13994 14378
3 14445 14672 14014
3 14669 14666 14659
3 15533 15537 14659
3 13781 13519 13513
3 13520 14377 14015
3 13519 13523 13518
3 15538 13521 15534
3 13521 13523 13524
3 13519 13524 13523
3 15536 13525 13505
3 13525 13514 13526
3 13527 13526 13514
3 270 13491 13526
3 13514 15540 15541
3 270 13527 13508
3 13488 13508 13528
3 13512 13528 13508
3 15544 14016 14143
3 13511 13533 13486
3 13512 13516 13530
3 13530 13516 13531
3 15543 13531 572
3 13530 13531 13529
3 572 14129 15543
3 14138 14142 14136
3 13784 13511 13507
3 13785 13533 13532
3 13244 13534 12772
3 12773 12775 13535
3 13247 13534 13535
3 13535 13534 12773
3 14293 14019 14394
3 13792 13536 14394
3 13801 13796 13797
3 13255 13537 13795
3 14270 14268 14267
3 14264 14018 14392
3 12428 12789 13539
3 13259 13539 12789
3 9978 13540 353
3 13540 9537 13541
3 9976 13541 9537
3 13543 6825 7560
3 13542 13262 13544
3 13540 13542 13260
3 13542 13543 13262
3 6825 13543 13541
3 13542 13544 12426
3 13545 13544 13262
3 21 13546 13545
3 13545 13546 12796
3 6805 13546 21
3 13546 12797 12800
3 13286 13548 640
3 13554 13549 13265
3 13550 13548 13285
3 13551 13548 13295
3 12810 13558 12069
3 13549 13558 13807
3 13285 13294 13550
3 13284 13550 13294
3 15307 15313 15308
3 13265 13548 13551
3 13553 13552 13557
3 13551 13552 13553
3 14021 13562 13555
3 13549 13554 12069
3 13265 13553 13554
3 13557 13562 13559
3 13555 13562 13561
3 14021 13556 13562
3 13559 13553 13557
3 14295 13808 14297
3 13552 13560 13557
3 13563 13560 325
3 12804 13558 12810
3 13549 12069 13558
3 12069 13559 13556
3 13553 13559 13554
3 15315 13560 13552
3 14321 13563 325
3 14321 13561 13563
3 14296 14297 14453
3 13559 13562 13556
3 13557 13560 13563
3 13561 13562 13563
3 13557 13563 13562
3 13568 13566 12132
3 15304 14030 15318
3 13569 13313 13306
3 13569 13566 13568
3 13571 13570 12147
3 13573 13567 12153
3 12839 13568 12132
3 13308 13568 12833
3 13313 13569 13308
3 13565 13566 13569
3 13572 13574 13575
3 13567 113 13570
3 12153 13567 13571
3 12155 13573 12153
3 12147 13575 13571
3 13566 13573 12132
3 13575 13574 12137
3 599 13574 13572
3 12155 13575 12137
3 13571 13575 12153
3 12850 13576 12849
3 13577 13576 12847
3 13578 13577 12846
3 13576 13577 13309
3 13320 13580 12872
3 13578 13811 13577
3 13811 13309 13577
3 13581 13580 398
3 13581 398 13583
3 13586 13584 13816
3 12901 13582 12909
3 13583 13582 13581
3 13319 13583 398
3 13812 12866 13322
3 13323 13581 13586
3 13584 13585 12899
3 13586 13585 13584
3 12901 12908 13585
3 13581 12901 13586
3 13585 13586 12901
3 13588 13587 12929
3 13324 13657 13656
3 12931 13588 12929
3 242 11562 13589
3 11562 11565 13590
3 13324 13591 13589
3 11563 13648 13650
3 13324 13589 13590
3 13587 13591 13324
3 13588 13589 13591
3 529 13597 12973
3 13648 13647 13649
3 13595 13593 12957
3 13598 13596 13593
3 13592 13598 13594
3 13598 13595 13594
3 12961 13595 12957
3 13595 12959 13599
3 13629 13596 13592
3 13609 13596 12972
3 12971 13593 13597
3 13596 13597 13593
3 13596 13598 13592
3 13595 13598 13593
3 13587 13594 13599
3 13595 13599 13594
3 13623 13630 13325
3 13600 13894 14155
3 13602 13601 13327
3 13601 13602 13606
3 13327 13604 13602
3 13331 13607 13326
3 13895 13820 13892
3 14151 14152 14154
3 13329 13604 13327
3 13605 13604 13326
3 13600 13602 13605
3 13605 13602 13604
3 13600 13606 13602
3 13603 13601 13606
3 13325 13605 13607
3 13326 13607 13605
3 13607 13610 13325
3 13331 13608 13610
3 13596 13609 12973
3 12972 13608 13609
3 13613 13614 12972
3 13616 13612 13613
3 13612 13610 13614
3 13819 14031 275
3 13610 13608 13614
3 13612 13616 13622
3 13634 13625 13619
3 13613 13618 13616
3 12972 13614 13608
3 13612 13614 13613
3 13622 13835 13615
3 13630 13600 13605
3 13619 13617 13618
3 13620 13621 13618
3 13619 13625 13617
3 13621 13611 13616
3 12972 13635 13613
3 13618 13617 13620
3 13613 13619 13618
3 13635 13628 13634
3 13617 13633 13644
3 13620 13639 13831
3 13618 13621 13616
3 13833 13621 13620
3 13835 13622 13611
3 13624 13622 13615
3 14031 13819 13615
3 13819 13821 13895
3 13819 13624 13615
3 13623 13325 13624
3 13640 13627 13637
3 13637 13625 13640
3 14254 14253 14257
3 13644 13620 13617
3 13651 13636 13640
3 13637 13638 13633
3 13629 12972 13596
3 13652 13642 13655
3 13629 13592 13642
3 13629 13628 13635
3 13325 13630 13605
3 13894 13630 13623
3 13741 570 13728
3 13653 13636 13654
3 13827 13823 13824
3 534 13639 13822
3 13637 13633 13625
3 13633 13632 13645
3 13635 13634 13619
3 13634 13628 13652
3 13613 13635 13619
3 13635 12972 13629
3 13634 13641 13651
3 13646 13654 13636
3 13640 13625 32
3 13638 13637 13627
3 13638 13626 13828
3 13632 13633 13638
3 13639 13645 13822
3 13831 13639 534
3 13651 13640 32
3 13653 13640 13636
3 13629 13642 13652
3 13744 570 13741
3 13656 13592 13594
3 13590 11563 13650
3 13743 13735 13738
3 13643 13743 13742
3 13645 13644 13633
3 13620 13644 13639
3 13822 13645 13632
3 13644 13645 13639
3 13651 13646 13636
3 13649 13655 13642
3 13641 13655 13917
3 11564 13648 11563
3 570 13648 11564
3 13652 13655 13641
3 13656 13594 13324
3 13648 13649 13650
3 13657 13649 13656
3 13590 13650 13657
3 13634 13651 32
3 13646 13651 13641
3 13634 13652 13641
3 13629 13652 13628
3 13653 13627 13640
3 14257 13653 13643
3 13743 13654 13631
3 13653 13654 13643
3 13649 13647 13655
3 13917 13655 13647
3 13649 13642 13656
3 13592 13656 13642
3 13590 13657 13324
3 13649 13657 13650
3 14151 14154 13893
3 15545 15546 15547
3 15245 15259 15271
3 13344 357 13659
3 15246 15235 15244
3 13663 13661 13042
3 13661 13351 13919
3 13036 13662 13040
3 13034 13351 13662
3 13661 13663 13351
3 13043 13663 13042
3 15231 15238 15234
3 15241 13050 15227
3 13160 13666 13665
3 13667 13054 13668
3 13666 13160 13711
3 13667 13666 222
3 13666 13667 13665
3 13669 13667 222
3 13057 13668 13054
3 13358 13668 13359
3 13397 13712 13713
3 13678 13677 13669
3 14347 14177 13926
3 14186 13679 14164
3 13717 13715 13673
3 13674 13678 13680
3 13715 13397 13713
3 13672 13671 13678
3 13176 13714 13713
3 13675 13676 13671
3 13680 13671 13925
3 14198 13677 13674
3 13717 13672 222
3 13675 13673 13676
3 15281 15282 15296
3 15286 15285 15300
3 13678 13669 13672
3 13674 14189 14198
3 13680 13925 13679
3 13677 13678 13674
3 14186 14164 14163
3 14187 14186 14163
3 13671 13680 13678
3 13679 14186 14183
3 13928 14204 14203
3 13365 13929 13364
3 13369 13682 87
3 13368 13686 13691
3 13940 13364 13931
3 13369 13683 13368
3 13955 13684 13946
3 13688 13084 13088
3 13941 13683 13364
3 13948 13687 13692
3 13691 13086 13367
3 13368 13685 13686
3 13690 211 13089
3 13089 13084 13690
3 13086 13688 13088
3 13688 13687 13689
3 13694 13684 13958
3 13689 13687 13694
3 13688 13690 13084
3 211 13690 13689
3 13069 13691 13367
3 13368 13691 13682
3 13692 13685 13948
3 13688 13692 13687
3 13956 13946 423
3 13964 13968 13963
3 13684 13694 13687
3 13970 13694 13693
3 13387 13695 13100
3 13380 13695 13379
3 13384 13696 13119
3 14356 13697 13696
3 13380 13698 13101
3 14356 13696 13383
3 13385 13698 13379
3 13392 13699 13129
3 13699 13391 13700
3 13700 13986 13702
3 13985 13986 13987
3 13701 15262 15253
3 14229 14227 14228
3 13986 13700 13391
3 14227 13702 13701
3 13989 13703 576
3 13709 13394 13708
3 13703 13989 13394
3 13990 13705 13707
3 14234 13706 13705
3 13147 13706 13149
3 14234 13705 14232
3 13990 13394 13989
3 13705 13706 13707
3 13710 13708 13147
3 13132 13145 13709
3 13394 13709 13703
3 13132 13709 13708
3 13150 13710 13147
3 13132 13710 575
3 13158 13711 13160
3 13712 13711 13157
3 13713 13712 13176
3 13711 13712 13397
3 13176 13177 13714
3 13713 13673 13715
3 13718 13166 13719
3 13714 15296 13713
3 13717 13673 13675
3 222 13397 13715
3 15275 13719 13164
3 15291 15292 15288
3 13672 13717 13675
3 222 13715 13717
3 13166 13718 484
3 15281 13716 15280
3 15275 13164 15273
3 13718 13719 13716
3 13753 13751 13752
3 13721 13720 13426
3 13426 13756 14248
3 13429 13721 13428
3 13737 13729 13722
3 13428 13721 13722
3 13735 13736 13738
3 13728 11242 13727
3 13741 13733 13734
3 11568 13730 13726
3 13195 13725 13433
3 13725 13724 13726
3 570 11245 13728
3 11928 13727 11242
3 11568 13727 11928
3 13726 13724 13733
3 13733 13727 13726
3 13724 13734 13733
3 13722 13769 13737
3 13739 13729 13723
3 13731 11568 243
3 13437 13730 13435
3 13732 13731 243
3 13435 13730 13731
3 11918 13732 243
3 13732 11914 13746
3 13724 13739 13734
3 13727 13733 13728
3 13736 13734 13723
3 13741 13728 13733
3 13736 13723 13738
3 13745 13744 13735
3 13738 13723 13737
3 13741 13736 13735
3 13737 630 13738
3 13723 13729 13737
3 13742 13738 630
3 13738 13742 13743
3 13739 13723 13734
3 13740 13739 13195
3 13740 13195 13427
3 13729 13740 13428
3 13736 13741 13734
3 13744 13647 13648
3 13768 14375 14254
3 13643 13742 14257
3 13654 13743 13643
3 13631 13735 13743
3 13741 13735 13744
3 13745 13735 13631
3 13646 13745 13631
3 13647 13744 13745
3 12697 13746 12700
3 13746 13435 13731
3 13445 13747 13764
3 13445 13450 14002
3 13749 13748 12728
3 13770 13748 13456
3 13205 13749 12728
3 13749 13207 13750
3 13762 13206 13760
3 13749 13750 13456
3 13764 13991 13760
3 13751 13759 13757
3 13753 13752 13720
3 13755 13756 13757
3 13720 126 13753
3 13753 126 13763
3 13759 13761 13757
3 14247 13767 14243
3 13757 13752 13751
3 14375 14248 13993
3 13757 13756 13752
3 13756 13755 14248
3 13759 13751 13760
3 13755 13757 13761
3 13758 13760 13991
3 13758 13765 13761
3 13456 13750 13762
3 13761 13759 13758
3 13764 13760 13206
3 13758 13759 13760
3 13758 13991 13765
3 13754 14249 13761
3 13760 13751 13762
3 13751 13753 13763
3 13763 126 13770
3 13751 13763 13762
3 13445 13764 13206
3 13764 13747 13991
3 13765 347 13767
3 13761 13765 14247
3 14147 14017 14145
3 14146 14359 13766
3 14147 14149 14148
3 13767 13766 14243
3 14248 14249 13993
3 13827 14256 13823
3 13426 13769 13722
3 14254 13769 13768
3 13194 13770 126
3 13748 13770 12725
3 14477 14478 17
3 14377 14380 14014
3 13462 13773 13772
3 13773 13774 13772
3 14001 13462 12406
3 13774 13773 13771
3 13996 13774 13771
3 13774 614 13465
3 14262 14381 13995
3 13998 13775 13995
3 14150 14006 13787
3 14002 14003 13445
3 13785 13777 13486
3 13777 13785 13786
3 14007 13778 13495
3 13779 13496 13499
3 14010 13494 13493
3 13778 13779 13497
3 13503 13780 13490
3 13476 13780 13509
3 13994 13781 13476
3 13522 13781 13520
3 13994 13775 14376
3 14558 14379 14380
3 14092 14086 14094
3 14081 14111 14104
3 13784 13529 15544
3 13533 13784 13532
3 13785 15 13786
3 13533 13785 13486
3 15 14141 14013
3 14013 14011 13777
3 13767 14147 14145
3 14005 14003 13776
3 13258 13788 13247
3 13789 13788 13257
3 13790 13789 13257
3 13789 163 14293
3 13806 13257 13246
3 14265 14018 14264
3 14273 14018 14270
3 14587 14396 14491
3 13534 13792 12772
3 13788 13792 13247
3 13794 12468 12813
3 13256 13793 13537
3 13537 13793 13794
3 12468 13794 13793
3 13797 13537 13794
3 13798 13800 13795
3 12080 12448 14316
3 13799 13800 13796
3 13794 12813 13797
3 13801 12080 14319
3 441 14315 14316
3 13537 13798 13795
3 14271 14274 14278
3 13800 13254 13795
3 13796 13800 13798
3 13800 13799 14274
3 13797 12813 13801
3 14020 13801 12813
3 14269 14268 13802
3 13806 13805 13790
3 13803 13253 13256
3 13803 13802 13805
3 13795 13804 13255
3 14269 13804 13254
3 14268 13805 13802
3 13805 13538 14265
3 13257 13806 13790
3 13246 13803 13806
3 12808 13807 12804
3 13547 13807 12809
3 14024 11688 14025
3 14022 12069 13556
3 15314 15342 15344
3 14464 14457 14624
3 0 13811 13578
3 13810 15318 14030
3 12845 13811 13579
3 12910 13812 9858
3 13319 13812 13583
3 13815 12883 12884
3 13814 12564 12565
3 244 13814 12565
3 13815 13814 13813
3 12883 13815 13813
3 12564 13815 12884
3 13586 13816 13323
3 13813 13816 13584
3 13821 13863 13820
3 13887 13890 13888
3 13611 13621 13833
3 13836 13833 13834
3 13821 13819 275
3 13624 13819 13623
3 13868 13864 13862
3 13895 13892 13893
3 275 13868 13863
3 13820 13895 13821
3 13632 13824 13822
3 13822 13830 13829
3 14032 13827 13824
3 274 15550 15549
3 13638 13828 14032
3 13830 13824 13823
3 14252 14258 14253
3 14250 14255 13993
3 15550 274 14251
3 13846 13848 13839
3 14032 13824 13632
3 13825 14258 14256
3 13828 13626 14253
3 13825 13827 14032
3 13830 13822 13824
3 14373 13844 13829
3 14256 14259 13823
3 13829 13830 13826
3 13834 13831 534
3 13833 13836 13835
3 13832 13843 13841
3 13837 13838 13845
3 13620 13831 13833
3 13833 13831 13834
3 13844 13843 534
3 13834 13832 13836
3 13835 13818 14031
3 13611 13833 13835
3 13841 13838 13832
3 13835 13836 13818
3 13864 13840 13837
3 13838 14033 13836
3 13829 13844 534
3 13838 13837 13840
3 13854 13853 13839
3 13841 13845 13838
3 13852 13857 13837
3 13840 275 14031
3 13832 13834 13843
3 13841 13839 13845
3 13848 13849 13854
3 13839 13841 13846
3 534 13843 13834
3 13843 13842 13846
3 14373 13829 13826
3 13843 13844 13842
3 13849 133 13851
3 13853 13860 13845
3 13843 13846 13841
3 14369 13848 13842
3 14367 13847 14369
3 14366 14245 14363
3 13842 13848 13846
3 13849 13848 13847
3 14368 13849 13847
3 13875 13872 13882
3 13865 13870 13876
3 13915 14156 13903
3 13853 13851 13850
3 13854 13851 13853
3 13861 13857 13866
3 13837 13845 13852
3 13853 13850 13856
3 13839 13853 13845
3 13848 13854 13839
3 13849 13851 13854
3 13855 13857 13861
3 13863 13881 13820
3 13870 13877 13876
3 13860 615 13852
3 13866 13852 615
3 13857 13855 13862
3 13869 13870 13865
3 14062 14052 14047
3 14046 13874 13877
3 13845 13860 13852
3 13853 13856 13860
3 13907 13861 13911
3 13885 13888 13817
3 13884 13881 13883
3 275 13840 13868
3 275 13863 13821
3 13883 13862 13855
3 13837 13857 13864
3 13862 13864 13857
3 13870 13856 13850
3 13903 13906 13915
3 13852 13866 13857
3 615 13861 13866
3 13855 13861 13878
3 14404 14324 13912
3 13864 13868 13840
3 13863 13868 13862
3 13870 13869 13856
3 13869 13865 14158
3 13870 13850 13872
3 13877 13870 13872
3 133 13873 13882
3 13871 13872 13875
3 13882 13850 13851
3 13872 13871 13877
3 14329 14372 14034
3 616 14035 14036
3 14046 13877 14035
3 14046 14044 14043
3 13882 13872 13850
3 14037 13875 13873
3 14048 13876 13874
3 14159 13876 13859
3 14035 13877 13871
3 13876 13877 13874
3 13878 13861 13907
3 13880 13878 13867
3 13901 13904 13900
3 13881 13885 13892
3 13880 13867 13900
3 13880 13879 13884
3 13863 13862 13883
3 13885 13881 13879
3 133 13882 13851
3 13875 13882 13873
3 13884 13883 13855
3 13863 13883 13881
3 13884 13855 13878
3 13881 13884 13879
3 13899 13897 13887
3 13892 13885 13817
3 13891 13898 7
3 13897 13899 13904
3 13890 13891 13889
3 13899 13885 13879
3 13890 13887 13891
3 14334 14153 13918
3 13888 13890 13817
3 13898 13887 13897
3 13890 13889 14151
3 13908 15545 13914
3 13891 13914 13916
3 13893 13892 13817
3 13820 13881 13892
3 13893 13817 14151
3 13630 13894 13600
3 13819 13895 13623
3 13894 13893 14155
3 13893 13894 13895
3 13894 13623 13895
3 13887 13888 13899
3 13897 13896 13898
3 13886 13896 13897
3 7 13898 13896
3 13887 13898 13891
3 13900 13879 13880
3 13879 13900 13899
3 13901 13900 13867
3 13904 13902 13886
3 13903 13905 13906
3 13905 573 13901
3 13897 13904 13886
3 13902 13904 13901
3 13906 13901 13867
3 13900 13904 13899
3 13910 13878 13907
3 13906 13905 13901
3 13867 13910 13906
3 13911 13861 615
3 13912 13907 14158
3 14157 13909 13915
3 13658 13916 13914
3 13907 13911 14158
3 13878 13910 13867
3 14157 13910 13907
3 14158 615 13869
3 13865 13876 14159
3 14057 14324 14404
3 14157 13912 13909
3 13891 13913 13914
3 13891 7 13913
3 13908 13914 13913
3 14157 13915 13906
3 14156 13915 13909
3 14153 13916 13658
3 13891 13916 13889
3 13745 13917 13647
3 13641 13917 13646
3 14334 13603 14152
3 15545 14161 14335
3 15269 13348 15268
3 13661 13919 13660
3 13923 13922 136
3 13340 13921 13339
3 13922 13921 13920
3 13921 13922 13923
3 13920 13664 13922
3 15224 13664 15223
3 15652 13923 136
3 15214 13923 12569
3 13924 13041 15242
3 13920 13924 13664
3 13676 13925 13671
3 14164 13925 13670
3 14166 14167 14163
3 14167 13926 14163
3 13363 13927 13365
3 14203 13062 13059
3 403 14189 14188
3 13934 13931 13929
3 13681 14203 14204
3 13934 13935 13931
3 13935 13938 13952
3 13935 13952 13930
3 13934 13681 14204
3 13931 13935 13939
3 221 13944 13928
3 13930 13939 13935
3 13930 14352 14351
3 13947 13941 13940
3 13681 13934 13929
3 13934 13932 13935
3 13938 13935 13943
3 13937 13953 13949
3 13943 13944 13942
3 13926 14167 14170
3 14193 14195 13954
3 13943 13935 13932
3 13945 13950 14207
3 14351 13939 13930
3 13940 13939 13933
3 423 13946 13947
3 13933 13947 13940
3 13948 13941 13684
3 13364 13940 13941
3 14170 14175 14347
3 13942 14176 14180
3 13944 13943 13932
3 13943 13942 13949
3 13944 13932 14204
3 13944 221 14178
3 14548 14692 14552
3 14351 423 13933
3 13956 13955 13946
3 13684 13941 13946
3 423 13947 13933
3 13941 13947 13946
3 13948 13684 13687
3 13683 13948 13685
3 13943 13949 13938
3 14180 13949 13942
3 13938 13949 13953
3 14352 13950 14474
3 14421 14471 14420
3 13958 13957 13693
3 13953 13952 13938
3 14352 13952 13950
3 13954 13953 13937
3 13950 13953 14207
3 14180 14192 13937
3 14548 14549 14550
3 13957 13955 13959
3 13958 13955 13957
3 14420 13956 423
3 13959 13956 13951
3 13962 13957 13959
3 14213 13963 13968
3 13694 13958 13693
3 13684 13955 13958
3 13956 13959 13955
3 13962 13959 13951
3 14416 14425 14427
3 14354 13966 14355
3 13962 13951 14417
3 13964 13967 13372
3 13960 14412 13962
3 13969 13968 13964
3 13977 13978 13976
3 13968 13969 13965
3 13964 13963 13967
3 13969 13689 13970
3 13957 13962 13966
3 14353 14412 14413
3 14213 14212 14214
3 13974 14216 13971
3 13967 13976 13975
3 13969 13964 211
3 14218 14354 13965
3 211 13689 13969
3 13689 13694 13970
3 14218 13693 13957
3 13965 13969 13970
3 15519 15520 85
3 14217 13967 13963
3 13377 13973 13374
3 13371 13973 13377
3 13981 13983 13972
3 13967 14217 13974
3 13975 13976 13972
3 13976 13967 13974
3 13973 13975 13972
3 13974 13971 13976
3 13978 13977 85
3 14219 15521 13979
3 13976 13971 13977
3 13976 13978 13972
3 14219 13982 13980
3 13981 13972 13978
3 13983 13973 13972
3 15520 13978 85
3 13981 13980 13983
3 15521 13980 15520
3 13108 13982 14223
3 13984 13980 13982
3 13983 13984 14225
3 13982 13105 13984
3 14225 13984 13105
3 15225 15228 15218
3 15229 15236 15237
3 13987 13986 13391
3 13986 13985 14226
3 13393 13987 13391
3 13987 13050 15241
3 15236 664 15251
3 14230 14237 14242
3 14228 576 14229
3 14241 14242 14240
3 13394 13990 13707
3 14230 13990 13989
3 14263 13991 13747
3 13765 13991 347
3 13992 14243 14358
3 13993 14249 14250
3 13754 14247 14250
3 14258 14255 14256
3 13995 14381 14261
3 14260 14478 14477
3 614 13774 13996
3 14262 13775 13994
3 13999 13998 13996
3 13996 13995 14261
3 13999 13771 14000
3 13999 14000 14618
3 13999 13996 13771
3 13998 13997 14479
3 13773 14001 13771
3 13997 13998 13999
3 12764 14451 14452
3 14495 14000 14452
3 14452 14001 12406
3 13771 14001 14000
3 14008 14002 269
3 14003 14002 13776
3 14005 13776 14006
3 13445 14003 13747
3 14148 14150 14141
3 14263 347 13991
3 13776 14007 14006
3 14005 14004 14263
3 14006 13495 14012
3 14004 14005 14006
3 13776 14002 14008
3 14009 14007 14008
3 14008 269 13454
3 13776 14008 14007
3 14009 13451 13455
3 13496 14007 14009
3 13779 14010 13497
3 13506 14010 13493
3 14013 13777 13786
3 14012 14011 14013
3 14006 14012 13787
3 13495 14011 14012
3 15 14013 13786
3 14012 14013 13787
3 14376 14377 14378
3 14671 14686 14668
3 13520 14015 13522
3 14672 14671 14014
3 14133 14135 14131
3 14136 14139 14143
3 14138 14141 15
3 14137 14136 14016
3 14018 14265 14270
3 14393 14385 14392
3 14273 14279 14383
3 14390 14395 14019
3 13302 14020 12813
3 12081 14020 11700
3 14453 14297 13555
3 14021 13808 14022
3 14023 14022 13808
3 12810 14027 12443
3 14024 14023 13808
3 14026 11688 12446
3 13808 14295 14024
3 14024 14307 14306
3 12443 14023 14025
3 14024 14025 14023
3 11689 11690 14028
3 12443 14025 14026
3 12069 14027 12810
3 14023 14027 14022
3 12443 14028 12805
3 14028 14026 11689
3 15337 15317 15336
3 14400 14454 14455
3 13835 14031 13615
3 30 14030 15311
3 13840 14031 13818
3 13638 14032 13632
3 13825 14032 13828
3 13836 14033 13818
3 13838 13840 14033
3 14110 14122 13783
3 14039 616 14036
3 14036 14035 13871
3 14035 616 14044
3 13871 13875 14037
3 14060 14070 14069
3 14045 14037 13873
3 14329 14327 14328
3 14039 14036 14042
3 276 14080 14081
3 14042 14036 14037
3 14038 14065 14039
3 14051 14054 14325
3 13858 14050 14053
3 14045 13873 14374
3 13847 14367 14368
3 14045 14328 14037
3 14039 14042 14327
3 14043 14050 14049
3 13876 14048 13859
3 616 14063 14044
3 14043 14044 14040
3 14374 13873 133
3 14045 14041 14328
3 14044 14046 14035
3 14048 14046 14043
3 14046 14048 13874
3 14048 14049 14061
3 14049 14048 14043
3 14043 14040 14050
3 14052 14062 14049
3 14053 14050 14040
3 14052 14050 13858
3 14054 14053 14040
3 14055 14054 14051
3 14050 14052 14049
3 14055 13858 14053
3 14059 14044 14056
3 14040 14059 14054
3 14064 616 14039
3 14054 14055 14053
3 14069 14063 14060
3 311 14324 14323
3 14324 311 13909
3 14044 14059 14040
3 14098 14100 14067
3 14326 14059 14056
3 14060 14064 14065
3 14072 14070 14060
3 14062 14061 14049
3 14061 14057 14404
3 14323 14062 14047
3 14061 14062 14057
3 14044 14063 14056
3 14064 14063 616
3 14065 14064 14039
3 14063 14064 14060
3 14080 14066 14088
3 14088 14072 14038
3 14083 14078 14085
3 14109 14058 14068
3 14067 14073 14075
3 14100 14107 14108
3 14058 14325 14068
3 14054 14059 14326
3 14065 14072 14060
3 14069 14073 14071
3 14101 15525 15524
3 14071 14073 14067
3 14067 14068 14071
3 14325 14326 14068
3 14038 14072 14065
3 14066 14070 14072
3 14069 14070 14073
3 14076 14075 14073
3 14070 14066 14076
3 14076 14066 14078
3 14076 14073 14070
3 14107 15527 14079
3 14078 14066 14080
3 14075 14076 14083
3 14084 14085 14086
3 15526 15525 14410
3 14075 14083 14074
3 14080 14088 14081
3 14098 14067 14075
3 14091 14080 276
3 14102 14081 14088
3 14123 14125 14119
3 14096 14092 14094
3 15528 14118 14106
3 14076 14078 14083
3 14078 14091 14085
3 14082 14118 14408
3 14468 14405 14330
3 14078 14080 14091
3 14085 14084 14330
3 14093 14094 14095
3 14082 14408 14409
3 14098 14075 14099
3 14098 14099 14087
3 14072 14088 14066
3 14102 14088 14038
3 14089 14102 14327
3 14123 14122 14110
3 14112 14113 14105
3 14104 14095 276
3 14097 14091 276
3 14085 14091 14086
3 14084 14086 14092
3 14090 14103 14095
3 14093 14095 14103
3 14096 14082 14092
3 14097 276 14095
3 14094 14093 14096
3 14086 14097 14094
3 14104 276 14081
3 14093 14103 14113
3 14093 14112 14096
3 14097 14086 14091
3 14095 14094 14097
3 14099 14075 14074
3 14098 14087 14100
3 14406 14330 14405
3 14074 14406 14099
3 14107 14100 14087
3 14058 14109 18
3 14101 14405 14470
3 15523 14077 15522
3 14327 14102 14038
3 14111 14102 14089
3 14090 14110 14103
3 14128 14110 13783
3 14081 14102 14111
3 14090 14095 14104
3 13516 14114 572
3 14105 572 14114
3 14333 14114 14121
3 15531 157 15528
3 15524 15527 14087
3 14108 18 14109
3 14068 14100 14109
3 14107 14079 14108
3 14108 14109 14100
3 14123 14124 14125
3 14127 14113 14103
3 14125 14089 14034
3 14104 14111 14124
3 14113 14112 14093
3 14116 14112 14105
3 14110 14128 14127
3 572 14105 14113
3 13516 14121 14114
3 14114 14333 14116
3 14096 14112 14116
3 14118 15528 14117
3 14114 14116 14105
3 14115 14116 14411
3 14117 14638 14635
3 535 14405 14468
3 14106 14118 14115
3 14117 14635 14408
3 14372 15554 14034
3 14122 14119 14126
3 14128 14137 14120
3 572 14113 14129
3 13516 13501 14121
3 13501 13527 15541
3 14123 14110 14090
3 15552 14119 15553
3 14124 14123 14090
3 14119 14122 14123
3 14104 14124 14090
3 14124 14111 14125
3 14089 14125 14111
3 14125 14034 15553
3 14144 14131 14134
3 14122 14126 14135
3 14110 14127 14103
3 14129 14127 14120
3 14137 14128 13783
3 14127 14128 14120
3 14127 14129 14113
3 14129 14120 15543
3 14130 14138 14136
3 14137 14135 14133
3 14134 14131 554
3 14131 14130 14133
3 14362 14363 14244
3 14145 14140 14146
3 14136 14133 14130
3 14137 14133 14136
3 554 15555 14361
3 14134 14132 14144
3 14122 14135 13783
3 14131 14135 14126
3 14130 14140 14138
3 15 13785 14139
3 14137 14016 15543
3 14135 14137 13783
3 14141 14138 14017
3 14136 14142 14139
3 13785 13532 14139
3 14143 14139 13532
3 14130 14144 14140
3 14146 13766 14145
3 14141 14017 14148
3 14141 13787 14013
3 14138 15 14142
3 15 14139 14142
3 13532 13784 15544
3 14136 14143 14016
3 14144 14130 14131
3 14146 14144 14132
3 13767 14145 13766
3 14017 14140 14145
3 14144 14146 14140
3 14146 14132 14359
3 347 14149 13767
3 14149 14004 14148
3 14148 14004 14150
3 14017 14147 14148
3 13767 14149 14147
3 14149 347 14263
3 14006 14150 14004
3 14141 14150 13787
3 13890 14151 13817
3 14151 13889 14152
3 13889 13916 14153
3 14334 13918 14160
3 13918 14153 13658
3 13889 14153 14152
3 14152 13603 14154
3 14155 13603 13600
3 13893 14154 14155
3 13603 14155 14154
3 13910 14157 13906
3 13909 311 14156
3 13912 14157 13907
3 14158 13911 615
3 14159 14158 13865
3 14404 14159 13859
3 14158 14159 13912
3 12995 14160 12991
3 14334 14160 481
3 14342 224 13003
3 14335 14336 13918
3 13353 14162 13023
3 13924 14162 13352
3 14163 14164 14166
3 14177 14349 14187
3 13925 14164 13679
3 14166 14164 13670
3 15300 15283 15286
3 13936 14179 14190
3 15297 15298 15290
3 14166 14165 14167
3 14171 14169 14170
3 14190 14199 14184
3 14178 14176 13942
3 14171 14173 14174
3 14178 14175 14176
3 14172 14167 14165
3 14175 14170 14169
3 14172 14170 14167
3 14172 14173 14171
3 14173 14172 14165
3 14170 14172 14171
3 15298 15293 14165
3 14168 14199 14174
3 14175 14169 14176
3 14173 84 14174
3 14178 14181 14175
3 14169 14179 14176
3 13937 13949 14180
3 14348 14177 14181
3 14201 13059 14202
3 13944 14178 13942
3 14178 221 14181
3 14184 13936 14190
3 14192 14194 14191
3 14179 14194 14176
3 14192 14191 14185
3 14348 14181 221
3 14347 14181 14177
3 14196 14349 14348
3 13680 14183 13674
3 14188 14183 14182
3 14189 14183 14188
3 14187 14163 13926
3 14190 14179 14169
3 13937 14192 14193
3 14183 14186 14182
3 14177 14187 13926
3 14182 14186 14187
3 14200 14188 14182
3 14201 14202 14197
3 403 13055 14198
3 13674 14183 14189
3 14169 14171 14190
3 14199 14190 14171
3 14192 14185 14193
3 14179 13936 14191
3 14194 14192 14180
3 14195 124 14210
3 13937 14193 13954
3 14176 14194 14180
3 14191 14194 14179
3 14196 14200 14349
3 14193 14185 14195
3 14196 14348 14350
3 403 14188 14197
3 14197 14188 14201
3 13677 14198 13056
3 403 14198 14189
3 14174 14199 14171
3 14184 14199 14168
3 14349 14200 14182
3 14201 14200 14196
3 14200 14201 14188
3 14350 14201 14196
3 14202 13059 13062
3 13060 14197 14202
3 13927 14203 13681
3 14350 14203 13059
3 13944 14204 13928
3 13934 14204 13932
3 14476 14433 14473
3 14428 14430 14440
3 13953 13954 14207
3 14209 13945 14207
3 14210 14208 14209
3 14210 14207 13954
3 14207 14210 14209
3 14550 14208 14206
3 14195 14210 13954
3 14208 14210 124
3 14213 13965 14354
3 14353 14355 14412
3 14214 14215 13961
3 13965 14213 13968
3 14211 14215 14212
3 14214 13961 14216
3 14213 14214 14217
3 14213 14217 13963
3 14212 14215 14214
3 14216 13974 14217
3 14216 14217 14214
3 14218 13966 14354
3 13693 14218 13970
3 425 14222 14220
3 14356 14224 14221
3 14219 14220 14222
3 14219 13979 14220
3 14221 14222 14356
3 425 13697 14356
3 14219 14222 14221
3 13108 14223 13100
3 13982 14221 14223
3 13387 14224 13383
3 14223 14224 13100
3 13375 14225 13105
3 13973 14225 13374
3 13986 14226 13702
3 13985 15229 15237
3 15253 15262 15252
3 14227 13988 14228
3 13989 14237 14230
3 13989 576 14228
3 13700 14229 576
3 14227 14229 13702
3 13990 14230 13705
3 13989 14228 14237
3 13706 14234 13142
3 14230 13704 14231
3 14230 14232 13705
3 14232 13141 14234
3 13148 13151 14236
3 14357 14233 14236
3 13151 13142 14236
3 14238 13418 13148
3 14357 13142 14234
3 14228 13988 14237
3 14240 14237 13988
3 14238 14235 33
3 13148 14236 14238
3 15256 15255 225
3 14234 13141 14239
3 13704 14230 14242
3 14240 14242 14237
3 14240 225 14241
3 13704 14242 14241
3 14358 14243 13766
3 14247 14243 13992
3 15555 554 15552
3 14246 13826 13830
3 14246 13823 14259
3 14359 14132 14361
3 13823 14246 13830
3 14363 14360 14366
3 13767 14247 13765
3 14250 14247 13992
3 14248 13768 13426
3 14249 14248 13755
3 13761 14249 13755
3 14250 14249 13754
3 13992 14251 14250
3 14255 14252 14375
3 13992 14358 15550
3 274 14250 14251
3 13828 14253 13825
3 14248 14375 13768
3 13626 14257 14253
3 14254 13742 630
3 14254 630 13769
3 14252 14253 14254
3 14250 274 14255
3 14259 14256 274
3 13825 14256 13827
3 274 14256 14255
3 14257 13626 13653
3 14254 14257 13742
3 14253 14258 13825
3 14255 14258 14252
3 15549 14259 274
3 14246 14259 14245
3 14380 14444 14558
3 14378 14377 13520
3 13475 14261 13477
3 13996 14261 614
3 13476 14381 13994
3 14262 13994 14381
3 14263 13747 14003
3 14149 14263 14004
3 13789 14264 163
3 14265 14264 13790
3 13805 14265 13790
3 14270 14265 13538
3 13805 14268 13538
3 14279 14273 14266
3 13800 14274 13254
3 14267 14269 14272
3 13802 13804 14269
3 14270 14267 14266
3 14278 14274 13799
3 14267 14268 14269
3 14270 14266 14273
3 13538 14268 14270
3 322 14317 14467
3 14266 14267 14276
3 14274 14269 13254
3 14516 14276 14271
3 14280 14277 14279
3 14383 14393 14273
3 14271 14272 14274
3 14274 14272 14269
3 14514 14513 14467
3 14519 14280 14281
3 14271 14276 14272
3 14276 14275 14281
3 14282 14277 14280
3 14386 14382 14383
3 13799 14320 14311
3 14278 322 14513
3 14280 14279 14266
3 14386 14277 14387
3 14281 14280 14266
3 14280 657 14282
3 14276 14281 14266
3 14517 14519 14275
3 14287 14282 657
3 14388 14600 14597
3 14520 14526 14285
3 14283 14526 14530
3 14277 14282 14286
3 14287 14288 14286
3 657 14525 14287
3 14292 14289 14291
3 14286 14282 14287
3 14387 14286 14388
3 657 14519 14525
3 14287 14285 14288
3 14289 14288 14285
3 14284 14286 14288
3 14526 14289 14285
3 14283 14291 14289
3 14283 14634 14534
3 14534 14543 14290
3 14535 14634 14530
3 14290 14446 14292
3 14289 14292 14288
3 14290 14292 14291
3 13789 14293 13536
3 14391 14293 163
3 14395 14448 14294
3 14399 14294 14490
3 13808 14021 14297
3 14307 14295 658
3 14453 13555 14454
3 14460 14497 14461
3 13555 14297 14021
3 14295 14297 14296
3 14502 14460 14621
3 14300 14303 14302
3 14317 14301 14314
3 12447 14300 12070
3 12444 14300 12447
3 14303 14301 14302
3 14278 14311 322
3 14304 14309 14302
3 14303 14300 14299
3 14302 14301 14304
3 14308 14303 14299
3 14301 14402 14314
3 14310 14312 14311
3 12077 14315 441
3 14306 11688 14024
3 14300 14305 14299
3 14024 14295 14307
3 14308 14298 14402
3 14499 14307 658
3 14499 14500 14307
3 14299 14306 14308
3 14307 14308 14306
3 12079 14309 12074
3 14302 14309 12070
3 13796 14319 14320
3 13796 13801 14319
3 13799 14311 14278
3 14310 14313 14312
3 14303 14402 14301
3 14311 14312 14317
3 14310 14316 14318
3 14301 14313 14304
3 14402 14507 14314
3 14311 14317 322
3 12074 14304 14315
3 14304 14313 14318
3 14318 14316 14315
3 14320 14319 14316
3 14301 14317 14312
3 14467 14317 14314
3 14304 14318 14315
3 14310 14318 14313
3 12080 14316 14319
3 14320 14316 14310
3 14311 14320 14310
3 13799 13796 14320
3 15337 14321 325
3 14455 14321 14029
3 14374 14368 14371
3 14365 13826 14246
3 13912 14324 13909
3 14062 14323 14057
3 14323 14324 14057
3 14051 14325 14058
3 14325 14054 14326
3 14069 14326 14056
3 14326 14071 14068
3 14039 14327 14038
3 14037 14328 14042
3 14329 14328 14041
3 14328 14327 14042
3 14372 14041 14371
3 14089 14329 14034
3 14330 14074 14083
3 14084 14409 14468
3 15541 14333 14121
3 14706 14705 14331
3 15536 13505 15538
3 15541 14121 13501
3 14333 14332 14411
3 13603 14334 481
3 14153 14334 14152
3 15545 14335 13658
3 14336 14335 14161
3 14336 14161 14339
3 14336 12991 14160
3 14341 14344 14343
3 12996 14340 12992
3 12991 14338 12994
3 14337 14340 14346
3 15548 14343 14344
3 14338 14339 14337
3 14346 12996 12984
3 14345 14337 14344
3 14345 14340 14337
3 14161 15548 14339
3 224 14342 14345
3 14345 14344 14341
3 15547 15548 14161
3 14339 14344 14337
3 224 14345 14341
3 14345 14342 14340
3 14337 14346 14338
3 12996 14346 14340
3 14170 14347 13926
3 14181 14347 14175
3 221 13928 14348
3 14348 13928 14350
3 14187 14349 14182
3 14348 14349 14177
3 14203 14350 13928
3 14201 14350 13059
3 14351 13933 13939
3 14421 14351 14205
3 14474 13950 13945
3 14205 14351 14352
3 14443 14211 14353
3 14355 14211 14212
3 13966 14412 14355
3 14213 14354 14212
3 14211 14355 14353
3 14212 14354 14355
3 14224 14356 13383
3 425 14356 14222
3 14234 14239 14357
3 14233 14357 14239
3 14359 14358 13766
3 14358 14244 15550
3 14132 14134 14361
3 14358 14359 14244
3 14366 14360 14364
3 14244 14359 14362
3 554 14361 14134
3 14361 14360 14362
3 14361 14362 14359
3 14363 14362 14360
3 15556 14360 15555
3 14363 14245 15549
3 14370 14367 14364
3 14369 14365 14367
3 14245 14365 14246
3 14367 14365 14364
3 14364 14365 14366
3 14245 14366 14365
3 14367 14370 14368
3 13848 14369 13847
3 14371 14368 14322
3 13849 14368 133
3 14373 13842 13844
3 14369 14373 14365
3 15556 14364 14360
3 14322 14368 14370
3 15553 15554 15551
3 14374 14371 14041
3 14041 14372 14329
3 15554 14371 14322
3 14365 14373 13826
3 13842 14373 14369
3 14045 14374 14041
3 14368 14374 133
3 14255 14375 13993
3 14254 14375 14252
3 14376 13775 14478
3 14377 14376 14260
3 14380 14377 14260
3 14015 14377 14014
3 13781 14378 13520
3 14376 14378 13994
3 14444 14260 14477
3 14445 14379 14557
3 14444 14380 14260
3 14014 14380 14379
3 13509 14381 13476
3 14261 14381 13477
3 14277 14286 14387
3 14589 14585 13791
3 14277 14383 14279
3 14385 14383 14382
3 14384 14387 14388
3 14597 14389 14593
3 14385 14382 14390
3 14385 14391 14392
3 14277 14386 14383
3 14596 14384 14594
3 14388 14286 14284
3 14386 14387 14384
3 14600 14446 14389
3 14446 14600 14284
3 14389 14446 14560
3 14389 14560 14593
3 14382 14486 14487
3 14395 14390 13791
3 14392 14391 163
3 14390 14391 14385
3 14264 14392 163
3 14393 14018 14273
3 14385 14393 14383
3 14018 14393 14392
3 14394 13536 14293
3 14399 14394 14294
3 14448 14395 13791
3 14394 14395 14294
3 14000 14001 14452
3 12382 14398 309
3 12382 14488 14398
3 14612 14608 14450
3 14488 12382 12378
3 14398 14397 14614
3 13244 14399 13242
3 14394 14399 12772
3 14462 14401 14460
3 15557 14459 14456
3 14701 14522 14504
3 14497 14460 14502
3 14308 14402 14303
3 14507 14402 14298
3 14621 14499 14502
3 14403 14508 14504
3 14159 14404 13912
3 14404 13859 14061
3 14470 14405 535
3 14406 14405 14101
3 14099 14406 14101
3 14074 14330 14406
3 14082 14409 14092
3 14637 14547 14635
3 14117 14408 14118
3 14408 14407 14409
3 14409 14407 14468
3 14092 14409 14084
3 14469 14642 14547
3 14410 14706 14709
3 14333 14411 14116
3 15532 14411 14332
3 13962 14412 13966
3 14413 14412 13960
3 14414 14415 14418
3 14443 14413 121
3 14417 13960 13962
3 14418 14415 121
3 14418 13960 14416
3 14417 14416 13960
3 14420 14422 13956
3 14422 13951 13956
3 13960 14418 14413
3 14414 14418 14416
3 14473 14472 14476
3 14417 14425 14416
3 14421 14420 423
3 14420 14419 14422
3 14351 14421 423
3 14473 14471 14205
3 14424 14422 14419
3 14417 13951 14422
3 14433 14431 14419
3 14414 14416 14427
3 14431 14424 14419
3 14424 14423 14425
3 14424 14425 14417
3 14427 14423 14428
3 14423 14427 14425
3 14426 14427 14428
3 14414 14427 14426
3 14430 14428 14423
3 14434 14440 14430
3 14430 14423 14431
3 14438 2 14437
3 14423 14424 14431
3 14430 14429 14434
3 14419 14471 14433
3 14430 14431 14556
3 14473 14474 14472
3 14432 14434 14441
3 14476 14556 14433
3 14442 14555 14439
3 14440 520 14428
3 14432 14441 14437
3 14434 14432 14435
3 14555 14442 14429
3 14437 14439 14438
3 14439 14441 14442
3 14436 14438 14439
3 14434 14435 14440
3 520 14440 14435
3 14442 14441 14434
3 14437 14441 14439
3 14434 14429 14442
3 14436 14555 14554
3 14564 14561 14565
3 14413 14443 14353
3 14482 14575 14557
3 14672 14445 14774
3 14014 14379 14445
3 14292 14446 14284
3 326 14446 14290
3 14577 14581 14580
3 14484 14561 14564
3 14585 14448 13791
3 14587 14491 14448
3 14489 14490 14449
3 14492 14449 14491
3 14615 14587 14586
3 14562 14610 14605
3 12407 14451 12764
3 14616 14495 14452
3 12764 14452 12406
3 14452 14451 14616
3 14454 13555 13561
3 14453 14400 14461
3 13561 14321 14455
3 14400 14453 14454
3 14029 14456 14455
3 15557 14456 13809
3 15336 14456 14029
3 14496 14620 15557
3 14457 14464 14620
3 14496 15348 15395
3 14466 14464 14465
3 14400 14455 14459
3 14456 14459 14455
3 14459 14458 14463
3 14296 14453 14461
3 14466 14511 14401
3 14400 14459 14463
3 14460 14461 14462
3 14461 14400 14463
3 14465 14625 14511
3 14464 14463 14458
3 14461 14463 14462
3 14620 14464 14458
3 14624 14509 14623
3 14511 14625 14510
3 14466 14401 14462
3 14462 14463 14466
3 14464 14466 14463
3 14507 14298 14501
3 14514 14512 14513
3 14468 14330 14084
3 14547 14468 14407
3 14655 14643 14645
3 14645 14648 14469
3 14547 14641 535
3 14709 15526 14410
3 14420 14471 14419
3 14205 14471 14421
3 14550 14549 14209
3 14475 14429 14556
3 14471 14473 14433
3 14474 14473 14205
3 14352 14474 14205
3 14549 14474 13945
3 14474 14549 14472
3 14475 14553 14555
3 14552 14476 14472
3 14556 14476 14475
3 14260 14376 14478
3 17 14444 14477
3 13775 14479 14478
3 14479 14480 14481
3 13998 14479 13775
3 14480 14479 13997
3 14618 14495 14617
3 14603 14586 14606
3 14479 14481 14478
3 14565 14481 14480
3 14561 14444 17
3 14563 14482 14567
3 14696 14693 14694
3 14588 14595 638
3 14572 14573 14574
3 14563 14567 14561
3 13791 14390 14487
3 638 14606 14485
3 14382 14386 14596
3 638 14485 14588
3 14382 14487 14390
3 14486 14588 14589
3 14398 14488 14397
3 14489 14488 12378
3 13245 14489 12378
3 14490 14489 13242
3 14399 14490 13242
3 14448 14490 14294
3 14492 14491 14396
3 14490 14491 14449
3 14612 14492 14396
3 14488 14492 14397
3 14451 14493 14613
3 14494 14451 12407
3 309 14494 12762
3 14451 14494 14493
3 14608 14603 14611
3 13997 14617 14480
3 15345 15347 15349
3 15387 15400 15390
3 14295 14497 658
3 14461 14497 14296
3 14298 14500 14501
3 14308 14500 14298
3 14502 14499 658
3 14500 14499 14503
3 14307 14500 14308
3 14503 14499 14498
3 14501 14503 14504
3 14508 14467 14507
3 14497 14502 658
3 14460 14401 14621
3 14504 14503 14498
3 14500 14503 14501
3 14622 14498 14621
3 14621 14401 14699
3 14530 14526 14532
3 14518 14519 14517
3 14701 14498 14622
3 14519 14281 14275
3 14508 14507 14501
3 14467 14314 14507
3 14504 14508 14501
3 14508 14403 14514
3 641 15388 15390
3 14800 14799 14703
3 14510 14625 14626
3 14506 14701 14700
3 14465 14511 14466
3 14699 14511 14510
3 14521 14522 14515
3 14276 14516 14275
3 14278 14513 14271
3 322 14467 14513
3 14508 14514 14467
3 14521 14514 14403
3 14523 14518 14515
3 14512 14517 14516
3 14271 14512 14516
3 14512 14521 14517
3 14517 14515 14518
3 14275 14516 14517
3 14515 14522 14523
3 14287 14520 14285
3 14525 14519 14518
3 14280 14519 657
3 14524 14518 14523
3 14526 14283 14289
3 14522 14521 14403
3 14517 14521 14515
3 14504 14522 14403
3 14523 14522 14506
3 14506 14505 14523
3 14524 14523 14505
3 14524 14505 14527
3 14524 14520 14525
3 14524 14525 14518
3 14287 14525 14520
3 14527 14520 14524
3 14520 14527 14526
3 14505 14531 14527
3 14530 14532 14630
3 14628 14631 14627
3 14528 14535 14530
3 14506 14700 14505
3 14627 14529 14628
3 14532 14526 14527
3 14539 14533 14535
3 14700 14531 14505
3 14532 14531 14529
3 14531 14532 14527
3 14529 14627 14630
3 14540 14542 14545
3 14291 14534 14290
3 14283 14534 14291
3 14543 14544 14538
3 14633 14539 14528
3 14634 14533 14534
3 14854 14858 14541
3 15566 14866 15567
3 14632 14528 14627
3 14633 14703 14537
3 14544 14534 14533
3 14546 14693 14538
3 14528 14539 14535
3 14537 14799 14540
3 14542 14540 644
3 14533 14539 14540
3 14863 14862 14852
3 14693 14546 14536
3 14854 644 14853
3 14542 14541 14545
3 14544 14543 14534
3 14543 14538 14696
3 14533 14545 14544
3 14546 14541 14536
3 14545 14533 14540
3 14546 14545 14541
3 14538 14544 14546
3 14546 14544 14545
3 14635 14547 14407
3 14642 14641 14547
3 519 14553 14692
3 14476 14552 14475
3 14209 14549 13945
3 14552 14549 14548
3 14208 14550 14209
3 14692 14550 14206
3 14549 14552 14472
3 14206 14551 14692
3 14692 14548 14550
3 14439 14555 14436
3 14475 14552 14553
3 14475 14555 14429
3 14553 519 14554
3 14553 14554 14555
3 14430 14556 14429
3 14433 14556 14431
3 14445 14557 13782
3 14558 14557 14379
3 14567 14558 14444
3 14557 14558 14482
3 14859 14821 14776
3 14772 14559 14793
3 14695 326 14694
3 14483 14591 14593
3 14564 14565 14562
3 14561 14484 14563
3 14598 14609 14603
3 14566 14576 14564
3 14563 14484 14570
3 14482 14563 14569
3 14565 14561 17
3 14566 14564 14562
3 14481 14565 17
3 15558 14565 14480
3 14602 14601 14595
3 14447 14571 14576
3 14558 14567 14482
3 14561 14567 14444
3 14571 14570 14484
3 14583 14447 14584
3 14572 14563 14570
3 14563 14572 14569
3 14484 14576 14571
3 14570 14568 14572
3 14698 14583 14584
3 14568 14570 14571
3 14568 14573 14572
3 14569 14572 14574
3 14581 14579 14580
3 14574 14573 635
3 14790 14786 14788
3 14569 14574 14559
3 14773 14774 14770
3 14575 13782 14557
3 14564 14576 14484
3 14447 14576 14566
3 14483 14560 14695
3 15668 14573 14579
3 14697 15564 14581
3 15563 15562 14867
3 14579 14568 14580
3 14579 14578 15668
3 14568 14571 14580
3 14583 14571 14447
3 14581 14577 14697
3 14579 14581 14578
3 14694 326 14696
3 14857 14877 14536
3 14577 14580 14583
3 14571 14583 14580
3 14591 14590 14593
3 14483 14695 14698
3 14589 13791 14487
3 14587 14585 14485
3 14603 14606 14601
3 14608 14612 14615
3 14585 14587 14448
3 14586 14587 14485
3 14589 14588 14485
3 14592 14588 14486
3 14585 14589 14485
3 14486 14589 14487
3 14599 14592 14594
3 14584 14591 14483
3 14447 14604 14584
3 14605 14602 14604
3 14594 14592 14486
3 14592 14590 14595
3 14483 14593 14560
3 14590 14599 14597
3 14596 14486 14382
3 14597 14384 14388
3 14590 14591 14595
3 14602 14598 14601
3 14384 14596 14386
3 14486 14596 14594
3 14590 14597 14593
3 14597 14594 14384
3 15558 14607 14610
3 638 14595 14601
3 14592 14599 14590
3 14594 14597 14599
3 14284 14600 14388
3 14389 14597 14600
3 14602 14595 14591
3 14601 14598 14603
3 14591 14604 14602
3 14604 14566 14605
3 14607 14609 14610
3 14609 14611 14603
3 14584 14604 14591
3 14566 14604 14447
3 14562 14605 14566
3 14598 14602 14605
3 14485 14606 14586
3 14601 14606 638
3 14619 14480 14617
3 14495 14616 14611
3 14450 14613 14612
3 14586 14603 14608
3 14610 14609 14598
3 14609 14607 14611
3 14605 14610 14598
3 14610 14562 15558
3 14611 14607 14619
3 14450 14608 14611
3 14612 14613 14614
3 14615 14612 14396
3 14613 14450 14616
3 14614 14613 14493
3 14398 14614 14493
3 14492 14614 14397
3 14587 14615 14396
3 14608 14615 14586
3 14613 14616 14451
3 14611 14616 14450
3 14618 14617 13997
3 14619 14617 14495
3 13999 14618 13997
3 14495 14618 14000
3 14611 14619 14495
3 14619 14607 15558
3 15557 14620 14458
3 15399 14496 15395
3 14401 14511 14699
3 14499 14621 14498
3 14626 14700 14510
3 14701 14506 14522
3 14624 14623 14465
3 14629 14623 14509
3 14464 14624 14465
3 15399 15396 14457
3 14623 14625 14465
3 14626 14625 16
3 14628 14626 16
3 14531 14700 14529
3 14623 14629 14631
3 14630 14627 14528
3 14626 14628 14529
3 14631 14628 16
3 14703 14704 15404
3 14631 14632 14627
3 14530 14630 14528
3 14529 14630 14532
3 14623 14631 16
3 14632 14631 14629
3 15405 14509 15403
3 14539 14633 14537
3 14528 14632 14633
3 14704 14632 14629
3 14530 14634 14283
3 14533 14634 14535
3 14408 14635 14407
3 14636 14638 15530
3 14649 14645 14469
3 14547 14637 14469
3 14638 14637 14635
3 14653 14637 14636
3 14117 15528 15530
3 14637 14638 14636
3 14648 14645 14644
3 14708 14652 14647
3 535 14640 14470
3 14708 14640 14639
3 14639 14640 14641
3 535 14641 14640
3 14645 14643 14644
3 14639 14641 14642
3 14657 14674 14680
3 14639 14642 14644
3 14651 14647 14652
3 14644 14643 14651
3 14653 14649 14469
3 14654 14636 15530
3 14709 14706 14331
3 14679 14733 14646
3 14639 14644 14652
3 14644 14642 14648
3 14469 14648 14642
3 14666 14662 14664
3 14688 14678 14655
3 14656 14655 14645
3 14636 14654 14649
3 14676 14658 14680
3 14707 14673 333
3 14651 14652 14644
3 14708 14647 14706
3 14637 14653 14469
3 14636 14649 14653
3 15533 14659 15542
3 15533 15542 15531
3 14656 14645 14649
3 14655 14650 14688
3 14649 14654 14662
3 14650 14655 14656
3 14658 14676 14678
3 14675 14674 14657
3 14681 14682 14721
3 13524 14668 13521
3 14662 14661 14656
3 14660 14662 14666
3 659 14688 14665
3 14656 14649 14662
3 14660 14663 14665
3 14664 14662 14654
3 14660 14661 14662
3 14666 14669 14690
3 14713 14663 14691
3 15542 14654 157
3 14664 14659 14666
3 14660 14665 14661
3 14665 14663 14718
3 14683 14668 14684
3 14689 14690 14669
3 14014 14671 14015
3 14690 14691 14660
3 14687 13524 542
3 14668 14667 14684
3 14669 14659 14683
3 14689 14669 14684
3 14769 14771 14768
3 14808 14768 14771
3 14686 14671 14670
3 14687 14671 14668
3 14774 14445 13782
3 14671 14672 14670
3 14674 14673 14651
3 14675 333 14673
3 14676 14674 14651
3 14658 14679 14680
3 14651 14643 14676
3 14674 14675 14673
3 14805 14734 659
3 14676 14643 14678
3 14679 14677 14680
3 14678 14643 14655
3 14682 14715 14646
3 14646 14677 14679
3 14657 14680 14677
3 14680 14674 14676
3 14722 14682 14729
3 14729 14733 14658
3 14730 14714 14719
3 15534 15535 15537
3 14668 14683 13521
3 14689 14684 14667
3 14683 14684 14669
3 14808 14807 14768
3 14765 14767 14763
3 14769 14686 14670
3 14668 14686 14667
3 13524 14687 14668
3 14015 14687 542
3 14665 14688 14650
3 659 14678 14688
3 14689 14667 14768
3 14690 14689 14685
3 14691 14690 14685
3 14666 14690 14660
3 659 14718 14714
3 14660 14691 14663
3 519 14692 14551
3 14552 14692 14553
3 15562 14693 14536
3 14693 14582 14694
3 14582 14697 14694
3 14583 14698 14577
3 326 14695 14560
3 14694 14697 14698
3 14696 326 14290
3 14538 14693 14696
3 14582 15563 15564
3 14697 14577 14698
3 14483 14698 14584
3 14698 14695 14694
3 14510 14622 14699
3 14621 14699 14622
3 14510 14700 14622
3 14529 14700 14626
3 14498 14701 14504
3 14700 14701 14622
3 14496 15399 14620
3 14799 14537 14703
3 14633 14632 14704
3 14800 14717 14799
3 14629 14509 15405
3 14633 14704 14703
3 14410 14640 14708
3 14673 14707 14647
3 14707 14706 14647
3 333 14705 14707
3 14706 14707 14705
3 14652 14708 14639
3 14410 14708 14706
3 14077 15526 14710
3 15526 14077 15523
3 14754 14756 14775
3 14709 14331 14710
3 14723 14681 14721
3 14713 14691 14806
3 14767 14808 14824
3 14806 14691 14685
3 14713 14712 14714
3 14712 14719 14714
3 14711 14720 14719
3 14728 14722 14730
3 14682 14681 14715
3 14742 14726 14754
3 15416 14702 15411
3 660 14836 14838
3 14665 14718 659
3 14713 14718 14663
3 14719 14712 14765
3 14731 14755 14727
3 14721 14722 14728
3 14719 14720 14730
3 14721 14682 14722
3 14723 14724 14
3 14682 14733 14729
3 14805 14714 14730
3 14716 14727 14724
3 14724 14721 14716
3 14721 14724 14723
3 14731 14727 14716
3 14753 14760 14751
3 14747 14732 14740
3 14716 14728 14731
3 14738 14735 14736
3 14731 14728 14720
3 14721 14728 14716
3 14734 14729 14658
3 14722 14805 14730
3 14728 14730 14720
3 14722 14729 14805
3 14711 14761 14720
3 14762 14755 14761
3 14646 14733 14682
3 14732 14735 14740
3 14658 14733 14679
3 14658 14678 14734
3 659 14734 14678
3 14742 14741 14726
3 14736 14737 14
3 14727 14736 14724
3 14737 14735 14732
3 14755 14738 14727
3 14735 14737 14736
3 14741 14738 14726
3 14739 14741 14742
3 14749 14750 14757
3 14735 14738 14741
3 14743 14740 14739
3 14739 14740 14741
3 14735 14741 14740
3 14755 14754 14726
3 14775 14749 14742
3 14743 14739 14746
3 14747 14743 14725
3 14751 14757 14744
3 14830 14844 14782
3 14749 14739 14742
3 14745 14751 14752
3 14746 14757 14751
3 14764 14784 14762
3 14743 14747 14740
3 636 14749 14775
3 14749 636 14750
3 14746 14739 14749
3 14819 14810 14818
3 14750 14818 14809
3 14751 14744 14752
3 14725 14743 14760
3 14781 14752 14744
3 14798 14781 14795
3 14738 14755 14726
3 14751 14745 14753
3 14754 14748 14756
3 14761 14755 14731
3 14748 14754 14755
3 14784 14779 14783
3 14776 14820 14787
3 14749 14757 14746
3 14809 14757 14750
3 14781 14809 14778
3 14798 14758 14752
3 14811 14817 14759
3 14751 14760 14746
3 14725 14760 14753
3 14720 14761 14731
3 14762 14761 14711
3 14764 14762 14711
3 14748 14755 14762
3 14711 14765 14764
3 14796 14770 14772
3 14711 14719 14765
3 14764 14763 14784
3 14712 14766 14767
3 14763 14764 14765
3 14806 14712 14713
3 14689 14768 14807
3 14712 14767 14765
3 14767 14766 14808
3 14769 14667 14686
3 14769 14670 14773
3 14773 14771 14769
3 14667 14769 14768
3 14774 14772 14770
3 13782 14575 14772
3 14831 14771 14770
3 14771 14831 14808
3 14575 14559 14772
3 14559 14791 14793
3 14773 14670 14774
3 14770 14771 14773
3 14672 14774 14670
3 14772 14774 13782
3 14754 14775 14742
3 14794 14775 14756
3 14748 14783 14756
3 14872 14874 14821
3 14744 14757 14809
3 15491 15508 15518
3 14795 14778 14826
3 14823 323 14790
3 14787 14780 14785
3 14756 14783 14785
3 14820 14776 14815
3 14809 14781 14744
3 14795 14781 14778
3 14762 14784 14748
3 14826 14828 14795
3 14785 14783 14779
3 14784 14763 14823
3 14748 14784 14783
3 14785 14779 14788
3 14785 14780 14794
3 14790 14788 14779
3 14559 14574 14791
3 14788 14787 14785
3 14860 14787 14786
3 14779 14823 14790
3 14787 14788 14786
3 15561 15559 15560
3 14875 14873 14878
3 14831 14796 14797
3 14797 14825 14790
3 15561 14574 635
3 14789 14792 14793
3 14825 14792 14789
3 14831 14797 323
3 14789 14793 14791
3 14793 14792 14796
3 14785 14794 14756
3 14819 14794 14780
3 14826 14778 14759
3 324 14798 14830
3 14793 14796 14772
3 14797 14796 14792
3 14825 14797 14792
3 323 14797 14790
3 14781 14798 14752
3 14830 14798 14795
3 14801 14799 14717
3 14540 14799 644
3 14703 14702 14800
3 15416 14800 14702
3 14862 14803 15426
3 14803 14863 14804
3 14835 14834 14759
3 14853 644 14801
3 14717 15419 15427
3 14849 14848 14832
3 15416 14717 14800
3 14862 14863 14803
3 14734 14805 14729
3 14714 14805 659
3 14807 14806 14685
3 14712 14806 14766
3 14806 14807 14766
3 14689 14807 14685
3 14808 323 14824
3 14808 14766 14807
3 14750 14819 14818
3 14778 14809 14811
3 14815 14822 14813
3 14812 14814 14816
3 14812 14809 14818
3 14811 14809 14812
3 14810 14814 14812
3 14812 14816 14817
3 14814 14810 14815
3 14848 14845 14832
3 14810 14820 14815
3 14814 14813 14845
3 14776 14821 14822
3 14813 14814 14815
3 14845 14846 14832
3 14836 15517 14834
3 14812 14817 14811
3 14816 14848 14835
3 14819 14750 636
3 14812 14818 14810
3 14794 14819 636
3 14820 14819 14780
3 14819 14820 14810
3 14820 14780 14787
3 14860 14839 14859
3 15565 15667 15669
3 14776 14822 14815
3 14846 14813 14874
3 14784 14823 14779
3 14763 14767 14824
3 323 14823 14824
3 14763 14824 14823
3 14840 14839 14860
3 14790 14825 14786
3 14829 14834 14827
3 14759 14829 14826
3 15500 14841 15514
3 14828 14842 14782
3 14829 14828 14826
3 14828 14827 14861
3 14817 14835 14759
3 14828 14829 14827
3 14831 323 14808
3 14844 14830 14795
3 14796 14831 14770
3 14849 14850 14847
3 14856 14838 14833
3 14845 14848 14816
3 14856 14848 14849
3 14759 14834 14829
3 14836 14834 14833
3 14816 14835 14817
3 14833 14834 14835
3 14856 14849 14855
3 660 15515 15517
3 14802 14862 15414
3 15425 14837 14855
3 14833 14838 14836
3 15501 15503 15496
3 14840 14786 14825
3 14791 15561 14789
3 14825 14789 14840
3 14789 15561 15560
3 14827 14834 15517
3 15492 15496 15449
3 14777 14842 14843
3 14828 14861 14843
3 14828 14843 14842
3 14795 14828 14844
3 14782 14844 14828
3 14814 14845 14816
3 14846 14845 14813
3 14874 14813 14822
3 14846 161 14870
3 14541 14858 14536
3 14852 14862 14851
3 14849 14832 14850
3 14835 14848 14833
3 14847 14851 14849
3 14851 14802 14855
3 14870 14832 14846
3 14832 14870 14850
3 14851 14847 14852
3 14802 15425 14855
3 14854 14541 14542
3 14801 14804 14853
3 14878 14857 14879
3 14854 14542 644
3 14852 14868 14865
3 14873 14875 14871
3 14856 14855 14837
3 14849 14851 14855
3 14838 14856 14837
3 14848 14856 14833
3 14853 14865 14854
3 14872 15567 14871
3 14854 14865 14879
3 14536 14858 14857
3 14860 14859 14776
3 15567 14859 14839
3 14787 14860 14776
3 14860 14786 14840
3 15515 14861 14827
3 14843 14861 14841
3 14804 15427 14803
3 14851 14862 14802
3 14852 14853 14863
3 14804 14863 14853
3 14852 14847 14868
3 14868 14847 14869
3 14852 14865 14853
3 14878 14879 14864
3 14839 14840 15560
3 14581 15564 14578
3 14877 14873 14876
3 15565 15563 14867
3 14850 14870 14847
3 14865 14868 14864
3 14871 14869 161
3 14868 14869 14875
3 161 14869 14870
3 14847 14870 14869
3 14872 14871 161
3 14871 14866 14873
3 14874 161 14846
3 14859 15567 14821
3 14876 14873 14866
3 14878 14873 14877
3 14821 14874 14822
3 161 14874 14872
3 14868 14875 14864
3 14871 14875 14869
3 15565 14876 14866
3 14877 14876 14867
3 14877 14867 15562
3 14877 14857 14878
3 14857 14858 14879
3 14875 14878 14864
3 14854 14879 14858
3 14864 14879 14865
3 1122 14880 693
3 1206 14880 45
3 694 14881 697
3 693 14880 14881
3 1362 14882 46
3 975 14882 972
3 1006 14883 992
3 14883 1010 561
3 1619 14884 1618
3 1652 14884 1407
3 14885 1895 1899
3 2797 14885 1900
3 1959 14886 1693
3 14886 1960 1963
3 14887 1969 1995
3 1693 14887 1712
3 2289 14888 2291
3 1870 14888 2297
3 418 3539 14890
3 14891 3601 4115
3 14890 3264 3602
3 418 14890 14889
3 3530 14891 4115
3 3531 14889 14891
3 14892 3205 14893
3 14895 3945 3938
3 3464 14893 3205
3 525 14893 3465
3 3438 14894 525
3 3945 14892 14894
3 3944 14892 14895
3 3945 14895 14892
3 2153 2156 14898
3 246 6742 14902
3 2153 14897 2161
3 15569 14896 14901
3 2156 1829 14898
3 14903 14900 14898
3 4605 14899 5830
3 14898 14900 14904
3 14902 14900 246
3 14896 14904 14899
3 15569 14901 15571
3 14896 14899 14901
3 5253 14899 14902
3 14902 14899 14904
3 1833 14903 1829
3 1834 14900 14903
3 14898 14904 14896
3 14902 14904 14900
3 4757 4756 14906
3 4751 4757 14906
3 6051 14906 4756
3 9740 14910 14911
3 14909 4742 4753
3 14907 14912 14909
3 59 14908 14912
3 14908 9158 14911
3 14910 10073 10275
3 14911 14910 14909
3 14911 14909 14912
3 14911 9158 15141
3 59 14912 14907
3 14911 14912 14908
3 14914 3870 3872
3 14914 14916 14923
3 14918 14916 642
3 3870 14914 14913
3 7249 14917 7246
3 4552 14922 14926
3 642 8705 14918
3 14916 14915 14923
3 6499 14917 7249
3 14915 14916 14921
3 14919 14918 14920
3 7252 7253 14919
3 7253 7246 14919
3 14917 14919 7246
3 14920 8704 9271
3 7252 14919 14920
3 14918 14919 14921
3 14917 14921 14919
3 14913 14914 14923
3 14923 14915 14924
3 14915 14917 14924
3 14913 14923 14922
3 14924 6499 6509
3 14923 14924 14926
3 5791 14925 5183
3 14913 14922 14925
3 14923 14926 14922
3 6509 14926 14924
3 5347 14927 287
3 14927 5348 3587
3 14929 5434 6925
3 5445 14929 5443
3 14928 14932 14934
3 111 14930 14931
3 14931 14929 6083
3 14929 14931 14930
3 5451 14933 5433
3 14933 5443 14934
3 14934 5443 14929
3 14928 14934 14929
3 14932 14933 14934
3 5463 14937 14936
3 5451 5433 14935
3 14965 14938 14943
3 14966 14941 14946
3 548 14965 14943
3 5476 14942 4171
3 14943 14936 14937
3 14939 9727 14945
3 14938 14939 14940
3 14945 14940 14939
3 4793 4796 14940
3 14978 14982 14955
3 14946 14955 14937
3 14943 14942 14936
3 14940 14942 14938
3 548 14943 14937
3 14942 14943 14938
3 14965 14944 14938
3 9739 14944 9735
3 9727 14948 14945
3 14945 14948 14949
3 14966 14946 5463
3 14955 14946 14941
3 14948 9727 9731
3 14979 14975 14972
3 14949 14948 9732
3 14956 14949 9732
3 4794 14957 505
3 14955 548 14937
3 14954 6056 6053
3 14968 14971 14973
3 8465 7686 14958
3 14953 14969 14954
3 14968 14969 14970
3 14954 339 6056
3 14951 14970 14969
3 14959 339 14954
3 14978 5459 14975
3 14960 14955 14982
3 10070 14956 9732
3 505 14956 2858
3 4793 14957 4794
3 14956 14957 14949
3 9737 14958 7686
3 14951 14953 14958
3 14960 14950 14961
3 14954 14952 14959
3 548 14955 14960
3 14970 14961 14950
3 9736 14961 14951
3 14963 14962 9736
3 548 14960 14962
3 9736 9737 14964
3 14944 14965 9735
3 9735 14963 14964
3 9736 14964 14963
3 548 14963 14965
3 9735 14965 14963
3 5465 14966 5463
3 14967 14966 5470
3 5460 14967 5470
3 14941 14967 5459
3 14968 14970 14971
3 14969 14952 14954
3 14951 14969 14953
3 14952 14969 14968
3 14961 14970 14951
3 14971 14970 14950
3 14955 14941 14978
3 14968 14973 14952
3 14980 14981 14947
3 14976 14974 14975
3 14971 14947 14973
3 5 14974 14976
3 14978 14941 5459
3 5459 5467 14976
3 14976 5467 5
3 14947 14971 14980
3 14983 14982 14977
3 14979 14978 14975
3 14978 14977 14982
3 14981 14979 14972
3 14978 14979 14977
3 14983 14971 14950
3 14981 14980 14977
3 14983 14977 14980
3 14979 14981 14977
3 14960 14982 14950
3 14971 14983 14980
3 14950 14982 14983
3 5166 14985 4527
3 15104 15089 15086
3 5733 14985 5163
3 5855 14986 5848
3 6783 14986 5856
3 6298 14987 6271
3 14987 6289 8520
3 14987 14988 14989
3 14987 67 14988
3 6301 14989 14988
3 7761 14990 7758
3 67 14987 14990
3 6000 14995 5998
3 7761 14991 14990
3 10206 6897 15002
3 6006 14993 7665
3 15002 14993 14992
3 15000 14994 15005
3 15008 15000 15005
3 14996 6000 5976
3 14997 14995 14994
3 5976 7662 15003
3 14994 14995 14996
3 15005 14994 14998
3 14997 14992 15009
3 14996 5976 15003
3 14999 11362 11345
3 14998 15003 15007
3 11361 14999 7661
3 15001 10511 10941
3 15002 15006 15001
3 9990 10206 15002
3 10511 15001 15000
3 14993 15002 6897
3 15006 15002 14992
3 7662 7661 15007
3 14996 15003 14998
3 11347 15004 11345
3 14998 15004 218
3 14998 218 15005
3 15008 15005 218
3 14997 15006 14992
3 15001 15006 15000
3 14998 15007 14999
3 7662 15007 15003
3 10949 15008 218
3 15000 15008 10511
3 6008 15009 6006
3 14997 15009 5998
3 6422 15010 6420
3 15011 6424 72
3 7109 15011 72
3 7072 15010 15011
3 15042 409 15046
3 15062 15064 15058
3 8599 8601 15014
3 15015 15013 15012
3 15038 15046 409
3 15013 15014 15051
3 7816 15016 175
3 15017 15015 7125
3 15012 15057 15015
3 15064 15057 15058
3 7815 15017 7125
3 15013 15017 7124
3 7140 15018 7141
3 4407 15018 7143
3 8528 15021 7783
3 15019 15020 15024
3 7789 15020 8573
3 15021 15020 15019
3 15021 15019 15023
3 7035 8579 15022
3 15020 15022 8567
3 7035 15022 15021
3 7784 15023 7065
3 15021 15023 7783
3 8561 15024 7789
3 15025 15024 8562
3 207 15025 8562
3 15025 7065 15023
3 15026 6353 7801
3 15028 15026 7802
3 15027 15043 15039
3 15036 7806 7807
3 15026 15028 7804
3 15029 15028 7802
3 15031 15029 7802
3 15043 15029 410
3 7800 15032 7803
3 73 15590 15592
3 7803 15031 7802
3 15031 15030 15578
3 15033 15032 7800
3 15030 15031 15032
3 10806 15033 7800
3 210 11170 15034
3 15032 15034 15030
3 210 15034 15033
3 15039 15036 15027
3 15584 15586 15576
3 8604 15036 8602
3 15572 15581 15670
3 15049 15050 15052
3 15670 15045 15672
3 15037 15575 15047
3 15027 15029 15043
3 15039 15037 15044
3 15062 15061 15060
3 15048 15046 15047
3 15042 15051 409
3 15052 15060 15041
3 15051 15042 15058
3 15573 15043 410
3 15037 15039 15043
3 15037 15038 15044
3 8602 15044 15038
3 15037 15573 15575
3 15048 15045 15049
3 15047 15046 15038
3 15041 15042 15046
3 15037 15047 15038
3 15048 15047 15045
3 15670 15671 15045
3 15046 15048 15041
3 15052 15050 93
3 15041 15048 15049
3 15013 15051 15012
3 15049 15040 15050
3 409 15051 15014
3 15067 15069 15066
3 15041 15049 15052
3 15070 15059 15065
3 15016 15056 175
3 15064 15068 15055
3 15056 15016 15057
3 15066 15053 15067
3 15016 15015 15057
3 15072 15056 15055
3 15057 15012 15058
3 15055 15056 15057
3 15051 15058 15012
3 15061 15042 15041
3 15070 15071 93
3 15101 15067 15053
3 15064 15062 15054
3 15042 15061 15058
3 15041 15060 15061
3 15061 15062 15058
3 15065 15062 15060
3 15092 15093 8
3 15072 175 15056
3 15068 15064 15054
3 15057 15064 15055
3 15062 15065 15054
3 15060 15052 15071
3 15063 15068 15067
3 15059 15066 15069
3 15068 15054 15069
3 15068 15063 15078
3 15069 15054 15065
3 15069 15065 15059
3 15067 15068 15069
3 15060 15071 15065
3 15071 15070 15065
3 93 15071 15052
3 15073 15076 15079
3 175 15074 6417
3 15079 15072 15081
3 15075 15073 15103
3 15076 15074 15072
3 6411 15077 6394
3 15080 6395 6394
3 15075 15103 15084
3 15079 15076 15072
3 15073 15075 15080
3 6417 15074 15077
3 15076 15077 15074
3 15068 15078 15055
3 15081 15078 15063
3 15101 15082 15100
3 15096 15082 15093
3 15077 15080 6394
3 15073 15080 15076
3 15078 15081 15072
3 15102 15081 15063
3 15097 15090 15092
3 15099 15100 15096
3 15079 15099 15073
3 15090 15086 15089
3 348 15085 6383
3 15085 15084 15089
3 6392 15088 5589
3 15084 15090 15089
3 15086 15091 15087
3 5589 15087 5597
3 15086 15097 15091
3 6383 15085 15088
3 15085 15089 15104
3 15090 15084 15083
3 15104 15086 15087
3 15083 15092 15090
3 14984 15091 15097
3 5580 5599 15098
3 5594 15087 15091
3 15096 15093 15092
3 15094 15092 8
3 15083 15099 15096
3 15096 15092 15083
3 15094 15097 15092
3 15091 14984 15095
3 15099 15102 15100
3 15090 15097 15086
3 14984 15097 15094
3 15091 15098 5594
3 5580 15098 15095
3 15099 15083 15103
3 15099 15079 15102
3 15063 15067 15101
3 15082 15096 15100
3 15082 15101 15053
3 15101 15100 15102
3 15081 15102 15079
3 15101 15102 15063
3 15099 15103 15073
3 15083 15084 15103
3 5589 15104 15087
3 15085 15104 15088
3 7988 15105 7989
3 4460 15105 7991
3 15108 5795 8207
3 8173 15107 8200
3 498 15107 8176
3 8200 15107 15106
3 8206 15108 8207
3 5799 15108 15106
3 10489 15109 9019
3 15112 15109 10488
3 9026 15111 9023
3 9026 15109 15110
3 15113 15112 10488
3 15110 617 15111
3 617 15110 15117
3 10488 10490 15116
3 15119 15113 10487
3 9446 9965 15118
3 10487 6 15114
3 10189 15115 15117
3 10488 15116 15113
3 10189 15117 15112
3 617 15117 15115
3 15118 9965 9964
3 15113 15118 10487
3 10487 15114 15119
3 10189 15119 15114
3 9430 12792 15121
3 15123 15120 15121
3 12795 15121 13261
3 15121 15120 9430
3 9430 15120 15122
3 7492 15122 15120
3 12799 15123 12795
3 408 15120 15123
3 15124 9070 9074
3 15126 15125 15124
3 15125 9484 9489
3 15126 15124 9075
3 9596 15126 9075
3 9491 15126 172
3 15129 9468 9506
3 15138 15127 15139
3 15133 15129 9506
3 9503 15133 9506
3 9498 15133 9508
3 12103 15131 15135
3 15137 15134 15127
3 15136 15131 12103
3 15139 15127 15134
3 9468 15132 9966
3 15137 15132 15128
3 9508 15133 9503
3 15130 15129 15133
3 15128 15130 15134
3 15130 15135 15139
3 15133 15135 15130
3 12103 15135 9498
3 12097 448 15136
3 15139 448 15138
3 15130 15139 15134
3 15134 15137 15128
3 15139 15136 448
3 15136 15139 15131
3 9703 15140 8375
3 9098 15140 9702
3 10663 15142 9824
3 14911 15141 9740
3 9829 15142 9826
3 10008 15143 10006
3 10014 15143 10007
3 10026 15144 10021
3 10273 15144 9154
3 15153 10793 10783
3 120 15147 11753
3 15154 15155 15149
3 15147 11409 11753
3 15147 15154 15150
3 15602 15599 15600
3 15147 120 15148
3 15594 15601 15599
3 15145 15603 15152
3 11749 15151 10783
3 11409 15151 11749
3 15151 15150 15152
3 15145 15152 15150
3 15153 422 10793
3 15151 15153 10783
3 422 15153 15152
3 15150 15154 15145
3 15155 15154 15147
3 15148 15155 15147
3 15156 15155 15146
3 15158 15157 10785
3 15155 15156 15149
3 15154 15157 15145
3 10796 15158 10785
3 15158 10804 15603
3 15159 10782 11407
3 10818 15159 10817
3 15165 15168 15160
3 15173 15164 15174
3 15163 181 15604
3 15169 15164 15162
3 15162 15605 15165
3 181 15163 10933
3 15164 15163 15162
3 15169 15174 15164
3 15171 15164 10920
3 639 15167 15166
3 15166 15167 15168
3 15633 15635 15627
3 15165 15161 15166
3 15622 15623 15624
3 15166 15168 15165
3 15168 15167 15642
3 15165 15169 15162
3 15174 15169 15160
3 15176 15160 15642
3 15610 11660 12065
3 10923 15171 10920
3 15163 15171 10484
3 15170 10921 15173
3 15628 15629 15630
3 15178 15173 10921
3 15168 15642 15160
3 15173 15174 15170
3 15641 15626 15175
3 15610 12063 15611
3 15160 15176 15174
3 15175 15637 15615
3 15173 15178 10920
3 639 15177 15631
3 10922 15178 10921
3 15179 9936 10481
3 10920 15179 10923
3 15181 15180 11067
3 12824 15180 11081
3 11068 15181 11067
3 15181 11080 11082
3 11385 15182 11380
3 11390 15182 198
3 15185 11759 11189
3 11421 15183 11418
3 11807 11806 15184
3 15184 11806 15192
3 11191 15185 15183
3 11759 15185 11190
3 15187 11806 12266
3 15188 15186 15189
3 15189 15187 11804
3 15187 15186 15192
3 11418 15188 11422
3 15186 15187 15189
3 12248 15189 11804
3 15189 12244 15190
3 122 15188 15190
3 15189 15190 15188
3 15192 15191 15184
3 11418 15191 15186
3 15187 15192 11806
3 15191 15192 15186
3 11175 15193 11421
3 402 15183 15193
3 11518 15194 11504
3 11744 15194 150
3 15621 11666 15622
3 15714 15701 15706
3 15196 15202 15201
3 12437 15197 12067
3 15198 178 11668
3 12067 15197 15196
3 15621 15620 15199
3 15202 15199 15195
3 15196 15198 15199
3 11666 15621 15198
3 15195 15620 15640
3 15715 15713 15714
3 15196 15199 15202
3 15200 15709 15705
3 15195 15645 15644
3 15201 15202 15644
3 11714 15204 12086
3 12086 15204 12087
3 12088 15204 15203
3 13047 15216 15219
3 15207 12566 12567
3 12569 15206 12570
3 15206 15205 15207
3 15205 15208 15210
3 12554 12566 15207
3 15221 15218 15220
3 15219 15216 15215
3 12554 15209 12557
3 15209 15208 15220
3 15205 15210 15207
3 15209 15210 15208
3 15212 12563 12896
3 12577 11428 15211
3 15213 15212 12900
3 15213 12900 13338
3 15214 15213 13339
3 13923 15214 13339
3 15212 15214 12569
3 15220 586 15209
3 15219 15220 15218
3 13052 15216 13047
3 13049 15216 13048
3 586 15215 15217
3 15217 15215 15216
3 15221 15208 15205
3 136 15224 15222
3 15220 15219 15215
3 15228 15219 15218
3 15220 15215 586
3 15221 15220 15208
3 15205 15222 15221
3 15222 15223 15225
3 15652 15222 15205
3 13922 15224 136
3 15226 15230 15232
3 15221 15225 15218
3 13664 15224 13922
3 15222 15224 15223
3 15222 15225 15221
3 15230 15228 15225
3 15223 13664 15243
3 15229 15241 15227
3 15240 13052 13047
3 15227 15226 15229
3 15240 15226 15227
3 15219 15228 13047
3 15226 15232 15233
3 15233 15236 15229
3 15243 15231 15232
3 15226 15228 15230
3 15242 15239 13924
3 15233 15229 15226
3 15243 15230 15223
3 15232 15231 15233
3 15231 15234 15233
3 15233 15234 15236
3 15238 15231 15239
3 15234 664 15236
3 15235 15242 15244
3 15238 15247 15234
3 664 15249 15251
3 15237 13701 14226
3 13985 15237 14226
3 15250 15237 15236
3 15231 15243 15239
3 15235 15246 15247
3 13924 15239 13664
3 15235 15238 15239
3 13047 15228 15240
3 15226 15240 15228
3 15229 13985 15241
3 13987 15241 13985
3 15244 15242 13041
3 15239 15242 15235
3 15243 13664 15239
3 15230 15243 15232
3 13661 15244 13041
3 13660 15272 15244
3 15263 15268 15267
3 15247 15246 664
3 15244 15272 15246
3 15234 15247 664
3 15235 15247 15238
3 13988 14227 15253
3 664 15246 15249
3 15246 15272 15264
3 15248 15250 15251
3 15259 15260 15257
3 15250 15262 15237
3 15248 15251 15249
3 15236 15251 15250
3 15252 15258 15257
3 15256 225 14240
3 13701 15253 14227
3 15256 15253 15252
3 15253 15256 13988
3 15254 15256 15257
3 14240 13988 15256
3 15256 15252 15257
3 15252 15262 15258
3 15260 15254 15257
3 15250 15248 15258
3 15271 15248 15266
3 15257 15258 15259
3 15248 15259 15258
3 15237 15262 13701
3 15259 15245 15260
3 15249 15264 15248
3 15258 15262 15250
3 13660 13919 15269
3 15266 15263 15267
3 15246 15264 15249
3 15267 15265 15266
3 15263 15266 15264
3 15264 15266 15248
3 15265 15245 15271
3 15263 15272 15269
3 15265 15267 15261
3 15270 13348 13350
3 15268 15270 15261
3 13348 15269 13919
3 15263 15269 15268
3 15261 15270 79
3 13348 15270 15268
3 15248 15271 15259
3 15265 15271 15266
3 15269 15272 13660
3 15264 15272 15263
3 15274 15275 15654
3 13173 15273 13164
3 15654 153 15653
3 15275 13716 13719
3 15277 15274 15276
3 13424 15291 15278
3 15279 15286 15283
3 15274 15277 15275
3 15280 15277 15276
3 13673 15282 15283
3 15276 15274 15278
3 15277 15280 13716
3 15288 15286 15279
3 15281 15280 15279
3 15282 15281 15279
3 13718 15281 13714
3 15283 15282 15279
3 15296 13673 13713
3 15292 15285 15288
3 13673 15283 13676
3 15288 15280 15276
3 14166 13670 15290
3 15293 15289 84
3 15288 15279 15280
3 15290 15299 15300
3 15298 14166 15290
3 15292 15295 15285
3 15276 15278 15291
3 15285 15286 15288
3 15299 15290 13670
3 15287 15284 15289
3 15297 15285 15295
3 15291 13424 15292
3 15276 15291 15288
3 15284 15295 15294
3 15292 15294 15295
3 14165 15293 14173
3 15289 15293 15287
3 15284 15287 15295
3 15292 13424 15294
3 15297 15295 15287
3 15281 15296 13714
3 13673 15296 15282
3 15298 15297 15287
3 15297 15290 15300
3 15293 15298 15287
3 14166 15298 14165
3 13925 15299 13670
3 13676 15283 15300
3 15300 15285 15297
3 15300 15299 13676
3 15333 15341 15305
3 15312 15307 13295
3 15311 15304 15306
3 15333 15305 15302
3 13299 15303 13300
3 15305 15303 15302
3 15310 15319 13564
3 15306 15302 15303
3 15333 15302 15323
3 15301 15308 15305
3 13299 15306 15303
3 15321 15306 15304
3 15308 15342 15307
3 13295 15307 15316
3 15308 15301 15342
3 15313 15307 15312
3 15334 15359 15332
3 13809 15345 15349
3 15310 15324 15322
3 15321 15302 15306
3 30 15311 13299
3 14030 15304 15311
3 13550 15312 13295
3 15313 15312 13284
3 15303 15313 13284
3 15308 15313 15305
3 15344 15342 15335
3 325 13560 15315
3 15316 15315 13552
3 325 15315 15314
3 13295 15316 13552
3 15314 15316 15307
3 14029 14321 15337
3 15346 15345 15317
3 15319 15318 13810
3 15321 15318 15310
3 338 15676 15678
3 15318 15319 15310
3 15682 15658 15684
3 13564 15324 15310
3 15323 15321 15331
3 15325 15322 15320
3 15331 637 15323
3 15323 637 15334
3 15302 15321 15323
3 15357 15356 15354
3 15320 15322 15324
3 15351 15327 15353
3 15330 15328 15329
3 15360 15380 15365
3 637 15325 15330
3 15355 15352 15353
3 15380 15350 15339
3 15353 15327 15355
3 15327 15350 15328
3 15350 15351 15339
3 15383 15381 15340
3 15328 15330 15325
3 15340 15409 15379
3 15310 15331 15321
3 637 15331 15322
3 15409 15329 15379
3 15332 15359 15382
3 15334 15333 15323
3 15333 15334 15341
3 15359 15334 637
3 15334 15332 15341
3 15335 15342 15343
3 15361 15337 15344
3 14456 15336 13809
3 15337 15336 14029
3 15344 325 15314
3 15309 15346 15361
3 15385 15383 15384
3 15370 15373 15367
3 15339 15351 15364
3 15360 15383 15379
3 15350 15380 15329
3 15382 15335 15343
3 15343 15341 15332
3 15305 15341 15301
3 15342 15314 15307
3 15343 15342 15301
3 15341 15343 15301
3 15382 15340 15381
3 15361 15335 15309
3 325 15344 15337
3 15317 15361 15346
3 15345 15338 15347
3 15369 15346 15309
3 15338 15345 15346
3 15338 15374 15378
3 15347 15377 15348
3 15390 15397 641
3 14496 15557 15349
3 15347 15348 15349
3 14496 15349 15348
3 15328 15350 15329
3 15351 15350 15327
3 15328 15320 15355
3 15364 15351 15326
3 15685 646 15686
3 15353 15683 15351
3 15355 15327 15328
3 15352 15680 15683
3 15357 15355 15320
3 15357 15324 15356
3 15362 15363 338
3 15355 15357 15354
3 15324 13564 15356
3 15324 15357 15320
3 15659 15660 15358
3 15437 15420 15435
3 15409 637 15330
3 15382 15359 15340
3 15339 15364 15365
3 15368 15360 15365
3 15337 15361 15317
3 15335 15361 15344
3 15352 15355 15362
3 15363 15355 15354
3 15681 15684 15326
3 15355 15363 15362
3 15364 15358 15365
3 15358 15366 15365
3 15365 15366 15368
3 15358 15660 15461
3 15368 15366 15370
3 15370 15367 15368
3 15346 15369 15376
3 15370 15366 162
3 15368 15367 15384
3 15381 15369 15309
3 15373 15374 15385
3 15434 15372 15656
3 15370 15656 15373
3 15447 15446 15438
3 641 15377 15388
3 15388 15375 15386
3 15372 15374 15373
3 15656 15370 162
3 15375 15378 15372
3 15338 15376 15374
3 15374 15376 15385
3 15377 15338 15378
3 15386 15375 15372
3 15346 15376 15338
3 15385 15376 15369
3 15338 15377 15347
3 15388 15377 15375
3 15372 15378 15374
3 15377 15378 15375
3 15409 15340 15359
3 15380 15379 15329
3 15365 15380 15339
3 15379 15380 15360
3 15309 15335 15382
3 15340 15379 15383
3 15332 15382 15343
3 15309 15382 15381
3 15360 15368 15384
3 15369 15381 15383
3 15384 15367 15385
3 15360 15384 15383
3 15385 15369 15383
3 15373 15385 15367
3 15386 15372 15434
3 15388 15386 15389
3 15389 15387 15388
3 15411 15393 15401
3 15389 15386 15371
3 15388 15387 15390
3 15446 15430 15429
3 15387 15389 15407
3 15398 15390 15400
3 15394 15398 15408
3 15442 15422 15424
3 15401 15393 15400
3 15407 15406 15421
3 15424 15423 15421
3 15401 15400 15387
3 14509 15396 15403
3 15397 15390 15398
3 14457 15396 14624
3 641 15395 15348
3 15394 15396 15399
3 15394 15408 15403
3 14509 14624 15396
3 15394 15395 15397
3 641 15397 15395
3 15393 15402 15408
3 15394 15397 15398
3 14620 15399 14457
3 15394 15399 15395
3 15387 15407 15401
3 15393 15398 15400
3 15392 15410 15401
3 15415 15411 14702
3 15415 15402 15393
3 14702 14703 15404
3 15394 15403 15396
3 15405 15403 15402
3 14704 14629 15405
3 14702 15404 15402
3 15402 15404 15405
3 15405 15404 14704
3 15429 15430 15431
3 15406 15430 15421
3 15406 15407 15389
3 15401 15407 15392
3 15393 15408 15398
3 15403 15408 15402
3 637 15409 15359
3 15329 15409 15330
3 15423 15422 15454
3 15410 327 15412
3 15412 15401 15410
3 15401 15412 15411
3 14804 14717 15427
3 15428 15416 15411
3 327 15417 15412
3 15425 14802 15414
3 15417 15413 15428
3 15504 15449 15503
3 15402 15415 14702
3 15393 15411 15415
3 15428 15411 15412
3 15419 15416 15428
3 15453 15452 15417
3 15426 15418 15414
3 15413 15417 15418
3 15457 15458 15450
3 15413 15426 15427
3 14717 15416 15419
3 15433 15435 15431
3 162 15366 15461
3 15421 15391 15424
3 15407 15421 15392
3 15446 15391 15430
3 15414 15452 15425
3 15410 15392 15423
3 15421 15423 15392
3 15424 15448 15442
3 15423 15424 15422
3 15414 15418 15452
3 15505 15454 15422
3 15418 15426 15413
3 14862 15426 15414
3 15413 15427 15419
3 14803 15427 15426
3 15417 15428 15412
3 15419 15428 15413
3 15431 15406 15371
3 15438 15429 15420
3 15421 15430 15391
3 15431 15430 15406
3 15433 15431 15371
3 15429 15431 15435
3 15372 15373 15656
3 15432 15657 15437
3 15371 15386 15434
3 15435 15433 15432
3 15432 15433 15434
3 15434 15433 15371
3 15432 15656 15657
3 15435 15420 15429
3 15436 15462 15443
3 15439 15470 15468
3 15432 15437 15435
3 15443 15455 15436
3 15420 15437 15440
3 15438 645 15447
3 15439 15440 15455
3 15465 15478 15475
3 15436 15440 15437
3 15440 15439 15444
3 15442 15486 15487
3 15424 15391 15448
3 645 15479 15482
3 15450 660 14838
3 15462 15657 15461
3 15483 15471 15511
3 15465 15512 15479
3 15438 15444 645
3 15420 15440 15445
3 15444 15445 15440
3 15438 15446 15429
3 15448 15446 15441
3 15482 15447 645
3 15446 15447 15441
3 15446 15448 15391
3 15486 15448 15441
3 15459 15487 15456
3 15449 15490 15492
3 14837 15457 14838
3 15425 15457 14837
3 15417 327 15453
3 15453 15454 15451
3 15417 15452 15418
3 15452 15451 15458
3 15454 15453 327
3 15452 15453 15451
3 15423 15454 327
3 15459 15505 15422
3 15436 15455 15440
3 15470 15455 15443
3 15479 645 15466
3 15449 15504 15505
3 15425 15452 15458
3 14838 15457 15450
3 15458 15451 15504
3 15425 15458 15457
3 15487 15459 15442
3 15459 15456 15505
3 15358 15364 15659
3 15660 15662 15460
3 15358 15461 15366
3 15462 15461 15460
3 15462 15460 15664
3 15462 15436 15657
3 15443 15462 15664
3 15688 646 15691
3 15466 15444 15467
3 645 15444 15466
3 15466 15467 15465
3 15467 15444 15439
3 15480 15512 15475
3 15455 15470 15439
3 15467 15439 15468
3 15463 15471 15468
3 15475 15474 15464
3 15663 15470 15443
3 15472 15465 15467
3 15468 15470 15666
3 15692 15742 15463
3 15511 15469 15472
3 15483 15472 15467
3 15469 15511 15473
3 15494 15492 15490
3 337 15473 15511
3 15469 15474 15478
3 15478 15465 15472
3 15485 15477 15480
3 15479 15512 15477
3 15447 15482 15441
3 15469 15478 15472
3 15474 15475 15478
3 15465 15479 15466
3 15482 15479 15507
3 15484 15476 15480
3 15485 15480 15476
3 15487 15506 15489
3 15448 15486 15442
3 15507 15479 15477
3 15482 15481 15486
3 15467 15468 15483
3 15471 15483 15468
3 15493 31 15508
3 15480 15464 15484
3 15489 15477 15513
3 15482 15486 15441
3 15481 15506 15486
3 15507 15489 15506
3 15449 15456 15490
3 15485 15513 15477
3 15476 15488 15510
3 15488 31 15493
3 15456 15487 15490
3 15487 15489 15494
3 14843 15500 14777
3 15503 15501 15450
3 15490 15487 15494
3 15496 15492 15497
3 15493 15491 15494
3 15510 15493 15513
3 15494 15489 15513
3 15491 15492 15494
3 15495 15496 15497
3 15514 15515 15516
3 15497 15492 15491
3 15496 15495 15501
3 15491 15493 15508
3 15499 15495 15497
3 15500 15502 14777
3 15518 15497 15491
3 15514 15499 15500
3 14841 15500 14843
3 15502 15499 15498
3 15516 15501 15495
3 660 15450 15501
3 15504 15503 15450
3 15499 15502 15500
3 15496 15503 15449
3 15458 15504 15450
3 15504 15451 15505
3 15454 15505 15451
3 15449 15505 15456
3 15486 15506 15487
3 15507 15506 15481
3 15482 15507 15481
3 15477 15489 15507
3 15498 15518 15509
3 15499 15518 15498
3 15476 15510 15485
3 15508 31 15509
3 15488 15493 15510
3 15483 15511 15472
3 337 15511 15471
3 15475 15512 15465
3 15477 15512 15480
3 15510 15513 15485
3 15494 15513 15493
3 15515 15514 14841
3 15495 15499 15514
3 15515 14841 14861
3 660 15501 15516
3 15514 15516 15495
3 660 15516 15515
3 660 15517 14836
3 15515 14827 15517
3 15497 15518 15499
3 15509 15518 15508
3 15520 13981 13978
3 13981 15520 13980
3 15519 13979 15521
3 13980 15521 14219
3 15519 15521 15520
3 14099 15524 14087
3 15522 15527 15523
3 15525 14101 14470
3 14101 15524 14099
3 15527 15524 15523
3 14410 15525 14470
3 15524 15525 15523
3 15526 14709 14710
3 15523 15525 15526
3 14079 15527 15522
3 14087 15527 14107
3 15531 15532 15529
3 15530 15528 157
3 15540 15536 15539
3 13521 14683 15535
3 15530 157 14654
3 14117 15530 14638
3 15532 15528 14106
3 15533 15531 15529
3 14411 15532 14106
3 15539 15532 14332
3 15529 15534 15533
3 15542 14659 14664
3 15536 15534 15529
3 15538 13523 13521
3 15537 14683 14659
3 15534 13521 15535
3 15539 15536 15529
3 13525 15536 13514
3 15534 15537 15533
3 14683 15537 15535
3 13523 15538 13505
3 15534 15536 15538
3 15532 15539 15529
3 15540 15539 14332
3 15540 14332 14333
3 15536 15540 13514
3 13514 15541 13527
3 14333 15541 15540
3 14654 15542 14664
3 15531 15542 157
3 13529 13531 15543
3 14137 15543 14120
3 15544 14143 13532
3 13529 15543 15544
3 13914 15545 13658
3 15547 15546 13333
3 13333 14343 15548
3 15545 13908 15546
3 14161 15545 15547
3 15548 14344 14339
3 13333 15548 15547
3 14363 15549 14244
3 14259 15549 14245
3 15550 14251 13992
3 14244 15549 15550
3 15551 15554 15555
3 14126 15552 554
3 14119 15552 14126
3 15555 15552 15551
3 14125 15553 14119
3 15554 15553 14034
3 14371 15554 14372
3 15555 15554 14322
3 15556 15555 14322
3 14361 15555 14360
3 14322 14370 15556
3 14364 15556 14370
3 15557 14458 14459
3 15349 15557 13809
3 14565 15558 14562
3 14619 15558 14480
3 14578 15563 15669
3 15566 15567 15568
3 14789 15560 14840
3 15568 15560 15559
3 14574 15561 14791
3 15667 15561 635
3 14693 15562 14582
3 14877 15562 14536
3 15562 15563 14582
3 14876 15565 14867
3 14582 15564 14697
3 14578 15564 15563
3 14866 15566 15565
3 15566 15667 15565
3 14871 15567 14866
3 15667 15566 15559
3 14821 15567 14872
3 14839 15560 15568
3 15566 15568 15559
3 14839 15568 15567
3 5840 5841 15570
3 15571 14901 4605
3 14897 15570 2159
3 5840 15570 15569
3 5258 15571 4605
3 4620 15569 15571
3 15573 15037 15043
3 15573 15576 15572
3 15577 15576 15573
3 15573 15572 15575
3 15576 15583 15574
3 15583 15582 15574
3 15672 15572 15670
3 15047 15575 15045
3 15577 15573 410
3 15584 15585 15588
3 410 15031 15578
3 15576 15577 15583
3 15578 15030 15582
3 410 15578 15577
3 15670 15581 15035
3 15574 15584 15576
3 15580 15581 15586
3 15576 15581 15572
3 15593 15030 15034
3 15595 11169 11171
3 15577 15578 15583
3 15582 15583 15578
3 15585 15584 15574
3 15579 15580 15586
3 15591 15574 15582
3 15584 15588 15579
3 15576 15586 15581
3 15579 15586 15584
3 15589 15590 15591
3 11171 15601 15595
3 15585 73 15588
3 15582 15593 15596
3 15591 15590 15585
3 15589 15597 15592
3 15574 15591 15585
3 15591 15582 15596
3 15034 11169 15593
3 15589 15592 15590
3 15596 15593 11169
3 15598 15599 391
3 15592 15597 15587
3 15601 11171 10785
3 15594 15597 15596
3 15596 15589 15591
3 11169 15595 15596
3 15596 15597 15589
3 15599 15598 15597
3 15600 15599 15601
3 15599 15597 15594
3 10785 15157 15600
3 15157 15149 15600
3 15602 15149 15156
3 15595 15601 15594
3 10785 15600 15601
3 15599 15602 391
3 15149 15602 15600
3 15152 15603 422
3 15158 15603 15145
3 15162 15604 15605
3 15163 15604 15162
3 15161 15605 15604
3 15170 15615 15616
3 15170 15176 15615
3 10921 15607 10922
3 15607 15606 15609
3 15614 15625 15618
3 15619 15636 15624
3 15609 15606 15613
3 12434 15609 12062
3 12063 12066 15611
3 15623 15610 15608
3 15612 15613 97
3 15608 15610 15611
3 12061 15612 97
3 12062 15609 15612
3 15613 15606 15618
3 97 15613 15611
3 15616 15615 15614
3 15624 15625 15626
3 15175 15615 15176
3 15614 15618 15616
3 15617 15606 15607
3 15170 15616 15617
3 15170 15617 10921
3 15606 15617 15616
3 15613 15618 15608
3 15616 15618 15606
3 15629 15177 15172
3 15620 15195 15199
3 15621 15199 15198
3 15620 15619 15638
3 11666 11670 15622
3 15620 15621 15636
3 11660 15610 15623
3 15620 15636 15619
3 15608 15618 15625
3 11660 15623 15622
3 15623 15625 15624
3 15614 15615 15637
3 15608 15625 15623
3 15625 15614 15637
3 15167 15631 15641
3 15619 15624 15626
3 15626 15641 15639
3 15633 15630 15632
3 15638 15639 15627
3 15629 15628 15631
3 15630 15629 15172
3 15628 15641 15631
3 15633 15632 13
3 15628 15630 15627
3 639 15631 15167
3 15177 15629 15631
3 15634 15646 15647
3 15630 15172 15632
3 15627 15630 15633
3 15646 15633 13
3 15195 15640 15645
3 15200 15201 15644
3 15621 15622 15636
3 15624 15636 15622
3 15175 15626 15637
3 15625 15637 15626
3 15639 15638 15619
3 15640 15627 15635
3 15626 15639 15619
3 15627 15639 15628
3 15640 15635 15645
3 15620 15638 15640
3 15642 15641 15175
3 15639 15641 15628
3 15642 15175 15176
3 15167 15641 15642
3 15646 15643 15645
3 15648 15651 355
3 15195 15644 15202
3 15650 15644 15643
3 15646 15645 15635
3 15644 15645 15643
3 15646 15635 15633
3 15634 15651 15649
3 15644 15650 15200
3 15646 13 15647
3 15649 15643 15646
3 15634 15649 15646
3 15650 15649 15648
3 15649 15650 15643
3 15710 15650 15648
3 15222 15652 136
3 15649 15651 15648
3 15206 15652 15205
3 153 15654 15273
3 15273 15654 15275
3 15274 15654 15653
3 15657 15656 162
3 15684 15658 15659
3 15434 15656 15432
3 15657 162 15461
3 15437 15657 15436
3 15683 15353 15352
3 15661 15690 15688
3 15326 15659 15364
3 15660 15659 15658
3 15686 15690 15658
3 15660 15460 15461
3 15691 15692 15688
3 15463 15468 15666
3 15658 15662 15660
3 15661 15663 15664
3 15663 15443 15664
3 15666 15663 15693
3 15460 15662 15664
3 15664 15662 15661
3 15470 15663 15666
3 15689 15691 15717
3 15693 15663 15661
3 15561 15667 15559
3 15668 15667 635
3 15668 635 14573
3 15669 15668 14578
3 15565 15669 15563
3 15668 15669 15667
3 15040 15671 15673
3 15049 15671 15040
3 15045 15671 15049
3 15673 15671 15670
3 15045 15575 15672
3 15572 15672 15575
3 15362 15678 15352
3 15670 15035 15673
3 15674 15694 15676
3 15676 15694 15677
3 15695 15655 15720
3 15680 15678 15677
3 15680 15677 15675
3 338 15678 15362
3 15676 15677 15678
3 15687 15719 15718
3 15694 15687 15677
3 15681 15680 15675
3 15678 15680 15352
3 15681 15675 15682
3 15326 15351 15683
3 15685 15682 15675
3 15686 15682 15685
3 15680 15681 15683
3 15326 15683 15681
3 15326 15684 15659
3 15681 15682 15684
3 15675 15687 15685
3 15719 15687 15679
3 15688 15686 646
3 15658 15682 15686
3 15677 15687 15675
3 15720 15733 15734
3 15718 646 15685
3 15690 15661 15662
3 337 15471 15741
3 15661 15688 15692
3 15658 15690 15662
3 15686 15688 15690
3 15718 15721 646
3 15691 15689 15692
3 15723 15738 15689
3 15463 15666 15693
3 15661 15692 15693
3 15693 15692 15463
3 15695 15694 15674
3 15687 15694 15679
3 7819 15697 6999
3 15694 15695 15679
3 15697 7819 147
3 6992 15697 15696
3 15700 11306 11305
3 11306 15700 15699
3 15699 15698 474
3 12023 15700 11305
3 15698 15700 11304
3 15712 15703 15706
3 13266 15703 12811
3 15704 15702 15703
3 15707 13266 501
3 15706 15703 15702
3 501 12440 15708
3 15709 15704 15705
3 15200 15705 15201
3 15705 15704 15708
3 15714 15706 15702
3 334 13276 15712
3 13266 15707 15703
3 15708 15707 501
3 15708 12438 12067
3 15707 15708 15704
3 15200 15650 15710
3 15702 15704 15709
3 15715 15648 355
3 15702 15709 15710
3 15706 15711 15712
3 15706 15701 15711
3 15712 15711 334
3 15715 15702 15710
3 15702 15715 15714
3 15701 15714 15713
3 15648 15715 15710
3 15713 15715 355
3 15732 15722 15729
3 15723 15724 15727
3 15665 15723 15727
3 15736 15735 15737
3 15687 15718 15685
3 15721 15718 15716
3 15720 15719 15679
3 15716 15718 15719
3 15695 15720 15679
3 15730 15734 15726
3 15724 15721 15716
3 646 15721 15717
3 15689 15717 15723
3 15727 15729 15722
3 15723 15717 15724
3 15721 15724 15717
3 15726 15728 15730
3 15727 15724 15729
3 15722 15725 15727
3 15720 15734 15719
3 15665 15727 15725
3 15728 15729 15730
3 15732 15731 1
3 15730 15729 15724
3 15732 15729 15728
3 15724 15716 15730
3 15730 15716 15734
3 15719 15734 15716
3 15728 15726 15731
3 15731 15732 15728
3 15720 15655 15733
3 15726 15734 15733
3 15737 15735 15739
3 15689 15738 15737
3 15665 15736 15738
3 15689 15737 15742
3 15665 15738 15723
3 15736 15737 15738
3 15741 15740 337
3 15463 15739 15471
3 15471 15739 15741
3 15739 15735 15740
3 15740 15741 15739
3 15742 15692 15689
3 15739 15463 15742

CELL_TYPES 30976
5
5
5
5
5
5
5
5
5
5
5
5
5
5
5
5
5
5
5
5
5
5
5
5
5
5
5
5
5
5
5
5
5
5
5
5
5
5
5
5
5
5
5
5
5
5
5
5
5
5
5
5
5
5
5
5
5
5
5
5
5
5
5
5
5
5
5
5
5
5
5
5
5
5
5
5
5
5
5
5
5
5
5
5
5
5
5
5
5
5
5
5
5
5
5
5
5
5
5
5
5
5
5
5
5
5
5
5
5
5
5
5
5
5
5
5
5
5
5
5
5
5
5
5
5
5
5
5
5
5
5
5
5
5
5
5
5
5
5
5
5
5
5
5
5
5
5
5
5
5
5
5
5
5
5
5
5
5
5
5
5
5
5
5
5
5
5
5
5
5
5
5
5
5
5
5
5
5
5
5
5
5
5
5
5
5
5
5
5
5
5
5
5
5
5
5
5
5
5
5
5
5
5
5
5
5
5
5
5
5
5
5
5
5
5
5
5
5
5
5
5
5
5
5
5
5
5
5
5
5
5
5
5
5
5
5
5
5
5
5
5
5
5
5
5
5
5
5
5
5
5
5
5
5
5
5
5
5
5
5
5
5
5
5
5
5
5
5
5
5
5
5
5
5
5
5
5
5
5
5
5
5
5
5
5
5
5
5
5
5
5
5
5
5
5
5
5
5
5
5
5
5
5
5
5
5
5
5
5
5
5
5
5
5
5
5
5
5
5
5
5
5
5
5
5
5
5
5
5
5
5
5
5
5
5
5
5
5
5
5
5
5
5
5
5
5
5
5
5
5
5
5
5
5
5
5
5
5
5
5
5
5
5
5
5
5
5
5
5
5
5
5
5
5
5
5
5
5
5
5
5
5
5
5
5
5
5
5
5
5
5
5
5
5
5
5
5
5
5
5
5
5
5
5
5
5
5
5
5
5
5
5
5
5
5
5
5
5
5
5
5
5
5
5
5
5
5
5
5
5
5
5
5
5
5
5
5
5
5
5
5
5
5
5
5
5
5
5
5
5
5
5
5
5
5
5
5
5
5
5
5
5
5
5
5
5
5
5
5
5
5
5
5
5
5
5
5
5
5
5
5
5
5
5
5
5
5
5
5
5
5
5
5
5
5
5
5
5
5
5
5
5
5
5
5
5
5
5
5
5
5
5
5
5
5
5
5
5
5
5
5
5
5
5
5
5
5
5
5
5
5
5
5
5
5
5
5
5
5
5
5
5
5
5
5
5
5
5
5
5
5
5
5
5
5
5
5
5
5
5
5
5
5
5
5
5
5
5
5
5
5
5
5
5
5
5
5
5
5
5
5
5
5
5
5
5
5
5
5
5
5
5
5
5
5
5
5
5
5
5
5
5
5
5
5
5
5
5
5
5
5
5
5
5
5
5
5
5
5
5
5
5
5
5
5
5
5
5
5
5
5
5
5
5
5
5
5
5
5
5
5
5
5
5
5
5
5
5
5
5
5
5
5
5
5
5
5
5
5
5
5
5
5
5
5
5
5
5
5
5
5
5
5
5
5
5
5
5
5
5
5
5
5
5
5
5
5
5
5
5
5
5
5
5
5
5
5
5
5
5
5
5
5
5
5
5
5
5
5
5
5
5
5
5
5
5
5
5
5
5
5
5
5
5
5
5
5
5
5
5
5
5
5
5
5
5
5
5
5
5
5
5
5
5
5
5
5
5
5
5
5
5
5
5
5
5
5
5
5
5
5
5
5
5
5
5
5
5
5
5
5
5
5
5
5
5
5
5
5
5
5
5
5
5
5
5
5
5
5
5
5
5
5
5
5
5
5
5
5
5
5
5
5
5
5
5
5
5
5
5
5
5
5
5
5
5
5
5
5
5
5
5
5
5
5
5
5
5
5
5
5
5
5
5
5
5
5
5
5
5
5
5
5
5
5
5
5
5
5
5
5
5
5
5
5
5
5
5
5
5
5
5
5
5
5
5
5
5
5
5
5
5
5
5
5
5
5
5
5
5
5
5
5
5
5
5
5
5
5
5
5
5
5
5
5
5
5
5
5
5
5
5
5
5
5
5
5
5
5
5
5
5
5
5
5
5
5
5
5
5
5
5
5
5
5
5
5
5
5
5
5
5
5
5
5
5
5
5
5
5
5
5
5
5
5
5
5
5
5
5
5
5
5
5
5
5
5
5
5
5
5
5
5
5
5
5
5
5
5
5
5
5
5
5
5
5
5
5
5
5
5
5
5
5
5
5
5
5
5
5
5
5
5
5
5
5
5
5
5
5
5
5
5
5
5
5
5
5
5
5
5
5
5
5
5
5
5
5
5
5
5
5
5
5
5
5
5
5
5
5
5
5
5
5
5
5
5
5
5
5
5
5
5
5
5
5
5
5
5
5
5
5
5
5
5
5
5
5
5
5
5
5
5
5
5
5
5
5
5
5
5
5
5
5
5
5
5
5
5
5
5
5
5
5
5
5
5
5
5
5
5
5
5
5
5
5
5
5
5
5
5
5
5
5
5
5
5
5
5
5
5
5
5
5
5
5
5
5
5
5
5
5
5
5
5
5
5
5
5
5
5
5
5
5
5
5
5
5
5
5
5
5
5
5
5
5
5
5
5
5
5
5
5
5
5
5
5
5
5
5
5
5
5
5
5
5
5
5
5
5
5
5
5
5
5
5
5
5
5
5
5
5
5
5
5
5
5
5
5
5
5
5
5
5
5
5
5
5
5
5
5
5
5
5
5
5
5
5
5
5
5
5
5
5
5
5
5
5
5
5
5
5
5
5
5
5
5
5
5
5
5
5
5
5
5
5
5
5
5
5
5
5
5
5
5
5
5
5
5
5
5
5
5
5
5
5
5
5
5
5
5
5
5
5
5
5
5
5
5
5
5
5
5
5
5
5
5
5
5
5
5
5
5
5
5
5
5
5
5
5
5
5
5
5
5
5
5
5
5
5
5
5
5
5
5
5
5
5
5
5
5
5
5
5
5
5
5
5
5
5
5
5
5
5
5
5
5
5
5
5
5
5
5
5
5
5
5
5
5
5
5
5
5
5
5
5
5
5
5
5
5
5
5
5
5
5
5
5
5
5
5
5
5
5
5
5
5
5
5
5
5
5
5
5
5
5
5
5
5
5
5
5
5
5
5
5
5
5
5
5
5
5
5
5
5
5
5
5
5
5
5
5
5
5
5
5
5
5
5
5
5
5
5
5
5
5
5
5
5
5
5
5
5
5
5
5
5
5
5
5
5
5
5
5
5
5
5
5
5
5
5
5
5
5
5
5
5
5
5
5
5
5
5
5
5
5
5
5
5
5
5
5
5
5
5
5
5
5
5
5
5
5
5
5
5
5
5
5
5
5
5
5
5
5
5
5
5
5
5
5
5
5
5
5
5
5
5
5
5
5
5
5
5
5
5
5
5
5
5
5
5
5
5
5
5
5
5
5
5
5
5
5
5
5
5
5
5
5
5
5
5
5
5
5
5
5
5
5
5
5
5
5
5
5
5
5
5
5
5
5
5
5
5
5
5
5
5
5
5
5
5
5
5
5
5
5
5
5
5
5
5
5
5
5
5
5
5
5
5
5
5
5
5
5
5
5
5
5
5
5
5
5
5
5
5
5
5
5
5
5
5
5
5
5
5
5
5
5
5
5
5
5
5
5
5
5
5
5
5
5
5
5
5
5
5
5
5
5
5
5
5
5
5
5
5
5
5
5
5
5
5
5
5
5
5
5
5
5
5
5
5
5
5
5
5
5
5
5
5
5
5
5
5
5
5
5
5
5
5
5
5
5
5
5
5
5
5
5
5
5
5
5
5
5
5
5
5
5
5
5
5
5
5
5
5
5
5
5
5
5
5
5
5
5
5
5
5
5
5
5
5
5
5
5
5
5
5
5
5
5
5
5
5
5
5
5
5
5
5
5
5
5
5
5
5
5
5
5
5
5
5
5
5
5
5
5
5
5
5
5
5
5
5
5
5
5
5
5
5
5
5
5
5
5
5
5
5
5
5
5
5
5
5
5
5
5
5
5
5
5
5
5
5
5
5
5
5
5
5
5
5
5
5
5
5
5
5
5
5
5
5
5
5
5
5
5
5
5
5
5
5
5
5
5
5
5
5
5
5
5
5
5
5
5
5
5
5
5
5
5
5
5
5
5
5
5
5
5
5
5
5
5
5
5
5
5
5
5
5
5
5
5
5
5
5
5
5
5
5
5
5
5
5
5
5
5
5
5
5
5
5
5
5
5
5
5
5
5
5
5
5
5
5
5
5
5
5
5
5
5
5
5
5
5
5
5
5
5
5
5
5
5
5
5
5
5
5
5
5
5
5
5
5
5
5
5
5
5
5
5
5
5
5
5
5
5
5
5
5
5
5
5
5
5
5
5
5
5
5
5
5
5
5
5
5
5
5
5
5
5
5
5
5
5
5
5
5
5
5
5
5
5
5
5
5
5
5
5
5
5
5
5
5
5
5
5
5
5
5
5
5
5
5
5
5
5
5
5
5
5
5
5
5
5
5
5
5
5
5
5
5
5
5
5
5
5
5
5
5
5
5
5
5
5
5
5
5
5
5
5
5
5
5
5
5
5
5
5
5
5
5
5
5
5
5
5
5
5
5
5
5
5
5
5
5
5
5
5
5
5
5
5
5
5
5
5
5
5
5
5
5
5
5
5
5
5
5
5
5
5
5
5
5
5
5
5
5
5
5
5
5
5
5
5
5
5
5
5
5
5
5
5
5
5
5
5
5
5
5
5
5
5
5
5
5
5
5
5
5
5
5
5
5
5
5
5
5
5
5
5
5
5
5
5
5
5
5
5
5
5
5
5
5
5
5
5
5
5
5
5
5
5
5
5
5
5
5
5
5
5
5
5
5
5
5
5
5
5
5
5
5
5
5
5
5
5
5
5
5
5
5
5
5
5
5
5
5
5
5
5
5
5
5
5
5
5
5
5
5
5
5
5
5
5
5
5
5
5
5
5
5
5
5
5
5
5
5
5
5
5
5
5
5
5
5
5
5
5
5
5
5
5
5
5
5
5
5
5
5
5
5
5
5
5
5
5
5
5
5
5
5
5
5
5
5
5
5
5
5
5
5
5
5
5
5
5
5
5
5
5
5
5
5
5
5
5
5
5
5
5
5
5
5
5
5
5
5
5
5
5
5
5
5
5
5
5
5
5
5
5
5
5
5
5
5
5
5
5
5
5
5
5
5
5
5
5
5
5
5
5
5
5
5
5
5
5
5
5
5
5
5
5
5
5
5
5
5
5
5
5
5
5
5
5
5
5
5
5
5
5
5
5
5
5
5
5
5
5
5
5
5
5
5
5
5
5
5
5
5
5
5
5
5
5
5
5
5
5
5
5
5
5
5
5
5
5
5
5
5
5
5
5
5
5
5
5
5
5
5
5
5
5
5
5
5
5
5
5
5
5
5
5
5
5
5
5
5
5
5
5
5
5
5
5
5
5
5
5
5
5
5
5
5
5
5
5
5
5
5
5
5
5
5
5
5
5
5
5
5
5
5
5
5
5
5
5
5
5
5
5
5
5
5
5
5
5
5
5
5
5
5
5
5
5
5
5
5
5
5
5
5
5
5
5
5
5
5
5
5
5
5
5
5
5
5
5
5
5
5
5
5
5
5
5
5
5
5
5
5
5
5
5
5
5
5
5
5
5
5
5
5
5
5
5
5
5
5
5
5
5
5
5
5
5
5
5
5
5
5
5
5
5
5
5
5
5
5
5
5
5
5
5
5
5
5
5
5
5
5
5
5
5
5
5
5
5
5
5
5
5
5
5
5
5
5
5
5
5
5
5
5
5
5
5
5
5
5
5
5
5
5
5
5
5
5
5
5
5
5
5
5
5
5
5
5
5
5
5
5
5
5
5
5
5
5
5
5
5
5
5
5
5
5
5
5
5
5
5
5
5
5
5
5
5
5
5
5
5
5
5
5
5
5
5
5
5
5
5
5
5
5
5
5
5
5
5
5
5
5
5
5
5
5
5
5
5
5
5
5
5
5
5
5
5
5
5
5
5
5
5
5
5
5
5
5
5
5
5
5
5
5
5
5
5
5
5
5
5
5
5
5
5
5
5
5
5
5
5
5
5
5
5
5
5
5
5
5
5
5
5
5
5
5
5
5
5
5
5
5
5
5
5
5
5
5
5
5
5
5
5
5
5
5
5
5
5
5
5
5
5
5
5
5
5
5
5
5
5
5
5
5
5
5
5
5
5
5
5
5
5
5
5
5
5
5
5
5
5
5
5
5
5
5
5
5
5
5
5
5
5
5
5
5
5
5
5
5
5
5
5
5
5
5
5
5
5
5
5
5
5
5
5
5
5
5
5
5
5
5
5
5
5
5
5
5
5
5
5
5
5
5
5
5
5
5
5
5
5
5
5
5
5
5
5
5
5
5
5
5
5
5
5
5
5
5
5
5
5
5
5
5
5
5
5
5
5
5
5
5
5
5
5
5
5
5
5
5
5
5
5
5
5
5
5
5
5
5
5
5
5
5
5
5
5
5
5
5
5
5
5
5
5
5
5
5
5
5
5
5
5
5
5
5
5
5
5
5
5
5
5
5
5
5
5
5
5
5
5
5
5
5
5
5
5
5
5
5
5
5
5
5
5
5
5
5
5
5
5
5
5
5
5
5
5
5
5
5
5
5
5
5
5
5
5
5
5
5
5
5
5
5
5
5
5
5
5
5
5
5
5
5
5
5
5
5
5
5
5
5
5
5
5
5
5
5
5
5
5
5
5
5
5
5
5
5
5
5
5
5
5
5
5
5
5
5
5
5
5
5
5
5
5
5
5
5
5
5
5
5
5
5
5
5
5
5
5
5
5
5
5
5
5
5
5
5
5
5
5
5
5
5
5
5
5
5
5
5
5
5
5
5
5
5
5
5
5
5
5
5
5
5
5
5
5
5
5
5
5
5
5
5
5
5
5
5
5
5
5
5
5
5
5
5
5
5
5
5
5
5
5
5
5
5
5
5
5
5
5
5
5
5
5
5
5
5
5
5
5
5
5
5
5
5
5
5
5
5
5
5
5
5
5
5
5
5
5
5
5
5
5
5
5
5
5
5
5
5
5
5
5
5
5
5
5
5
5
5
5
5
5
5
5
5
5
5
5
5
5
5
5
5
5
5
5
5
5
5
5
5
5
5
5
5
5
5
5
5
5
5
5
5
5
5
5
5
5
5
5
5
5
5
5
5
5
5
5
5
5
5
5
5
5
5
5
5
5
5
5
5
5
5
5
5
5
5
5
5
5
5
5
5
5
5
5
5
5
5
5
5
5
5
5
5
5
5
5
5
5
5
5
5
5
5
5
5
5
5
5
5
5
5
5
5
5
5
5
5
5
5
5
5
5
5
5
5
5
5
5
5
5
5
5
5
5
5
5
5
5
5
5
5
5
5
5
5
5
5
5
5
5
5
5
5
5
5
5
5
5
5
5
5
5
5
5
5
5
5
5
5
5
5
5
5
5
5
5
5
5
5
5
5
5
5
5
5
5
5
5
5
5
5
5
5
5
5
5
5
5
5
5
5
5
5
5
5
5
5
5
5
5
5
5
5
5
5
5
5
5
5
5
5
5
5
5
5
5
5
5
5
5
5
5
5
5
5
5
5
5
5
5
5
5
5
5
5
5
5
5
5
5
5
5
5
5
5
5
5
5
5
5
5
5
5
5
5
5
5
5
5
5
5
5
5
5
5
5
5
5
5
5
5
5
5
5
5
5
5
5
5
5
5
5
5
5
5
5
5
5
5
5
5
5
5
5
5
5
5
5
5
5
5
5
5
5
5
5
5
5
5
5
5
5
5
5
5
5
5
5
5
5
5
5
5
5
5
5
5
5
5
5
5
5
5
5
5
5
5
5
5
5
5
5
5
5
5
5
5
5
5
5
5
5
5
5
5
5
5
5
5
5
5
5
5
5
5
5
5
5
5
5
5
5
5
5
5
5
5
5
5
5
5
5
5
5
5
5
5
5
5
5
5
5
5
5
5
5
5
5
5
5
5
5
5
5
5
5
5
5
5
5
5
5
5
5
5
5
5
5
5
5
5
5
5
5
5
5
5
5
5
5
5
5
5
5
5
5
5
5
5
5
5
5
5
5
5
5
5
5
5
5
5
5
5
5
5
5
5
5
5
5
5
5
5
5
5
5
5
5
5
5
5
5
5
5
5
5
5
5
5
5
5
5
5
5
5
5
5
5
5
5
5
5
5
5
5
5
5
5
5
5
5
5
5
5
5
5
5
5
5
5
5
5
5
5
5
5
5
5
5
5
5
5
5
5
5
5
5
5
5
5
5
5
5
5
5
5
5
5
5
5
5
5
5
5
5
5
5
5
5
5
5
5
5
5
5
5
5
5
5
5
5
5
5
5
5
5
5
5
5
5
5
5
5
5
5
5
5
5
5
5
5
5
5
5
5
5
5
5
5
5
5
5
5
5
5
5
5
5
5
5
5
5
5
5
5
5
5
5
5
5
5
5
5
5
5
5
5
5
5
5
5
5
5
5
5
5
5
5
5
5
5
5
5
5
5
5
5
5
5
5
5
5
5
5
5
5
5
5
5
5
5
5
5
5
5
5
5
5
5
5
5
5
5
5
5
5
5
5
5
5
5
5
5
5
5
5
5
5
5
5
5
5
5
5
5
5
5
5
5
5
5
5
5
5
5
5
5
5
5
5
5
5
5
5
5
5
5
5
5
5
5
5
5
5
5
5
5
5
5
5
5
5
5
5
5
5
5
5
5
5
5
5
5
5
5
5
5
5
5
5
5
5
5
5
5
5
5
5
5
5
5
5
5
5
5
5
5
5
5
5
5
5
5
5
5
5
5
5
5
5
5
5
5
5
5
5
5
5
5
5
5
5
5
5
5
5
5
5
5
5
5
5
5
5
5
5
5
5
5
5
5
5
5
5
5
5
5
5
5
5
5
5
5
5
5
5
5
5
5
5
5
5
5
5
5
5
5
5
5
5
5
5
5
5
5
5
5
5
5
5
5
5
5
5
5
5
5
5
5
5
5
5
5
5
5
5
5
5
5
5
5
5
5
5
5
5
5
5
5
5
5
5
5
5
5
5
5
5
5
5
5
5
5
5
5
5
5
5
5
5
5
5
5
5
5
5
5
5
5
5
5
5
5
5
5
5
5
5
5
5
5
5
5
5
5
5
5
5
5
5
5
5
5
5
5
5
5
5
5
5
5
5
5
5
5
5
5
5
5
5
5
5
5
5
5
5
5
5
5
5
5
5
5
5
5
5
5
5
5
5
5
5
5
5
5
5
5
5
5
5
5
5
5
5
5
5
5
5
5
5
5
5
5
5
5
5
5
5
5
5
5
5
5
5
5
5
5
5
5
5
5
5
5
5
5
5
5
5
5
5
5
5
5
5
5
5
5
5
5
5
5
5
5
5
5
5
5
5
5
5
5
5
5
5
5
5
5
5
5
5
5
5
5
5
5
5
5
5
5
5
5
5
5
5
5
5
5
5
5
5
5
5
5
5
5
5
5
5
5
5
5
5
5
5
5
5
5
5
5
5
5
5
5
5
5
5
5
5
5
5
5
5
5
5
5
5
5
5
5
5
5
5
5
5
5
5
5
5
5
5
5
5
5
5
5
5
5
5
5
5
5
5
5
5
5
5
5
5
5
5
5
5
5
5
5
5
5
5
5
5
5
5
5
5
5
5
5
5
5
5
5
5
5
5
5
5
5
5
5
5
5
5
5
5
5
5
5
5
5
5
5
5
5
5
5
5
5
5
5
5
5
5
5
5
5
5
5
5
5
5
5
5
5
5
5
5
5
5
5
5
5
5
5
5
5
5
5
5
5
5
5
5
5
5
5
5
5
5
5
5
5
5
5
5
5
5
5
5
5
5
5
5
5
5
5
5
5
5
5
5
5
5
5
5
5
5
5
5
5
5
5
5
5
5
5
5
5
5
5
5
5
5
5
5
5
5
5
5
5
5
5
5
5
5
5
5
5
5
5
5
5
5
5
5
5
5
5
5
5
5
5
5
5
5
5
5
5
5
5
5
5
5
5
5
5
5
5
5
5
5
5
5
5
5
5
5
5
5
5
5
5
5
5
5
5
5
5
5
5
5
5
5
5
5
5
5
5
5
5
5
5
5
5
5
5
5
5
5
5
5
5
5
5
5
5
5
5
5
5
5
5
5
5
5
5
5
5
5
5
5
5
5
5
5
5
5
5
5
5
5
5
5
5
5
5
5
5
5
5
5
5
5
5
5
5
5
5
5
5
5
5
5
5
5
5
5
5
5
5
5
5
5
5
5
5
5
5
5
5
5
5
5
5
5
5
5
5
5
5
5
5
5
5
5
5
5
5
5
5
5
5
5
5
5
5
5
5
5
5
5
5
5
5
5
5
5
5
5
5
5
5
5
5
5
5
5
5
5
5
5
5
5
5
5
5
5
5
5
5
5
5
5
5
5
5
5
5
5
5
5
5
5
5
5
5
5
5
5
5
5
5
5
5
5
5
5
5
5
5
5
5
5
5
5
5
5
5
5
5
5
5
5
5
5
5
5
5
5
5
5
5
5
5
5
5
5
5
5
5
5
5
5
5
5
5
5
5
5
5
5
5
5
5
5
5
5
5
5
5
5
5
5
5
5
5
5
5
5
5
5
5
5
5
5
5
5
5
5
5
5
5
5
5
5
5
5
5
5
5
5
5
5
5
5
5
5
5
5
5
5
5
5
5
5
5
5
5
5
5
5
5
5
5
5
5
5
5
5
5
5
5
5
5
5
5
5
5
5
5
5
5
5
5
5
5
5
5
5
5
5
5
5
5
5
5
5
5
5
5
5
5
5
5
5
5
5
5
5
5
5
5
5
5
5
5
5
5
5
5
5
5
5
5
5
5
5
5
5
5
5
5
5
5
5
5
5
5
5
5
5
5
5
5
5
5
5
5
5
5
5
5
5
5
5
5
5
5
5
5
5
5
5
5
5
5
5
5
5
5
5
5
5
5
5
5
5
5
5
5
5
5
5
5
5
5
5
5
5
5
5
5
5
5
5
5
5
5
5
5
5
5
5
5
5
5
5
5
5
5
5
5
5
5
5
5
5
5
5
5
5
5
5
5
5
5
5
5
5
5
5
5
5
5
5
5
5
5
5
5
5
5
5
5
5
5
5
5
5
5
5
5
5
5
5
5
5
5
5
5
5
5
5
5
5
5
5
5
5
5
5
5
5
5
5
5
5
5
5
5
5
5
5
5
5
5
5
5
5
5
5
5
5
5
5
5
5
5
5
5
5
5
5
5
5
5
5
5
5
5
5
5
5
5
5
5
5
5
5
5
5
5
5
5
5
5
5
5
5
5
5
5
5
5
5
5
5
5
5
5
5
5
5
5
5
5
5
5
5
5
5
5
5
5
5
5
5
5
5
5
5
5
5
5
5
5
5
5
5
5
5
5
5
5
5
5
5
5
5
5
5
5
5
5
5
5
5
5
5
5
5
5
5
5
5
5
5
5
5
5
5
5
5
5
5
5
5
5
5
5
5
5
5
5
5
5
5
5
5
5
5
5
5
5
5
5
5
5
5
5
5
5
5
5
5
5
5
5
5
5
5
5
5
5
5
5
5
5
5
5
5
5
5
5
5
5
5
5
5
5
5
5
5
5
5
5
5
5
5
5
5
5
5
5
5
5
5
5
5
5
5
5
5
5
5
5
5
5
5
5
5
5
5
5
5
5
5
5
5
5
5
5
5
5
5
5
5
5
5
5
5
5
5
5
5
5
5
5
5
5
5
5
5
5
5
5
5
5
5
5
5
5
5
5
5
5
5
5
5
5
5
5
5
5
5
5
5
5
5
5
5
5
5
5
5
5
5
5
5
5
5
5
5
5
5
5
5
5
5
5
5
5
5
5
5
5
5
5
5
5
5
5
5
5
5
5
5
5
5
5
5
5
5
5
5
5
5
5
5
5
5
5
5
5
5
5
5
5
5
5
5
5
5
5
5
5
5
5
5
5
5
5
5
5
5
5
5
5
5
5
5
5
5
5
5
5
5
5
5
5
5
5
5
5
5
5
5
5
5
5
5
5
5
5
5
5
5
5
5
5
5
5
5
5
5
5
5
5
5
5
5
5
5
5
5
5
5
5
5
5
5
5
5
5
5
5
5
5
5
5
5
5
5
5
5
5
5
5
5
5
5
5
5
5
5
5
5
5
5
5
5
5
5
5
5
5
5
5
5
5
5
5
5
5
5
5
5
5
5
5
5
5
5
5
5
5
5
5
5
5
5
5
5
5
5
5
5
5
5
5
5
5
5
5
5
5
5
5
5
5
5
5
5
5
5
5
5
5
5
5
5
5
5
5
5
5
5
5
5
5
5
5
5
5
5
5
5
5
5
5
5
5
5
5
5
5
5
5
5
5
5
5
5
5
5
5
5
5
5
5
5
5
5
5
5
5
5
5
5
5
5
5
5
5
5
5
5
5
5
5
5
5
5
5
5
5
5
5
5
5
5
5
5
5
5
5
5
5
5
5
5
5
5
5
5
5
5
5
5
5
5
5
5
5
5
5
5
5
5
5
5
5
5
5
5
5
5
5
5
5
5
5
5
5
5
5
5
5
5
5
5
5
5
5
5
5
5
5
5
5
5
5
5
5
5
5
5
5
5
5
5
5
5
5
5
5
5
5
5
5
5
5
5
5
5
5
5
5
5
5
5
5
5
5
5
5
5
5
5
5
5
5
5
5
5
5
5
5
5
5
5
5
5
5
5
5
5
5
5
5
5
5
5
5
5
5
5
5
5
5
5
5
5
5
5
5
5
5
5
5
5
5
5
5
5
5
5
5
5
5
5
5
5
5
5
5
5
5
5
5
5
5
5
5
5
5
5
5
5
5
5
5
5
5
5
5
5
5
5
5
5
5
5
5
5
5
5
5
5
5
5
5
5
5
5
5
5
5
5
5
5
5
5
5
5
5
5
5
5
5
5
5
5
5
5
5
5
5
5
5
5
5
5
5
5
5
5
5
5
5
5
5
5
5
5
5
5
5
5
5
5
5
5
5
5
5
5
5
5
5
5
5
5
5
5
5
5
5
5
5
5
5
5
5
5
5
5
5
5
5
5
5
5
5
5
5
5
5
5
5
5
5
5
5
5
5
5
5
5
5
5
5
5
5
5
5
5
5
5
5
5
5
5
5
5
5
5
5
5
5
5
5
5
5
5
5
5
5
5
5
5
5
5
5
5
5
5
5
5
5
5
5
5
5
5
5
5
5
5
5
5
5
5
5
5
5
5
5
5
5
5
5
5
5
5
5
5
5
5
5
5
5
5
5
5
5
5
5
5
5
5
5
5
5
5
5
5
5
5
5
5
5
5
5
5
5
5
5
5
5
5
5
5
5
5
5
5
5
5
5
5
5
5
5
5
5
5
5
5
5
5
5
5
5
5
5
5
5
5
5
5
5
5
5
5
5
5
5
5
5
5
5
5
5
5
5
5
5
5
5
5
5
5
5
5
5
5
5
5
5
5
5
5
5
5
5
5
5
5
5
5
5
5
5
5
5
5
5
5
5
5
5
5
5
5
5
5
5
5
5
5
5
5
5
5
5
5
5
5
5
5
5
5
5
5
5
5
5
5
5
5
5
5
5
5
5
5
5
5
5
5
5
5
5
5
5
5
5
5
5
5
5
5
5
5
5
5
5
5
5
5
5
5
5
5
5
5
5
5
5
5
5
5
5
5
5
5
5
5
5
5
5
5
5
5
5
5
5
5
5
5
5
5
5
5
5
5
5
5
5
5
5
5
5
5
5
5
5
5
5
5
5
5
5
5
5
5
5
5
5
5
5
5
5
5
5
5
5
5
5
5
5
5
5
5
5
5
5
5
5
5
5
5
5
5
5
5
5
5
5
5
5
5
5
5
5
5
5
5
5
5
5
5
5
5
5
5
5
5
5
5
5
5
5
5
5
5
5
5
5
5
5
5
5
5
5
5
5
5
5
5
5
5
5
5
5
5
5
5
5
5
5
5
5
5
5
5
5
5
5
5
5
5
5
5
5
5
5
5
5
5
5
5
5
5
5
5
5
5
5
5
5
5
5
5
5
5
5
5
5
5
5
5
5
5
5
5
5
5
5
5
5
5
5
5
5
5
5
5
5
5
5
5
5
5
5
5
5
5
5
5
5
5
5
5
5
5
5
5
5
5
5
5
5
5
5
5
5
5
5
5
5
5
5
5
5
5
5
5
5
5
5
5
5
5
5
5
5
5
5
5
5
5
5
5
5
5
5
5
5
5
5
5
5
5
5
5
5
5
5
5
5
5
5
5
5
5
5
5
5
5
5
5
5
5
5
5
5
5
5
5
5
5
5
5
5
5
5
5
5
5
5
5
5
5
5
5
5
5
5
5
5
5
5
5
5
5
5
5
5
5
5
5
5
5
5
5
5
5
5
5
5
5
5
5
5
5
5
5
5
5
5
5
5
5
5
5
5
5
5
5
5
5
5
5
5
5
5
5
5
5
5
5
5
5
5
5
5
5
5
5
5
5
5
5
5
5
5
5
5
5
5
5
5
5
5
5
5
5
5
5
5
5
5
5
5
5
5
5
5
5
5
5
5
5
5
5
5
5
5
5
5
5
5
5
5
5
5
5
5
5
5
5
5
5
5
5
5
5
5
5
5
5
5
5
5
5
5
5
5
5
5
5
5
5
5
5
5
5
5
5
5
5
5
5
5
5
5
5
5
5
5
5
5
5
5
5
5
5
5
5
5
5
5
5
5
5
5
5
5
5
5
5
5
5
5
5
5
5
5
5
5
5
5
5
5
5
5
5
5
5
5
5
5
5
5
5
5
5
5
5
5
5
5
5
5
5
5
5
5
5
5
5
5
5
5
5
5
5
5
5
5
5
5
5
5
5
5
5
5
5
5
5
5
5
5
5
5
5
5
5
5
5
5
5
5
5
5
5
5
5
5
5
5
5
5
5
5
5
5
5
5
5
5
5
5
5
5
5
5
5
5
5
5
5
5
5
5
5
5
5
5
5
5
5
5
5
5
5
5
5
5
5
5
5
5
5
5
5
5
5
5
5
5
5
5
5
5
5
5
5
5
5
5
5
5
5
5
5
5
5
5
5
5
5
5
5
5
5
5
5
5
5
5
5
5
5
5
5
5
5
5
5
5
5
5
5
5
5
5
5
5
5
5
5
5
5
5
5
5
5
5
5
5
5
5
5
5
5
5
5
5
5
5
5
5
5
5
5
5
5
5
5
5
5
5
5
5
5
5
5
5
5
5
5
5
5
5
5
5
5
5
5
5
5
5
5
5
5
5
5
5
5
5
5
5
5
5
5
5
5
5
5
5
5
5
5
5
5
5
5
5
5
5
5
5
5
5
5
5
5
5
5
5
5
5
5
5
5
5
5
5
5
5
5
5
5
5
5
5
5
5
5
5
5
5
5
5
5
5
5
5
5
5
5
5
5
5
5
5
5
5
5
5
5
5
5
5
5
5
5
5
5
5
5
5
5
5
5
5
5
5
5
5
5
5
5
5
5
5
5
5
5
5
5
5
5
5
5
5
5
5
5
5
5
5
5
5
5
5
5
5
5
5
5
5
5
5
5
5
5
5
5
5
5
5
5
5
5
5
5
5
5
5
5
5
5
5
5
5
5
5
5
5
5
5
5
5
5
5
5
5
5
5
5
5
5
5
5
5
5
5
5
5
5
5
5
5
5
5
5
5
5
5
5
5
5
5
5
5
5
5
5
5
5
5
5
5
5
5
5
5
5
5
5
5
5
5
5
5
5
5
5
5
5
5
5
5
5
5
5
5
5
5
5
5
5
5
5
5
5
5
5
5
5
5
5
5
5
5
5
5
5
5
5
5
5
5
5
5
5
5
5
5
5
5
5
5
5
5
5
5
5
5
5
5
5
5
5
5
5
5
5
5
5
5
5
5
5
5
5
5
5
5
5
5
5
5
5
5
5
5
5
5
5
5
5
5
5
5
5
5
5
5
5
5
5
5
5
5
5
5
5
5
5
5
5
5
5
5
5
5
5
5
5
5
5
5
5
5
5
5
5
5
5
5
5
5
5
5
5
5
5
5
5
5
5
5
5
5
5
5
5
5
5
5
5
5
5
5
5
5
5
5
5
5
5
5
5
5
5
5
5
5
5
5
5
5
5
5
5
5
5
5
5
5
5
5
5
5
5
5
5
5
5
5
5
5
5
5
5
5
5
5
5
5
5
5
5
5
5
5
5
5
5
5
5
5
5
5
5
5
5
5
5
5
5
5
5
5
5
5
5
5
5
5
5
5
5
5
5
5
5
5
5
5
5
5
5
5
5
5
5
5
5
5
5
5
5
5
5
5
5
5
5
5
5
5
5
5
5
5
5
5
5
5
5
5
5
5
5
5
5
5
5
5
5
5
5
5
5
5
5
5
5
5
5
5
5
5
5
5
5
5
5
5
5
5
5
5
5
5
5
5
5
5
5
5
5
5
5
5
5
5
5
5
5
5
5
5
5
5
5
5
5
5
5
5
5
5
5
5
5
5
5
5
5
5
5
5
5
5
5
5
5
5
5
5
5
5
5
5
5
5
5
5
5
5
5
5
5
5
5
5
5
5
5
5
5
5
5
5
5
5
5
5
5
5
5
5
5
5
5
5
5
5
5
5
5
5
5
5
5
5
5
5
5
5
5
5
5
5
5
5
5
5
5
5
5
5
5
5
5
5
5
5
5
5
5
5
5
5
5
5
5
5
5
5
5
5
5
5
5
5
5
5
5
5
5
5
5
5
5
5
5
5
5
5
5
5
5
5
5
5
5
5
5
5
5
5
5
5
5
5
5
5
5
5
5
5
5
5
5
5
5
5
5
5
5
5
5
5
5
5
5
5
5
5
5
5
5
5
5
5
5
5
5
5
5
5
5
5
5
5
5
5
5
5
5
5
5
5
5
5
5
5
5
5
5
5
5
5
5
5
5
5
5
5
5
5
5
5
5
5
5
5
5
5
5
5
5
5
5
5
5
5
5
5
5
5
5
5
5
5
5
5
5
5
5
5
5
5
5
5
5
5
5
5
5
5
5
5
5
5
5
5
5
5
5
5
5
5
5
5
5
5
5
5
5
5
5
5
5
5
5
5
5
5
5
5
5
5
5
5
5
5
5
5
5
5
5
5
5
5
5
5
5
5
5
5
5
5
5
5
5
5
5
5
5
5
5
5
5
5
5
5
5
5
5
5
5
5
5
5
5
5
5
5
5
5
5
5
5
5
5
5
5
5
5
5
5
5
5
5
5
5
5
5
5
5
5
5
5
5
5
5
5
5
5
5
5
5
5
5
5
5
5
5
5
5
5
5
5
5
5
5
5
5
5
5
5
5
5
5
5
5
5
5
5
5
5
5
5
5
5
5
5
5
5
5
5
5
5
5
5
5
5
5
5
5
5
5
5
5
5
5
5
5
5
5
5
5
5
5
5
5
5
5
5
5
5
5
5
5
5
5
5
5
5
5
5
5
5
5
5
5
5
5
5
5
5
5
5
5
5
5
5
5
5
5
5
5
5
5
5
5
5
5
5
5
5
5
5
5
5
5
5
5
5
5
5
5
5
5
5
5
5
5
5
5
5
5
5
5
5
5
5
5
5
5
5
5
5
5
5
5
5
5
5
5
5
5
5
5
5
5
5
5
5
5
5
5
5
5
5
5
5
5
5
5
5
5
5
5
5
5
5
5
5
5
5
5
5
5
5
5
5
5
5
5
5
5
5
5
5
5
5
5
5
5
5
5
5
5
5
5
5
5
5
5
5
5
5
5
5
5
5
5
5
5
5
5
5
5
5
5
5
5
5
5
5
5
5
5
5
5
5
5
5
5
5
5
5
5
5
5
5
5
5
5
5
5
5
5
5
5
5
5
5
5
5
5
5
5
5
5
5
5
5
5
5
5
5
5
5
5
5
5
5
5
5
5
5
5
5
5
5
5
5
5
5
5
5
5
5
5
5
5
5
5
5
5
5
5
5
5
5
5
5
5
5
5
5
5
5
5
5
5
5
5
5
5
5
5
5
5
5
5
5
5
5
5
5
5
5
5
5
5
5
5
5
5
5
5
5
5
5
5
5
5
5
5
5
5
5
5
5
5
5
5
5
5
5
5
5
5
5
5
5
5
5
5
5
5
5
5
5
5
5
5
5
5
5
5
5
5
5
5
5
5
5
5
5
5
5
5
5
5
5
5
5
5
5
5
5
5
5
5
5
5
5
5
5
5
5
5
5
5
5
5
5
5
5
5
5
5
5
5
5
5
5
5
5
5
5
5
5
5
5
5
5
5
5
5
5
5
5
5
5
5
5
5
5
5
5
5
5
5
5
5
5
5
5
5
5
5
5
5
5
5
5
5
5
5
5
5
5
5
5
5
5
5
5
5
5
5
5
5
5
5
5
5
5
5
5
5
5
5
5
5
5
5
5
5
5
5
5
5
5
5
5
5
5
5
5
5
5
5
5
5
5
5
5
5
5
5
5
5
5
5
5
5
5
5
5
5
5
5
5
5
5
5
5
5
5
5
5
5
5
5
5
5
5
5
5
5
5
5
5
5
5
5
5
5
5
5
5
5
5
5
5
5
5
5
5
5
5
5
5
5
5
5
5
5
5
5
5
5
5
5
5
5
5
5
5
5
5
5
5
5
5
5
5
5
5
5
5
5
5
5
5
5
5
5
5
5
5
5
5
5
5
5
5
5
5
5
5
5
5
5
5
5
5
5
5
5
5
5
5
5
5
5
5
5
5
5
5
5
5
5
5
5
5
5
5
5
5
5
5
5
5
5
5
5
5
5
5
5
5
5
5
5
5
5
5
5
5
5
5
5
5
5
5
5
5
5
5
5
5
5
5
5
5
5
5
5
5
5
5
5
5
5
5
5
5
5
5
5
5
5
5
5
5
5
5
5
5
5
5
5
5
5
5
5
5
5
5
5
5
5
5
5
5
5
5
5
5
5
5
5
5
5
5
5
5
5
5
5
5
5
5
5
5
5
5
5
5
5
5
5
5
5
5
5
5
5
5
5
5
5
5
5
5
5
5
5
5
5
5
5
5
5
5
5
5
5
5
5
5
5
5
5
5
5
5
5
5
5
5
5
5
5
5
5
5
5
5
5
5
5
5
5
5
5
5
5
5
5
5
5
5
5
5
5
5
5
5
5
5
5
5
5
5
5
5
5
5
5
5
5
5
5
5
5
5
5
5
5
5
5
5
5
5
5
5
5
5
5
5
5
5
5
5
5
5
5
5
5
5
5
5
5
5
5
5
5
5
5
5
5
5
5
5
5
5
5
5
5
5
5
5
5
5
5
5
5
5
5
5
5
5
5
5
5
5
5
5
5
5
5
5
5
5
5
5
5
5
5
5
5
5
5
5
5
5
5
5
5
5
5
5
5
5
5
5
5
5
5
5
5
5
5
5
5
5
5
5
5
5
5
5
5
5
5
5
5
5
5
5
5
5
5
5
5
5
5
5
5
5
5
5
5
5
5
5
5
5
5
5
5
5
5
5
5
5
5
5
5
5
5
5
5
5
5
5
5
5
5
5
5
5
5
5
5
5
5
5
5
5
5
5
5
5
5
5
5
5
5
5
5
5
5
5
5
5
5
5
5
5
5
5
5
5
5
5
5
5
5
5
5
5
5
5
5
5
5
5
5
5
5
5
5
5
5
5
5
5
5
5
5
5
5
5
5
5
5
5
5
5
5
5
5
5
5
5
5
5
5
5
5
5
5
5
5
5
5
5
5
5
5
5
5
5
5
5
5
5
5
5
5
5
5
5
5
5
5
5
5
5
5
5
5
5
5
5
5
5
5
5
5
5
5
5
5
5
5
5
5
5
5
5
5
5
5
5
5
5
5
5
5
5
5
5
5
5
5
5
5
5
5
5
5
5
5
5
5
5
5
5
5
5
5
5
5
5
5
5
5
5
5
5
5
5
5
5
5
5
5
5
5
5
5
5
5
5
5
5
5
5
5
5
5
5
5
5
5
5
5
5
5
5
5
5
5
5
5
5
5
5
5
5
5
5
5
5
5
5
5
5
5
5
5
5
5
5
5
5
5
5
5
5
5
5
5
5
5
5
5
5
5
5
5
5
5
5
5
5
5
5
5
5
5
5
5
5
5
5
5
5
5
5
5
5
5
5
5
5
5
5
5
5
5
5
5
5
5
5
5
5
5
5
5
5
5
5
5
5
5
5
5
5
5
5
5
5
5
5
5
5
5
5
5
5
5
5
5
5
5
5
5
5
5
5
5
5
5
5
5
5
5
5
5
5
5
5
5
5
5
5
5
5
5
5
5
5
5
5
5
5
5
5
5
5
5
5
5
5
5
5
5
5
5
5
5
5
5
5
5
5
5
5
5
5
5
5
5
5
5
5
5
5
5
5
5
5
5
5
5
5
5
5
5
5
5
5
5
5
5
5
5
5
5
5
5
5
5
5
5
5
5
5
5
5
5
5
5
5
5
5
5
5
5
5
5
5
5
5
5
5
5
5
5
5
5
5
5
5
5
5
5
5
5
5
5
5
5
5
5
5
5
5
5
5
5
5
5
5
5
5
5
5
5
5
5
5
5
5
5
5
5
5
5
5
5
5
5
5
5
5
5
5
5
5
5
5
5
5
5
5
5
5
5
5
5
5
5
5
5
5
5
5
5
5
5
5
5
5
5
5
5
5
5
5
5
5
5
5
5
5
5
5
5
5
5
5
5
5
5
5
5
5
5
5
5
5
5
5
5
5
5
5
5
5
5
5
5
5
5
5
5
5
5
5
5
5
5
5
5
5
5
5
5
5
5
5
5
5
5
5
5
5
5
5
5
5
5
5
5
5
5
5
5
5
5
5
5
5
5
5
5
5
5
5
5
5
5
5
5
5
5
5
5
5
5
5
5
5
5
5
5
5
5
5
5
5
5
5
5
5
5
5
5
5
5
5
5
5
5
5
5
5
5
5
5
5
5
5
5
5
5
5
5
5
5
5
5
5
5
5
5
5
5
5
5
5
5
5
5
5
5
5
5
5
5
5
5
5
5
5
5
5
5
5
5
5
5
5
5
5
5
5
5
5
5
5
5
5
5
5
5
5
5
5
5
5
5
5
5
5
5
5
5
5
5
5
5
5
5
5
5
5
5
5
5
5
5
5
5
5
5
5
5
5
5
5
5
5
5
5
5
5
5
5
5
5
5
5
5
5
5
5
5
5
5
5
5
5
5
5
5
5
5
5
5
5
5
5
5
5
5
5
5
5
5
5
5
5
5
5
5
5
5
5
5
5
5
5
5
5
5
5
5
5
5
5
5
5
5
5
5
5
5
5
5
5
5
5
5
5
5
5
5
5
5
5
5
5
5
5
5
5
5
5
5
5
5
5
5
5
5
5
5
5
5
5
5
5
5
5
5
5
5
5
5
5
5
5
5
5
5
5
5
5
5
5
5
5
5
5
5
5
5
5
5
5
5
5
5
5
5
5
5
5
5
5
5
5
5
5
5
5
5
5
5
5
5
5
5
5
5
5
5
5
5
5
5
5
5
5
5
5
5
5
5
5
5
5
5
5
5
5
5
5
5
5
5
5
5
5
5
5
5
5
5
5
5
5
5
5
5
5
5
5
5
5
5
5
5
5
5
5
5
5
5
5
5
5
5
5
5
5
5
5
5
5
5
5
5
5
5
5
5
5
5
5
5
5
5
5
5
5
5
5
5
5
5
5
5
5
5
5
5
5
5
5
5
5
5
5
5
5
5
5
5
5
5
5
5
5
5
5
5
5
5
5
5
5
5
5
5
5
5
5
5
5
5
5
5
5
5
5
5
5
5
5
5
5
5
5
5
5
5
5
5
5
5
5
5
5
5
5
5
5
5
5
5
5
5
5
5
5
5
5
5
5
5
5
5
5
5
5
5
5
5
5
5
5
5
5
5
5
5
5
5
5
5
5
5
5
5
5
5
5
5
5
5
5
5
5
5
5
5
5
5
5
5
5
5
5
5
5
5
5
5
5
5
5
5
5
5
5
5
5
5
5
5
5
5
5
5
5
5
5
5
5
5
5
5
5
5
5
5
5
5
5
5
5
5
5
5
5
5
5
5
5
5
5
5
5
5
5
5
5
5
5
5
5
5
5
5
5
5
5
5
5
5
5
5
5
5
5
5
5
5
5
5
5
5
5
5
5
5
5
5
5
5
5
5
5
5
5
5
5
5
5
5
5
5
5
5
5
5
5
5
5
5
5
5
5
5
5
5
5
5
5
5
5
5
5
5
5
5
5
5
5
5
5
5
5
5
5
5
5
5
5
5
5
5
5
5
5
5
5
5
5
5
5
5
5
5
5
5
5
5
5
5
5
5
5
5
5
5
5
5
5
5
5
5
5
5
5
5
5
5
5
5
5
5
5
5
5
5
5
5
5
5
5
5
5
5
5
5
5
5
5
5
5
5
5
5
5
5
5
5
5
5
5
5
5
5
5
5
5
5
5
5
5
5
5
5
5
5
5
5
5
5
5
5
5
5
5
5
5
5
5
5
5
5
5
5
5
5
5
5
5
5
5
5
5
5
5
5
5
5
5
5
5
5
5
5
5
5
5
5
5
5
5
5
5
5
5
5
5
5
5
5
5
5
5
5
5
5
5
5
5
5
5
5
5
5
5
5
5
5
5
5
5
5
5
5
5
5
5
5
5
5
5
5
5
5
5
5
5
5
5
5
5
5
5
5
5
5
5
5
5
5
5
5
5
5
5
5
5
5
5
5
5
5
5
5
5
5
5
5
5
5
5
5
5
5
5
5
5
5
5
5
5
5
5
5
5
5
5
5
5
5
5
5
5
5
5
5
5
5
5
5
5
5
5
5
5
5
5
5
5
5
5
5
5
5
5
5
5
5
5
5
5
5
5
5
5
5
5
5
5
5
5
5
5
5
5
5
5
5
5
5
5
5
5
5
5
5
5
5
5
5
5
5
5
5
5
5
5
5
5
5
5
5
5
5
5
5
5
5
5
5
5
5
5
5
5
5
5
5
5
5
5
5
5
5
5
5
5
5
5
5
5
5
5
5
5
5
5
5
5
5
5
5
5
5
5
5
5
5
5
5
5
5
5
5
5
5
5
5
5
5
5
5
5
5
5
5
5
5
5
5
5
5
5
5
5
5
5
5
5
5
5
5
5
5
5
5
5
5
5
5
5
5
5
5
5
5
5
5
5
5
5
5
5
5
5
5
5
5
5
5
5
5
5
5
5
5
5
5
5
5
5
5
5
5
5
5
5
5
5
5
5
5
5
5
5
5
5
5
5
5
5
5
5
5
5
5
5
5
5
5
5
5
5
5
5
5
5
5
5
5
5
5
5
5
5
5
5
5
5
5
5
5
5
5
5
5
5
5
5
5
5
5
5
5
5
5
5
5
5
5
5
5
5
5
5
5
5
5
5
5
5
5
5
5
5
5
5
5
5
5
5
5
5
5
5
5
5
5
5
5
5
5
5
5
5
5
5
5
5
5
5
5
5
5
5
5
5
5
5
5
5
5
5
5
5
5
5
5
5
5
5
5
5
5
5
5
5
5
5
5
5
5
5
5
5
5
5
5
5
5
5
5
5
5
5
5
5
5
5
5
5
5
5
5
5
5
5
5
5
5
5
5
5
5
5
5
5
5
5
5
5
5
5
5
5
5
5
5
5
5
5
5
5
5
5
5
5
5
5
5
5
5
5
5
5
5
5
5
5
5
5
5
5
5
5
5
5
5
5
5
5
5
5
5
5
5
5
5
5
5
5
5
5
5
5
5
5
5
5
5
5
5
5
5
5
5
5
5
5
5
5
5
5
5
5
5
5
5
5
5
5
5
5
5
5
5
5
5
5
5
5
5
5
5
5
5
5
5
5
5
5
5
5
5
5
5
5
5
5
5
5
5
5
5
5
5
5
5
5
5
5
5
5
5
5
5
5
5
5
5
5
5
5
5
5
5
5
5
5
5
5
5
5
5
5
5
5
5
5
5
5
5
5
5
5
5
5
5
5
5
5
5
5
5
5
5
5
5
5
5
5
5
5
5
5
5
5
5
5
5
5
5
5
5
5
5
5
5
5
5
5
5
5
5
5
5
5
5
5
5
5
5
5
5
5
5
5
5
5
5
5
5
5
5
5
5
5
5
5
5
5
5
5
5
5
5
5
5
5
5
5
5
5
5
5
5
5
5
5
5
5
5
5
5
5
5
5
5
5
5
5
5
5
5
5
5
5
5
5
5
5
5
5
5
5
5
5
5
5
5
5
5
5
5
5
5
5
5
5
5
5
5
5
5
5
5
5
5
5
5
5
5
5
5
5
5
5
5
5
5
5
5
5
5
5
5
5
5
5
5
5
5
5
5
5
5
5
5
5
5
5
5
5
5
5
5
5
5
5
5
5
5
5
5
5
5
5
5
5
5
5
5
5
5
5
5
5
5
5
5
5
5
5
5
5
5
5
5
5
5
5
5
5
5
5
5
5
5
5
5
5
5
5
5
5
5
5
5
5
5
5
5
5
5
5
5
5
5
5
5
5
5
5
5
5
5
5
5
5
5
5
5
5
5
5
5
5
5
5
5
5
5
5
5
5
5
5
5
5
5
5
5
5
5
5
5
5
5
5
5
5
5
5
5
5
5
5
5
5
5
5
5
5
5
5
5
5
5
5
5
5
5
5
5
5
5
5
5
5
5
5
5
5
5
5
5
5
5
5
5
5
5
5
5
5
5
5
5
5
5
5
5
5
5
5
5
5
5
5
5
5
5
5
5
5
5
5
5
5
5
5
5
5
5
5
5
5
5
5
5
5
5
5
5
5
5
5
5
5
5
5
5
5
5
5
5
5
5
5
5
5
5
5
5
5
5
5
5
5
5
5
5
5
5
5
5
5
5
5
5
5
5
5
5
5
5
5
5
5
5
5
5
5
5
5
5
5
5
5
5
5
5
5
5
5
5
5
5
5
5
5
5
5
5
5
5
5
5
5
5
5
5
5
5
5
5
5
5
5
5
5
5
5
5
5
5
5
5
5
5
5
5
5
5
5
5
5
5
5
5
5
5
5
5
5
5
5
5
5
5
5
5
5
5
5
5
5
5
5
5
5
5
5
5
5
5
5
5
5
5
5
5
5
5
5
5
5
5
5
5
5
5
5
5
5
5
5
5
5
5
5
5
5
5
5
5
5
5
5
5
5
5
5
5
5
5
5
5
5
5
5
5
5
5
5
5
5
5
5
5
5
5
5
5
5
5
5
5
5
5
5
5
5
5
5
5
5
5
5
5
5
5
5
5
5
5
5
5
5
5
5
5
5
5
5
5
5
5
5
5
5
5
5
5
5
5
5
5
5
5
5
5
5
5
5
5
5
5
5
5
5
5
5
5
5
5
5
5
5
5
5
5
5
5
5
5
5
5
5
5
5
5
5
5
5
5
5
5
5
5
5
5
5
5
5
5
5
5
5
5
5
5
5
5
5
5
5
5
5
5
5
5
5
5
5
5
5
5
5
5
5
5
5
5
5
5
5
5
5
5
5
5
5
5
5
5
5
5
5
5
5
5
5
5
5
5
5
5
5
5
5
5
5
5
5
5
5
5
5
5
5
5
5
5
5
5
5
5
5
5
5
5
5
5
5
5
5
5
5
5
5
5
5
5
5
5
5
5
5
5
5
5
5
5
5
5
5
5
5
5
5
5
5
5
5
5
5
5
5
5
5
5
5
5
5
5
5
5
5
5
5
5
5
5
5
5
5
5
5
5
5
5
5
5
5
5
5
5
5
5
5
5
5
5
5
5
5
5
5
5
5
5
5
5
5
5
5
5
5
5
5
5
5
5
5
5
5
5
5
5
5
5
5
5
5
5
5
5
5
5
5
5
5
5
5
5
5
5
5
5
5
5
5
5
5
5
5
5
5
5
5
5
5
5
5
5
5
5
5
5
5
5
5
5
5
5
5
5
5
5
5
5
5
5
5
5
5
5
5
5
5
5
5
5
5
5
5
5
5
5
5
5
5
5
5
5
5
5
5
5
5
5
5
5
5
5
5
5
5
5
5
5
5
5
5
5
5
5
5
5
5
5
5
5
5
5
5
5
5
5
5
5
5
5
5
5
5
5
5
5
5
5
5
5
5
5
5
5
5
5
5
5
5
5
5
5
5
5
5
5
5
5
5
5
5
5
5
5
5
5
5
5
5
5
5
5
5
5
5
5
5
5
5
5
5
5
5
5
5
5
5
5
5
5
5
5
5
5
5
5
5
5
5
5
5
5
5
5
5
5
5
5
5
5
5
5
5
5
5
5
5
5
5
5
5
5
5
5
5
5
5
5
5
5
5
5
5
5
5
5
5
5
5
5
5
5
5
5
5
5
5
5
5
5
5
5
5
5
5
5
5
5
5
5
5
5
5
5
5
5
5
5
5
5
5
5
5
5
5
5
5
5
5
5
5
5
5
5
5
5
5
5
5
5
5
5
5
5
5
5
5
5
5
5
5
5
5
5
5
5
5
5
5
5
5
5
5
5
5
5
5
5
5
5
5
5
5
5
5
5
5
5
5
5
5
5
5
5
5
5
5
5
5
5
5
5
5
5
5
5
5
5
5
5
5
5
5
5
5
5
5
5
5
5
5
5
5
5
5
5
5
5
5
5
5
5
5
5
5
5
5
5
5
5
5
5
5
5
5
5
5
5
5
5
5
5
5
5
5
5
5
5
5
5
5
5
5
5
5
5
5
5
5
5
5
5
5
5
5
5
5
5
5
5
5
5
5
5
5
5
5
5
5
5
5
5
5
5
5
5
5
5
5
5
5
5
5
5
5
5
5
5
5
5
5
5
5
5
5
5
5
5
5
5
5
5
5
5
5
5
5
5
5
5
5
5
5
5
5
5
5
5
5
5
5
5
5
5
5
5
5
5
5
5
5
5
5
5
5
5
5
5
5
5
5
5
5
5
5
5
5
5
5
5
5
5
5
5
5
5
5
5
5
5
5
5
5
5
5
5
5
5
5
5
5
5
5
5
5
5
5
5
5
5
5
5
5
5
5
5
5
5
5
5
5
5
5
5
5
5
5
5
5
5
5
5
5
5
5
5
5
5
5
5
5
5
5
5
5
5
5
5
5
5
5
5
5
5
5
5
5
5
5
5
5
5
5
5
5
5
5
5
5
5
5
5
5
5
5
5
5
5
5
5
5
5
5
5
5
5
5
5
5
5
5
5
5
5
5
5
5
5
5
5
5
5
5
5
5
5
5
5
5
5
5
5
5
5
5
5
5
5
5
5
5
5
5
5
5
5
5
5
5
5
5
5
5
5
5
5
5
5
5
5
5
5
5
5
5
5
5
5
5
5
5
5
5
5
5
5
5
5
5
5
5
5
5
5
5
5
5
5
5
5
5
5
5
5
5
5
5
5
5
5
5
5
5
5
5
5
5
5
5
5
5
5
5
5
5
5
5
5
5
5
5
5
5
5
5
5
5
5
5
5
5
5
5
5
5
5
5
5
5
5
5
5
5
5
5
5
5
5
5
5
5
5
5
5
5
5
5
5
5
5
5
5
5
5
5
5
5
5
5
5
5
5
5
5
5
5
5
5
5
5
5
5
5
5
5
5
5
5
5
5
5
5
5
5
5
5
5
5
5
5
5
5
5
5
5
5
5
5
5
5
5
5
5
5
5
5
5
5
5
5
5
5
5
5
5
5
5
5
5
5
5
5
5
5
5
5
5
5
5
5
5
5
5
5
5
5
5
5
5
5
5
5
5
5
5
5
5
5
5
5
5
5
5
5
5
5
5
5
5
5
5
5
5
5
5
5
5
5
5
5
5
5
5
5
5
5
5
5
5
5
5
5
5
5
5
5
5
5
5
5
5
5
5
5
5
5
5
5
5
5
5
5
5
5
5
5
5
5
5
5
5
5
5
5
5
5
5
5
5
5
5
5
5
5
5
5
5
5
5
5
5
5
5
5
5
5
5
5
5
5
5
5
5
5
5
5
5
5
5
5
5
5
5
5
5
5
5
5
5
5
5
5
5
5
5
5
5
5
5
5
5
5
5
5
5
5
5
5
5
5
5
5
5
5
5
5
5
5
5
5
5
5
5
5
5
5
5
5
5
5
5
5
5
5
5
5
5
5
5
5
5
5
5
5
5
5
5
5
5
5
5
5
5
5
5
5
5
5
5
5
5
5
5
5
5
5
5
5
5
5
5
5
5
5
5
5
5
5
5
5
5
5
5
5
5
5
5
5
5
5
5
5
5
5
5
5
5
5
5
5
5
5
5
5
5
5
5
5
5
5
5
5
5
5
5
5
5
5
5
5
5
5
5
5
5
5
5
5
5
5
5
5
5
5
5
5
5
5
5
5
5
5
5
5
5
5
5
5
5
5
5
5
5
5
5
5
5
5
5
5
5
5
5
5
5
5
5
5
5
5
5
5
5
5
5
5
5
5
5
5
5
5
5
5
5
5
5
5
5
5
5
5
5
5
5
5
5
5
5
5
5
5
5
5
5
5
5
5
5
5
5
5
5
5
5
5
5
5
5
5
5
5
5
5
5
5
5
5
5
5
5
5
5
5
5
5
5
5
5
5
5
5
5
5
5
5
5
5
5
5
5
5
5
5
5
5
5
5
5
5
5
5
5
5
5
5
5
5
5
5
5
5
5
5
5
5
5
5
5
5
5
5
5
5
5
5
5
5
5
5
5
5
5
5
5
5
5
5
5
5
5
5
5
5
5
5
5
5
5
5
5
5
5
5
5
5
5
5
5
5
5
5
5
5
5
5
5
5
5
5
5
5
5
5
5
5
5
5
5
5
5
5
5
5
5
5
5
5
5
5
5
5
5
5
5
5
5
5
5
5
5
5
5
5
5
5
5
5
5
5
5
5
5
5
5
5
5
5
5
5
5
5
5
5
5
5
5
5
5
5
5
5
5
5
5
5
5
5
5
5
5
5
5
5
5
5
5
5
5
5
5
5
5
5
5
5
5
5
5
5
5
5
5
5
5
5
5
5
5
5
5
5
5
5
5
5
5
5
5
5
5
5
5
5
5
5
5
5
5
5
5
5
5
5
5
5
5
5
5
5
5
5
5
5
5
5
5
5
5
5
5
5
5
5
5
5
5
5
5
5
5
5
5
5
5
5
5
5
5
5
5
5
5
5
5
5
5
5
5
5
5
5
5
5
5
5
5
5
5
5
5
5
5
5
5
5
5
5
5
5
5
5
5
5
5
5
5
5
5
5
5
5
5
5
5
5
5
5
5
5
5
5
5
5
5
5
5
5
5
5
5
5
5
5
5
5
5
5
5
5
5
5
5
5
5
5
5
5
5
5
5
5
5
5
5
5
5
5
5
5
5
5
5
5
5
5
5
5
5
5
5
5
5
5
5
5
5
5
5
5
5
5
5
5
5
5
5
5
5
5
5
5
5
5
5
5
5
5
5
5
5
5
5
5
5
5
5
5
5
5
5
5
5
5
5
5
5
5
5
5
5
5
5
5
5
5
5
5
5
5
5
5
5
5
5
5
5
5
5
5
5
5
5
5
5
5
5
5
5
5
5
5
5
5
5
5
5
5
5
5
5
5
5
5
5
5
5
5
5
5
5
5
5
5
5
5
5
5
5
5
5
5
5
5
5
5
5
5
5
5
5
5
5
5
5
5
5
5
5
5
5
5
5
5
5
5
5
5
5
5
5
5
5
5
5
5
5
5
5
5
5
5
5
5
5
5
5
5
5
5
5
5
5
5
5
5
5
5
5
5
5
5
5
5
5
5
5
5
5
5
5
5
5
5
5
5
5
5
5
5
5
5
5
5
5
5
5
5
5
5
5
5
5
5
5
5
5
5
5
5
5
5
5
5
5
5
5
5
5
5
5
5
5
5
5
5
5
5
5
5
5
5
5
5
5
5
5
5
5
5
5
5
5
5
5
5
5
5
5
5
5
5
5
5
5
5
5
5
5
5
5
5
5
5
5
5
5
5
5
5
5
5
5
5
5
5
5
5
5
5
5
5
5
5
5
5
5
5
5
5
5
5
5
5
5
5
5
5
5
5
5
5
5
5
5
5
5
5
5
5
5
5
5
5
5
5
5
5
5
5
5
5
5
5
5
5
5
5
5
5
5
5
5
5
5
5
5
5
5
5
5
5
5
5
5
5
5
5
5
5
5
5
5
5
5
5
5
5
5
5
5
5
5
5
5
5
5
5
5
5
5
5
5
5
5
5
5
5
5
5
5
5
5
5
5
5
5
5
5
5
5
5
5
5
5
5
5
5
5
5
5
5
5
5
5
5
5
5
5
5
5
5
5
5
5
5
5
5
5
5
5
5
5
5
5
5
5
5
5
5
5
5
5
5
5
5
5
5
5
5
5
5
5
5
5
5
5
5
5
5
5
5
5
5
5
5
5
5
5
5
5
5
5
5
5
5
5
5
5
5
5
5
5
5
5
5
5
5
5
5
5
5
5
5
5
5
5
5
5
5
5
5
5
5
5
5
5
5
5
5
5
5
5
5
5
5
5
5
5
5
5
5
5
5
5
5
5
5
5
5
5
5
5
5
5
5
5
5
5
5
5
5
5
5
5
5
5
5
5
5
5
5
5
5
5
5
5
5
5
5
5
5
5
5
5
5
5
5
5
5
5
5
5
5
5
5
5
5
5
5
5
5
5
5
5
5
5
5
5
5
5
5
5
5
5
5
5
5
5
5
5
5
5
5
5
5
5
5
5
5
5
5
5
5
5
5
5
5
5
5
5
5
5
5
5
5
5
5
5
5
5
5
5
5
5
5
5
5
5
5
5
5
5
5
5
5
5
5
5
5
5
5
5
5
5
5
5
5
5
5
5
5
5
5
5
5
5
5
5
5
5
5
5
5
5
5
5
5
5
5
5
5
5
5
5
5
5
5
5
5
5
5
5
5
5
5
5
5
5
5
5
5
5
5
5
5
5
5
5
5
5
5
5
5
5
5
5
5
5
5
5
5
5
5
5
5
5
5
5
5
5
5
5
5
5
5
5
5
5
5
5
5
5
5
5
5
5
5
5
5
5
5
5
5
5
5
5
5
5
5
5
5
5
5
5
5
5
5
5
5
5
5
5
5
5
5
5
5
5
5
5
5
5
5
5
5
5
5
5
5
5
5
5
5
5
5
5
5
5
5
5
5
5
5
5
5
5
5
5
5
5
5
5
5
5
5
5
5
5
5
5
5
5
5
5
5
5
5
5
5
5
5
5
5
5
5
5
5
5
5
5
5
5
5
5
5
5
5
5
5
5
5
5
5
5
5
5
5
5
5
5
5
5
5
5
5
5
5
5
5
5
5
5
5
5
5
5
5
5
5
5
5
5
5
5
5
5
5
5
5
5
5
5
5
5
5
5
5
5
5
5
5
5
5
5
5
5
5
5
5
5
5
5
5
5
5
5
5
5
5
5
5
5
5
5
5
5
5
5
5
5
5
5
5
5
5
5
5
5
5
5
5
5
5
5
5
5
5
5
5
5
5
5
5
5
5
5
5
5
5
5
5
5
5
5
5
5
5
5
5
5
5
5
5
5
5
5
5
5
5
5
5
5
5
5
5
5
5
5
5
5
5
5
5
5
5
5
5
5
5
5
5
5
5
5
5
5
5
5
5
5
5
5
5
5
5
5
5
5
5
5
5
5
5
5
5
5
5
5
5
5
5
5
5
5
5
5
5
5
5
5
5
5
5
5
5
5
5
5
5
5
5
5
5
5
5
5
5
5
5
5
5
5
5
5
5
5
5
5
5
5
5
5
5
5
5
5
5
5
5
5
5
5
5
5
5
5
5
5
5
5
5
5
5
5
5
5
5
5
5
5
5
5
5
5
5
5
5
5
5
5
5
5
5
5
5
5
5
5
5
5
5
5
5
5
5
5
5
5
5
5
5
5
5
5
5
5
5
5
5
5
5
5
5
5
5
5
5
5
5
5
5
5
5
5
5
5
5
5
5
5
5
5
5
5
5
5
5
5
5
5
5
5
5
5
5
5
5
5
5
5
5
5
5
5
5
5
5
5
5
5
5
5
5
5
5
5
5
5
5
5
5
5
5
5
5
5
5
5
5
5
5
5
5
5
5
5
5
5
5
5
5
5
5
5
5
5
5
5
5
5
5
5
5
5
5
5
5
5
5
5
5
5
5
5
5
5
5
5
5
5
5
5
5
5
5
5
5
5
5
5
5
5
5
5
5
5
5
5
5
5
5
5
5
5
5
5
5
5
5
5
5
5
5
5
5
5
5
5
5
5
5
5
5
5
5
5
5
5
5
5
5
5
5
5
5
5
5
5
5
5
5
5
5
5
5
5
5
5
5
5
5
5
5
5
5
5
5
5
5
5
5
5
5
5
5
5
5
5
5
5
5
5
5
5
5
5
5
5
5
5
5
5
5
5
5
5
5
5
5
5
5
5
5
5
5
5
5
5
5
5
5
5
5
5
5
5
5
5
5
5
5
5
5
5
5
5
5
5
5
5
5
5
5
5
5
5
5
5
5
5
5
5
5
5
5
5
5
5
5
5
5
5
5
5
5
5
5
5
5
5
5
5
5
5
5
5
5
5
5
5
5
5
5
5
5
5
5
5
5
5
5
5
5
5
5
5
5
5
5
5
5
5
5
5
5
5
5
5
5
5
5
5
5
5
5
5
5
5
5
5
5
5
5
5
5
5
5
5
5
5
5
5
5
5
5
5
5
5
5
5
5
5
5
5
5
5
5
5
5
5
5
5
5
5
5
5
5
5
5
5
5
5
5
5
5
5
5
5
5
5
5
5
5
5
5
5
5
5
5
5
5
5
5
5
5
5
5
5
5
5
5
5
5
5
5
5
5
5
5
5
5
5
5
5
5
5
5
5
5
5
5
5
5
5
5
5
5
5
5
5
5
5
5
5
5
5
5
5
5
5
5
5
5
5
5
5
5
5
5
5
5
5
5
5
5
5
5
5
5
5
5
5
5
5
5
5
5
5
5
5
5
5
5
5
5
5
5
5
5
5
5
5
5
5
5
5
5
5
5
5
5
5
5
5
5
5
5
5
5
5
5
5
5
5
5
5
5
5
5
5
5
5
5
5
5
5
5
5
5
5
5
5
5
5
5
5
5
5
5
5
5
5
5
5
5
5
5
5
5
5
5
5
5
5
5
5
5
5
5
5
5
5
5
5
5
5
5
5
5
5
5
5
5
5
5
5
5
5
5
5
5
5
5
5
5
5
5
5
5
5
5
5
5
5
5
5
5
5
5
5
5
5
5
5
5
5
5
5
5
5
5
5
5
5
5
5
5
5
5
5
5
5
5
5
5
5
5
5
5
5
5
5
5
5
5
5
5
5
5
5
5
5
5
5
5
5
5
5
5
5
5
5
5
5
5
5
5
5
5
5
5
5
5
5
5
5
5
5
5
5
5
5
5
5
5
5
5
5
5
5
5
5
5
5
5
5
5
5
5
5
5
5
5
5
5
5
5
5
5
5
5
5
5
5
5
5
5
5
5
5
5
5
5
5
5
5
5
5
5
5
5
5
5
5
5
5
5
5
5
5
5
5
5
5
5
5
5
5
5
5
5
5
5
5
5
5
5
5
5
5
5
5
5
5
5
5
5
5
5
5
5
5
5
5
5
5
5
5
5
5
5
5
5
5
5
5
5
5
5
5
5
5
5
5
5
5
5
5
5
5
5
5
5
5
5
5
5
5
5
5
5
5
5
5
5
5
5
5
5
5
5
5
5
5
5
5
5
5
5
5
5
5
5
5
5
5
5
5
5
5
5
5
5
5
5
5
5
5
5
5
5
5
5
5
5
5
5
5
5
5
5
5
5
5
5
5
5
5
5
5
5
5
5
5
5
5
5
5
5
5
5
5
5
5
5
5
5
5
5
5
5
5
5
5
5
5
5
5
5
5
5
5
5
5
5
5
5
5
5
5
5
5
5
5
5
5
5
5
5
5
5
5
5
5
5
5
5
5
5
5
5
5
5
5
5
5
5
5
5
5
5
5
5
5
5
5
5
5
5
5
5
5
5
5
5
5
5
5
5
5
5
5
5
5
5
5
5
5
5
5
5
5
5
5
5
5
5
5
5
5
5
5
5
5
5
5
5
5
5
5
5
5
5
5
5
5
5
5
5
5
5
5
5
5
5
5
5
5
5
5
5
5
5
5
5
5
5
5
5
5
5
5
5
5
5
5
5
5
5
5
5
5
5
5
5
5
5
5
5
5
5
5
5
5
5
5
5
5
5
5
5
5
5
5
5
5
5
5
5
5
5
5
5
5
5
5
5
5
5
5
5
5
5
5
5
5
5
5
5
5
5
5
5
5
5
5
5
5
5
5
5
5
5
5
5
5
5
5
5
5
5
5
5
5
5
5
5
5
5
5
5
5
5
5
5
5
5
5
5
5
5
5
5
5
5
5
5
5
5
5
5
5
5
5
5
5
5
5
5
5
5
5
5
5
5
5
5
5
5
5
5
5
5
5
5
5
5
5
5
5
5
5
5
5
5
5
5
5
5
5
5
5
5
5
5
5
5
5
5
5
5
5
5
5
5
5
5
5
5
5
5
5
5
5
5
5
5
5
5
5
5
5
5
5
5
5
5
5
5
5
5
5
5
5
5
5
5
5
5
5
5
5
5
5
5
5
5
5
5
5
5
5
5
5
5
5
5
5
5
5
5
5
5
5
5
5
5
5
5
5
5
5
5
5
5
5
5
5
5
5
5
5
5
5
5
5
5
5
5
5
5
5
5
5
5
5
5
5
5
5
5
5
5
5
5
5
5
5
5
5
5
5
5
5
5
5
5
5
5
5
5
5
5
5
5
5
5
5
5
5
5
5
5
5
5
5
5
5
5
5
5
5
5
5
5
5
5
5
5
5
5
5
5
5
5
5
5
5
5
5
5
5
5
5
5
5
5
5
5
5
5
5
5
5
5
5
5
5
5
5
5
5
5
5
5
5
5
5
5
5
5
5
5
5
5
5
5
5
5
5
5
5
5
5
5
5
5
5
5
5
5
5
5
5
5
5
5
5
5
5
5
5
5
5
5
5
5
5
5
5
5
5
5
5
5
5
5
5
5
5
5
5
5
5
5
5
5
5
5
5
5
5
5
5
5
5
5
5
5
5
5
5
5
5
5
5
5
5
5
5
5
5
5
5
5
5
5
5
5
5
5
5
5
5
5
5
5
5
5
5
5
5
5
5
5
5
5
5
5
5
5
5
5
5
5
5
5
5
5
5
5
5
5
5
5
5
5
5
5
5
5
5
5
5
5
5
5
5
5
5
5
5
5
5
5
5
5
5
5
5
5
5
5
5
5
5
5
5
5
5
5
5
5
5
5
5
5
5
5
5
5
5
5
5
5
5
5
5
5
5
5
5
5
5
5
5
5
5
5
5
5
5
5
5
5
5
5
5
5
5
5
5
5
5
5
5
5
5
5
5
5
5
5
5
5
5
5
5
5
5
5
5
5
5
5
5
5
5
5
5
5
5
5
5
5
5
5
5
5
5
5
5
5
5
5
5
5
5
5
5
5
5
5
5
5
5
5
5
5
5
5
5
5
5
5
5
5
5
5
5
5
5
5
5
5
5
5
5
5
5
5
5
5
5
5
5
5
5
5
5
5
5
5
5
5
5
5
5
5
5
5
5
5
5
5
5
5
5
5
5
5
5
5
5
5
5
5
5
5
5
5
5
5
5
5
5
5
5
5
5
5
5
5
5
5
5
5
5
5
5
5
5
5
5
5
5
5
5
5
5
5
5
5
5
5
5
5
5
5
5
5
5
5
5
5
5
5
5
5
5
5
5
5
5
5
5
5
5
5
5
5
5
5
5
5
5
5
5
5
5
5
5
5
5
5
5
5
5
5
5
5
5
5
5
5
5
5
5
5
5
5
5
5
5
5
5
5
5
5
5
5
5
5
5
5
5
5
5
5
5
5
5
5
5
5
5
5
5
5
5
5
5
5
5
5
5
5
5
5
5
5
5
5
5
5
5
5
5
5
5
5
5
5
5
5
5
5
5
5
5
5
5
5
5
5
5
5
5
5
5
5
5
5
5
5
5
5
5
5
5
5
5
5
5
5
5
5
5
5
5
5
5
5
5
5
5
5
5
5
5
5
5
5
5
5
5
5
5
5
5
5
5
5
5
5
5
5
5
5
5
5
5
5
5
5
5
5
5
5
5
5
5
5
5
5
5
5
5
5
5
5
5
5
5
5
5
5
5
5
5
5
5
5
5
5
5
5
5
5
5
5
5
5
5
5
5
5
5
5
5
5
5
5
5
5
5
5
5
5
5
5
5
5
5
5
5
5
5
5
5
5
5
5
5
5
5
5
5
5
5
5
5
5
5
5
5
5
5
5
5
5
5
5
5
5
5
5
5
5
5
5
5
5
5
5
5
5
5
5
5
5
5
5
5
5
5
5
5
5
5
5
5
5
5
5
5
5
5
5
5
5
5
5
5
5
5
5
5
5
5
5
5
5
5
5
5
5
5
5
5
5
5
5
5
5
5
5
5
5
5
5
5
5
5
5
5
5
5
5
5
5
5
5
5
5
5
5
5
5
5
5
5
5
5
5
5
5
5
5
5
5
5
5
5
5
5
5
5
5
5
5
5
5
5
5
5
5
5
5
5
5
5
5
5
5
5
5
5
5
5
5
5
5
5
5
5
5
5
5
5
5
5
5
5
5
5
5
5
5
5
5
5
5
5
5
5
5
5
5
5
5
5
5
5
5
5
5
5
5
5
5
5
5
5
5
5
5
5
5
5
5
5
5
5
5
5
5
5
5
5
5
5
5
5
5
5
5
5
5
5
5
5
5
5
5
5
5
5
5
5
5
5
5
5
5
5
5
5
5
5
5
5
5
5
5
5
5
5
5
5
5
5
5
5
5
5
5
5
5
5
5
5
5
5
5
5
5
5
5
5
5
5
5
5
5
5
5
5
5
5
5
5
5
5
5
5
5
5
5
5
5
5
5
5
5
5
5
5
5
5
5
5
5
5
5
5
5
5
5
5
5
5
5
5
5
5
5
5
5
5
5
5
5
5
5
5
5
5
5
5
5
5
5
5
5
5
5
5
5
5
5
5
5
5
5
5
5
5
5
5
5
5
5
5
5
5
5
5
5
5
5
5
5
5
5
5
5
5
5
5
5
5
5
5
5
5
5
5
5
5
5
5
5
5
5
5
5
5
5
5
5
5
5
5
5
5
5
5
5
5
5
5
5
5
5
5
5
5
5
5
5
5
5
5
5
5
5
5
5
5
5
5
5
5
5
5
5
5
5
5
5
5
5
5
5
5
5
5
5
5
5
5
5
5
5
5
5
5
5
5
5
5
5
5
5
5
5
5
5
5
5
5
5
5
5
5
5
5
5
5
5
5
5
5
5
5
5
5
5
5
5
5
5
5
5
5
5
5
5
5
5
5
5
5
5
5
5
5
5
5
5
5
5
5
5
5
5
5
5
5
5
5
5
5
5
5
5
5
5
5
5
5
5
5
5
5
5
5
5
5
5
5
5
5
5
5
5
5
5
5
5
5
5
5
5
5
5
5
5
5
5
5
5
5
5
5
5
5
5
5
5
5
5
5
5
5
5
5
5
5
5
5
5
5
5
5
5
5
5
5
5
5
5
5
5
5
5
5
5
5
5
5
5
5
5
5
5
5
5
5
5
5
5
5
5
5
5
5
5
5
5
5
5
5
5
5
5
5
5
5
5
5
5
5
5
5
5
5
5
5
5
5
5
5
5
5
5
5
5
5
5
5
5
5
5
5
5
5
5
5
5
5
5
5
5
5
5
5
5
5
5
5
5
5
5
5
5
5
5
5
5
5
5
5
5
5
5
5
5
5
5
5
5
5
5
5
5
5
5
5
5
5
5
5
5
5
5
5
5
5
5
5
5
5
5
5
5
5
5
5
5
5
5
5
5
5
5
5
5
5
5
5
5
5
5
5
5
5
5
5
5
5
5
5
5
5
5
5
5
5
5
5
5
5
5
5
5
5
5
5
5
5
5
5
5
5
5
5
5
5
5
5
5
5
5
5
5
5
5
5
5
5
5
5
5
5
5
5
5
5
5
5
5
5
5
5
5
5
5
5
5
5
5
5
5
5
5
5
5
5
5
5
5
5
5
5
5
5
5
5
5
5
5
5
5
5
5
5
5
5
5
5
5
5
5
5
5
5
5
5
5
5
5
5
5
5
5
5
5
5
5
5
5
5
5
5
5
5
5
5
5
5
5
5
5
5
5
5
5
5
5
5
5
5
5
5
5
5
5
5
5
5
5
5
5
5
5
5
5
5
5
5
5
5
5
5
5
5
5
5
5
5
5
5
5
5
5
5
5
5
5
5
5
5
5
5
5
5
5
5
5
5
5
5
5
5
5
5
5
5
5
5
5
5
5
5
5
5
5
5
5
5
5
5
5
5
5
5
5
5
5
5
5
5
5
5
5
5
5
5
5
5
5
5
5
5
5
5
5
5
5
5
5
5
5
5
5
5
5
5
5
5
5
5
5
5
5
5
5
5
5
5
5
5
5
5
5
5
5
5
5
5
5
5
5
5
5
5
5
5
5
5
5
5
5
5
5
5
5
5
5
5
5
5
5
5
5
5
5
5
5
5
5
5
5
5
5
5
5
5
5
5
5
5
5
5
5
5
5
5
5
5
5
5
5
5
5
5
5
5
5
5
5
5
5
5
5
5
5
5
5
5
5
5
5
5
5
5
5
5
5
5
5
5
5
5
5
5
5
5
5
5
5
5
5
5
5
5
5
5
5
5
5
5
5
5
5
5
5
5
5
5
5
5
5
5
5
5
5
5
5
5
5
5
5
5
5
5
5
5
5
5
5
5
5
5
5
5
5
5
5
5
5
5
5
5
5
5
5
5
5
5
5
5
5
5
5
5
5
5
5
5
5
5
5
5
5
5
5
5
5
5
5
5
5
5
5
5
5
5
5
5
5
5
5
5
5
5
5
5
5
5
5
5
5
5
5
5
5
5
5
5
5
5
5
5
5
5
5
5
5
5
5
5
5
5
5
5
5
5
5
5
5
5
5
5
5
5
5
5
5
5
5
5
5
5
5
5
5
5
5
5
5
5
5
5
5
5
5
5
5
5
5
5
5
5
5
5
5
5
5
5
5
5
5
5
5
5
5
5
5
5
5
5
5
5
5
5
5
5
5
5
5
5
5
5
5
5
5
5
5
5
5
5
5
5
5
5
5
5
5
5
5
5
5
5
5
5
5
5
5
5
5
5
5
5
5
5
5
5
5
5
5
5
5
5
5
5
5
5
5
5
5
5
5
5
5
5
5
5
5
5
5
5
5
5
5
5
5
5
5
5
5
5
5
5
5
5
5
5
5
5
5
5
5
5
5
5
5
5
5
5
5
5
5
5
5
5
5
5
5
5
5
5
5
5
5
5
5
5
5
5
5
5
5
5
5
5
5
5
5
5
5
5
5
5
5
5
5
5
5
5
5
5
5
5
5
5
5
5
5
5
5
5
5
5
5
5
5
5
5
5
5
5
5
5
5
5
5
5
5
5
5
5
5
5
5
5
5
5
5
5
5
5
5
5
5
5
5
5
5
5
5
5
5
5
5
5
5
5
5
5
5
5
5
5
5
5
5
5
5
5
5
5
5
5
5
5
5
5
5
5
5
5
5
5
5
5
5
5
5
5
5
5
5
5
5
5
5
5
5
5
5
5
5
5
5
5
5
5
5
5
5
5
5
5
5
5
5
5
5
5
5
5
5
5
5
5
5
5
5
5
5
5
5
5
5
5
5
5
5
5
5
5
5
5
5
5
5
5
5
5
5
5
5
5
5
5
5
5
5
5
5
5
5
5
5
5
5
5
5
5
5
5
5
5
5
5
5
5
5
5
5
5
5
5
5
5
5
5
5
5
5
5
5
5
5
5
5
5
5
5
5
5
5
5
5
5
5
5
5
5
5
5
5
5
5
5
5
5
5
5
5
5
5
5
5
5
5
5
5
5
5
5
5
5
5
5
5
5
5
5
5
5
5
5
5
5
5
5
5
5
5
5
5
5
5
5
5
5
5
5
5
5
5
5
5
5
5
5
5
5
5
5
5
5
5
5
5
5
5
5
5
5
5
5
5
5
5
5
5
5
5
5
5
5
5
5
5
5
5
5
5
5
5
5
5
5
5
5
5
5
5
5
5
5
5
5
5
5
5
5
5
5
5
5
5
5
5
5
5
5
5
5
5
5
5
5
5
5
5
5
5
5
5
5
5
5
5
5
5
5
5
5
5
5
5
5
5
5
5
5
5
5
5
5
5
5
5
5
5
5
5
5
5
5
5
5
5
5
5
5
5
5
5
5
5
5
5
5
5
5
5
5
5
5
5
5
5
5
5
5
5
5
5
5
5
5
5
5
5
5
5
5
5
5
5
5
5
5
5
5
5
5
5
5
5
5
5
5
5
5
5
5
5
5
5
5
5
5
5
5
5
5
5
5
5
5
5
5
5
5
5
5
5
5
5
5
5
5
5
5
5
5
5
5
5
5
5
5
5
5
5
5
5
5
5
5
5
5
5
5
5
5
5
5
5
5
5
5
5
5
5
5
5
5
5
5
5
5
5
5
5
5
5
5
5
5
5
5
5
5
5
5
5
5
5
5
5
5
5
5
5
5
5
5
5
5
5
5
5
5
5
5
5
5
5
5
5
5
5
5
5
5
5
5
5
5
5
5
5
5
5
5
5
5
5
5
5
5
5
5
5
5
5
5
5
5
5
5
5
5
5
5
5
5
5
5
5
5
5
5
5
5
5
5
5
5
5
5
5
5
5
5
5
5
5
5
5
5
5
5
5
5
5
5
5
5
5
5
5
5
5
5
5
5
5
5
5
5
5
5
5
5
5
5
5
5
5
5
5
5
5
5
5
5
5
5
5
5
5
5
5
5
5
5
5
5
5
5
5
5
5
5
5
5
5
5
5
5
5
5
5
5
5
5
5
5
5
5
5
5
5
5
5
5
5
5
5
5
5
5
5
5
5
5
5
5
5
5
5
5
5
5
5
5
5
5
5
5
5
5
5
5
5
5
5
5
5
5
5
5
5
5
5
5
5
5
5
5
5
5
5
5
5
5
5
5
5
5
5
5
5
5
5
5
5
5
5
5
5
5
5
5
5
5
5
5
5
5
5
5
5
5
5
5
5
5
5
5
5
5
5
5
5
5
5
5
5
5
5
5
5
5
5
5
5
5
5
5
5
5
5
5
5
5
5
5
5
5
5
5
5
5
5
5
5
5
5
5
5
5
5
5
5
5
5
5
5
5
5
5
5
5
5
5
5
5
5
5
5
5
5
5
5
5
5
5
5
5
5
5
5
5
5
5
5
5
5
5
5
5
5
5
5
5
5
5
5
5
5
5
5
5
5
5
5
5
5
5
5
5
5
5
5
5
5
5
5
5
5
5
5
5
5
5
5
5
5
5
5
5
5
5
5
5
5
5
5
5
5
5
5
5
5
5
5
5
5
5
5
5
5
5
5
5
5
5
5
5
5
5
5
5
5
5
5
5
5
5
5
5
5
5
5
5
5
5
5
5
5
5
5
5
5
5
5
5
5
5
5
5
5
5
5
5
5
5
5
5
5
5
5
5
5
5
5
5
5
5
5
5
5
5
5
5
5
5
5
5
5
5
5
5
5
5
5
5
5
5
5
5
5
5
5
5
5
5
5
5
5
5
5
5
5
5
5
5
5
5
5
5
5
5
5
5
5
5
5
5
5
5
5
5
5
5
5
5
5
5
5
5
5
5
5
5
5
5
5
5
5
5
5
5
5
5
5
5
5
5
5
5
5
5
5
5
5
5
5
5
5
5
5
5
5
5
5
5
5
5
5
5
5
5
5
5
5
5
5
5
5
5
5
5
5
5
5
5
5
5
5
5
5
5
5
5
5
5
5
5
5
5
5
5
5
5
5
5
5
5
5
5
5
5
5
5
5
5
5
5
5
5
5
5
5
5
5
5
5
5
5
5
5
5
5
5
5
5
5
5
5
5
5
5
5
5
5
5
5
5
5
5
5
5
5
5
5
5
5
5
5
5
5
5
5
5
5
5
5
5
5
5
5
5
5
5
5
5
5
5
5
5
5
5
5
5
5
5
5
5
5
5
5
5
5
5
5
5
5
5
5
5
5
5
5
5
5
5
5
5
5
5
5
5
5
5
5
5
5
5
5
5
5
5
5
5
5
5
5
5
5
5
5
5
5
5
5
5
5
5
5
5
5
5
5
5
5
5
5
5
5
5
5
5
5
5
5
5
5
5
5
5
5
5
5
5
5
5
5
5
5
5
5
5
5
5
5
5
5
5
5
5
5
5
5
5
5
5
5
5
5
5
5
5
5
5
5
5
5
5
5
5
5
5
5
5
5
5
5
5
5
5
5
5
5
5
5
5
5
5
5
5
5
5
5
5
5
5
5
5
5
5
5
5
5
5
5
5
5
5
5
5
5
5
5
5
5
5
5
5
5
5
5
5
5
5
5
5
5
5
5
5
5
5
5
5
5
5
5
5
5
5
5
5
5
5
5
5
5
5
5
5
5
5
5
5
5
5
5
5
5
5
5
5
5
5
5
5
5
5
5
5
5
5
5
5
5
5
5
5
5
5
5
5
5
5
5
5
5
5
5
5
5
5
5
5
5
5
5
5
5
5
5
5
5
5
5
5
5
5
5
5
5
5
5
5
5
5
5
5
5
5
5
5
5
5
5
5
5
5
5
5
5
5
5
5
5
5
5
5
5
5
5
5
5
5
5
5
5
5
5
5
5
5
5
5
5
5
5
5
5
5
5
5
5
5
5
5
5
5
5
5
5
5
5
5
5
5
5
5
5
5
5
5
5
5
5
5
5
5
5
5
5
5
5
5
5
5
5
5
5
5
5
5
5
5
5
5
5
5
5
5
5
5
5
5
5
5
5
5
5
5
5
5
5
5
5
5
5
5
5
5
5
5
5
5
5
5
5
5
5
5
5
5
5
5
5
5
5
5
5
5
5
5
5
5
5
5
5
5
5
5
5
5
5
5
5
5
5
5
5
5
5
5
5
5
5
5
5
5
5
5
5
5
5
5
5
5
5
5
5
5
5
5
5
5
5
5
5
5
5
5
5
5
5
5
5
5
5
5
5
5
5
5
5
5
5
5
5
5
5
5
5
5
5
5
5
5
5
5
5
5
5
5
5
5
5
5
5
5
5
5
5
5
5
5
5
5
5
5
5
5
5
5
5
5
5
5
5
5
5
5
5
5
5
5
5
5
5
5
5
5
5
5
5
5
5
5
5
5
5
5
5
5
5
5
5
5
5
5
5
5
5
5
5
5
5
5
5
5
5
5
5
5
5
5
5
5
5
5
5
5
5
5
5
5
5
5
5
5
5
5
5
5
5
5
5
5
5
5
5
5
5
5
5
5
5
5
5
5
5
5
5
5
5
5
5
5
5
5
5
5
5
5
5
5
5
5
5
5
5
5
5
5
5
5
5
5
5
5
5
5
5
5
5
5
5
5
5
5
5
5
5
5
5
5
5
5
5
5
5
5
5
5
5
5
5
5
5
5
5
5
5
5
5
5
5
5
5
5
5
5
5
5
5
5
5
5
5
5
5
5
5
5
5
5
5
5
5
5
5
5
5
5
5
5
5
5
5
5
5
5
5
5
5
5
5
5
5
5
5
5
5
5
5
5
5
5
5
5
5
5
5
5
5
5
5
5
5
5
5
5
5
5
5
5
5
5
5
5
5
5
5
5
5
5
5
5
5
5
5
5
5
5
5
5
5
5
5
5
5
5
5
5
5
5
5
5
5
5
5
5
5
5
5
5
5
5
5
5
5
5
5
5
5
5
5
5
5
5
5
5
5
5
5
5
5
5
5
5
5
5
5
5
5
5
5
5
5
5
5
5
5
5
5
5
5
5
5
5
5
5
5
5
5
5
5
5
5
5
5
5
5
5
5
5
5
5
5
5
5
5
5
5
5
5
5
5
5
5
5
5
5
5
5
5
5
5
5
5
5
5
5
5
5
5
5
5
5
5
5
5
5
5
5
5
5
5
5
5
5
5
5
5
5
5
5
5
5
5
5
5
5
5
5
5
5
5
5
5
5
5
5
5
5
5
5
5
5
5
5
5
5
5
5
5
5
5
5
5
5
5
5
5
5
5
5
5
5
5
5
5
5
5
5
5
5
5
5
5
5
5
5
5
5
5
5
5
5
5
5
5
5
5
5
5
5
5
5
5
5
5
5
5
5
5
5
5
5
5
5
5
5
5
5
5
5
5
5
5
5
5
5
5
5
5
5
5
5
5
5
5
5
5
5
5
5
5
5
5
5
5
5
5
5
5
5
5
5
5
5
5
5
5
5
5
5
5
5
5
5
5
5
5
5
5
5
5
5
5
5
5
5
5
5
5
5
5
5
5
5
5
5
5
5
5
5
5
5
5
5
5
5
5
5
5
5
5
5
5
5
5
5
5
5
5
5
5
5
5
5
5
5
5
5
5
5
5
5
5
5
5
5
5
5
5
5
5
5
5
5
5
5
5
5
5
5
5
5
5
5
5
5
5
5
5
5
5
5
5
5
5
5
5
5
5
5
5
5
5
5
5
5
5
5
5
5
5
5
5
5
5
5
5
5
5
5
5
5
5
5
5
5
5
5
5
5
5
5
5
5
5
5
5
5
5
5
5
5
5
5
5
5
5
5
5
5
5
5
5
5
5
5
5
5
5
5
5
5
5
5
5
5
5
5
5
5
5
5
5
5
5
5
5
5
5
5
5
5
5
5
5
5
5
5
5
5
5
5
5
5
5
5
5
5
5
5
5
5
5
5
5
5
5
5
5
5
5
5
5
5
5
5
5
5
5
5
5
5
5
5
5
5
5
5
5
5
5
5
5
5
5
5
5
5
5
5
5
5
5
5
5
5
5
5
5
5
5
5
5
5
5
5
5
5
5
5
5
5
5
5
5
5
5
5
5
5
5
5
5
5
5
5
5
5
5
5
5
5
5
5
5
5
5
5
5
5
5
5
5
5
5
5
5
5
5
5
5
5
5
5
5
5
5
5
5
5
5
5
5
5
5
5
5
5
5
5
5
5
5
5
5
5
5
5
5
5
5
5
5
5
5
5
5
5
5
5
5
5
5
5
5
5
5
5
5
5
5
5
5
5
5
5
5
5
5
5
5
5
5
5
5
5
5
5
5
5
5
5
5
5
5
5
5
5
5
5
5
5
5
5
5
5
5
5
5
5
5
5
5
5
5
5
5
5
5
5
5
5
5
5
5
5
5
5
5
5
5
5
5
5
5
5
5
5
5
5
5
5
5
5
5
5
5
5
5
5
5
5
5
5
5
5
5
5
5
5
5
5
5
5
5
5
5
5
5
5
5
5
5
5
5
5
5
5
5
5
5
5
5
5
5
5
5
5
5
5
5
5
5
5
5
5
5
5
5
5
5
5
5
5
5
5
5
5
5
5
5
5
5
5
5
5
5
5
5
5
5
5
5
5
5
5
5
5
5
5
5
5
5
5
5
5
5
5
5
5
5
5
5
5
5
5
5
5
5
5
5
5
5
5
5
5
5
5
5
5
5
5
5
5
5
5
5
5
5
5
5
5
5
5
5
5
5
5
5
5
5
5
5
5
5
5
5
5
5
5
5
5
5
5
5
5
5
5
5
5
5
5
5
5
5
5
5
5
5
5
5
5
5
5
5
5
5
5
5
5
5
5
5
5
5
5
5
5
5
5
5
5
5
5
5
5
5
5
5
5
5
5
5
5
5
5
5
5
5
5
5
5
5
5
5
5
5
5
5
5
5
5
5
5
5
5
5
5
5
5
5
5
5
5
5
5
5
5
5
5
5
5
5
5
5
5
5
5
5
5
5
5
5
5
5
5
5
5
5
5
5
5
5
5
5
5
5
5
5
5
5
5
5
5
5
5
5
5
5
5
5
5
5
5
5
5
5
5
5
5
5
5
5
5
5
5
5
5
5
5
5
5
5
5
5
5
5
5
5
5
5
5
5
5
5
5
5
5
5
5
5
5
5
5
5
5
5
5
5
5
5
5
5
5
5
5
5
5
5
5
5
5
5
5
5
5
5
5
5
5
5
5
5
5
5
5
5
5
5
5
5
5
5
5
5
5
5
5
5
5
5
5
5
5
5
5
5
5
5
5
5
5
5
5
5
5
5
5
5
5
5
5
5
5
5
5
5
5
5
5
5
5
5
5
5
5
5
5
5
5
5
5
5
5
5
5
5
5
5
5
5
5
5
5
5
5
5
5
5
5
5
5
5
5
5
5
5
5
5
5
5
5
5
5
5
5
5
5
5
5
5
5
5
5
5
5
5
5
5
5
5
5
5
5
5
5
5
5
5
5
5
5
5
5
5
5
5
5
5
5
5
5
5
5
5
5
5
5
5
5
5
5
5
5
5
5
5
5
5
5
5
5
5
5
5
5
5
5
5
5
5
5
5
5
5
5
5
5
5
5
5
5
5
5
5
5
5
5
5
5
5
5
5
5
5
5
5
5
5
5
5
5
5
5
5
5
5
5
5
5
5
5
5
5
5
5
5
5
5
5
5
5
5
5
5
5
5
5
5
5
5
5
5
5
5
5
5
5
5
5
5
5
5
5
5
5
5
5
5
5
5
5
5
5
5
5
5
5
5
5
5
5
5
5
5
5
5
5
5
5
5
5
5
5
5
5
5
5
5
5
5
5
5
5
5
5
5
5
5
5
5
5
5
5
5
5
5
5
5
5
5
5
5
5
5
5
5
5
5
5
5
5
5
5
5
5
5
5
5
5
5
5
5
5
5
5
5
5
5
5
5
5
5
5
5
5
5
5
5
5
5
5
5
5
5
5
5
5
5
5
5
5
5
5
5
5
5
5
5
5
5
5
5
5
5
5
5
5
5
5
5
5
5
5
5
5
5
5
5
5
5
5
5
5
5
5
5
5
5
5
5
5
5
5
5
5
5
5
5
5
5
5
5
5
5
5
5
5
5
5
5
5
5
5
5
5
5
5
5
5
5
5
5
5
5
5
5
5
5
5
5
5
5
5
5
5
5
5
5
5
5
5
5
5
5
5
5
5
5
5
5
5
5
5
5
5
5
5
5
5
5
5
5
5
5
5
5
5
5
5
5
5
5
5
5
5
5
5
5
5
5
5
5
5
5
5
5
5
5
5
5
5
5
5
5
5
5
5
5
5
5
5
5
5
5
5
5
5
5
5
5
5
5
5
5
5
5
5
5
5
5
5
5
5
5
5
5
5
5
5
5
5
5
5
5
5
5
5
5
5
5
5
5
5
5
5
5
5
5
5
5
5
5
5
5
5
5
5
5
5
5
5
5
5
5
5
5
5
5
5
5
5
5
5
5
5
5
5
5
5
5
5
5
5
5
5
5
5
5
5
5
5
5
5
5
5
5
5
5
5
5
5
5
5
5
5
5
5
5
5
5
5
5
5
5
5
5
5
5
5
5
5
5
5
5
5
5
5
5
5
5
5
5
5
5
5
5
5
5
5
5
5
5
5
5
5
5
5
5
5
5
5
5
5
5
5
5
5
5
5
5
5
5
5
5
5
5
5
5
5
5
5
5
5
5
5
5
5
5
5
5
5
5
5
5
5
5
5
5
5
5
5
5
5
5
5
5
5
5
5
5
5
5
5
5
5
5
5
5
5
5
5
5
5
5
5
5
5
5
5
5
5
5
5
5
5
5
5
5
5
5
5
5
5
5
5
5
5
5
5
5
5
5
5
5
5
5
5
5
5
5
5
5
5
5
5
5
5
5
5
5
5
5
5
5
5
5
5
5
5
5
5
5
5
5
5
5
5
5
5
5
5
5
5
5
5
5
5
5
5
5
5
5
5
5
5
5
5
5
5
5
5
5
5
5
5
5
5
5
5
5
5
5
5
5
5
5
5
5
5
5
5
5
5
5
5
5
5
5
5
5
5
5
5
5
5
5
5
5
5
5
5
5
5
5
5
5
5
5
5
5
5
5
5
5
5
5
5
5
5
5
5
5
5
5
5
5
5
5
5
5
5
5
5
5
5
5
5
5
5
5
5
5
5
5
5
5
5
5
5
5
5
5
5
5
5
5
5
5
5
5
5
5
5
5
5
5
5
5
5
5
5
5
5
5
5
5
5
5
5
5
5
5
5
5
5
5
5
5
5
5
5
5
5
5
5
5
5
5
5
5
5
5
5
5
5
5
5
5
5
5
5
5
5
5
5
5
5
5
5
5
5
5
5
5
5
5
5
5
5
5
5
5
5
5
5
5
5
5
5
5
5
5
5
5
5
5
5
5
5
5
5
5
5
5
5
5
5
5
5
5
5
5
5
5
5
5
5
5
5
5
5
5
5
5
5
5
5
5
5
5
5
5
5
5
5
5
5
5
5
5
5
5
5
5
5
5
5
5
5
5
5
5
5
5
5
5
5
5
5
5
5
5
5
5
5
5
5
5
5
5
5
5
5
5
5
5
5
5
5
5
5
5
5
5
5
5
5
5
5
5
5
5
5
5
5
5
5
5
5
5
5
5
5
5
5
5
5
5
5
5
5
5
5
5
5
5
5
5
5
5
5
5
5
5
5
5
5
5
5
5
5
5
5
5
5
5
5
5
5
5
5
5
5
5
5
5
5
5
5
5
5
5
5
5
5
5
5
5
5
5
5
5
5
5
5
5
5
5
5
5
5
5
5
5
5
5
5
5
5
5
5
5
5
5
5
5
5
5
5
5
5
5
5
5
5
5
5
5
5
5
5
5
5
5
5
5
5
5
5
5
5
5
5
5
5
5
5
5
5
5
5
5
5
5
5
5
5
5
5
5
5
5
5
5
5
5
5
5
5
5
5
5
5
5
5
5
5
5
5
5
5
5
5
5
5
5
5
5
5
5
5
5
5
5
5
5
5
5
5
5
5
5
5
5
5
5
5
5
5
5
5
5
5
5
5
5
5
5
5
5
5
5
5
5
5
5
5
5
5
5
5
5
5
5
5
5
5
5
5
5
5
5
5
5
5
5
5
5
5
5
5
5
5
5
5
5
5
5
5
5
5
5
5
5
5
5
5
5
5
5
5
5
5
5
5
5
5
5
5
5
5
5
5
5
5
5
5
5
5
5
5
5
5
5
5
5
5
5
5
5
5
5
5
5
5
5
5
5
5
5
5
5
5
5
5
5
5
5
5
5
5
5
5
5
5
5
5
5
5
5
5
5
5
5
5
5
5
5
5
5
5
5
5
5
5
5
5
5
5
5
5
5
5
5
5
5
5
5
5
5
5
5
5
5
5
5
5
5
5
5
5
5
5
5
5
5
5
5
5
5
5
5
5
5
5
5
5
5
5
5
5
5
5
5
5
5
5
5
5
5
5
5
5
5
5
5
5
5
5
5
5
5
5
5
5
5
5
5
5
5
5
5
5
5
5
5
5
5
5
5
5
5
5
5
5
5
5
5
5
5
5
5
5
5
5
5
5
5
5
5
5
5
5
5
5
5
5
5
5
5
5
5
5
5
5
5
5
5
5
5
5
5
5
5
5
5
5
5
5
5
5
5
5
5
5
5
5
5
5
5
5
5
5
5
5
5
5
5
5
5
5
5
5
5
5
5
5
5
5
5
5
5
5
5
5
5
5
5
5
5
5
5
5
5
5
5
5
5
5
5
5
5
5
5
5
5
5
5
5
5
5
5
5
5
5
5
5
5
5
5
5
5
5
5
5
5
5
5
5
5
5
5
5
5
5
5
5
5
5
5
5
5
5
5
5
5
5
5
5
5
5
5
5
5
5
5
5
5
5
5
5
5
5
5
5
5
5
5
5
5
5
5
5
5
5
5
5
5
5
5
5
5
5
5
5
5
5
5
5
5
5
5
5
5
5
5
5
5
5
5
5
5
5
5
5
5
5
5
5
5
5
5
5
5
5
5
5
5
5
5
5
5
5
5
5
5
5
5
5
5
5
5
5
5
5
5
5
5
5
5
5
5
5
5
5
5
5
5
5
5
5
5
5
5
5
5
5
5
5
5
5
5
5
5
5
5
5
5
5
5
5
5
5
5
5
5
5
5
5
5
5
5
5
5
5
5
5
5
5
5
5
5
5
5
5
5
5
5
5
5
5
5
5
5
5
5
5
5
5
5
5
5
5
5
5
5
5
5
5
5
5
5
5
5
5
5
5
5
5
5
5
5
5
5
5
5
5
5
5
5
5
5
5
5
5
5
5
5
5
5
5
5
5
5
5
5
5
5
5
5
5
5
5
5
5
5
5
5
5
5
5
5
5
5
5
5
5
5
5
5
5
5
5
5
5
5
5
5
5
5
5
5
5
5
5
5
5
5
5
5
5
5
5
5
5
5
5
5
5
5
5
5
5
5
5
5
5
5
5
5
5
5
5
5
5
5
5
5
5
5
5
5
5
5
5
5
5
5
5
5
5
5
5
5
5
5
5
5
5
5
5
5
5
5
5
5
5
5
5
5
5
5
5
5
5
5
5
5
5
5
5
5
5
5
5
5
5
5
5
5
5
5
5
5
5
5
5
5
5
5
5
5
5
5
5
5
5
5
5
5
5
5
5
5
5
5
5
5
5
5
5
5
5
5
5
5
5
5
5
5
5
5
5
5
5
5
5
5
5
5
5
5
5
5
5
5
5
5
5
5
5
5
5
5
5
5
5
5
5
5
5
5
5
5
5
5
5
5
5
5
5
5
5
5
5
5
5
5
5
5
5
5
5
5
5
5
5
5
5
5
5
5
5
5
5
5
5
5
5
5
5
5
5
5
5
5
5
5
5
5
5
5
5
5
5
5
5
5
5
5
5
5
5
5
5
5
5
5
5
5
5
5
5
5
5
5
5
5
5
5
5
5
5
5
5
5
5
5
5
5
5
5
5
5
5
5
5
5
5
5
5
5
5
5
5
5
5
5
5
5
5
5
5
5
5
5
5
5
5
5
5
5
5
5
5
5
5
5
5
5
5
5
5
5
5
5
5
5
5
5
5
5
5
5
5
5
5
5
5
5
5
5
5
5
5
5
5
5
5
5
5
5
5
5
5
5
5
5
5
5
5
5
5
5
5
5
5
5
5
5
5
5
5
5
5
5
5
5
5
5
5
5
5
5
5
5
5
5
5
5
5
5
5
5
5
5
5
5
5
5
5
5
5
5
5
5
5
5
5
5
5
5
5
5
5
5
5
5
5
5
5
5
5
5
5
5
5
5
5
5
5
5
5
5
5
5
5
5
5
5
5
5
5
5
5
5
5
5
5
5
5
5
5
5
5
5
5
5
5
5
5
5
5
5
5
5
5
5
5
5
5
5
5
5
5
5
5
5
5
5
5
5
5
5
5
5
5
5
5
5
5
5
5
5
5
5
5
5
5
5
5
5
5
5
5
5
5
5
5
5
5
5
5
5
5
5
5
5
5
5
5
5
5
5
5
5
5
5
5
5
5
5
5
5
5
5
5
5
5
5
5
5
5
5
5
5
5
5
5
5
5
5
5
5
5
5
5
5
5
5
5
5
5
5
5
5
5
5
5
5
5
5
5
5
5
5
5
5
5
5
5
5
5
5
5
5
5
5
5
5
5
5
5
5
5
5
5
5
5
5
5
5
5
5
5
5
5
5
5
5
5
5
5
5
5
5
5
5
5
5
5
5
5
5
5
5
5
5
5
5
5
5
5
5
5
5
5
5
5
5
5
5
5
5
5
5
5
5
5
5
5
5
5
5
5
5
5
5
5
5
5
5
5
5
5
5
5
5
5
5
5
5
5
5
5
5
5
5
5
5
5
5
5
5
5
5
5
5
5
5
5
5
5
5
5
5
5
5
5
5
5
5
5
5
5
5
5
5
5
5
5
5
5
5
5
5
5
5
5
5
5
5
5
5
5
5
5
5
5
5
5
5
5
5
5
5
5
5
5
5
5
5
5
5
5
5
5
5
5
5
5
5
5
5
5
5
5
5
5
5
5
5
5
5
5
5
5
5
5
5
5
5
5
5
5
5
5
5
5
5
5
5
5
5
5
5
5
5
5
5
5
5
5
5
5
5
5
5
5
5
5
5
5
5
5
5
5
5
5
5
5
5
5
5
5
5
5
5
5
5
5
5
5
5
5
5
5
5
5
5
5
5
5
5
5
5
5
5
5
5
5
5
5
5
5
5
5
5
5
5
5
5
5
5
5
5
5
5
5
5
5
5
5
5
5
5
5
5
5
5
5
5
5
5
5
5
5
5
5
5
5
5
5
5
5
5
5
5
5
5
5
5
5
5
5
5
5
5
5
5
5
5
5
5
5
5
5
5
5
5
5
5
5
5
5
5
5
5
5
5
5
5
5
5
5
5
5
5
5
5
5
5
5
5
5
5
5
5
5
5
5
5
5
5
5
5
5
5
5
5
5
5
5
5
5
5
5
5
5
5
5
5
5
5
5
5
5
5
5
5
5
5
5
5
5
5
5
5
5
5
5
5
5
5
5
5
5
5
5
5
5
5
5
5
5
5
5
5
5
5
5
5
5
5
5
5
5
5
5
5
5
5
5
5
5
5
5
5
5
5
5
5
5
5
5
5
5
5
5
5
5
5
5
5
5
5
5
5
5
5
5
5
5
5
5
5
5
5
5
5
5
5
5
5
5
5
5
5
5
5
5
5
5
5
5
5
5
5
5
5
5
5
5
5
5
5
5
5
5
5
5
5
5
5
5
5
5
5
5
5
5
5
5
5
5
5
5
5
5
5
5
5
5
5
5
5
5
5
5
5
5
5
5
5
5
5
5
5
5
5
5
5
5
5
5
5
5
5
5
5
5
5
5
5
5
5
5
5
5
5
5
5
5
5
5
5
5
5
5
5
5
5
5
5
5
5
5
5
5
5
5
5
5
5
5
5
5
5
5
5
5
5
5
5
5
5
5
5
5
5
5
5
5
5
5
5
5
5
5
5
5
5
5
5
5
5
5
5
5
5
5
5
5
5
5
5
5
5
5
5
5
5
5
5
5
5
5
5
5
5
5
5
5
5
5
5
5
5
5
5
5
5
5
5
5
5
5
5
5
5
5
5
5
5
5
5
5
5
5
5
5
5
5
5
5
5
5
5
5
5
5
5
5
5
5
5
5
5
5
5
5
5
5
5
5
5
5
5
5
5
5
5
5
5
5
5
5
5
5
5
5
5
5
5
5
5
5
5
5
5
5
5
5
5
5
5
5
5
5
5
5
5
5
5
5
5
5
5
5
5
5
5
5
5
5
5
5
5
5
5
5
5
5
5
5
5
5
5
5
5
5
5
5
5
5
5
5
5
5
5
5
5
5
5
5
5
5
5
5
5
5
5
5
5
5
5
5
5
5
5
5
5
5
5
5
5
5
5
5
5
5
5
5
5
5
5
5
5
5
5
5
5
5
5
5
5
5
5
5
5
5
5
5
5
5
5
5
5
5
5
5
5
5
5
5
5
5
5
5
5
5
5
5
5
5
5
5
5
5
5
5
5
5
5
5
5
5
5
5
5
5
5
5
5
5
5
5
5
5
5
5
5
5
5
5
5
5
5
5
5
5
5
5
5
5
5
5
5
5
5
5
5
5
5
5
5
5
5
5
5
5
5
5
5
5
5
5
5
5
5
5
5
5
5
5
5
5
5
5
5
5
5
5
5
5
5
5
5
5
5
5
5
5
5
5
5
5
5
5
5
5
5
5
5
5
5
5
5
5
5
5
5
5
5
5
5
5
5
5
5
5
5
5
5
5
5
5
5
5
5
5
5
5
5
5
5
5
5
5
5
5
5
5
5
5
5
5
5
5
5
5
5
5
5
5
5
5
5
5
5
5
5
5
5
5
5
5
5
5
5
5
5
5
5
5
5
5
5
5
5
5
5
5
5
5
5
5
5
5
5
5
5
5
5
5
5
5
5
5
5
5
5
5
5
5
5
5
5
5
5
5
5
5
5
5
5
5
5
5
5
5
5
5
5
5
5
5
5
5
5
5
5
5
5
5
5
5
5
5
5
5
5
5
5
5
5
5
5
5
5
5
5
5
5
5
5
5
5
5
5
5
5
5
5
5
5
5
5
5
5
5
5
5
5
5
5
5
5
5
5
5
5
5
5
5
5
5
5
5
5
5
5
5
5
5
5
5
5
5
5
5
5
5
5
5
5
5
5
5
5
5
5
5
5
5
5
5
5
5
5
5
5
5
5
5
5
5
5
5
5
5
5
5
5
5
5
5
5
5
5
5
5
5
5
5
5
5
5
5
5
5
5
5
5
5
5
5
5
5
5
5
5
5
5
5
5
5
5
5
5
5
5
5
5
5
5
5
5
5
5
5
5
5
5
5
5
5
5
5
5
5
5
5
5
5
5
5
5
5
5
5
5
5
5
5
5
5
5
5
5
5
5
5
5
5
5
5
5
5
5
5
5
5
5
5
5
5
5
5
5
5
5
5
5
5
5
5
5
5
5
5
5
5
5
5
5
5
5
5
5
5
5
5
5
5
5
5
5
5
5
5
5
5
5
5
5
5
5
5
5
5
5
5
5
5
5
5
5
5
5
5
5
5
5
5
5
5
5
5
5
5
5
5
5
5
5
5
5
5
5
5
5
5
5
5
5
5
5
5
5
5
5
5
5
5
5
5
5
5
5
5
5
5
5
5
5
5
5
5
5
5
5
5
5
5
5
5
5
5
5
5
5
5
5
5
5
5
5
5
5
5
5
5
5
5
5
5
5
5
5
5
5
5
5
5
5
5
5
5
5
5
5
5
5
5
5
5
5
5
5
5
5
5
5
5
5
5
5
5
5
5
5
5
5
5
5
5
5
5
5
5
5
5
5
5
5
5
5
5
5
5
5
5
5
5
5
5
5
5
5
5
5
5
5
5
5
5
5
5
5
5
5
5
5
5
5
5
5
5
5
5
5
5
5
5
5
5
5
5
5
5
5
5
5
5
5
5
5
5
5
5
5
5
5
5
5
5
5
5
5
5
5
5
5
5
5
5
5
5
5
5
5
5
5
5
5
5
5
5
5
5
5
5
5
5
5
5
5
5
5
5
5
5
5
5
5
5
5
5
5
5
5
5
5
5
5
5
5
5
5
5
5
5
5
5
5
5
5
5
5
5
5
5
5
5
5
5
5
5
5
5
5
5
5
5
5
5
5
5
5
5
5
5
5
5
5
5
5
5
5
5
5
5
5
5
5
5
5
5
5
5
5
5
5
5
5
5
5
5
5
5
5
5
5
5
5
5
5
5
5
5
5
5
5
5
5
5
5
5
5
5
5
5
5
5
5
5
5
5
5
5
5
5
5
5
5
5
5
5
5
5
5
5
5
5
5
5
5
5
5
5
5
5
5
5
5
5
5
5
5
5
5
5
5
5
5
5
5
5
5
5
5
5
5
5
5
5
5
5
5
5
5
5
5
5
5
5
5
5
5
5
5
5
5
5
5
5
5
5
5
5
5
5
5
5
5
5
5
5
5
5
5
5
5
5
5
5
5
5
5
5
5
5
5
5
5
5
5
5
5
5
5
5
5
5
5
5
5
5
5
5
5
5
5
5
5
5
5
5
5
5
5
5
5
5
5
5
5
5
5
5
5
5
5
5
5
5
5
5
5
5
5
5
5
5
5
5
5
5
5
5
5
5
5
5
5
5
5
5
5
5
5
5
5
5
5
5
5
5
5
5
5
5
5
5
5
5
5
5
5
5
5
5
5
5
5
5
5
5
5
5
5
5
5
5
5
5
5
5
5
5
5
5
5
5
5
5
5
5
5
5
5
5
5
5
5
5
5
5
5
5
5
5
5
5
5
5
5
5
5
5
5
5
5
5
5
5
5
5
5
5
5
5
5
5
5
5
5
5
5
5
5
5
5
5
5
5
5
5
5
5
5
5
5
5
5
5
5
5
5
5
5
5
5
5
5
5
5
5
5
5
5
5
5
5
5
5
5
5
5
5
5
5
5
5
5
5
5
5
5
5
5
5
5
5
5
5
5
5
5
5
5
5
5
5
5
5
5
5
5
5
5
5
5
5
5
5
5
5
5
5
5
5
5
5
5
5
5
5
5
5
5
5
5
5
5
5
5
5
5
5
5
5
5
5
5
5
5
5
5
5
5
5
5
5
5
5
5
5
5
5
5
5
5
5
5
5
5
5
5
5
5
5
5
5
5
5
5
5
5
5
5
5
5
5
5
5
5
5
5
5
5
5
5
5
5
5
5
5
5
5
5
5
5
5
5
5
5
5
5
5
5
5
5
5
5
5
5
5
5
5
5
5
5
5
5
5
5
5
5
5
5
5
5
5
5
5
5
5
5
5
5
5
5
5
5
5
5
5
5
5
5
5
5
5
5
5
5
5
5
5
5
5
5
5
5
5
5
5
5
5
5
5
5
5
5
5
5
5
5
5
5
5
5
5
5
5
5
5
5
5
5
5
5
5
5
5
5
5
5
5
5
5
5
5
5
5
5
5
5
5
5
5
5
5
5
5
5
5
5
5
5
5
5
5
5
5
5
5
5
5
5
5
5
5
5
5
5
5
5
5
5
5
5
5
5
5
5
5
5
5
5
5
5
5
5
5
5
5
5
5
5
5
5
5
5
5
5
5
5
5
5
5
5
5
5
5
5
5
5
5
5
5
5
5
5
5
5
5
5
5
5
5
5
5
5
5
5
5
5
5
5
5
5
5
5
5
5
5
5
5
5
5
5
5
5
5
5
5
5
5
5
5
5
5
5
5
5
5
5
5
5
5
5
5
5
5
5
5
5
5
5
5
5
5
5
5
5
5
5
5
5
5
5
5
5
5
5
5
5
5
5
5
5
5
5
5
5
5
5
5
5
5
5
5
5
5
5
5
5
5
5
5
5
5
5
5
5
5
5
5
5
5
5
5
5
5
5
5
5
5
5
5
5
5
5
5
5
5
5
5
5
5
5
5
5
5
5
5
5
5
5
5
5
5
5
5
5
5
5
5
5
5
5
5
5
5
5
5
5
5
5
5
5
5
5
5
5
5
5
5
5
5
5
5
5
5
5
5
5
5
5
5
5
5
5
5
5
5
5
5
5
5
5
5
5
5
5
5
5
5
5
5
5
5
5
5
5
5
5
5
5
5
5
5
5
5
5
5
5
5
5
5
5
5
5
5
5
5
5
5
5
5
5
5
5
5
5
5
5
5
5
5
5
5
5
5
5
5
5
5
5
5
5
5
5
5
5
5
5
5
5
5
5
5
5
5
5
5
5
5
5
5
5
5
5
5
5
5
5
5
5
5
5
5
5
5
5
5
5
5
5
5
5
5
5
5
5
5
5
5
5
5
5
5
5
5
5
5
5
5
5
5
5
5
5
5
5
5
5
5
5
5
5
5
5
5
5
5
5
5
5
5
5
5
5
5
5
5
5
5
5
5
5
5
5
5
5
5
5
5
5
5
5
5
5
5
5
5
5
5
5
5
5
5
5
5
5
5
5
5
5
5
5
5
5
5
5
5
5
5
5
5
5
5
5
5
5
5
5
5
5
5
5
5
5
5
5
5
5
5
5
5
5
5
5
5
5
5
5
5
5
5
5
5
5
5
5
5
5
5
5
5
5
5
5
5
5
5
5
5
5
5
5
5
5
5
5
5
5
5
5
5
5
5
5
5
5
5
5
5
5
5
5
5
5
5
5
5
5
5
5
5
5
5
5
5
5
5
5
5
5
5
5
5
5
5
5
5
5
5
5
5
5
5
5
5
5
5
5
5
5
5
5
5
5
5
5
5
5
5
5
5
5
5
5
5
5
5
5
5
5
5
5
5
5
5
5
5
5
5
5
5
5
5
5
5
5
5
5
5
5
5
5
5
5
5
5
5
5
5
5
5
5
5
5
5
5
5
5
5
5
5
5
5
5
5
5
5
5
5
5
5
5
5
5
5
5
5
5
5
5
5
5
5
5
5
5
5
5
5
5
5
5
5
5
5
5
5
5
5
5
5
5
5
5
5
5
5
5
5
5
5
5
5
5
5
5
5
5
5
5
5
5
5
5
5
5
5
5
5
5
5
5
5
5
5
5
5
5
5
5
5
5
5
5
5
5
5
5
5
5
5
5
5
5
5
5
5
5
5
5
5
5
5
5
5
5
5
5
5
5
5
5
5
5
5
5
5
5
5
5
5
5
5
5
5
5
5
5
5
5
5
5
5
5
5
5
5
5
5
5
5
5
5
5
5
5
5
5
5
5
5
5
5
5
5
5
5
5
5
5
5
5
5
5
5
5
5
5
5
5
5
5
5
5
5
5
5
5
5
5
5
5
5
5
5
5
5
5
5
5
5
5
5
5
5
5
5
5
5
5
5
5
5
5
5
5
5
5
5
5
5
5
5
5
5
5
5
5
5
5
5
5
5
5
5
5
5
5
5
5
5
5
5
5
5
5
5
5
5
5
5
5
5
5
5
5
5
5
5
5
5
5
5
5
5
5
5
5
5
5
5
5
5
5
5
5
5
5
5
5
5
5
5
5
5
5
5
5
5
5
5
5
5
5
5
5
5
5
5
5
5
5
5
5
5
5
5
5
5
5
5
5
5
5
5
5
5
5
5
5
5
5
5
5
5
5
5
5
5
5
5
5
5
5
5
5
5
5
5
5
5
5
5
5
5
5
5
5
5
5
5
5
5
5
5
5
5
5
5
5
5
5
5
5
5
5
5
5
5
5
5
5
5
5
5
5
5
5
5
5
5
5
5
5
5
5
5
5
5
5
5
5
5
5
5
5
5
5
5
5
5
5
5
5
5
5
5
5
5
5
5
5
5
5
5
5
5
5
5
5
5
5
5
5
5
5
5
5
5
5
5
5
5
5
5
5
5
5
5
5
5
5
5
5
5
5
5
5
5
5
5
5
5
5
5
5
5
5
5
5
5
5
5
5
5
5
5
5
5
5
5
5
5
5
5
5
5
5
5
5
5
5
5
5
5
5
5
5
5
5
5
5
5
5
5
5
5
5
5
5
5
5
5
5
5
5
5
5
5
5
5
5
5
5
5
5
5
5
5
5
5
5
5
5
5
5
5
5
5
5
5
5
5
5
5
5
5
5
5
5
5
5
5
5
5
5
5
5
5
5
5
5
5
5
5
5
5
5
5
5
5
5
5
5
5
5
5
5
5
5
5
5
5
5
5
5
5
5
5
5
5
5
5
5
5
5
5
5
5
5
5
5
5
5
5
5
5
5
5
5
5
5
5
5
5
5
5
5
5
5
5
5
5
5
5
5
5
5
5
5
5
5
5
5
5
5
5
5
5
5
5
5
5
5
5
5
5
5
5
5
5
5
5
5
5
5
5
5
5
5
5
5
5
5
5
5
5
5
5
5
5
5
5
5
5
5
5
5
5
5
5
5
5
5
5
5
5
5
5
5
5
5
5
5
5
5
5
5
5
5
5
5
5
5
5
5
5
5
5
5
5
5
5
5
5
5
5
5
5
5
5
5
5
5
5
5
5
5
5
5
5
5
5
5
5
5
5
5
5
5
5
5
5
5
5
5
5
5
5
5
5
5
5
5
5
5
5
5
5
5
5
5
5
5
5
5
5
5
5
5
5
5
5
5
5
5
5
5
5
5
5
5
5
5
5
5
5
5
5
5
5
5
5
5
5
5
5
5
5
5
5
5
5
5
5
5
5
5
5
5
5
5
5
5
5
5
5
5
5
5
5
5
5
5
5
5
5
5
5
5
5
5
5
5
5
5
5
5
5
5
5
5
5
5
5
5
5
5
5
5
5
5
5
5
5
5
5
5
5
5
5
5
5
5
5
5
5
5
5
5
5
5
5
5
5
5
5
5
5
5
5
5
5
5
5
5
5
5
5
5
5
5
5
5
5
5
5
5
5
5
5
5
5
5
5
5
5
5
5
5
5
5
5
5
5
5
5
5
5
5
5
5
5
5
5
5
5
5
5
5
5
5
5
5
5
5
5
5
5
5
5
5
5
5
5
5
5
5
5
5
5
5
5
5
5
5
5
5
5
5
5
5
5
5
5
5
5
5
5
5
5
5
5
5
5
5
5
5
5
5
5
5
5
5
5
5
5
5
5
5
5
5
5
5
5
5
5
5
5
5
5
5
5
5
5
5
5
5
5
5
5
5
5
5
5
5
5
5
5
5
5
5
5
5
5
5
5
5
5
5
5
5
5
5
5
5
5
5
5
5
5
5
5
5
5
5
5
5
5
5
5
5
5
5
5
5
5
5
5
5
5
5
5
5
5
5
5
5
5
5
5
5
5
5
5
5
5
5
5
5
5
5
5
5
5
5
5
5
5
5
5
5
5
5
5
5
5
5
5
5
5
5
5
5
5
5
5
5
5
5
5
5
5
5
5
5
5
5
5
5
5
5
5
5
5
5
5
5
5
5
5
5
5
5
5
5
5
5
5
5
5
5
5
5
5
5
5
5
5
5
5
5
5
5
5
5
5
5
5
5
5
5
5
5
5
5
5
5
5
5
5
5
5
5
5
5
5
5
5
5
5
5
5
5
5
5
5
5
5
5
5
5
5
5
5
5
5
5
5
5
5
5
5
5
5
5
5
5
5
5
5
5
5
5
5
5
5
5
5
5
5
5
5
5
5
5
5
5
5
5
5
5
5
5
5
5
5
5
5
5
5
5
5
5
5
5
5
5
5
5
5
5
5
5
5
5
5
5
5
5
5
5
5
5
5
5
5
5
5
5
5
5
5
5
5
5
5
5
5
5
5
5
5
5
5
5
5
5
5
5
5
5
5
5
5
5
5
5
5
5
5
5
5
5
5
5
5
5
5
5
5
5
5
5
5
5
5
5
5
5
5
5
5
5
5
5
5
5
5
5
5
5
5
5
5
5
5
5
5
5
5
5
5
5
5
5
5
5
5
5
5
5
5
5
5
5
5
5
5
5
5
5
5
5
5
5
5
5
5
5
5
5
5
5
5
5
5
5
5
5
5
5
5
5
5
5
5
5
5
5
5
5
5
5
5
5
5
5
5
5
5
5
5
5
5
5
5
5
5
5
5
5
5
5
5
5
5
5
5
5
5
5
5
5
5
5
5
5
5
5
5
5
5
5
5
5
5
5
5
5
5
5
5
5
5
5
5
5
5
5
5
5
5
5
5
5
5
5
5
5
5
5
5
5
5
5
5
5
5
5
5
5
5
5
5
5
5
5
5
5
5
5
5
5
5
5
5
5
5
5
5
5
5
5
5
5
5
5
5
5
5
5
5
5
5
5
5
5
5
5
5
5
5
5
5
5
5
5
5
5
5
5
5
5
5
5
5
5
5
5
5
5
5
5
5
5
5
5
5
5
5
5
5
5
5
5
5
5
5
5
5
5
5
5
5
5
5
5
5
5
5
5
5
5
5
5
5
5
5
5
5
5
5
5
5
5
5
5
5
5
5
5
5
5
5
5
5
5
5
5
5
5
5
5
5
5
5
5
5
5
5
5
5
5
5
5
5
5
5
5
5
5
5
5
5
5
5
5
5
5
5
5
5
5
5
5
5
5
5
5
5
5
5
5
5
5
5
5
5
5
5
5
5
5
5
5
5
5
5
5
5
5
5
5
5
5
5
5
5
5
5
5
5
5
5
5
5
5
5
5
5
5
5
5
5
5
5
5
5
5
5
5
5
5
5
5
5
5
5
5
5
5
5
5
5
5
5
5
5
5
5
5
5
5
5
5
5
5
5
5
5
5
5
5
5
5
5
5
5
5
5
5
5
5
5
5
5
5
5
5
5
5
5
5
5
5
5
5
5
5
5
5
5
5
5
5
5
5
5
5
5
5
5
5
5
5
5
5
5
5
5
5
5
5
5
5
5
5
5
5
5
5
5
5
5
5
5
5
5
5
5
5
5
5
5
5
5
5
5
5
5
5
5
5
5
5
5
5
5
5
5
5
5
5
5
5
5
5
5
5
5
5
5
5
5
5
5
5
5
5
5
5
5
5
5
5
5
5
5
5
5
5
5
5
5
5
5
5
5
5
5
5
5
5
5
5
5
5
5
5
5
5
5
5
5
5
5
5
5
5
5
5
5
5
5
5
5
5
5
5
5
5
5
5
5
5
5
5
5
5
5
5
5
5
5
5
5
5
5
5
5
5
5
5
5
5
5
5
5
5
5
5
5
5
5
5
5
5
5
5
5
5
5
5
5
5
5
5
5
5
5
5
5
5
5
5
5
5
5
5
5
5
5
5
5
5
5
5
5
5
5
5
5
5
5
5
5
5
5
5
5
5
5
5
5
5
5
5
5
5
5
5
5
5
5
5
5
5
5
5
5
5
5
5
5
5
5
5
5
5
5
5
5
5
5
5
5
5
5
5
5
5
5
5
5
5
5
5
5
5
5
5
5
5
5
5
5
5
5
5
5
5
5
5
5
5
5
5
5
5
5
5
5
5
5
5
5
5
5
5
5
5
5
5
5
5
5
5
5
5
5
5
5
5
5
5
5
5
5
5
5
5
5
5
5
5
5
5
5
5
5
5
5
5
5
5
5
5
5
5
5
5
5
5
5
5
5
5
5
5
5
5
5
5
5
5
5
5
5
5
5
5
5
5
5
5
5
5
5
5
5
5
5
5
5
5
5
5
5
5
5
5
5
5
5
5
5
5
5
5
5
5
5
5
5
5
5
5
5
5
5
5
5
5
5
5
5
5
5
5
5
5
5
5
5
5
5
5
5
5
5
5
5
5
5
5
5
5
5
5
5
5
5
5
5
5
5
5
5
5
5
5
5
5
5
5
5
5
5
5
5
5
5
5
5
5
5
5
5
5
5
5
5
5
5
5
5
5
5
5
5
5
5
5
5
5
5
5
5
5
5
5
5
5
5
5
5
5
5
5
5
5
5
5
5
5
5
5
5
5
5
5
5
5
5
5
5
5
5
5
5
5
5
5
5
5
5
5
5
5
5
5
5
5
5
5
5
5
5
5
5
5
5
5
5
5
5
5
5
5
5
5
5
5
5
5
5
5
5
5
5
5
5
5
5
5
5
5
5
5
5
5
5
5
5
5
5
5
5
5
5
5
5
5
5
5
5
5
5
5
5
5
5
5
5
5
5
5
5
5
5
5
5
5
5
5
5
5
5
5
5
5
5
5
5
5
5
5
5
5
5
5
5
5
5
5
5
5
5
5
5
5
5
5
5
5
5
5
5
5
5
5
5
5
5
5
5
5
5
5
5
5
5
5
5
5
5
5
5
5
5
5
5
5
5
5
5
5
5
5
5
5
5
5
5
5
5
5
5
5
5
5
5
5
5
5
5
5
5
5
5
5
5
5
5
5
5
5
5
5
5
5
5
5
5
5
5
5
5
5
5
5
5
5
5
5
5
5
5
5
5
5
5
5
5
5
5
5
5
5
5
5
5
5
5
5
5
5
5
5
5
5
5
5
5
5
5
5
5
5
5
5
5
5
5
5
5
5
5
5
5
5
5
5
5
5
5
5
5
5
5
5
5
5
5
5
5
5
5
5
5
5
5
5
5
5
5
5
5
5
5
5
5
5
5
5
5
5
5
5
5
5
5
5
5
5
5
5
5
5
5
5
5
5
5
5
5
5
5
5
5
5
5
5
5
5
5
5
5
5
5
5
5
5
5
5
5
5
5
5
5
5
5
5
5
5
5
5
5
5
5
5
5
5
5
5
5
5
5
5
5
5
5
5
5
5
5
5
5
5
5
5
5
5
5
5
5
5
5
5
5
5
5
5
5
5
5
5
5
5
5
5
5
5
5
5
5
5
5
5
5
5
5
5
5
5
5
5
5
5
5
5
5
5
5
5
5
5
5
5
5
5
5
5
5
5
5
5
5
5
5
5
5
5
5
5
5
5
5
5
5
5
5
5
5
5
5
5
5
5
5
5
5
5
5
5
5
5
5
5
5
5
5
5
5
5
5
5
5
5
5
5
5
5
5
5
5
5
5
5
5
5
5
5
5
5
5
5
5
5
5
5
5
5
5
5
5
5
5
5
5
5
5
5
5
5
5
5
5
5
5
5
5
5
5
5
5
5
5
5
5
5
5
5
5
5
5
5
5
5
5
5
5
5
5
5
5
5
5
5
5
5
5
5
5
5
5
5
5
5
5
5
5
5
5
5
5
5
5
5
5
5
5
5
5
5
5
5
5
5
5
5
5
5
5
5
5
5
5
5
5
5
5
5
5
5
5
5
5
5
5
5
5
5
5
5
5
5
5
5
5
5
5
5
5
5
5
5
5
5
5
5
5
5
5
5
5
5
5
5
5
5
5
5
5
5
5
5
5
5
5
5
5
5
5
5
5
5
5
5
5
5
5
5
5
5
5
5
5
5
5
5
5
5
5
5
5
5
5
5
5
5
5
5
5
5
5
5
5
5
5
5
5
5
5
5
5
5
5
5
5
5
5
5
5
5
5
5
5
5
5
5
5
5
5
5
5
5
5
5
5
5
5
5
5
5
5
5
5
5
5
5
5
5
5
5
5
5
5
5
5
5
5
5
5
5
5
5
5
5
5
5
5
5
5
5
5
5
5
5
5
5
5
5
5
5
5
5
5
5
5
5
5
5
5
5
5
5
5
5
5
5
5
5
5
5
5
5
5
5
5
5
5
5
5
5
5
5
5
5
5
5
5
5
5
5
5
5
5
5
5
5
5
5
5
5
5
5
5
5
5
5
5
5
5
5
5
5
5
5
5
5
5
5
5
5
5
5
5
5
5
5
5
5
5
5
5
5
5
5
5
5
5
5
5
5
5
5
5
5
5
5
5
5
5
5
5
5
5
5
5
5
5
5
5
5
5
5
5
5
5
5
5
5
5
5
5
5
5
5
5
5
5
5
5
5
5
5
5
5
5
5
5
5
5
5
5
5
5
5
5
5
5
5
5
5
5
5
5
5
5
5
5
5
5
5
5
5
5
5
5
5
5
5
5
5
5
5
5
5
5
5
5
5
5
5
5
5
5
5
5
5
5
5
5
5
5
5
5
5
5
5
5
5
5
5
5
5
5
5
5
5
5
5
5
5
5
5
5
5
5
5
5
5
5
5
5
5
5
5
5
5
5
5
5
5
5
5
5
5
5
5
5
5
5
5
5
5
5
5
5
5
5
5
5
5
5
5
5
5
5
5
5
5
5
5
5
5
5
5
5
5
5
5
5
5
5
5
5
5
5
5
5
5
5
5
5
5
5
5
5
5
5
5
5
5
5
5
5
5
5
5
5
5
5
5
5
5
5
5
5
5
5
5
5
5
5
5
5
5
5
5
5
5
5
5
5
5
5
5
5
5
5
5
5
5
5
5
5
5
5
5
5
5
5
5
5
5
5
5
5
5
5
5
5
5
5
5
5
5
5
5
5
5
5
5
5
5
5
5
5
5
5
5
5
5
5
5
5
5
5
5
5
5
5
5
5
5
5
5
5
5
5
5
5
5
5
5
5
5
5
5
5
5
5
5
5
5
5
5
5
5
5
5
5
5
5
5
5
5
5
5
5
5
5
5
5
5
5
5
5
5
5
5
5
5
5
5
5
5
5
5
5
5
5
5
5
5
5
5
5
5
5
5
5
5
5
5
5
5
5
5
5
5
5
5
5
5
5
5
5
5
5
5
5
5
5
5
5
5
5
5
5
5
5
5
5
5
5
5
5
5
5
5
5
5
5
5
5
5
5
5
5
5
5
5
5
5
5
5
5
5
5
5
5
5
5
5
5
5
5
5
5
5
5
5
5
5
5
5
5
5
5
5
5
5
5
5
5
5
5
5
5
5
5
5
5
5
5
5
5
5
5
5
5
5
5
5
5
5
5
5
5
5
5
5
5
5
5
5
5
5
5
5
5
5
5
5
5
5
5
5
5
5
5
5
5
5
5
5
5
5
5
5
5
5
5
5
5
5
5
5
5
5
5
5
5
5
5
5
5
5
5
5
5
5
5
5
5
5
5
5
5
5
5
5
5
5
5
5
5
5
5
5
5
5
5
5
5
5
5
5
5
5
5
5
5
5
5
5
5
5
5
5
5
5
5
5
5
5
5
5
5
5
5
5
5
5
5
5
5
5
5
5
5
5
5
5
5
5
5
5
5
5
5
5
5
5
5
5
5
5
5
5
5
5
5
5
5
5
5
5
5
5
5
5
5
5
5
5
5
5
5
5
5
5
5
5
5
5
5
5
5
5
5
5
5
5
5
5
5
5
5
5
5
5
5
5
5
5
5
5
5
5
5
5
5
5
5
5
5
5
5
5
5
5
5
5
5
5
5
5
5
5
5
5
5
5
5
5
5
5
5
5
5
5
5
5
5
5
5
5
5
5
5
5
5
5
5
5
5
5
5
5
5
5
5
5
5
5
5
5
5
5
5
5
5
5
5
5
5
5
5
5
5
5
5
5
5
5
5
5
5
5
5
5
5
5
5
5
5
5
5
5
5
5
5
5
5
5
5
5
5
5
5
5
5
5
5
5
5
5
5
5
5
5
5
5
5
5
5
5
5
5
5
5
5
5
5
5
5
5
5
5
5
5
5
5
5
5
5
5
5
5
5
5
5
5
5
5
5
5
5
5
5
5
5
5
5
5
5
5
5
5
5
5
5
5
5
5
5
5
5
5
5
5
5
5
5
5
5
5
5
5
5
5
5
5
5
5
5
5
5
5
5
5
5
5
5
5
5
5
5
5
5
5
5
5
5
5
5
5
5
5
5
5
5
5
5
5
5
5
5
5
5
5
5
5
5
5
5
5
5
5
5
5
5
5
5
5
5
5
5
5
5
5
5
5
5
5
5
5
5
5
5
5
5
5
5
5
5
5
5
5
5
5
5
5
5
5
5
5
5
5
5
5
5
5
5
5
5
5
5
5
5
5
5
5
5
5
5
5
5
5
5
5
5
5
5
5
5
5
5
5
5
5
5
5
5
5
5
5
5
5
5
5
5
5
5
5
5
5
5
5
5
5
5
5
5
5
5
5
5
5
5
5
5
5
5
5
5
5
5
5
5
5
5
5
5
5
5
5
5
5
5
5
5
5
5
5
5
5
5
5
5
5
5
5
5
5
5
5
5
5
5
5
5
5
5
5
5
5
5
5
5
5
5
5
5
5
5
5
5
5
5
5
5
5
5
5
5
5
5
5
5
5
5
5
5
5
5
5
5
5
5
5
5
5
5
5
5
5
5
5
5
5
5
5
5
5
5
5
5
5
5
5
5
5
5
5
5
5
5
5
5
5
5
5
5
5
5
5
5
5
5
5
5
5
5
5
5
5
5
5
5
5
5
5
5
5
5
5
5
5
5
5
5
5
5
5
5
5
5
5
5
5
5
5
5
5
5
5
5
5
5
5
5
5
5
5
5
5
5
5
5
5
5
5
5
5
5
5
5
5
5
5
5
5
5
5
5
5
5
5
5
5
5
5
5
5
5
5
5
5
5
5
5
5
5
5
5
5
5
5
5
5
5
5
5
5
5
5
5
5
5
5
5
5
5
5
5
5
5
5
5
5
5
5
5
5
5
5
5
5
5
5
5
5
5
5
5
5
5
5
5
5
5
5
5
5
5
5
5
5
5
5
5
5
5
5
5
5
5
5
5
5
5
5
5
5
5
5
5
5
5
5
5
5
5
5
5
5
5
5
5
5
5
5
5
5
5
5
5
5
5
5
5
5
5
5
5
5
5
5
5
5
5
5
5
5
5
5
5
5
5
5
5
5
5
5
5
5
5
5
5
5
5
5
5
5
5
5
5
5
5
5
5
5
5
5
5
5
5
5
5
5
5
5
5
5
5
5
5
5
5
5
5
5
5
5
5
5
5
5
5
5
5
5
5
5
5
5
5
5
5
5
5
5
5
5
5
5
5
5
5
5
5
5
5
5
5
5
5
5
5
5
5
5
5
5
5
5
5
5
5
5
5
5
5
5
5
5
5
5
5
5
5
5
5
5
5
5
5
5
5
5
5
5
5
5
5
5
5
5
5
5
5
5
5
5
5
5
5
5
5
5
5
5
5
5
5
5
5
5
5
5
5
5
5
5
5
5
5
5
5
5
5
5
5
5
5
5
5
5
5
5
5
5
5
5
5
5
5
5
5
5
5
5
5
5
5
5
5
5
5
5
5
5
5
5
5
5
5
5
5
5
5
5
5
5
5
5
5
5
5
5
5
5
5
5
5
5
5
5
5
5
5
5
5
5
5
5
5
5
5
5
5
5
5
5
5
5
5
5
5
5
5
5
5
5
5
5
5
5
5
5
5
5
5
5
5
5
5
5
5
5
5
5
5
5
5
5
5
5
5
5
5
5
5
5
5
5
5
5
5
5
5
5
5
5
5
5
5
5
5
5
5
5
5
5
5
5
5
5
5
5
5
5
5
5
5
5
5
5
5
5
5
5
5
5
5
5
5
5
5
5
5
5
5
5
5
5
5
5
5
5
5
5
5
5
5
5
5
5
5
5
5
5
5
5
5
5
5
5
5
5
5
5
5
5
5
5
5
5
5
5
5
5
5
5
5
5
5
5
5
5
5
5
5
5
5
5
5
5
5
5
5
5
5
5
5
5
5
5
5
5
5
5
5
5
5
5
5
5
5
5
5
5
5
5
5
5
5
5
5
5
5
5
5
5
5
5
5
5
5
5
5
5
5
5
5
5
5
5
5
5
5
5
5
5
5
5
5
5
5
5
5
5
5
5
5
5
5
5
5
5
5
5
5
5
5
5
5
5
5
5
5
5
5
5
5
5
5
5
5
5
5
5
5
5
5
5
5
5
5
5
5
5
5
5
5
5
5
5
5
5
5
5
5
5
5
5
5
5
5
5
5
5
5
5
5
5
5
5
5
5
5
5
5
5
5
5
5
5
5
5
5
5
5
5
5
5
5
5
5
5
5
5
5
5
5
5
5
5
5
5
5
5
5
5
5
5
5
5
5
5
5
5
5
5
5
5
5
5
5
5
5
5
5
5
5
5
5
5
5
5
5
5
5
5
5
5
5
5
5
5
5
5
5
5
5
5
5
5
5
5
5
5
5
5
5
5
5
5
5
5
5
5
5
5
5
5
5
5
5
5
5
5
5
5
5
5
5
5
5
5
5
5
5
5
5
5
5
5
5
5
5
5
5
5
5
5
5
5
5
5
5
5
5
5
5
5
5
5
5
5
5
5
5
5
5
5
5
5
5
5
5
5
5
5
5
5
5
5
5
5
5
5
5
5
5
5
5
5
5
5
5
5
5
5
5
5
5
5
5
5
5
5
5
5
5
5
5
5
5
5
5
5
5
5
5
5
5
5
5
5
5
5
5
5
5
5
5
5
5
5
5
5
5
5
5
5
5
5
5
5
5
5
5
5
5
5
5
5
5
5
5
5
5
5
5
5
5
5
5
5
5
5
5
5
5
5
5
5
5
5
5
5
5
5
5
5
5
5
5
5
5
5
5
5
5
5
5
5
5
5
5
5
5
5
5
5
5
5
5
5
5
5
5
5
5
5
5
5
5
5
5
5
5
5
5
5
5
5
5
5
5
5
5
5
5
5
5
5
5
5
5
5
5
5
5
5
5
5
5
5
5
5
5
5
5
5
5
5
5
5
5
5
5
5
5
5
5
5
5
5
5
5
5
5
5
5
5
5
5
5
5
5
5
5
5
5
5
5
5
5
5
5
5
5
5
5
5
5
5
5
5
5
5
5
5
5
5
5
5
5
5
5
5
5
5
5
5
5
5
5
5
5
5
5
5
5
5
5
5
5
5
5
5
5
5
5
5
5
5
5
5
5
5
5
5
5
5
5
5
5
5
5
5
5
5
5
5
5
5
5
5
5
5
5
5
5
5
5
5
5
5
5
5
5
5
5
5
5
5
5
5
5
5
5
5
5
5
5
5
5
5
5
5
5
5
5
5
5
5
5

POINT_DATA 15743
SCALARS pressure float 1
LOOKUP_TABLE default
0
0
0
0
0
0
0
0
0
0
0
0
0
0
0
0
0
0
0
0
0
0
0
0
0
0
0
0
0
0
0
0
0
0
0
0
0
0
0
0
0
0
0
0
0
0
0
0
0
0
0
0
0
0
0
0
0
0
0
0
0
0
0
0
0
0
0
0
0
0
0
0
0
0
0
0
0
0
0
0
0
0
0
0
0
0
0
0
0
0
0
0
0
0
0
0
0
0
0
0
0
0
0
0
0
0
0
0
0
0
0
0
0
0
0
0
0
0
0
0
0
0
0
0
0
0
0
0
0
0
0
0
0
0
0
0
0
0
0
0
0
0
0
0
0
0
0
0
0
0
0
0
0
0
0
0
0
0
0
0
0
0
0
0
0
0
0
0
0
0
0
0
0
0
0
0
0
0
0
0
0
0
0
0
0
0
0
0
0
0
0
0
0
0
0
0
0
0
0
0
0
0
0
0
0
0
0
0
0
0
0
0
0
0
0
0
0
0
0
0
0
0
0
0
0
0
0
0
0
0
0
0
0
0
0
0
0
0
0
0
0
0
0
0
0
0
0
0
0
0
0
0
0
0
0
0
0
0
0
0
0
0
0
0
0
0
0
0
0
0
0
0
0
0
0
0
0
0
0
0
0
0
0
0
0
0
0
0
0
0
0
0
0
0
0
0
0
0
0
0
0
0
0
0
0
0
0
0
0
0
0
0
0
0
0
0
0
0
0
0
0
0
0
0
0
0
0
0
0
0
0
0
0
0
0
0
0
0
0
0
0
0
0
0
0
0
0
0
0
0
0
0
0
0
0
0
0
0
0
0
0
0
0
0
0
0
0
0
0
0
0
0
0
0
0
0
0
0
0
0
0
0
0
0
0
0
0
0
0
0
0
0
0
0
0
0
0
0
0
0
0
0
0
0
0
0
0
0
0
0
0
0
0
0
0
0
0
0
0
0
0
0
0
0
0
0
0
0
0
0
0
0
0
0
0
0
0
0
0
0
0
0
0
0
0
0
0
0
0
0
0
0
0
0
0
0
0
0
0
0
0
0
0
0
0
0
0
0
0
0
0
0
0
0
0
0
0
0
0
0
0
0
0
0
0
0
0
0
0
0
0
0
0
0
0
0
0
0
0
0
0
0
0
0
0
0
0
0
0
0
0
0
0
0
0
0
0
0
0
0
0
0
0
0
0
0
0
0
0
0
0
0
0
0
0
0
0
0
0
0
0
0
0
0
0
0
0
0
0
0
0
0
0
0
0
0
0
0
0
0
0
0
0
0
0
0
0
0
0
0
0
0
0
0
0
0
0
0
0
0
0
0
0
0
0
0
0
0
0
0
0
0
0
0
0
0
0
0
0
0
0
0
0
0
0
0
0
0
0
0
0
0
0
0
0
0
0
0
0
0
0
0
0
0
0
0
0
0
0
0
0
0
0
0
0
0
0
0
0
0
0
0
0
0
0
0
0
0
0
0
0
0
0
0
0
0
0
0
0
0
0
0
0
0
0
0
0
0
0
0
0
0
0
0
0
0
0
0
0
0
0
0
0
0
0
0
0
0
0
0
0
0
0
0
0
0
0
0
0
0
0
0
0
0
0
0
0
0
0
0
0
0
0
0
0
0
0
0
0
0
0
0
0
0
0
0
0
0
0
0
0
0
0
0
0
0
0
0
0
0
0
0
0
0
0
0
0
0
0
0
0
0
0
0
0
0
0
0
0
0
0
0
0
0
0
0
0
0
0
0
0
0
0
0
0
0
0
0
0
0
0
0
0
0
0
0
0
0
0
0
0
0
0
0
0
0
0
0
0
0
0
0
0
0
0
0
0
0
0
0
0
0
0
0
0
0
0
0
0
0
0
0
0
0
0
0
0
0
0
0
0
0
0
0
0
0
0
0
0
0
0
0
0
0
0
0
0
0
0
0
0
0
0
0
0
0
0
0
0
0
0
0
0
0
0
0
0
0
0
0
0
0
0
0
0
0
0
0
0
0
0
0
0
0
0
0
0
0
0
0
0
0
0
0
0
0
0
0
0
0
0
0
0
0
0
0
0
0
0
0
0
0
0
0
0
0
0
0
0
0
0
0
0
0
0
0
0
0
0
0
0
0
0
0
0
0
0
0
0
0
0
0
0
0
0
0
0
0
0
0
0
0
0
0
0
0
0
0
0
0
0
0
0
0
0
0
0
0
0
0
0
0
0
0
0
0
0
0
0
0
0
0
0
0
0
0
0
0
0
0
0
0
0
0
0
0
0
0
0
0
0
0
0
0
0
0
0
0
0
0
0
0
0
0
0
0
0
0
0
0
0
0
0
0
0
0
0
0
0
0
0
0
0
0
0
0
0
0
0
0
0
0
0
0
0
0
0
0
0
0
0
0
0
0
0
0
0
0
0
0
0
0
0
0
0
0
0
0
0
0
0
0
0
0
0
0
0
0
0
0
0
0
0
0
0
0
0
0
0
0
0
0
0
0
0
0
0
0
0
0
0
0
0
0
0
0
0
0
0
0
0
0
0
0
0
0
0
0
0
0
0
0
0
0
0
0
0
0
0
0
0
0
0
0
0
0
0
0
0
0
0
0
0
0
0
0
0
0
0
0
0
0
0
0
0
0
0
0
0
0
0
0
0
0
0
0
0
0
0
0
0
0
0
0
0
0
0
0
0
0
0
0
0
0
0
0
0
0
0
0
0
0
0
0
0
0
0
0
0
0
0
0
0
0
0
0
0
0
0
0
0
0
0
0
0
0
0
0
0
0
0
0
0
0
0
0
0
0
0
0
0
0
0
0
0
0
0
0
0
0
0
0
0
0
0
0
0
0
0
0
0
0
0
0
0
0
0
0
0
0
0
0
0
0
0
0
0
0
0
0
0
0
0
0
0
0
0
0
0
0
0
0
0
0
0
0
0
0
0
0
0
0
0
0
0
0
0
0
0
0
0
0
0
0
0
0
0
0
0
0
0
0
0
0
0
0
0
0
0
0
0
0
0
0
0
0
0
0
0
0
0
0
0
0
0
0
0
0
0
0
0
0
0
0
0
0
0
0
0
0
0
0
0
0
0
0
0
0
0
0
0
0
0
0
0
0
0
0
0
0
0
0
0
0
0
0
0
0
0
0
0
0
0
0
0
0
0
0
0
0
0
0
0
0
0
0
0
0
0
0
0
0
0
0
0
0
0
0
0
0
0
0
0
0
0
0
0
0
0
0
0
0
0
0
0
0
0
0
0
0
0
0
0
0
0
0
0
0
0
0
0
0
0
0
0
0
0
0
0
0
0
0
0
0
0
0
0
0
0
0
0
0
0
0
0
0
0
0
0
0
0
0
0
0
0
0
0
0
0
0
0
0
0
0
0
0
0
0
0
0
0
0
0
0
0
0
0
0
0
0
0
0
0
0
0
0
0
0
0
0
0
0
0
0
0
0
0
0
0
0
0
0
0
0
0
0
0
0
0
0
0
0
0
0
0
0
0
0
0
0
0
0
0
0
0
0
0
0
0
0
0
0
0
0
0
0
0
0
0
0
0
0
0
0
0
0
0
0
0
0
0
0
0
0
0
0
0
0
0
0
0
0
0
0
0
0
0
0
0
0
0
0
0
0
0
0
0
0
0
0
0
0
0
0
0
0
0
0
0
0
0
0
0
0
0
0
0
0
0
0
0
0
0
0
0
0
0
0
0
0
0
0
0
0
0
0
0
0
0
0
0
0
0
0
0
0
0
0
0
0
0
0
0
0
0
0
0
0
0
0
0
0
0
0
0
0
0
0
0
0
0
0
0
0
0
0
0
0
0
0
0
0
0
0
0
0
0
0
0
0
0
0
0
0
0
0
0
0
0
0
0
0
0
0
0
0
0
0
0
0
0
0
0
0
0
0
0
0
0
0
0
0
0
0
0
0
0
0
0
0
0
0
0
0
0
0
0
0
0
0
0
0
0
0
0
0
0
0
0
0
0
0
0
0
0
0
0
0
0
0
0
0
0
0
0
0
0
0
0
0
0
0
0
0
0
0
0
0
0
0
0
0
0
0
0
0
0
0
0
0
0
0
0
0
0
0
0
0
0
0
0
0
0
0
0
0
0
0
0
0
0
0
0
0
0
0
0
0
0
0
0
0
0
0
0
0
0
0
0
0
0
0
0
0
0
0
0
0
0
0
0
0
0
0
0
0
0
0
0
0
0
0
0
0
0
0
0
0
0
0
0
0
0
0
0
0
0
0
0
0
0
0
0
0
0
0
0
0
0
0
0
0
0
0
0
0
0
0
0
0
0
0
0
0
0
0
0
0
0
0
0
0
0
0
0
0
0
0
0
0
0
0
0
0
0
0
0
0
0
0
0
0
0
0
0
0
0
0
0
0
0
0
0
0
0
0
0
0
0
0
0
0
0
0
0
0
0
0
0
0
0
0
0
0
0
0
0
0
0
0
0
0
0
0
0
0
0
0
0
0
0
0
0
0
0
0
0
0
0
0
0
0
0
0
0
0
0
0
0
0
0
0
0
0
0
0
0
0
0
0
0
0
0
0
0
0
0
0
0
0
0
0
0
0
0
0
0
0
0
0
0
0
0
0
0
0
0
0
0
0
0
0
0
0
0
0
0
0
0
0
0
0
0
0
0
0
0
0
0
0
0
0
0
0
0
0
0
0
0
0
0
0
0
0
0
0
0
0
0
0
0
0
0
0
0
0
0
0
0
0
0
0
0
0
0
0
0
0
0
0
0
0
0
0
0
0
0
0
0
0
0
0
0
0
0
0
0
0
0
0
0
0
0
0
0
0
0
0
0
0
0
0
0
0
0
0
0
0
0
0
0
0
0
0
0
0
0
0
0
0
0
0
0
0
0
0
0
0
0
0
0
0
0
0
0
0
0
0
0
0
0
0
0
0
0
0
0
0
0
0
0
0
0
0
0
0
0
0
0
0
0
0
0
0
0
0
0
0
0
0
0
0
0
0
0
0
0
0
0
0
0
0
0
0
0
0
0
0
0
0
0
0
0
0
0
0
0
0
0
0
0
0
0
0
0
0
0
0
0
0
0
0
0
0
0
0
0
0
0
0
0
0
0
0
0
0
0
0
0
0
0
0
0
0
0
0
0
0
0
0
0
0
0
0
0
0
0
0
0
0
0
0
0
0
0
0
0
0
0
0
0
0
0
0
0
0
0
0
0
0
0
0
0
0
0
0
0
0
0
0
0
0
0
0
0
0
0
0
0
0
0
0
0
0
0
0
0
0
0
0
0
0
0
0
0
0
0
0
0
0
0
0
0
0
0
0
0
0
0
0
0
0
0
0
0
0
0
0
0
0
0
0
0
0
0
0
0
0
0
0
0
0
0
0
0
0
0
0
0
0
0
0
0
0
0
0
0
0
0
0
0
0
0
0
0
0
0
0
0
0
0
0
0
0
0
0
0
0
0
0
0
0
0
0
0
0
0
0
0
0
0
0
0
0
0
0
0
0
0
0
0
0
0
0
0
0
0
0
0
0
0
0
0
0
0
0
0
0
0
0
0
0
0
0
0
0
0
0
0
0
0
0
0
0
0
0
0
0
0
0
0
0
0
0
0
0
0
0
0
0
0
0
0
0
0
0
0
0
0
0
0
0
0
0
0
0
0
0
0
0
0
0
0
0
0
0
0
0
0
0
0
0
0
0
0
0
0
0
0
0
0
0
0
0
0
0
0
0
0
0
0
0
0
0
0
0
0
0
0
0
0
0
0
0
0
0
0
0
0
0
0
0
0
0
0
0
0
0
0
0
0
0
0
0
0
0
0
0
0
0
0
0
0
0
0
0
0
0
0
0
0
0
0
0
0
0
0
0
0
0
0
0
0
0
0
0
0
0
0
0
0
0
0
0
0
0
0
0
0
0
0
0
0
0
0
0
0
0
0
0
0
0
0
0
0
0
0
0
0
0
0
0
0
0
0
0
0
0
0
0
0
0
0
0
0
0
0
0
0
0
0
0
0
0
0
0
0
0
0
0
0
0
0
0
0
0
0
0
0
0
0
0
0
0
0
0
0
0
0
0
0
0
0
0
0
0
0
0
0
0
0
0
0
0
0
0
0
0
0
0
0
0
0
0
0
0
0
0
0
0
0
0
0
0
0
0
0
0
0
0
0
0
0
0
0
0
0
0
0
0
0
0
0
0
0
0
0
0
0
0
0
0
0
0
0
0
0
0
0
0
0
0
0
0
0
0
0
0
0
0
0
0
0
0
0
0
0
0
0
0
0
0
0
0
0
0
0
0
0
0
0
0
0
0
0
0
0
0
0
0
0
0
0
0
0
0
0
0
0
0
0
0
0
0
0
0
0
0
0
0
0
0
0
0
0
0
0
0
0
0
0
0
0
0
0
0
0
0
0
0
0
0
0
0
0
0
0
0
0
0
0
0
0
0
0
0
0
0
0
0
0
0
0
0
0
0
0
0
0
0
0
0
0
0
0
0
0
0
0
0
0
0
0
0
0
0
0
0
0
0
0
0
0
0
0
0
0
0
0
0
0
0
0
0
0
0
0
0
0
0
0
0
0
0
0
0
0
0
0
0
0
0
0
0
0
0
0
0
0
0
0
0
0
0
0
0
0
0
0
0
0
0
0
0
0
0
0
0
0
0
0
0
0
0
0
0
0
0
0
0
0
0
0
0
0
0
0
0
0
0
0
0
0
0
0
0
0
0
0
0
0
0
0
0
0
0
0
0
0
0
0
0
0
0
0
0
0
0
0
0
0
0
0
0
0
0
0
0
0
0
0
0
0
0
0
0
0
0
0
0
0
0
0
0
0
0
0
0
0
0
0
0
0
0
0
0
0
0
0
0
0
0
0
0
0
0
0
0
0
0
0
0
0
0
0
0
0
0
0
0
0
0
0
0
0
0
0
0
0
0
0
0
0
0
0
0
0
0
0
0
0
0
0
0
0
0
0
0
0
0
0
0
0
0
0
0
0
0
0
0
0
0
0
0
0
0
0
0
0
0
0
0
0
0
0
0
0
0
0
0
0
0
0
0
0
0
0
0
0
0
0
0
0
0
0
0
0
0
0
0
0
0
0
0
0
0
0
0
0
0
0
0
0
0
0
0
0
0
0
0
0
0
0
0
0
0
0
0
0
0
0
0
0
0
0
0
0
0
0
0
0
0
0
0
0
0
0
0
0
0
0
0
0
0
0
0
0
0
0
0
0
0
0
0
0
0
0
0
0
0
0
0
0
0
0
0
0
0
0
0
0
0
0
0
0
0
0
0
0
0
0
0
0
0
0
0
0
0
0
0
0
0
0
0
0
0
0
0
0
0
0
0
0
0
0
0
0
0
0
0
0
0
0
0
0
0
0
0
0
0
0
0
0
0
0
0
0
0
0
0
0
0
0
0
0
0
0
0
0
0
0
0
0
0
0
0
0
0
0
0
0
0
0
0
0
0
0
0
0
0
0
0
0
0
0
0
0
0
0
0
0
0
0
0
0
0
0
0
0
0
0
0
0
0
0
0
0
0
0
0
0
0
0
0
0
0
0
0
0
0
0
0
0
0
0
0
0
0
0
0
0
0
0
0
0
0
0
0
0
0
0
0
0
0
0
0
0
0
0
0
0
0
0
0
0
0
0
0
0
0
0
0
0
0
0
0
0
0
0
0
0
0
0
0
0
0
0
0
0
0
0
0
0
0
0
0
0
0
0
0
0
0
0
0
0
0
0
0
0
0
0
0
0
0
0
0
0
0
0
0
0
0
0
0
0
0
0
0
0
0
0
0
0
0
0
0
0
0
0
0
0
0
0
0
0
0
0
0
0
0
0
0
0
0
0
0
0
0
0
0
0
0
0
0
0
0
0
0
0
0
0
0
0
0
0
0
0
0
0
0
0
0
0
0
0
0
0
0
0
0
0
0
0
0
0
0
0
0
0
0
0
0
0
0
0
0
0
0
0
0
0
0
0
0
0
0
0
0
0
0
0
0
0
0
0
0
0
0
0
0
0
0
0
0
0
0
0
0
0
0
0
0
0
0
0
0
0
0
0
0
0
0
0
0
0
0
0
0
0
0
0
0
0
0
0
0
0
0
0
0
0
0
0
0
0
0
0
0
0
0
0
0
0
0
0
0
0
0
0
0
0
0
0
0
0
0
0
0
0
0
0
0
0
0
0
0
0
0
0
0
0
0
0
0
0
0
0
0
0
0
0
0
0
0
0
0
0
0
0
0
0
0
0
0
0
0
0
0
0
0
0
0
0
0
0
0
0
0
0
0
0
0
0
0
0
0
0
0
0
0
0
0
0
0
0
0
0
0
0
0
0
0
0
0
0
0
0
0
0
0
0
0
0
0
0
0
0
0
0
0
0
0
0
0
0
0
0
0
0
0
0
0
0
0
0
0
0
0
0
0
0
0
0
0
0
0
0
0
0
0
0
0
0
0
0
0
0
0
0
0
0
0
0
0
0
0
0
0
0
0
0
0
0
0
0
0
0
0
0
0
0
0
0
0
0
0
0
0
0
0
0
0
0
0
0
0
0
0
0
0
0
0
0
0
0
0
0
0
0
0
0
0
0
0
0
0
0
0
0
0
0
0
0
0
0
0
0
0
0
0
0
0
0
0
0
0
0
0
0
0
0
0
0
0
0
0
0
0
0
0
0
0
0
0
0
0
0
0
0
0
0
0
0
0
0
0
0
0
0
0
0
0
0
0
0
0
0
0
0
0
0
0
0
0
0
0
0
0
0
0
0
0
0
0
0
0
0
0
0
0
0
0
0
0
0
0
0
0
0
0
0
0
0
0
0
0
0
0
0
0
0
0
0
0
0
0
0
0
0
0
0
0
0
0
0
0
0
0
0
0
0
0
0
0
0
0
0
0
0
0
0
0
0
0
0
0
0
0
0
0
0
0
0
0
0
0
0
0
0
0
0
0
0
0
0
0
0
0
0
0
0
0
0
0
0
0
0
0
0
0
0
0
0
0
0
0
0
0
0
0
0
0
0
0
0
0
0
0
0
0
0
0
0
0
0
0
0
0
0
0
0
0
0
0
0
0
0
0
0
0
0
0
0
0
0
0
0
0
0
0
0
0
0
0
0
0
0
0
0
0
0
0
0
0
0
0
0
0
0
0
0
0
0
0
0
0
0
0
0
0
0
0
0
0
0
0
0
0
0
0
0
0
0
0
0
0
0
0
0
0
0
0
0
0
0
0
0
0
0
0
0
0
0
0
0
0
0
0
0
0
0
0
0
0
0
0
0
0
0
0
0
0
0
0
0
0
0
0
0
0
0
0
0
0
0
0
0
0
0
0
0
0
0
0
0
0
0
0
0
0
0
0
0
0
0
0
0
0
0
0
0
0
0
0
0
0
0
0
0
0
0
0
0
0
0
0
0
0
0
0
0
0
0
0
0
0
0
0
0
0
0
0
0
0
0
0
0
0
0
0
0
0
0
0
0
0
0
0
0
0
0
0
0
0
0
0
0
0
0
0
0
0
0
0
0
0
0
0
0
0
0
0
0
0
0
0
0
0
0
0
0
0
0
0
0
0
0
0
0
0
0
0
0
0
0
0
0
0
0
0
0
0
0
0
0
0
0
0
0
0
0
0
0
0
0
0
0
0
0
0
0
0
0
0
0
0
0
0
0
0
0
0
0
0
0
0
0
0
0
0
0
0
0
0
0
0
0
0
0
0
0
0
0
0
0
0
0
0
0
0
0
0
0
0
0
0
0
0
0
0
0
0
0
0
0
0
0
0
0
0
0
0
0
0
0
0
0
0
0
0
0
0
0
0
0
0
0
0
0
0
0
0
0
0
0
0
0
0
0
0
0
0
0
0
0
0
0
0
0
0
0
0
0
0
0
0
0
0
0
0
0
0
0
0
0
0
0
0
0
0
0
0
0
0
0
0
0
0
0
0
0
0
0
0
0
0
0
0
0
0
0
0
0
0
0
0
0
0
0
0
0
0
0
0
0
0
0
0
0
0
0
0
0
0
0
0
0
0
0
0
0
0
0
0
0
0
0
0
0
0
0
0
0
0
0
0
0
0
0
0
0
0
0
0
0
0
0
0
0
0
0
0
0
0
0
0
0
0
0
0
0
0
0
0
0
0
0
0
0
0
0
0
0
0
0
0
0
0
0
0
0
0
0
0
0
0
0
0
0
0
0
0
0
0
0
0
0
0
0
0
0
0
0
0
0
0
0
0
0
0
0
0
0
0
0
0
0
0
0
0
0
0
0
0
0
0
0
0
0
0
0
0
0
0
0
0
0
0
0
0
0
0
0
0
0
0
0
0
0
0
0
0
0
0
0
0
0
0
0
0
0
0
0
0
0
0
0
0
0
0
0
0
0
0
0
0
0
0
0
0
0
0
0
0
0
0
0
0
0
0
0
0
0
0
0
0
0
0
0
0
0
0
0
0
0
0
0
0
0
0
0
0
0
0
0
0
0
0
0
0
0
0
0
0
0
0
0
0
0
0
0
0
0
0
0
0
0
0
0
0
0
0
0
0
0
0
0
0
0
0
0
0
0
0
0
0
0
0
0
0
0
0
0
0
0
0
0
0
0
0
0
0
0
0
0
0
0
0
0
0
0
0
0
0
0
0
0
0
0
0
0
0
0
0
0
0
0
0
0
0
0
0
0
0
0
0
0
0
0
0
0
0
0
0
0
0
0
0
0
0
0
0
0
0
0
0
0
0
0
0
0
0
0
0
0
0
0
0
0
0
0
0
0
0
0
0
0
0
0
0
0
0
0
0
0
0
0
0
0
0
0
0
0
0
0
0
0
0
0
0
0
0
0
0
0
0
0
0
0
0
0
0
0
0
0
0
0
0
0
0
0
0
0
0
0
0
0
0
0
0
0
0
0
0
0
0
0
0
0
0
0
0
0
0
0
0
0
0
0
0
0
0
0
0
0
0
0
0
0
0
0
0
0
0
0
0
0
0
0
0
0
0
0
0
0
0
0
0
0
0
0
0
0
0
0
0
0
0
0
0
0
0
0
0
0
0
0
0
0
0
0
0
0
0
0
0
0
0
0
0
0
0
0
0
0
0
0
0
0
0
0
0
0
0
0
0
0
0
0
0
0
0
0
0
0
0
0
0
0
0
0
0
0
0
0
0
0
0
0
0
0
0
0
0
0
0
0
0
0
0
0
0
0
0
0
0
0
0
0
0
0
0
0
0
0
0
0
0
0
0
0
0
0
0
0
0
0
0
0
0
0
0
0
0
0
0
0
0
0
0
0
0
0
0
0
0
0
0
0
0
0
0
0
0
0
0
0
0
0
0
0
0
0
0
0
0
0
0
0
0
0
0
0
0
0
0
0
0
0
0
0
0
0
0
0
0
0
0
0
0
0
0
0
0
0
0
0
0
0
0
0
0
0
0
0
0
0
0
0
0
0
0
0
0
0
0
0
0
0
0
0
0
0
0
0
0
0
0
0
0
0
0
0
0
0
0
0
0
0
0
0
0
0
0
0
0
0
0
0
0
0
0
0
0
0
0
0
0
0
0
0
0
0
0
0
0
0
0
0
0
0
0
0
0
0
0
0
0
0
0
0
0
0
0
0
0
0
0
0
0
0
0
0
0
0
0
0
0
0
0
0
0
0
0
0
0
0
0
0
0
0
0
0
0
0
0
0
0
0
0
0
0
0
0
0
0
0
0
0
0
0
0
0
0
0
0
0
0
0
0
0
0
0
0
0
0
0
0
0
0
0
0
0
0
0
0
0
0
0
0
0
0
0
0
0
0
0
0
0
0
0
0
0
0
0
0
0
0
0
0
0
0
0
0
0
0
0
0
0
0
0
0
0
0
0
0
0
0
0
0
0
0
0
0
0
0
0
0
0
0
0
0
0
0
0
0
0
0
0
0
0
0
0
0
0
0
0
0
0
0
0
0
0
0
0
0
0
0
0
0
0
0
0
0
0
0
0
0
0
0
0
0
0
0
0
0
0
0
0
0
0
0
0
0
0
0
0
0
0
0
0
0
0
0
0
0
0
0
0
0
0
0
0
0
0
0
0
0
0
0
0
0
0
0
0
0
0
0
0
0
0
0
0
0
0
0
0
0
0
0
0
0
0
0
0
0
0
0
0
0
0
0
0
0
0
0
0
0
0
0
0
0
0
0
0
0
0
0
0
0
0
0
0
0
0
0
0
0
0
0
0
0
0
0
0
0
0
0
0
0
0
0
0
0
0
0
0
0
0
0
0
0
0
0
0
0
0
0
0
0
0
0
0
0
0
0
0
0
0
0
0
0
0
0
0
0
0
0
0
0
0
0
0
0
0
0
0
0
0
0
0
0
0
0
0
0
0
0
0
0
0
0
0
0
0
0
0
0
0
0
0
0
0
0
0
0
0
0
0
0
0
0
0
0
0
0
0
0
0
0
0
0
0
0
0
0
0
0
0
0
0
0
0
0
0
0
0
0
0
0
0
0
0
0
0
0
0
0
0
0
0
0
0
0
0
0
0
0
0
0
0
0
0
0
0
0
0
0
0
0
0
0
0
0
0
0
0
0
0
0
0
0
0
0
0
0
0
0
0
0
0
0
0
0
0
0
0
0
0
0
0
0
0
0
0
0
0
0
0
0
0
0
0
0
0
0
0
0
0
0
0
0
0
0
0
0
0
0
0
0
0
0
0
0
0
0
0
0
0
0
0
0
0
0
0
0
0
0
0
0
0
0
0
0
0
0
0
0
0
0
0
0
0
0
0
0
0
0
0
0
0
0
0
0
0
0
0
0
0
0
0
0
0
0
0
0
0
0
0
0
0
0
0
0
0
0
0
0
0
0
0
0
0
0
0
0
0
0
0
0
0
0
0
0
0
0
0
0
0
0
0
0
0
0
0
0
0
0
0
0
0
0
0
0
0
0
0
0
0
0
0
0
0
0
0
0
0
0
0
0
0
0
0
0
0
0
0
0
0
0
0
0
0
0
0
0
0
0
0
0
0
0
0
0
0
0
0
0
0
0
0
0
0
0
0
0
0
0
0
0
0
0
0
0
0
0
0
0
0
0
0
0
0
0
0
0
0
0
0
0
0
0
0
0
0
0
0
0
0
0
0
0
0
0
0
0
0
0
0
0
0
0
0
0
0
0
0
0
0
0
0
0
0
0
0
0
0
0
0
0
0
0
0
0
0
0
0
0
0
0
0
0
0
0
0
0
0
0
0
0
0
0
0
0
0
0
0
0
0
0
0
0
0
0
0
0
0
0
0
0
0
0
0
0
0
0
0
0
0
0
0
0
0
0
0
0
0
0
0
0
0
0
0
0
0
0
0
0
0
0
0
0
0
0
0
0
0
0
0
0
0
0
0
0
0
0
0
0
0
0
0
0
0
0
0
0
0
0
0
0
0
0
0
0
0
0
0
0
0
0
0
0
0
0
0
0
0
0
0
0
0
0
0
0
0
0
0
0
0
0
0
0
0
0
0
0
0
0
0
0
0
0
0
0
0
0
0
0
0
0
0
0
0
0
0
0
0
0
0
0
0
0
0
0
0
0
0
0
0
0
0
0
0
0
0
0
0
0
0
0
0
0
0
0
0
0
0
0
0
0
0
0
0
0
0
0
0
0
0
0
0
0
0
0
0
0
0
0
0
0
0
0
0
0
0
0
0
0
0
0
0
0
0
0
0
0
0
0
0
0
0
0
0
0
0
0
0
0
0
0
0
0
0
0
0
0
0
0
0
0
0
0
0
0
0
0
0
0
0
0
0
0
0
0
0
0
0
0
0
0
0
0
0
0
0
0
0
0
0
0
0
0
0
0
0
0
0
0
0
0
0
0
0
0
0
0
0
0
0
0
0
0
0
0
0
0
0
0
0
0
0
0
0
0
0
0
0
0
0
0
0
0
0
0
0
0
0
0
0
0
0
0
0
0
0
0
0
0
0
0
0
0
0
0
0
0
0
0
0
0
0
0
0
0
0
0
0
0
0
0
0
0
0
0
0
0
0
0
0
0
0
0
0
0
0
0
0
0
0
0
0
0
0
0
0
0
0
0
0
0
0
0
0
0
0
0
0
0
0
0
0
0
0
0
0
0
0
0
0
0
0
0
0
0
0
0
0
0
0
0
0
0
0
0
0
0
0
0
0
0
0
0
0
0
0
0
0
0
0
0
0
0
0
0
0
0
0
0
0
0
0
0
0
0
0
0
0
0
0
0
0
0
0
0
0
0
0
0
0
0
0
0
0
0
0
0
0
0
0
0
0
0
0
0
0
0
0
0
0
0
0
0
0
0
0
0
0
0
0
0
0
0
0
0
0
0
0
0
0
0
0
0
0
0
0
0
0
0
0
0
0
0
0
0
0
0
0
0
0
0
0
0
0
0
0
0
0
0
0
0
0
0
0
0
0
0
0
0
0
0
0
0
0
0
0
0
0
0
0
0
0
0
0
0
0
0
0
0
0
0
0
0
0
0
0
0
0
0
0
0
0
0
0
0
0
0
0
0
0
0
0
0
0
0
0
0
0
0
0
0
0
0
0
0
0
0
0
0
0
0
0
0
0
0
0
0
0
0
0
0
0
0
0
0
0
0
0
0
0
0
0
0
0
0
0
0
0
0
0
0
0
0
0
0
0
0
0
0
0
0
0
0
0
0
0
0
0
0
0
0
0
0
0
0
0
0
0
0
0
0
0
0
0
0
0
0
0
0
0
0
0
0
0
0
0
0
0
0
0
0
0
0
0
0
0
0
0
0
0
0
0
0
0
0
0
0
0
0
0
0
0
0
0
0
0
0
0
0
0
0
0
0
0
0
0
0
0
0
0
0
0
0
0
0
0
0
0
0
0
0
0
0
0
0
0
0
0
0
0
0
0
0
0
0
0
0
0
0
0
0
0
0
0
0
0
0
0
0
0
0
0
0
0
0
0
0
0
0
0
0
0
0
0
0
0
0
0
0
0
0
0
0
0
0
0
0
0
0
0
0
0
0
0
0
0
0
0
0
0
0
0
0
0
0
0
0
0
0
0
0
0
0
0
0
0
0
0
0
0
0
0
0
0
0
0
0
0
0
0
0
0
0
0
0
0
0
0
0
0
0
0
0
0
0
0
0
0
0
0
0
0
0
0
0
0
0
0
0
0
0
0
0
0
0
0
0
0
0
0
0
0
0
0
0
0
0
0
0
0
0
0
0
0
0
0
0
0
0
0
0
0
0
0
0
0
0
0
0
0
0
0
0
0
0
0
0
0
0
0
0
0
0
0
0
0
0
0
0
0
0
0
0
0
0
0
0
0
0
0
0
0
0
0
0
0
0
0
0
0
0
0
0
0
0
0
0
0
0
0
0
0
0
0
0
0
0
0
0
0
0
0
0
0
0
0
0
0
0
0
0
0
0
0
0
0
0
0
0
0
0
0
0
0
0
0
0
0
0
0
0
0
0
0
0
0
0
0
0
0
0
0
0
0
0
0
0
0
0
0
0
0
0
0
0
0
0
0
0
0
0
0
0
0
0
0
0
0
0
0
0
0
0
0
0
0
0
0
0
0
0
0
0
0
0
0
0
0
0
0
0
0
0
0
0
0
0
0
0
0
0
0
0
0
0
0
0
0
0
0
0
0
0
0
0
0
0
0
0
0
0
0
0
0
0
0
0
0
0
0
0
0
0
0
0
0
0
0
0
0
0
0
0
0
0
0
0
0
0
0
0
0
0
0
0
0
0
0
0
0
0
0
0
0
0
0
0
0
0
0
0
0
0
0
0
0
0
0
0
0
0
0
0
0
0
0
0
0
0
0
0
0
0
0
0
0
0
0
0
0
0
0
0
0
0
0
0
0
0
0
0
0
0
0
0
0
0
0
0
0
0
0
0
0
0
0
0
0
0
0
0
0
0
0
0
0
0
0
0
0
0
0
0
0
0
0
0
0
0
0
0
0
0
0
0
0
0
0
0
0
0
0
0
0
0
0
0
0
0
0
0
0
0
0
0
0
0
0
0
0
0
0
0
0
0
0
0
0
0
0
0
0
0
0
0
0
0
0
0
0
0
0
0
0
0
0
0
0
0
0
0
0
0
0
0
0
0
0
0
0
0
0
0
0
0
0
0
0
0
0
0
0
0
0
0
0
0
0
0
0
0
0
0
0
0
0
0
0
0
0
0
0
0
0
0
0
0
0
0
0
0
0
0
0
0
0
0
0
0
0
0
0
0
0
0
0
0
0
0
0
0
0
0
0
0
0
0
0
0
0
0
0
0
0
0
0
0
0
0
0
0
0
0
0
0
0
0
0
0
0
0
0
0
0
0
0
0
0
0
0
0
0
0
0
0
0
0
0
0
0
0
0
0
0
0
0
0
0
0
0
0
0
0
0
0
0
0
0
0
0
0
0
0
0
0
0
0
0
0
0
0
0
0
0
0
0
0
0
0
0
0
0
0
0
0
0
0
0
0
0
0
0
0
0
0
0
0
0
0
0
0
0
0
0
0
0
0
0
0
0
0
0
0
0
0
0
0
0
0
0
0
0
0
0
0
0
0
0
0
0
0
0
0
0
0
0
0
0
0
0
0
0
0
0
0
0
0
0
0
0
0
0
0
0
0
0
0
0
0
0
0
0
0
0
0
0
0
0
0
0
0
0
0
0
0
0
0
0
0
0
0
0
0
0
0
0
0
0
0
0
0
0
0
0
0
0
0
0
0
0
0
0
0
0
0
0
0
0
0
0
0
0
0
0
0
0
0
0
0
0
0
0
0
0
0
0
0
0
0
0
0
0
0
0
0
0
0
0
0
0
0
0
0
0
0
0
0
0
0
0
0
0
0
0
0
0
0
0
0
0
0
0
0
0
0
0
0
0
0
0
0
0
0
0
0
0
0
0
0
0
0
0
0
0
0
0
0
0
0
0
0
0
0
0
0
0
0
0
0
0
0
0
0
0
0
0
0
0
0
0
0
0
0
0
0
0
0
0
0
0
0
0
0
0
0
0
0
0
0
0
0
0
0
0
0
0
0
0
0
0
0
0
0
0
0
0
0
0
0
0
0
0
0
0
0
0
0
0
0
0
0
0
0
0
0
0
0
0
0
0
0
0
0
0
0
0
0
0
0
0
0
0
0
0
0
0
0
0
0
0
0
0
0
0
0
0
0
0
0
0
0
0
0
0
0
0
0
0
0
0
0
0
0
0
0
0
0
0
0
0
0
0
0
0
0
0
0
0
0
0
0
0
0
0
0
0
0
0
0
0
0
0
0
0
0
0
0
0
0
0
0
0
0
0
0
0
0
0
0
0
0
0
0
0
0
0
0
0
0
0
0
0
0
0
0
0
0
0
0
0
0
0
0
0
0
0
0
0
0
0
0
0
0
0
0
0
0
0
0
0
0
0
0
0
0
0
0
0
0
0
0
0
0
0
0
0
0
0
0
0
0
0
0
0
0
0
0
0
0
0
0
0
0
0
0
0
0
0
0
0
0
0
0
0
0
0
0
0
0
0
0
0
0
0
0
0
0
0
0
0
0
0
0
0
0
0
0
0
0
0
0
0
0
0
0
0
0
0
0
0
0
0
0
0
0
0
0
0
0
0
0
0
0
0
0
0
0
0
0
0
0
0
0
0
0
0
0
0
0
0
0
0
0
0
0
0
0
0
0
0
0
0
0
0
0
0
0
0
0
0
0
0
0
0
0
0
0
0
0
0
0
0
0
0
0
0
0
0
0
0
0
0
0
0
0
0
0
0
0
0
0
0
0
0
0
0
0
0
0
0
0
0
0
0
0
0
0
0
0
0
0
0
0
0
0
0
0
0
0
0
0
0
0
0
0
0
0
0
0
0
0
0
0
0
0
0
0
0
0
0
0
0
0
0
0
0
0
0
0
0
0
0
0
0
0
0
0
0
0
0
0
0
0
0
0
0
0
0
0
0
0
0
0
0
0
0
0
0
0
0
0
0
0
0
0
0
0
0
0
0
0
0
0
0
0
0
0
0
0
0
0
0
0
0
0
0
0
0
0
0
0
0
0
0
0
0
0
0
0
0
0
0
0
0
0
0
0
0
0
0
0
0
0
0
0
0
0
0
0
0
0
0
0
0
0
0
0
0
0
0
0
0
0
0
0
0
0
0
0
0
0
0
0
0
0
0
0
0
0
0
0
0
0
0
0
0
0
0
0
0
0
0
0
0
0
0
0
0
0
0
0
0
0
0
0
0
0
0
0
0
0
0
0
0
0
0
0
0
0
0
0
0
0
0
0
0
0
0
0
0
0
0
0
0
0
0
0
0
0
0
0
0
0
0
0
0
0
0
0
0
0
0
0
0
0
0
0
0
0
0
0
0
0
0
0
0
0
0
0
0
0
0
0
0
0
0
0
0
0
0
0
0
0
0
0
0
0
0
0
0
0
0
0
0
0
0
0
0
0
0
0
0
0
0
0
0
0
0
0
0
0
0
0
0
0
0
0
0
0
0
0
0
0
0
0
0
0
0
0
0
0
0
0
0
0
0
0
0
0
0
0
0
0
0
0
0
0
0
0
0
0
0
0
0
0
0
0
0
0
0
0
0
0
0
0
0
0
0
0
0
0
0
0
0
0
0
0
0
0
0
0
0
0
0
0
0
0
0
0
0
0
0
0
0
0
0
0
0
0
0
0
0
0
0
0
0
0
0
0
0
0
0
0
0
0
0
0
0
0
0
0
0
0
0
0
0
0
0
0
0
0
0
0
0
0
0
0
0
0
0
0
0
0
0
0
0
0
0
0
0
0
0
0
0
0
0
0
0
0
0
0
0
0
0
0
0
0
0
0
0
0
0
0
0
0
0
0
0
0
0
0
0
0
0
0
0
0
0
0
0
0
0
0
0
0
0
0
0
0
0
0
0
0
0
0
0
0
0
0
0
0
0
0
0
0
0
0
0
0
0
0
0
0
0
0
0
0
0
0
0
0
0
0
0
0
0
0
0
0
0
0
0
0
0
0
0
0
0
0
0
0
0
0
0
0
0
0
0
0
0
0
0
0
0
0
0
0
0
0
0
0
0
0
0
0
0
0
0
0
0
0
0
0
0
0
0
0
0
0
0
0
0
0
0
0
0
0
0
0
0
0
0
0
0
0
0
0
0
0
0
0
0
0
0
0
0
0
0
0
0
0
0
0
0
0
0
0
0
0
0
0
0
0
0
0
0
0
0
0
0
0
0
0
0
0
0
0
0
0
0
0
0
0
0
0
0
0
0
0
0
0
0
0
0
0
0
0
0
0
0
0
0
0
0
0
0
0
0
0
0
0
0
0
0
0
0
0
0
0
0
0
0
0
0
0
0
0
0
0
0
0
0
0
0
0
0
0
0
0
0
0
0
0
0
0
0
0
0
0
0
0
0
0
0
0
0
0
0
0
0
0
0
0
0
0
0
0
0
0
0
0
0
0
0
0
0
0
0
0
0
0
0
0
0
0
0
0
0
0
0
0
0
0
0
0
0
0
0
0
0
0
0
0
0
0
0
0
0
0
0
0
0
0
0
0
0
0
0
0
0
0
0
0
0
0
0
0
0
0
0
0
0
0
0
0
0
0
0
0
0
0
0
0
0
0
0
0
0
0
0
0
0
0
0
0
0
0
0
0
0
0
0
0
0
0
0
0
0
0
0
0
0
0
0
0
0
0
0
0
0
0
0
0
0
0
0
0
0
0
0
0
0
0
0
0
0
0
0
0
0
0
0
0
0
0
0
0
0
0
0
0
0
0
0
0
0
0
0
0
0
0
0
0
0
0
0
0
0
0
0
0
0
0
0
0
0
0
0
0
0
0
0
0
0
0
0
0
0
0
0
0
0
0
0
0
0
0
0
0
0
0
0
0
0
0
0
0
0
0
0
0
0
0
0
0
0
0
0
0
0
0
0
0
0
0
0
0
0
0
0
0
0
0
0
0
0
0
0
0
0
0
0
0
0
0
0
0
0
0
0
0
0
0
0
0
0
0
0
0
0
0
0
0
0
0
0
0
0
0
0
0
0
0
0
0
0
0
0
0
0
0
0
0
0
0
0
0
0
0
0
0
0
0
0
0
0
0
0
0
0
0
0
0
0
0
0
0
0
0
0
0
0
0
0
0
0
0
0
0
0
0
0
0
0
0
0
0
0
0
0
0
0
0
0
0
0
0
0
0
0
0
0
0
0
0
0
0
0
0
0
0
0
0
0
0
0
0
0
0
0
0
0
0
0
0
0
0
0
0
0
0
0
0
0
0
0
0
0
0
0
0
0
0
0
0
0
0
0
0
0
0
0
0
0
0
0
0
0
0
0
0
0
0
0
0
0
0
0
0
0
0
0
0
0
0
0
0
0
0
0
0
0
0
0
0
0
0
0
0
0
0
0
0
0
0
0
0
0
0
0
0
0
0
0
0
0
0
0
0
0
0
0
0
0
0
0
0
0
0
0
0
0
0
0
0
0
0
0
0
0
0
0
0
0
0
0
0
0
0
0
0
0
0
0
0
0
0
0
0
0
0
0
0
0
0
0
0
0
0
0
0
0
0
0
0
0
0
0
0
0
0
0
0
0
0
0
0
0
0
0
0
0
0
0
0
0
0
0
0
0
0
0
0
0
0
0
0
0
0
0
0
0
0
0
0
0
0
0
0
0
0
0
0
0
0
0
0
0
0
0
0
0
0
0
0
0
0
0
0
0
0
0
0
0
0
0
0
0
0
0
0
0
0
0
0
0
0
0
0
0
0
0
0
0
0
0
0
0
0
0
0
0
0
0
0
0
0
0
0
0
0
0
0
0
0
0
0
0
0
0
0
0
0
0
0
0
0
0
0
0
0
0
0
0
0
0
0
0
0
0
0
0
0
0
0
0
0
0
0
0
0
0
0
0
0
0
0
0
0
0
0
0
0
0
0
0
0
0
0
0
0
0
0
0
0
0
0
0
0
0
0
0
0
0
0
0
0
0
0
0
0
0
0
0
0
0
0
0
0
0
0
0
0
0
0
0
0
0
0
0
0
0
0
0
0
0
0
0
0
0
0
0
0
0
0
0
0
0
0
0
0
0
0
0
0
0
0
0
0
0
0
0
0
0
0
0
0
0
0
0
0
0
0
0
0
0
0
0
0
0
0
0
0
0
0
0
0
0
0
0
0
0
0
0
0
0
0
0
0
0
0
0
0
0
0
0
0
0
0
0
0
0
0
0
0
0
0
0
0
0
0
0
0
0
0
0
0
0
0
0
0
0
0
0
0
0
0
0
0
0
0
0
0
0
0
0
0
0
0
0
0
0
0
0
0
0
0
0
0
0
0
0
0
0
0
0
0
0
0
0
0
0
0
0
0
0
0
0
0
0
0
0
0
0
0
0
0
0
0
0
0
0
0
0
0
0
0
0
0
0
0
0
0
0
0
0
0
0
0
0
0
0
0
0
0
0
0
0
0
0
0
0
0
0
0
0
0
0
0
0
0
0
0
0
0
0
0
0
0
0
0
0
0
0
0
0
0
0
0
0
0
0
0
0
0
0
0
0
0
0
0
0
0
0
0
0
0
0
0
0
0
0
0
0
0
0
0
0
0
0
0
0
0
0
0
0
0
0
0
0
0
0
0
0
0
0
0
0
0
0
0
0
0
0
0
0
0
0
0
0
0
0
0
0
0
0
0
0
0
0
0
0
0
0
0
0
0
0
0
0
0
0
0
0
0
0
0
0
0
0
0
0
0
0
0
0
0
0
0
0
0
0
0
0
0
0
0
0
0
0
0
0
0
0
0
0
0
0
0
0
0
0
0
0
0
0
0
0
0
0
0
0
0
0
0
0
0
0
0
0
0
0
0
0
0
0
0
0
0
0
0
0
0
0
0
0
0
0
0
0
0
0
0
0
0
0
0
0
0
0
0
0
0
0
0
0
0
0
0
0
0
0
0
0
0
0
0
0
0
0
0
0
0
0
0
0
0
0
0
0
0
0
0
0
0
0
0
0
0
0
0
0
0
0
0
0
0
0
0
0
0
0
0
0
0
0
0
0
0
0
0
0
0
0
0
0
0
0
0
0
0
0
0
0
0
0
0
0
0
0
0
0
0
0
0
0
0
0
0
0
0
0
0
0
0
0
0
0
0
0
0
0
0
0
0
0
0
0
0
0
0
0
0
0
0
0
0
0
0
0
0
0
0
0
0
0
0
0
0
0
0
0
0
0
0
0
0
0
0
0
0
0
0
0
0
0
0
0
0
0
0
0
0
0
0
0
0
0
0
0
0
0
0
0
0
0
0
0
0
0
0
0
0
0
0
0
0
0
0
0
0
0
0
0
0
0
0
0
0
0
0
0
0
0
0
0
0
0
0
0
0
0
0
0
0
0
0
0
0
0
0
0
0
0
0
0
0
0
0
0
0
0
0
0
0
0
0
0
0
0
0
0
0
0
0
0
0
0
0
0
0
0
0
0
0
0
0
0
0
0
0
0
0
0
0
0
0
0
0
0
0
0
0
0
0
0
0
0
0
0
0
0
0
0
0
0
0
0
0
0
0
0
0
0
0
0
0
0
0
0
0
0
0
0
0
0
0
0
0
0
0
0
0
0
0
0
0
0
0
0
0
0
0
0
0
0
0
0
0
0
0
0
0
0
0
0
0
0
0
0
0
0
0
0
0
0
0
0
0
0
0
0
0
0
0
0
0
0
0
0
0
0
0
0
0
0
0
0
0
0
0
0
0
0
0
0
0
0
0
0
0
0
0
0
0
0
0
0
0
0
0
0
0
0
0
0
0
0
0
0
0
0
0
0
0
0
0
0
0
0
0
0
0
0
0
0
0
0
0
0
0
0
0
0
0
0
0
0
0
0
0
0
0
0
0
0
0
0
0
0
0
0
0
0
0
0
0
0
0
0
0
0
0
0
0
0
0
0
0
0
0
0
0
0
0
0
0
0
0
0
0
0
0
0
0
0
0
0
0
0
0
0
0
0
0
0
0
0
0
0
0
0
0
0
0
0
0
0
0
0
0
0
0
0
0
0
0
0
0
0
0
0
0
0
0
0
0
0
0
0
0
0
0
0
0
0
0
0
0
0
0
0
0
0
0
0
0
0
0
0
0
0
0
0
0
0
0
0
0
0
0
0
0
0
0
0
0
0
0
0
0
0
0
0
0
0
0
0
0
0
0
0
0
0
0
0
0
0
0
0
0
0
0
0
0
0
0
0
0
0
0
0
0
0
0
0
0
0
0
0
0
0
0
0
0
0
0
0
0
0
0
0
0
0
0
0
0
0
0
0
0
0
0
0
0
0
0
0
0
0
0
0
0
0
0
0
0
0
0
0
0
0
0
0
0
0
0
0
0
0
0
0
0
0
0
0
0
0
0
0
0
0
0
0
0
0
0
0
0
0
0
0
0
0
0
0
0
0
0
0
0
0
0
0
0
0
0
0
0
0
0
0
0
0
0
0
0
0
0
0
0
0
0
0
0
0
0
0
0
0
0
0
0
0
0
0
0
0
0
0
0
0
0
0
0
0
0
0
0
0
0
0
0
0
0
0
0
0
0
0
0
0
0
0
0
0
0
0
0
0
0
0
0
0
0
0
0
0
0
0
0
0
0
0
0
0
0
0
0
0
0
0
0
0
0
0
0
0
0
0
0
0
0
0
0
0
0
0
0
0
0
0
0
0
0
0
0
0
0
0
0
0
0
0
0
0
0
0
0
0
0
0
0
0
0
0
0
0
0
0
0
0
0
0
0
0
0
0
0
0
0
0
0
0
0
0
0
0
0
0
0
0
0
0
0
0
0
0
0
0
0
0
0
0
0
0
0
0
0
0
0
0
0
0
0
0
0
0
0
0
0
0
0
0
0
0
0
0
0
0
0
0
0
0
0
0
0
0
0
0
0
0
0
0
0
0
0
0
0
0
0
0
0
0
0
0
0
0
0
0
0
0
0
0
0
0
0
0
0
0
0
0
0
0
0
0
0
0
0
0
0
0
0
0
0
0
0
0
0
0
0
0
0
0
0
0
0
0
0
0
0
0
0
0
0
0
0
0
0
0
0
0
0
0
0
0
0
0
0
0
0
0
0
0
0
0
0
0
0
0
0
0
0
0
0
0
0
0
0
0
0
0
0
0
0
0
0
0
0
0
0
0
0
0
0
0
0
0
0
0
0
0
0
0
0
0
0
0
0
0
0
0
0
0
0
0
0
0
0
0
0
0
0
0
0
0
0
0
0
0
0
0
0
0
0
0
0
0
0
0
0
0
0
0
0
0
0
0
0
0
0
0
0
0
0
0
0
0
0
0
0
0
0
0
0
0
0
0
0
0
0
0
0
0
0
0
0
0
0
0
0
0
0
0
0
0
0
0
0
0
0
0
0
0
0
0
0
0
0
0
0
0
0
0
0
0
0
0
0
0
0
0
0
0
0
0
0
0
0
0
0
0
0
0
0
0
0
0
0
0
0
0
0
0
0
0
0
0
0
0
0
0
0
0
0
0
0
0
0
0
0
0
0
0
0
0
0
0
0
0
0
0
0
0
0
0
0
0
0
0
0
0
0
0
0
0
0
0
0
0
0
0
0
0
0
0
0
0
0
0
0
0
0
0
0
0
0
0
0
0
0
0
0
0
0
0
0
0
0
0
0
0
0
0
0
0
0
0
0
0
0
0
0
0
0
0
0
0
0
0
0
0
0
0
0
0
0
0
0
0
0
0
0
0
0
0
0
0
0
0
0
0
0
0
0
0
0
0
0
0
0
0
0
0
0
0
0
0
0
0
0
0
0
0
0
0
0
0
0
0
0
0
0
0
0
0
0
0
0
0
0
0
0
0
0
0
0
0
0
0
0
0
0
0
0
0
0
0
0
0
0
0
0
0
0
0
0
0
0
0
0
0
0
0
0
0
0
0
0
0
0
0
0
0
0
0
0
0
0
0
0
0
0
0
0
0
0
0
0
0
0
0
0
0
0
0
0
0
0
0
0
0
0
0
0
0
0
0
0
0
0
0
0
0
0
0
0
0
0
0
0
0
0
0
0
0
0
0
0
0
0
0
0
0
0
0
0
0
0
0
0
0
0
0
0
0
0
0
0
0
0
0
0
0
0
0
0
0
0
0
0
0
0
0
0
0
0
0
0
0
0
0
0
0
0
0
0
0
0
0
0
0
0
0
0
0
0
0
0
0
0
0
0
0
0
0
0
0
0
0
0
0
0
0
0
0
0
0
0
0
0
0
0
0
0
0
0
0
0
0
0
0
0
0
0
0
0
0
0
0
0
0
0
0
0
0
0
0
0
0
0
0
0
0
0
0
0
0
0
0
0
0
0
0
0
0
0
0
0
0
0
0
0
0
0
0
0
0
0
0
0
0
0
0
0
0
0
0
0
0
0
0
0
0
0
0
0
0
0
0
0
0
0
0
0
0
0
0
0
0
0
0
0
0
0
0
0
0
0
0
0
0
0
0
0
0
0
0
0
0
0
0
0
0
0
0
0
0
0
0
0
0
0
0
0
0
0
0
0
0
0
0
0
0
0
0
0
0
0
0
0
0
0
0
0
0
0
0
0
0
0
0
0
0
0
0
0
0
0
0
0
0
0
0
0
0
0
0
0
0
0
0
0
0
0
0
0
0
0
0
0
0
0
0
0
0
0
0
0
0
0
0
0
0
0
0
0
0
0
0
0
0
0
0
0
0
0
0
0
0
0
0
0
0
0
0
0
0
0
0
0
0
0
0
0
0
0
0
0
0
0
0
0
0
0
0
0
0
0
0
0
0
0
0
0
0
0
0
0
0
0
0
0
0
0
0
0
0
0
0
0
0
0
0
0
0
0
0
0
0
0
0
0
0
0
0
0
0
0
0
0
0
0
0
0
0
0
0
0
0
0
0
0
0
0
0
0
0
0
0
0
0
0
0
0
0
0
0
0
0
0
0
0
0
0
0
0
0
0
0
0
0
0
0
0
0
0
0
0
0
0
0
0
0
0
0
0
0
0
0
0
0
0
0
0
0
0
0
0
0
0
0
0
0
0
0
0
0
0
0
0
0
0
0
0
0
0
0
0
0
0
0
0
0
0
0
0
0
0
0
0
0
0
0
0
0
0
0
0
0
0
0
0
0
0
0
0
0
0
0
0
0
0
0
0
0
0
0
0
0
0
0
0
0
0
0
0
0
0
0
0
0
0
0
0
0
0
0
0
0
0
0
0
0
0
0
0
0
0
0
0
0
0
0
0
0
0
0
0
0
0
0
0
0
0
0
0
0
0
0
0
0
0
0
0
0
0
0
0
0
0
0
0
0
0
0
0
0
0
0
0
0
0
0
0
0
0
0
0
0
0
0
0
0
0
0
0
0
0
0
0
0
0
0
0
0
0
0
0
0
0
0
0
0
0
0
0
0
0
0
0
0
0
0
0
0
0
0
0
0
0
0
0
0
0
0
0
0
0
0
0
0
0
0
0
0
0
0
0
0
0
0
0
0
0
0
0
0
0
0
0
0
0
0
0
0
0
0
0
0
0
0
0
0
0
0
0
0
0
0
0
0
0
0
0
0
0
0
0
0
0
0
0
0
0
0
0
0
0
0
0
0
0
0
0
0
0
0
0
0
0
0
0
0
0
0
0
0
0
0
0
0
0
0
0
0
0
0
0
0
0
0
0
0
0
0
0
0
0
0
0
0
0
0
0
0
0
0
0
0
0
0
0
0
0
0
0
0
0
0
0
0
0
0
0
0
0
0
0
0
0
0
0
0
0
0
0
0
0
0
0
0
0
0
0
0
0
0
0
0
0
0
0
0
0
0
0
0
0
0
0
0
0
0
0
0
0
0
0
0
0
0
0
0
0
0
0
0
0
0
0
0
0
0
0
0
0
0
0
0
0
0
0
0
0
0
0
0
0
0
0
0
0
0
0
0
0
0
0
0
0
0
0
0
0
0
0
0
0
0
0
0
0
0
0
0
0
0
0
0
0
0
0
0
0
0
0
0
0
0
0
0
0
0
0
0
0
0
0
0
0
0
0
0
0
0
0
0
0
0
0
0
0
0
0
0
0
0
0
0
0
0
0
0
0
0
0
0
0
0
0
0
0
0
0
0
0
0
0
0
0
0
0
0
0
0
0
0
0
0
0
0
0
0
0
0
0
0
0
0
0
0
0
0
0
0
0
0
0
0
0
0
0
0
0
0
0
0
0
0
0
0
0
0
0
0
0
0
0
0
0
0
0
0
0
0
0
0
0
0
0
0
0
0
0
0
0
0
0
0
0
0
0
0
0
0
0
0
0
0
0
0
0
0
0
0
0
0
0
0
0
0
0
0
0
0
0
0
0
0
0
0
0
0
0
0
0
0
0
0
0
0
0
0
0
0
0
0
0
0
0
0
0
0
0
0
0
0
0
0
0
0
0
0
0
0
0
0
0
0
0
0
0
0
0
0
0
0
0
0
0
0
0
0
0
0
0
0
0
0
0
0
0
0
0
0
0
0
0
0
0
0
0
0
0
0
0
0
0
0
0
0
0
0
0
0
0
0
0
0
0
0
0
0
0
0
0
0
0
0
0
0
0
0
0
0
0
0
0
0
0
0
0
0
0
0
0
0
0
0
0
0
0
0
0
0
0
0
0
0
0
0
0
0
0
0
0
0
0
0
0
0
0
0
0
0
0
0
0
0
0
0
0
0
0
0
0
0
0
0
0
0
0
0
0
0
0
0
0
0
0
0
0
0
0
0
0
0
0
0
0
0
0
0
0
0
0
0
0
0
0
0
0
0
0
0
0
0
0
0
0
0
0
0
0
0
0
0
0
0
0
0
0
0
0
0
0
0
0
0
0
0
0
0
0
0
0
0
0
0
0
0
0
0
0
0
0
0
0
0
0
0
0
0
0
0
0
0
0
0
0
0
0
0
0
0
0
0
0
0
0
0
0
0
0
0
0
0
0
0
0
0
0
0
0
0
0
0
0
0
0
0
0
0
0
0
0
0
0
0
0
0
0
0
0
0
0
0
0
0
0
0
0
0
0
0
0
0
0
0
0
0
0
0
0
0
0
0
0
0
0
0
0
0
0
0
0
0
0
0
0
0
0
0
0
0
0
0
0
0
0
0
0
0
0
0
0
0
0
0
0
0
0
0
0
0
0
0
0
0
0
0
0
0
0
0
0
0
0
0
0
0
0
0
0
0
0
0
0
0
0
0
0
0
0
0
0
0
0
0
0
0
0
0
0
0
0
0
0
0
0
0
0
0
0
0
0
0
0
0
0
0
0
0
0
0
0
0
0
0
0
0
0
0
0
0
0
0
0
0
0
0
0
0
0
0
0
0
0
0
0
0
0
0
0
0
0
0
0
0
0
0
0
0
0
0
0
0
0
0
0
0
0
0
0
0
0
0
0
0
0
0
0
0
0
0
0
0
0
0
0
0
0
0
0
0
0
0
0
0
0
0
0
0
0
0
0
0
0
0
0
0
0
0
0
0
0
0
0
0
0
0
0
0
0
0
0
0
0
0
0
0
0
0
0
0
0
0
0
0
0
0
0
0
0
0
0
0
0
0
0
0
0
0
0
0
0
0
0
0
0
0
0
0
0
0
0
0
0
0
0
0
0
0
0
0
0
0
0
0
0
0
0
0
0
0
0
0
0
0
0
0
0
0
0
0
0
0
0
0
0
0
0
0
0
0
0
0
0
0
0
0
0
0
0
0
0
0
0
0
0
0
0
0
0
0
0
0
0
0
0
0
0
0
0
0
0
0
0
0
0
0
0
0
0
0
0
0
0
0
0
0
0
0
0
0
0
0
0
0
0
0
0
0
0
0
0
0
0
0
0
0
0
0
0
0
0
0
0
0
0
0
0
0
0
0
0
0
0
0
0
0
0
0
0
0
0
0
0
0
0
0
0
0
0
0
0
0
0
0
0
0
0
0
0
0
0
0
0
0
0
0
0
0
0
0
0
0
0
0
0
0
0
0
0
0
0
0
0
0
0
0
0
0
0
0
0
0
0
0
0
0
0
0
0
0
0
0
0
0
0
0
0
0
0
0
0
0
0
0
0
0
0
0
0
0
0
0
0
0
0
0
0
0
0
0
0
0
0
0
0
0
0
0
0
0
0
0
0
0
0
0
0
0
0
0
0
0
0
0
0
0
0
0
0
0
0
0
0
0
0
0
0
0
0
0
0
0
0
0
0
0
0
0
0
0
0
0
0
0
0
0
0
0
0
0
0
0
0
0
0
0
0
0
0
0
0
0
0
0
0
0
0
0
0
0
0
0
0
0
0
0
0
0
0
0
0
0
0
0
0
0
0
0
0
0
0
0
0
0
0
0
0
0
0
0
0
0
0
0
0
0
0
0
0
0
0
0
0
0
0
0
0
0
0
0
0
0
0
0
0
0
0
0
0
0
0
0
0
0
0
0
0
0
0
0
0
0
0
0
0
0
0
0
0
0
0
0
0
0
0
0
0
0
0
0
0
0
0
0
0
0
0
0
0
0
0
0
0
0
0
0
0
0
0
0
0
0
0
0
0
0
0
0
0
0
0
0
0
0
0
0
0
0
0
0
0
0
0
0
0
0
0
0
0
0
0
0
0
0
0
0
0
0
0
0
0
0
0
0
0
0
0
0
0
0
0
0
0
0
0
0
0
0
0
0
0
0
0
0
0
0
0
0
0
0
0
0
0
0
0
0
0
0
0
0
0
0
0
0
0
0
0
0
0
0
0
0
0
0
0
0
0
0
0
0
0
0
0
0
0
0
0
0
0
0
0
0
0
0
0
0
0
0
0
0
0
0
0
0
0
0
0
0
0
0
0
0
0
0
0
0
0
0
0
0
0
0
0
0
0
0
0
0
0
0
0
0
0
0
0
0
0
0
0
0
0
0
0
0
0
0
0
0
0
0
0
0
0
0
0
0
0
0
0
0
0
0
0
0
0
0
0
0
0
0
0
0
0
0
0
0
0
0
0
0
0
0
0
0
0
0
0
0
0
0
0
0
0
0
0
0
0
0
0
0
0
0
0
0
0
0
0
0
0
0
0
0
0
0
0
0
0
0
0
0
0
0
0
0
0
0
0
0
0
0
0
0
0
0
0
0
0
0
0
0
0
0
0
0
0
0
0
0
0
0
0
0
0
0
0
0
0
0
0
0
0
0
0
0
0
0
0
0
0
0
0
0
0
0
0
0
0
0
0
0
0
0
0
0
0
0
0
0
0
0
0
0
0
0
0
0
0
0
0
0
0
0
0
0
0
0
0
0
0
0
0
0
0
0
0
0
0
0
0
0
0
0
0
0
0
0
0
0
0
0
0
0
0
0
0
0
0
0
0
0
0
0
0
0
0
0
0
0
0
0
0
0
0
0
0
0
0
0
0
0
0
0
0
0
0
0
0
0
0
0
0
0
0
0
0
0
0
0
0
0
0
0
0
0
0
0
0
0
0
0
0
0
0
0
0
0
0
0
0
0
0
0
0
0
0
0
0
0
0
0
0
0
0
0
0
0
0
0
0
0
0
0
0
0
0
0
0
0
0
0
0
0
0
0
0
0
0
0
0
0
0
0
0
0
0
0
0
0
0
0
0
0
0
0
0
0
0
0
0
0
0
0
0
0
0
0
0
0
0
0
0
0
0
0
0
0
0
0
0
0
0
0
0
0
0
0
0
0
0
0
0
0
0
0
0
0
0
0
0
0
0
0
0
0
0
0
0
0
0
0
0
0
0
0
0
0
0
0
0
0
0
0
0
0
0
0
0
0
0
0
0
0
0
0
0
0
0
0
0
0
0
0
0
0
0
0
0
0
0
0
0
0
0
0
0
0
0
0
0
0
0
0
0
0
0
0
0
0
0
0
0
0
0
0
0
0
0
0
0
0
0
0
0
0
0
0
0
0
0
0
0
0
0
0
0
0
0
0
0
0
0
0
0
0
0
0
0
0
0
0
0
0
0
0
0
0
0
0
0
0
0
0
0
0
0
0
0
0
0
0
0
0
0
0
0
0
0
0
0
0
0
0
0
0
0
0
0
0
0
0
0
0
0
0
0
0
0
0
0
0
0
0
0
0
0
0
0
0
0
0
0
0
0
0
0
0
0
0
0
0
0
0
0
0
0
0
0
0
0
0
0
0
0
0
0
0
0
0
0
0
0
0
0
0
0
0
0
0
0
0
0
0
0
0
0
0
0
0
0
0
0
0
0
0
0
0
0
0
0
0
0
0
0
0
0
0
0
0
0
0
0
0
0
0
0
0
0
0
0
0
0
0
0
0
0
0
0
0
0
0
0
0
0
0
0
0
0
0
0
0
0
0
0
0
0
0
0
0
0
0
0
0
0
0
0
0
0
0
0
0
0
0
0
0
0
0
0
0
0
0
0
0
0
0
0
0
0
0
0
0
0
0
0
0
0
0
0
0
0
0
0
0
0
0
0
0
0
0
0
0
0
0
0
0
0
0
0
0
0
0
0
0
0
0
0
0
0
0
0
0
0
0
0
0
0
0
0
0
0
0
0
0
0
0
0
0
0
0
0
0
0
0
0
0
0
0
0
0
0
0
0
0
0
0
0
0
0
0
0
0
0
0
0
0
0
0
0
0
0
0
0
0
0
0
0
0
0
0
0
0
0
0
0
0
0
0
0
0
0
0
0
0
0
0
0
0
0
0
0
0
0
0
0
0
0
0
0
0
0
0
0
0
0
0
0
0
0
0
0
0
0
0
0
0
0
0
0
0
0
0
0
0
0
0
0
0
0
0
0
0
0
0
0
0
0
0
0
0
0
0
0
0
0
0
0
0
0
0
0
0
0
0
0
0
0
0
0
0
0
0
0
0
0
0
0
0
0
0
0
0
0
0
0
0
0
0
0
0
0
0
0
0
0
0
0
0
0
0
0
0
0
0
0
0
0
0
0
0
0
0
0
0
0
0
0
0
0
0
0
0
0
0
0
0
0
0
0
0
0
0
0
0
0
0
0
0
0
0
0
0
0
0
0
0
0
0
0
0
0
0
0
0
0
0
0
0
0
0
0
0
0
0
0
0
0
0
0
0
0
0
0
0
0
0
0
0
0
0
0
0
0
0
0
0
0
0
0
0
0
0
0
0
0
0
0
0
0
0
0
0
0
0
0
0
0
0
0
0
0
0
0
0
0
0
0
0
0
0
0
0
0
0
0
0
0
0
0
0
0
0
0
0
0
0
0
0
0
0
0
0
0
0
0
0
0
0
0
0
0
0
0
0
0
0
0
0
0
0
0
0
0
0
0
0
0
0
0
0
0
0
0
0
0
0
0
0
0
0
0
0
0
0
0
0
0
0
0
0
0
0
0
0
0
0
0
0
0
0
0
0
0
0
0
0
0
0
0
0
0
0
0
0
0
0
0
0
0
0
0
0
0
0
0
0
0
0
0
0
0
0
0
0
0
0
0
0
0
0
0
0
0
0
0
0
0
0
0
0
0
0
0
0
0
0
0
0
0
0
0
0
0
0
0
0
0
0
0
0
0
0
0
0
0
0
0
0
0
0
0
0
0
0
0
0
0
0
0
0
0
0
0
0
0
0
0
0
0
0
0
0
0
0
0
0
0
0
0
0
0
0
0
0
0
0
0
0
0
0
0
0
0
0
0
0
0
0
0
0
0
0
0
0
0
0
0
0
0
0
0
0
0
0
0
0
0
0
0
0
0
0
0
0
0
0
0
0
0
0
0
0
0
0
0
0
0
0
0
0
0
0
0
0
0
0
0
0
0
0
0
0
0
0
0
0
0
0
0
0
0
0
0
0
0
0
0
0
0
0
0
0
0
0
0
0
0
0
0
0
0
0
0
0
0
0
0
0
0
0
0
0
0
0
0
0
0
0
0
0
0
0
0
0
0
0
0
0
0
0
0
0
0
0
0
0
0
0
0
0
0
0
0
0
0
0
0
0
0
0
0
0
0
0
0
0
0
0
0
0
0
0
0
0
0
0
0
0
0
0
0
0
0
0
0
0
0
0
0
0
0
0
0
0
0
0
0
0
0
0
0
0
0
0
0
0
0
0
0
0
0
0
0
0
0
0
0
0
0
0
0
0
0
0
0
0
0
0
0
0
0
0
0
0
0
0
0
0
0
0
0
0
0
0
0
0
0
0
0
0
0
0
0
0
0
0
0
0
0
0
0
0
0
0
0
0
0
0
0
0
0
0
0
0
0
0
0
0
0
0
0
0
0
0
0
0
0
0
0
0
0
0
0
0
0
0
0
0
0
0
0
0
0
0
0
0
0
0
0
0
0
0
0
0
0
0
0
0
0
0
0
0
0
0
0
0
0
0
0
0
0
0
0
0
0
0
0
0
0
0
0
0
0
0
0
0
0
0
0
0
0
0
0
0
0
0
0
0
0
0
0
0
0
0
0
0
0
0
0
0
0
0
0
0
0
0
0
0
0
0
0
0
0
0
0
0
0
0
0
0
0
0
0
0
0
0
0
0
0
0
0
0
0
0
0
0
0
0
0
0
0
0
0
0
0
0
0
0
0
0
0
0
0
0
0
0
0
0
0
0
0
0
0
0
0
0
0
0
0
0
0
0
0
0
0
0
0
0
0
0
0
0
0
0
0
0
0
0
0
0
0
0
0
0
0
0
0
0
0
0
0
0
0
0
0
0
0
0
0
0
0
0
0
0
0
0
0
0
0
0
0
0
0
0
0
0
0
0
0
0
0
0
0
0
0
0
0
0
0
0
0
0
0
0
0
0
0
0
0
0
0
0
0
0
0
0
0
0
0
0
0
0
0
0
0
0
0
0
0
0
0
0
0
0
0
0
0
0
0
0
0
0
0
0
0
0
0
0
0
0
0
0
0
0
0
0
0
0
0
0
0
0
0
0
0
0
0
0
0
0
0
0
0
0
0
0
0
0
0
0
0
0
0
0
0
0
0
0
0
0
0
0
0
0
0
0
0
0
0
0
0
0
0
0
0
0
0
0
0
0
0
0
0
0
0
0
0
0
0
0
0
0
0
0
0
0
0
0
0
0
0
0
0
0
0
0
0
0
0
0
0
0
0
0
0
0
0
0
0
0
0
0
0
0
0
0
0
0
0
0
0
0
0
0
0
0
0
0
0
0
0
0
0
0
0
0
0
0
0
0
0
0
0
0
0
0
0
0
0
0
0
0
0
0
0
0
0
0
0
0
0
0
0
0
0
0
0
0
0
0
0
0
0
0
0
0
0
0
0
0
0
0
0
0
0
0
0
0
0
0
0
0
0
0
0
0
0
0
0
0
0
0
0
0
0
0
0
0
0
0
0
0
0
0
0
0
0
0
0
0
0
0
0
0
0
0
0
0
0
0
0
0
0
0
0
0
0
0
0
0
0
0
0
0
0
0
0
0
0
0
0
0
0
0
0
0
0
0
0
0
0
0
0
0
0
0
0
0
0
0
0
0
0
0
0
0
0
0
0
0
0
0
0
0
0
0
0
0
0
0
0
0
0
0
0
0
0
0
0
0
0
0
0
0
0
0
0
0
0
0
0
0
0
0
0
0
0
0
0
0
0
0
0
0
0
0
0
0
0
0
0
0
0
0
0
0
0
0
0
0
0
0
0
0
0
0
0
0
0
0
0
0
0
0
0
0
0
0
0
0
0
0
0
0
0
0
0
0
0
0
0
0
0
0
0
0
0
0
0
0
0
0
0
0
0
0
0
0
0
0
0
0
0
0
0
0
0
0
0
0
0
0
0
0
0
0
0
0
0
0
0
0
0
0
0
0
0
0
0
0
0
0
0
0
0
0
0
0
0
0
0
0
0
0
0
0
0
0
0
0
0
0
0
0
0
0
0
0
0
0
0
0
0
0
0
0
0
0
0
0
0
0
0
0
0
0
0
0
0
0
0
0
0
0
0
0
0
0
0
0
0
0
0
0
0
0
0
0
0
0
0
0
0
0
0
0
0
0
0
0
0
0
0
0
0
0
0
0
0
0
0
0
0
0
0
0
0
0
0
0
0
0
0
0
0
0
0
0
0
0
0
0
0
0
0
0
0
0
0
0
0
0
0
0
0
0
0
0
0
0
0
0
0
0
0
0
0
0
0
0
0
0
0
0
0
0
0
0
0
0
0
0
0
0
0
0
0
0
0
0
0
0
0
0
0
0
0
0
0
0
0
0
0
0
0
0
0
0
0
0
0
0
0
0
0
0
0
0
0
0
0
0
0
0
0
0
0
0
0
0
0
0
0
0
0
0
0
0
0
0
0
0
0
0
0
0
0
0
0
0
0
0
0
0
0
0
0
0
0
0
0
0
0
0
0
0
0
0
0
0
0
0
0
0
0
0
0
0
0
0
0
0
0
0
0
0
0
0
0
0
0
0
0
0
0
0
0
0
0
0
0
0
0
0
0
0
0
0
0
0
0
0
0
0
0
0
0
0
0
0
0
0
0
0
0
0
0
0
0
0
0
0
0
0
0
0
0
0
0
0
0
0
0
0
0
0
0
0
0
0
0
0
0
0
0
0
0
0
0
0
0
0
0
0
0
0
0
0
0
0
0
0
0
0
0
0
0
0
0
0
0
0
0
0
0
0
0
0
0
0
0
0
0
0
0
0
0
0
0
0
0
0
0
0
0
0
0
0
0
0
0
0
0
0
0
0
0
0
0
0
0
0
0
0
0
0
0
0
0
0
VECTORS displacement float
0 0 0
0 3 0
2 3 0
2 0 0
0.499983 0.750004 0
0.5 0 0
0 0.75 0
0.5 3 0
2 0.75 0
0.125 1.68751 0
1.12502 0.187514 0
1.12501 1.68745 0
0.124966 0.749976 0
0 1.6875 0
0.125 3 0
0.281237 2.29687 0
0.0312744 2.2969 0
0.125013 2.29688 0
0.28125 3 0
0.632811 1.98049 0
0.031259 1.68749 0
0.070343 1.17185 0
0.0312709 0.797633 0
0 0.1875 0
0 1.17187 0
0 0.421875 0
0.0175775 1.29197 0
0.070307 0.292979 0
0.0138838 0.29295 0
0.0366914 0.498525 0
0 2.29687 0
0.03125 3 0
0.469247 2.37971 0
1.125 3 0
0.742685 1.23125 0
0.355945 1.48315 0
0.206621 1.13038 0
0.217951 1.492 0
0.373408 1.04594 0
0.519721 1.28436 0
0.281263 0.682325 0
0.46378 0.187494 0
0.171433 0.436851 0
0.41956 0.427357 0
0.125 0 0
0.806979 0.445151 0
0.278653 0.262699 0
0.266471 0.0473893 0
0.60268 0.323392 0
1.125 0 0
0.758327 0.123254 0
0.872154 0.252696 0
1.0328 0.0468931 0
0.52743 0.0482386 0
2 0.1875 0
1.53125 0 0
0.78125 0 0
1.51229 0.0707246 0
0.749148 0.0305551 0
0.28125 0 0
0.0863665 0.0712011 0
0.0211192 0.119612 0
0 0.046875 0
0.03125 0 0
0.0192709 0.0288521 0
1.53125 0.239595 0
1.2162 0.460135 0
2 0.421875 0
0.984513 0.814182 0
1.59844 0.57416 0
2 1.6875 0
1.48724 1.12486 0
1.65783 0.845105 0
2 1.17188 0
2 0.046875 0
0.151161 0.177471 0
0.15399 0.0244886 0
0.728371 0.705227 0
1.05508 1.21103 0
0.78125 3 0
0.9453 2.29691 0
0.82751 1.65256 0
1.53127 1.63099 0
1.39443 2.3199 0
1.53125 3 0
2 2.29688 0
1.67858 2.04475 0
1.68763 2.53147 0
0.285442 1.8413 0
0.622466 0.19125 0
0.00931115 0.998001 0
0.0366429 1.01707 0
0.656876 0.0705438 0
2 0.949219 0
0.645852 1.51549 0
0.133497 1.33042 0
0 0.292969 0
0.00782959 1.5498 0
0.0098186 0.436853 0
0.00824117 0.189172 0
0.516743 0.9986 0
0.467967 0.30009 0
0.195313 0 0
0.58529 0.526334 0
0.796027 0.946907 0
0.176858 0.0837846 0
0.274676 0.133218 0
0.385503 0.0802514 0
1.0055 0.375844 0
0.982173 0.573508 0
0.945312 0 0
0.632813 0 0
0.863091 0.067717 0
0 0.0117188 0
0.0366652 0.208141 0
0.00713419 0.068186 0
0.0665135 0.0140901 0
0.0405224 0.064742 0
1.29962 0.824395 0
1.7409 1.07645 0
2 1.41797 0
2 2.63672 0
1.75054 1.74565 0
2 1.98047 0
1.75781 3 0
0.19531 2.05312 0
0.382069 2.07207 0
0.484981 1.72133 0
0.60701 0.0140216 0
0.0078125 0 0
1.13215 0.97421 0
1.18033 0.642663 0
0.0907618 0.452378 0
0.355963 2.63671 0
0.0664867 0.653338 0
0.632814 2.62418 0
0.808076 2.57909 0
0.268293 0.91555 0
0.29703 1.24041 0
0.372839 0.809645 0
0.28178 0.42985 0
0.182919 0.288283 0
1.68319 0.380248 0
2 0.292969 0
1.41963 0.36818 0
1.20587 0.304116 0
0.896731 1.37488 0
2 0.574219 0
1.29181 1.3837 0
0.959694 1.91751 0
1.16217 2.12804 0
1.13149 2.54359 0
1.37503 1.92518 0
1.32031 3 0
0.911585 0.014469 0
0.0812628 0.156731 0
1.70403 1.37159 0
0.195319 2.63675 0
0.00781332 1.98045 0
1.69831 0.0184866 0
0.12608 1.0045 0
0.0703047 2.63673 0
0.00783443 2.63675 0
0.0703438 1.9805 0
0.0703073 1.48315 0
0.187267 0.616414 0
1.29681 0.0193704 0
1.32031 0 0
0.386583 0.0149369 0
1.35979 0.145309 0
1.17073 0.0969571 0
1.70884 0.13983 0
0.00934381 0.636306 0
0.0169595 0.533114 0
1.36387 0.271125 0
1.84577 0.846709 0
1.78731 0.667131 0
0.0733124 0.872859 0
0.00440577 1.75856 0
0.00343439 0.34742 0
0.121757 0.578554 0
0 1.41797 0
0.0491105 0.118594 0
0.702692 2.29103 0
0.268649 1.0789 0
0.7667 1.44707 0
0.282291 1.4285 0
0.432597 0.923529 0
0.389348 0.601511 0
0.158222 0.00478632 0
0.237813 0.342598 0
0.360512 0.321523 0
0.362058 0.216075 0
0.386591 0.141183 0
0.982035 0.12322 0
1.2207 0.00424112 0
0.785679 0.00796145 0
0.0039049 0.0263429 0
0.0111625 0.00782712 0
0 0.105469 0
0.0425331 0.0295726 0
1.77247 0.237289 0
0.889443 1.13025 0
1.10986 0.535526 0
1.80247 0.495101 0
1.59073 0.991072 0
1.31307 1.02162 0
1.33644 1.19853 0
1.05562 1.44942 0
0.971732 1.64356 0
1.82487 1.23299 0
1.85999 2.46387 0
0.538135 0.238512 0
0.0380465 1.19964 0
0.539086 0.112867 0
0.00347966 0.255403 0
1.1349 0.380516 0
1.13742 0.792341 0
0.0366704 0.298761 0
1.37206 0.570534 0
1.82647 1.93641 0
1.64258 2.78997 0
1.43034 2.66647 0
0.124055 0.345238 0
0.632813 3 0
0.945312 3 0
0.211674 0.778575 0
0.224741 0.506322 0
0.216847 0.20262 0
1.8574 0.354499 0
1.04685 0.269258 0
0.964472 2.61567 0
0.0648937 0.215658 0
1.63108 1.20735 0
1.19708 0.0471935 0
1.33049 0.0766715 0
0.49077 0.0164161 0
1.42381 0.00563517 0
1.47611 0.0287041 0
0 0.574219 0
0.0844581 1.01948 0
0.00349896 1.29197 0
0.573989 2.23864 0
0.508324 1.99123 0
0.819352 2.32172 0
0.475721 0.533488 0
0.347858 0.491631 0
1.0741 0.0143008 0
0.00496153 0.12179 0
0.0319134 0.00798208 0
0.980291 0.986005 0
1.18955 1.13573 0
0.470658 0.079655 0
0.6428 0.12542 0
0.0268868 0.392314 0
1.4791 0.722939 0
1.48602 0.474254 0
1.28729 2.5254 0
0.111666 0.242474 0
0.725264 2.76186 0
0.205962 0.133435 0
0.974178 0.194229 0
0.00389779 0.530566 0
1.45812 0.878725 0
1.2207 2.77625 0
0.121473 0.11388 0
0.720178 0.262698 0
0.714135 0.364274 0
0.784752 0.191147 0
0.303368 2.06481 0
0.204639 2.33577 0
1.21121 1.88739 0
1.31998 1.64701 0
0.0353131 1.45038 0
0.37142 2.34699 0
0.457119 2.6923 0
0.269666 2.68087 0
0.629945 1.30484 0
0.150194 1.15578 0
0 0.949219 0
0.00635685 0.806944 0
0.37938 1.78931 0
0.453107 1.13932 0
0.382722 1.27744 0
0.189159 1.31178 0
0.529075 1.50432 0
0.84298 0.786133 0
0.199531 0.0441779 0
0.239402 0.0111849 0
0.305854 0.0206086 0
0.871211 0.348751 0
1.53126 0.160076 0
1.54708 1.86726 0
1.75606 0.0670462 0
2 0.105469 0
0.621893 0.851324 0
0.645522 1.05861 0
0.697148 1.7467 0
0.587203 1.69997 0
0.786433 1.99923 0
0.0900534 1.32293 0
0.1574 1.5148 0
0.194049 1.75489 0
0.13113 0.0561886 0
0.305331 0.0834012 0
0.930734 0.46414 0
0.827135 0.587684 0
0.706918 0.52929 0
1.83 1.53603 0
0.126724 1.98044 0
0.0646888 0.530496 0
0.382812 3 0
1.55549 0.321896 0
1.02623 2.112 0
1.3065 2.12694 0
0.0763044 1.72283 0
0.0330232 0.639191 0
1.27235 0.204029 0
0.160626 0.871173 0
0.285409 0.555255 0
0.056616 0.391367 0
0.206593 0.963554 0
0.0312493 1.98048 0
0.124995 2.63672 0
0.0703125 3 0
0.00778448 2.29686 0
0.0703118 2.29688 0
0.0312574 2.63671 0
0.602825 0.673596 0
1.75781 0 0
1.58087 2.28554 0
0.526632 0.412442 0
0.0703125 0 0
0.195313 3 0
0 1.98047 0
2 0.0117187 0
1.82579 0.0059365 0
0.0078125 3 0
0 2.63672 0
0.382812 0 0
1.49064 1.38249 0
0.300257 1.62728 0
0.00356975 1.12454 0
0.00207279 1.00156 0
0.0140712 1.1368 0
0.020502 1.03013 0
0.0180303 0.88993 0
0.330226 2.21875 0
1.86756 0.743995 0
0.0854455 0.36383 0
0.245791 2.12797 0
0.236442 1.93633 0
0.568686 1.38485 0
0.0564042 1.32292 0
0.00251091 0.422064 0
0 1.83105 0
0.106317 1.1479 0
0.705078 3 0
0.881384 1.00031 0
0.3146 0.994964 0
0.324448 1.12153 0
0.362822 0.924137 0
0.448664 1.27674 0
0.438711 0.80615 0
0.502711 0.870822 0
0.435082 0.687196 0
0.228166 0.274528 0
1.04065 0.459062 0
0.23677 0.0869639 0
0.217712 0.417488 0
0.185217 0.360581 0
0.425862 0.0412556 0
0.866611 0.144718 0
0.701275 0.205005 0
1.64783 0.197835 0
0.8759 0.00294048 0
0.293901 0.00514894 0
0.330078 0 0
0 0.143555 0
0.0175781 0 0
0.0632088 0.0473675 0
0.0518121 0.167144 0
0.0313764 0.156495 0
1.7392 0.306505 0
1.86362 0.282706 0
1.65055 0.259041 0
1.05993 1.07315 0
1.55203 0.399943 0
1.86799 0.427012 0
1.59358 1.32685 0
1.43576 1.75917 0
2 1.29199 0
0.187362 0.170876 0
0.202393 0.0039998 0
0.236328 0 0
0.109476 0.0114666 0
1.20089 2.34326 0
1.06847 2.33515 0
0.767813 2.17207 0
0.873981 2.12582 0
1.08272 1.92293 0
1.02247 1.78468 0
1.62237 1.73777 0
1.55973 2.61463 0
2 1.83105 0
0.161103 1.66357 0
0.15355 1.83922 0
0.6008 0.0931799 0
0.0507825 1.10232 0
1.8477 0.978087 0
1.87629 1.10402 0
0.109648 1.49461 0
0.0114456 0.097457 0
0 0.237305 0
0.580637 1.16831 0
0.618201 0.253547 0
0.113732 0.0804164 0
0.458844 0.124702 0
0.339914 0.0467824 0
0.024568 0.251434 0
0.0905784 0.203199 0
0.0488281 0 0
1.85557 1.37981 0
1.82024 2.73039 0
2 1.5498 0
2 2.13574 0
0.630785 1.82231 0
0.697504 0.0137361 0
0.650213 0.00398126 0
0.5569 0.003184 0
1.05029 0.900297 0
0.00278759 0.00958212 0
0.242592 1.30625 0
0.340837 0.400392 0
0.296654 0.338651 0
1.34754 0.469371 0
0.704806 1.35198 0
1.22676 1.72878 0
1.3892 1.31586 0
1.49144 2.08288 0
0.0143756 1.69756 0
0.0227478 1.83107 0
0.0204649 1.54325 0
1.87695 0 0
1.18394 0.0157233 0
1.32266 0.00315642 0
1.46801 0.112158 0
1.61023 0.102041 0
0 0.495117 0
1.41042 0.201888 0
1.31163 0.333962 0
0 0.354492 0
0.0116022 0.361131 0
0.092467 0.538219 0
0.00916677 1.39657 0
0.198429 0.020778 0
0.346981 0.108895 0
0.825774 0.0207862 0
1.54513 0.807267 0
1.63021 0.697067 0
0.535704 0.299123 0
0.0317366 1.31906 0
0.00203158 0.202434 0
1.48352 0.557216 0
0.166036 0.753161 0
0.179209 0.522769 0
0.238155 0.612099 0
1.04267 0.158393 0
0.948969 0.299163 0
0.0581798 0.975376 0
0.0479468 0.865247 0
0.0614838 0.763527 0
0.0907523 0.774966 0
0.106931 0.887553 0
0 1.29199 0
1.1115 0.00380714 0
0.011834 0.145811 0
0.00198278 0.0882411 0
1.1671 1.30358 0
1.40038 0.791371 0
0.649754 2.80896 0
0.55017 2.77116 0
0.160966 0.123259 0
1.35401 0.916956 0
1.33516 2.79025 0
0.793254 0.374006 0
0.343004 1.93088 0
0.665066 1.1833 0
0.393991 1.15592 0
0.257085 0.0256308 0
0.799689 0.298433 0
0.540117 1.83323 0
0.857537 0.508594 0
1.66921 1.54733 0
1.86682 1.67898 0
1.17863 0.239409 0
0.166339 1.02856 0
0.328031 0.621813 0
0.333513 0.724854 0
0.285709 0.797254 0
0.227498 0.871697 0
0.00197686 1.90502 0
2 0.00292969 0
0.245674 1.70255 0
0.326501 1.75285 0
0.435471 0.0223716 0
0.894959 0.102366 0
0.987357 0.0789212 0
1.06656 0.101333 0
0.877707 0.194817 0
0.701417 0.155019 0
0.0203032 0.00303582 0
0.124286 0.00321022 0
0.0834439 0.00380052 0
0.0904699 0.0297672 0
0.53796 0.0767526 0
1.71486 0.951824 0
0.0877265 1.58944 0
0.517449 1.11693 0
1.87695 3 0
2 2.81543 0
1.8242 2.16061 0
0.705078 0 0
1.2388 0.385791 0
0.00193206 0.155408 0
0.147164 0.65567 0
0.0318747 0.912533 0
0.0424473 0.719791 0
0.0983466 0.661924 0
0.544262 2.51752 0
0.101953 0.0493334 0
1.7417 2.33237 0
0.114315 0.161076 0
0.0488331 1.58368 0
0.412975 2.51603 0
0.225709 2.81544 0
0.00265772 0.703363 0
0.00187932 0.610929 0
0.0335142 0.0955499 0
0.432913 1.92441 0
0.645013 2.15718 0
0.850351 1.50302 0
0.15919 2.45917 0
0.129006 0.474591 0
0.466427 0.371525 0
0.675522 0.620815 0
0.0872982 0.110202 0
0.527159 0.486592 0
0.441332 0.00370873 0
0.00238893 0.04847 0
0.911695 0.676 0
1.20268 0.883172 0
0.646457 0.440248 0
0.993078 1.32783 0
0.317575 2.4637 0
0.0160893 0.735902 0
0.437102 1.5418 0
0.472335 1.41216 0
0.381609 1.62557 0
0.695438 0.936711 0
0.704682 0.815091 0
0.404478 0.266846 0
0.174329 0.225054 0
0.33218 0.265738 0
0.325235 0.165093 0
0.269558 0.187129 0
1.04792 0.685705 0
0.00963566 0.0413734 0
0.0203596 0.0627031 0
1.38992 1.49715 0
0.495389 2.18567 0
0.570218 2.06796 0
0.246915 2.47318 0
0.439453 3 0
0.626073 2.40658 0
1.06753 2.76393 0
0.97317 2.80858 0
0.70979 1.91354 0
0.78925 1.81471 0
0.864153 1.90994 0
0.707616 2.0699 0
0.331619 1.35036 0
0.518782 0.630455 0
0.141263 0.281671 0
0.957974 1.49006 0
1.85682 0.580542 0
0.891456 2.4686 0
0.991599 0.0251478 0
0.0600705 0.0829318 0
1.42383 0 0
0.0494626 1.82654 0
1.40068 0.0167875 0
0.551953 0.0260529 0
0.641277 0.0361501 0
1.32351 0.0429827 0
1.43157 0.0500339 0
0.810623 1.3207 0
0.723929 1.58759 0
0.404351 0.183553 0
0 0.0263672 0
1.18468 1.50852 0
1.05645 1.58754 0
1.23214 0.734817 0
1.11293 0.0665171 0
1.23093 0.0720631 0
1.27843 0.111773 0
1.18663 0.142043 0
1.58526 0.00580209 0
1.5742 0.018295 0
1.70383 0.0030619 0
0.409359 0.512361 0
1.11394 0.0313889 0
0.0988722 0.300452 0
0.673559 0.309707 0
0.164786 2.21225 0
0.397972 2.79164 0
0.317514 2.81544 0
0 0.84668 0
0.590973 0.963349 0
0.744354 1.0745 0
0.815228 0.685266 0
0.102754 1.83421 0
0.571777 0.768118 0
0.900803 0.879437 0
1.49664 2.43611 0
0.0519525 0.004198 0
0.00195312 0 0
0.592758 0.390606 0
0.407203 1.40552 0
0.778282 0.845553 0
0.424145 2.22309 0
0.900544 1.75473 0
0.897638 0.0379313 0
1.34802 0.68003 0
0.00208699 0.885608 0
0.0957089 2.46388 0
0.0957042 2.81545 0
0.00194203 2.46384 0
0.0957135 2.13578 0
0 1.5498 0
0.0019652 2.13571 0
0.0175827 2.46386 0
0.757209 0.0767782 0
1.24652 0.554058 0
0.0488261 2.46386 0
0.0175601 2.81546 0
0.00195132 2.81539 0
2 0.0732422 0
0.713264 2.50738 0
1.83592 0.175628 0
2 0.143555 0
1.85175 0.122199 0
1.87007 0.083943 0
0.541287 0.166111 0
1.83208 0.0349244 0
2 0.0263672 0
1.87675 0.0172647 0
0.0488509 2.13576 0
0.0175744 2.13574 0
0.158181 2.81544 0
0.0488349 2.81543 0
0.356066 0.00384156 0
1.64879 0.474275 0
0.990261 0.0044974 0
0.854849 2.80543 0
1.62536 0.0440996 0
0.759367 0.333164 0
0.753651 0.366281 0
0.735009 0.34694 0
0.733848 0.36384 0
0.726029 0.435638 0
0.738055 0.399682 0
0.741084 0.381103 0
0.715833 0.387264 0
0.769979 0.394201 0
0.759241 0.381232 0
0.773661 0.368972 0
0.793734 0.343527 0
0.766827 0.350763 0
0.788115 0.358514 0
0.75147 0.345233 0
0.776552 0.338102 0
0.79518 0.320473 0
0.714173 0.412324 0
0.652574 0.379413 0
0.722362 0.400105 0
0.684716 0.377475 0
0.702469 0.376438 0
0.720938 0.308881 0
0.833424 0.333368 0
0.821552 0.358528 0
0.765029 0.305438 0
0.733546 0.417913 0
0.765982 0.440225 0
0.757483 0.413183 0
0.746496 0.432948 0
0.790902 0.417818 0
0.775114 0.409583 0
0.685732 0.439586 0
0.694027 0.398501 0
0.669706 0.395363 0
0.693068 0.4194 0
0.66866 0.380268 0
0.669218 0.343979 0
0.673121 0.361959 0
0.693726 0.35937 0
0.639452 0.408351 0
0.705415 0.434842 0
0.706495 0.480883 0
0.70072 0.457678 0
0.742476 0.469355 0
0.749847 0.451493 0
0.665621 0.421369 0
0.651866 0.396168 0
0.666451 0.470588 0
0.721057 0.464933 0
0.715447 0.44891 0
0.679757 0.426132 0
0.686894 0.473409 0
0.678674 0.4566 0
0.671653 0.510835 0
0.66597 0.441404 0
0.689564 0.496512 0
0.655251 0.456078 0
0.606291 0.474642 0
0.636695 0.483344 0
0.649732 0.472422 0
0.655663 0.494636 0
0.690412 0.517327 0
0.665883 0.564823 0
0.684849 0.544966 0
0.712069 0.504717 0
0.626306 0.527853 0
0.672886 0.488364 0
0.777433 0.532403 0
0.728607 0.488083 0
0.636901 0.506826 0
0.741994 0.524396 0
0.617389 0.495237 0
0.65207 0.529936 0
0.723501 0.520153 0
0.736285 0.505678 0
0.764247 0.507067 0
0.59165 0.498088 0
0.655125 0.512297 0
0.603868 0.490047 0
0.735267 0.325779 0
0.752686 0.31795 0
0.742093 0.301432 0
0.702434 0.331785 0
0.708299 0.347861 0
0.720619 0.335789 0
0.715131 0.322158 0
0.69704 0.309371 0
0.762988 0.271544 0
0.720272 0.285366 0
0.685524 0.32288 0
0.664356 0.325975 0
0.685888 0.338172 0
0.634295 0.303797 0
0.632223 0.342055 0
0.652842 0.311291 0
0.650936 0.338171 0
0.635107 0.322718 0
0.646351 0.358681 0
0.757894 0.288491 0
0.726804 0.29689 0
0.684718 0.282831 0
0.65534 0.287029 0
0.648627 0.298641 0
0.61854 0.313734 0
0.6041 0.282932 0
0.59809 0.302668 0
0.618989 0.330578 0
0.595383 0.355891 0
0.613245 0.347962 0
0.597764 0.339227 0
0.61571 0.374581 0
0.631472 0.388667 0
0.564 0.321851 0
0.609192 0.36158 0
0.595725 0.373163 0
0.627728 0.361208 0
0.582957 0.326815 0
0.547705 0.365312 0
0.590559 0.314696 0
0.572235 0.364892 0
0.567795 0.343079 0
0.583372 0.345862 0
0.658717 0.366607 0
0.778977 0.292656 0
0.740431 0.276592 0
0.685024 0.297682 0
0.70431 0.294613 0
0.67119 0.290403 0
0.61639 0.2961 0
0.630476 0.276237 0
0.618809 0.283857 0
0.612765 0.26851 0
0.575785 0.251738 0
0.596521 0.256599 0
0.567628 0.285256 0
0.57781 0.300486 0
0.612164 0.393436 0
0.596585 0.432104 0
0.599673 0.41061 0
0.636999 0.373917 0
0.537659 0.336885 0
0.559744 0.355902 0
0.552052 0.342552 0
0.725003 0.273871 0
0.702773 0.273037 0
0.663242 0.300718 0
0.599321 0.220544 0
0.580628 0.269763 0
0.596684 0.270823 0
0.589543 0.290174 0
0.556497 0.301229 0
0.575681 0.31366 0
0.562578 0.412465 0
0.620256 0.424633 0
0.679517 0.238068 0
0.603564 0.238478 0
0.580444 0.281348 0
0.544062 0.31644 0
0.580744 0.406005 0
0.571571 0.386182 0
0.577306 0.426357 0
0.54527 0.449037 0
0.57899 0.458991 0
0.558381 0.433106 0
0.583412 0.44223 0
0.597983 0.455675 0
0.623837 0.454295 0
0.615658 0.409033 0
0.696127 0.253408 0
0.640869 0.22884 0
0.579768 0.232346 0
0.589496 0.24495 0
0.551074 0.328574 0
0.581433 0.375725 0
0.560068 0.375064 0
0.538961 0.389403 0
0.544461 0.418984 0
0.549226 0.402506 0
0.529721 0.434427 0
0.562581 0.45161 0
0.550744 0.476838 0
0.610291 0.442983 0
0.619029 0.227056 0
0.593735 0.230432 0
0.473339 0.432925 0
0.523858 0.459816 0
0.620794 0.240171 0
0.63276 0.209343 0
0.501245 0.427966 0
0.532222 0.448591 0
0.615223 0.213822 0
0.619326 0.202451 0
0.573268 0.190439 0
0.597504 0.193668 0
0.59909 0.206842 0
0.631092 0.220239 0
0.516463 0.425373 0
0.511275 0.444858 0
0.489654 0.449297 0
0.487511 0.432863 0
0.485383 0.397984 0
0.480349 0.415702 0
0.505771 0.404612 0
0.460137 0.398561 0
0.472759 0.403171 0
0.474256 0.386015 0
0.503201 0.357935 0
0.485918 0.368681 0
0.452181 0.482695 0
0.494322 0.414015 0
0.52093 0.393679 0
0.502633 0.382068 0
0.477381 0.333393 0
0.467522 0.460508 0
0.488751 0.383253 0
0.497378 0.394405 0
0.521715 0.370384 0
0.486664 0.349482 0
0.507866 0.327162 0
0.467102 0.350645 0
0.493371 0.334495 0
0.506556 0.342507 0
0.521292 0.335958 0
0.48992 0.310295 0
0.524362 0.317325 0
0.520018 0.352957 0
0.533241 0.360348 0
0.476211 0.448303 0
0.508658 0.370064 0
0.515198 0.381715 0
0.445208 0.324465 0
0.51063 0.297674 0
0.459851 0.334007 0
0.468057 0.317858 0
0.481185 0.320433 0
0.453219 0.308997 0
0.441186 0.273084 0
0.418983 0.300189 0
0.451324 0.28938 0
0.434859 0.308863 0
0.432797 0.359696 0
0.448534 0.349534 0
0.509722 0.312261 0
0.52271 0.304189 0
0.43312 0.288988 0
0.444081 0.299961 0
0.417635 0.333036 0
0.44839 0.369215 0
0.421997 0.273576 0
0.433157 0.340764 0
0.429991 0.323886 0
0.415979 0.316294 0
0.386452 0.301691 0
0.39337 0.327351 0
0.402697 0.305095 0
0.406244 0.32583 0
0.426896 0.393002 0
0.45607 0.382829 0
0.440453 0.384398 0
0.427409 0.375602 0
0.408401 0.358157 0
0.40126 0.342294 0
0.420276 0.363324 0
0.373182 0.351387 0
0.42084 0.347842 0
0.386025 0.342406 0
0.376499 0.326513 0
0.38901 0.365662 0
0.407481 0.285183 0
0.392713 0.313491 0
0.372006 0.309296 0
0.364697 0.272946 0
0.349652 0.295375 0
0.372311 0.289913 0
0.358722 0.306326 0
0.365371 0.33712 0
0.330219 0.343676 0
0.347002 0.33613 0
0.341194 0.314809 0
0.420281 0.28644 0
0.396507 0.292824 0
0.384855 0.273154 0
0.35957 0.285976 0
0.347581 0.272773 0
0.346772 0.36802 0
0.357237 0.353464 0
0.335261 0.32882 0
0.311006 0.305169 0
0.316069 0.327511 0
0.349473 0.323324 0
0.396932 0.277502 0
0.374661 0.278218 0
0.356384 0.243999 0
0.333655 0.285614 0
0.342078 0.351833 0
0.356225 0.25969 0
0.376779 0.251969 0
0.341653 0.251602 0
0.365029 0.251868 0
0.344494 0.284414 0
0.311008 0.277607 0
0.33703 0.300189 0
0.323073 0.296656 0
0.321867 0.282916 0
0.312178 0.291231 0
0.288987 0.287082 0
0.299544 0.296688 0
0.323014 0.313066 0
0.29999 0.282616 0
0.298405 0.259074 0
0.280332 0.315344 0
0.297271 0.317229 0
0.287822 0.302592 0
0.338088 0.225678 0
0.318011 0.244061 0
0.304551 0.32816 0
0.288003 0.327392 0
0.26372 0.34409 0
0.280617 0.348757 0
0.344132 0.237861 0
0.356009 0.22923 0
0.330142 0.237311 0
0.371066 0.236173 0
0.328491 0.252138 0
0.314941 0.260693 0
0.405124 0.233292 0
0.307384 0.250268 0
0.295354 0.212741 0
0.288364 0.235989 0
0.296084 0.245899 0
0.283678 0.249237 0
0.314531 0.221788 0
0.302414 0.231192 0
0.248937 0.225731 0
0.319782 0.232191 0
0.267593 0.234271 0
0.277632 0.238798 0
0.278677 0.219332 0
0.306051 0.267013 0
0.388307 0.238993 0
0.421251 0.250109 0
0.303723 0.219813 0
0.292735 0.224531 0
0.393176 0.254549 0
0.388159 0.214106 0
0.416518 0.261859 0
0.432022 0.260777 0
0.480575 0.238377 0
0.457834 0.252759 0
0.446164 0.26044 0
0.463959 0.27225 0
0.383655 0.261356 0
0.381628 0.226473 0
0.39497 0.224874 0
0.421836 0.207478 0
0.405171 0.212226 0
0.375054 0.215738 0
0.37797 0.191267 0
0.368129 0.202497 0
0.381827 0.202954 0
0.349444 0.180538 0
0.393567 0.193615 0
0.361946 0.189149 0
0.409937 0.19694 0
0.452711 0.277416 0
0.465433 0.286059 0
0.492206 0.276544 0
0.477387 0.277909 0
0.486419 0.292887 0
0.48265 0.258011 0
0.418226 0.222716 0
0.395473 0.204688 0
0.341074 0.20186 0
0.354396 0.205116 0
0.344757 0.214201 0
0.327982 0.21211 0
0.435048 0.186903 0
0.497459 0.299833 0
0.419623 0.236209 0
0.440227 0.241136 0
0.349151 0.192324 0
0.318502 0.188259 0
0.309922 0.203184 0
0.333872 0.188954 0
0.326962 0.223338 0
0.424382 0.195285 0
0.419933 0.182826 0
0.441292 0.153152 0
0.434141 0.169174 0
0.44265 0.219107 0
0.431763 0.228321 0
0.442577 0.202021 0
0.317123 0.211168 0
0.323583 0.199879 0
0.335177 0.175204 0
0.429556 0.216774 0
0.469702 0.21045 0
0.449159 0.191013 0
0.458265 0.201351 0
0.451198 0.175921 0
0.455373 0.213221 0
0.466581 0.226576 0
0.355038 0.152405 0
0.321876 0.176507 0
0.29091 0.163042 0
0.302014 0.177874 0
0.439129 0.177769 0
0.492852 0.159922 0
0.448691 0.163739 0
0.471411 0.167304 0
0.46478 0.24019 0
0.471319 0.250877 0
0.451995 0.231915 0
0.3417 0.16152 0
0.370375 0.168696 0
0.465181 0.176744 0
0.356066 0.164604 0
0.346605 0.170601 0
0.359905 0.174657 0
0.372032 0.180338 0
0.388226 0.180457 0
0.402697 0.159819 0
0.411265 0.171146 0
0.423084 0.173431 0
0.420977 0.159056 0
0.396384 0.170402 0
0.384267 0.159404 0
0.383172 0.170444 0
0.433139 0.159923 0
0.410546 0.142659 0
0.393777 0.150762 0
0.369348 0.156339 0
0.379488 0.149703 0
0.411281 0.152317 0
0.426452 0.146804 0
0.444772 0.137092 0
0.438396 0.144511 0
0.811037 0.332556 0
0.811144 0.346765 0
0.823552 0.311699 0
0.784295 0.307764 0
0.774089 0.321769 0
0.648204 0.42299 0
0.701293 0.585585 0
0.637282 0.558087 0
0.665963 0.543805 0
0.676191 0.52872 0
0.650211 0.547593 0
0.751084 0.489271 0
0.787434 0.476863 0
0.770373 0.461611 0
0.771098 0.488409 0
0.758994 0.474264 0
0.797644 0.506879 0
0.787457 0.493356 0
0.790664 0.45738 0
0.760275 0.525263 0
0.748973 0.575631 0
0.759802 0.551432 0
0.731303 0.551843 0
0.787755 0.580183 0
0.745583 0.559018 0
0.768977 0.570772 0
0.787734 0.554832 0
0.810222 0.567431 0
0.804708 0.53311 0
0.806542 0.588269 0
0.776082 0.639562 0
0.818012 0.632162 0
0.786918 0.610666 0
0.817389 0.608544 0
0.764118 0.597687 0
0.802756 0.620707 0
0.850075 0.550357 0
0.791273 0.522534 0
0.804577 0.550603 0
0.827184 0.552121 0
0.840026 0.569764 0
0.836624 0.526404 0
0.883421 0.616119 0
0.8575 0.596641 0
0.838365 0.606255 0
0.779895 0.595078 0
0.72973 0.608385 0
0.768279 0.619094 0
0.74921 0.612318 0
0.74214 0.593898 0
0.722067 0.586627 0
0.732145 0.655985 0
0.712554 0.56475 0
0.735991 0.631697 0
0.714583 0.545971 0
0.692311 0.565479 0
0.704951 0.629646 0
0.754007 0.647862 0
0.720763 0.624159 0
0.710119 0.605269 0
0.689845 0.604498 0
0.666395 0.593442 0
0.682708 0.583399 0
0.858746 0.530112 0
0.908307 0.561931 0
0.880117 0.550586 0
0.827673 0.496708 0
0.808341 0.485062 0
0.836241 0.464051 0
0.810735 0.464784 0
0.826039 0.478902 0
0.85229 0.48381 0
0.817528 0.515639 0
0.821881 0.535613 0
0.751652 0.682679 0
0.648215 0.579454 0
0.839543 0.509393 0
0.895711 0.488744 0
0.888083 0.517774 0
0.746611 0.664614 0
0.730496 0.68038 0
0.702352 0.6654 0
0.709834 0.690309 0
0.718648 0.66692 0
0.653321 0.701195 0
0.690825 0.750337 0
0.680437 0.689036 0
0.705512 0.722546 0
0.695256 0.682519 0
0.771842 0.666849 0
0.594089 0.602951 0
0.878805 0.450809 0
0.873018 0.492841 0
0.880248 0.47204 0
0.90521 0.467546 0
0.859337 0.462438 0
0.84479 0.425093 0
0.846232 0.445364 0
0.865448 0.43405 0
0.826572 0.436196 0
0.919576 0.414404 0
0.819574 0.410377 0
0.808783 0.426737 0
0.823314 0.452329 0
0.894703 0.428849 0
0.782326 0.709902 0
0.799417 0.658064 0
0.619031 0.585123 0
0.914272 0.44512 0
0.77081 0.690188 0
0.754466 0.717708 0
0.792817 0.687257 0
0.783712 0.65502 0
0.632614 0.575647 0
0.638332 0.622171 0
0.636628 0.598473 0
0.652979 0.608632 0
0.895768 0.444634 0
0.913407 0.429197 0
0.605922 0.517214 0
0.620453 0.511884 0
0.657935 0.259188 0
0.639648 0.249146 0
0.632506 0.261988 0
0.659207 0.243118 0
0.645548 0.239068 0
0.587379 0.477485 0
0.568953 0.476039 0
0.560862 0.5078 0
0.56029 0.490282 0
0.542664 0.499767 0
0.575056 0.498363 0
0.512997 0.529657 0
0.524565 0.510056 0
0.491055 0.492734 0
0.544009 0.542241 0
0.546339 0.520681 0
0.564486 0.534433 0
0.509687 0.49572 0
0.530035 0.529823 0
0.571697 0.519364 0
0.56439 0.577695 0
0.512568 0.475343 0
0.498143 0.51447 0
0.581972 0.555912 0
0.558762 0.555856 0
0.50246 0.460504 0
0.485941 0.470953 0
0.480017 0.510878 0
0.471341 0.488356 0
0.45469 0.514846 0
0.467883 0.518989 0
0.494625 0.538706 0
0.577545 0.540074 0
0.60628 0.54678 0
0.617357 0.563606 0
0.624234 0.546372 0
0.498573 0.478331 0
0.473736 0.473443 0
0.459406 0.49788 0
0.475034 0.598408 0
0.612266 0.531805 0
0.480311 0.565575 0
0.48316 0.548171 0
0.623028 0.472264 0
0.629858 0.438356 0
0.72848 0.230094 0
0.55972 0.239619 0
0.546937 0.264005 0
0.555796 0.212645 0
0.578227 0.2138 0
0.56279 0.270556 0
0.560769 0.257015 0
0.546418 0.250159 0
0.54622 0.282473 0
0.515318 0.257586 0
0.52963 0.250416 0
0.508955 0.232236 0
0.515626 0.244079 0
0.497304 0.244108 0
0.549892 0.226637 0
0.52566 0.212724 0
0.532473 0.225222 0
0.540638 0.215059 0
0.539479 0.190121 0
0.536086 0.202478 0
0.517954 0.222755 0
0.497641 0.206092 0
0.500921 0.219635 0
0.492016 0.18413 0
0.47722 0.183018 0
0.477034 0.197083 0
0.515798 0.198536 0
0.510939 0.211033 0
0.48521 0.214989 0
0.493337 0.230896 0
0.582862 0.201171 0
0.565138 0.201652 0
0.556256 0.191135 0
0.563288 0.174226 0
0.524227 0.282164 0
0.498852 0.258249 0
0.500922 0.194041 0
0.5175 0.178454 0
0.505896 0.184218 0
0.502022 0.171138 0
0.520123 0.163657 0
0.486384 0.170013 0
0.480504 0.225976 0
0.535362 0.272839 0
0.507408 0.282483 0
0.515528 0.270947 0
0.52897 0.17191 0
0.537616 0.138251 0
0.502517 0.269396 0
0.533901 0.152141 0
0.572742 0.149137 0
0.507298 0.142014 0
0.55243 0.146919 0
0.516077 0.152008 0
0.523117 0.142694 0
0.500869 0.151117 0
0.478168 0.138593 0
0.491932 0.142818 0
0.517975 0.124822 0
0.494456 0.127686 0
0.516017 0.134128 0
0.547942 0.156682 0
0.53571 0.471416 0
0.667288 0.21254 0
0.64894 0.216092 0
0.663211 0.2276 0
0.445383 0.439034 0
0.405041 0.384476 0
0.38482 0.286672 0
0.36807 0.379282 0
0.36621 0.364055 0
0.312343 0.350488 0
0.274262 0.331921 0
0.251072 0.306475 0
0.268443 0.294019 0
0.276984 0.30219 0
0.264843 0.314704 0
0.260638 0.302502 0
0.250262 0.275931 0
0.252603 0.290913 0
0.238664 0.28682 0
0.252123 0.328375 0
0.263525 0.329189 0
0.239222 0.271789 0
0.250166 0.250228 0
0.247182 0.262959 0
0.262689 0.264141 0
0.268106 0.249681 0
0.258917 0.242304 0
0.213275 0.313313 0
0.255797 0.316932 0
0.262358 0.279848 0
0.276197 0.27947 0
0.223769 0.295964 0
0.27972 0.290551 0
0.271026 0.269639 0
0.229579 0.286591 0
0.266209 0.388667 0
0.321801 0.270353 0
0.281438 0.200612 0
0.26267 0.2171 0
0.25891 0.227877 0
0.269974 0.223819 0
0.271766 0.208545 0
0.243063 0.195706 0
0.257711 0.200779 0
0.246888 0.210233 0
0.267878 0.197996 0
0.254294 0.18502 0
0.231388 0.207424 0
0.265059 0.162398 0
0.225134 0.162466 0
0.23761 0.219717 0
0.237224 0.238688 0
0.235025 0.255273 0
0.263289 0.175251 0
0.279425 0.174285 0
0.244683 0.166198 0
0.255423 0.167598 0
0.203979 0.240082 0
0.282896 0.187067 0
0.296113 0.195283 0
0.290243 0.178249 0
0.27788 0.162012 0
0.285869 0.146437 0
0.285009 0.15548 0
0.24037 0.180407 0
0.220411 0.243675 0
0.221134 0.223019 0
0.228737 0.217516 0
0.290742 0.203698 0
0.30731 0.191931 0
0.249392 0.175847 0
0.233705 0.170365 0
0.217308 0.181031 0
0.228727 0.181587 0
0.223352 0.172654 0
0.205281 0.16372 0
0.213193 0.170623 0
0.22258 0.19182 0
0.200104 0.179967 0
0.23293 0.192149 0
0.22955 0.245582 0
0.227882 0.232641 0
0.307913 0.163139 0
0.299442 0.151952 0
0.299341 0.168549 0
0.311498 0.172586 0
0.325959 0.138708 0
0.316152 0.1503 0
0.338798 0.147588 0
0.302483 0.131369 0
0.317228 0.15918 0
0.356825 0.12913 0
0.368931 0.138678 0
0.365187 0.147461 0
0.35253 0.140344 0
0.339938 0.131481 0
0.32722 0.147979 0
0.297022 0.141065 0
0.310239 0.140201 0
0.288361 0.131797 0
0.28232 0.138429 0
0.268301 0.147031 0
0.252106 0.151685 0
0.294186 0.105702 0
0.294791 0.118867 0
0.336483 0.139285 0
0.345788 0.120292 0
0.321 0.121258 0
0.315466 0.130508 0
0.33152 0.156884 0
0.327805 0.129098 0
0.333278 0.120734 0
0.418724 0.114695 0
0.806319 0.310377 0
0.873263 0.310864 0
0.839178 0.27794 0
0.802006 0.270676 0
0.795039 0.284159 0
0.818685 0.28748 0
0.782442 0.273005 0
0.783084 0.234094 0
0.775488 0.253132 0
0.816594 0.299986 0
0.820671 0.27376 0
0.839466 0.255394 0
0.854423 0.642288 0
0.856235 0.619281 0
0.837556 0.627414 0
0.886388 0.584449 0
0.877382 0.532568 0
0.902378 0.537868 0
0.949744 0.540042 0
0.925589 0.545316 0
0.943022 0.578342 0
0.928896 0.50851 0
0.941533 0.558313 0
0.961284 0.566998 0
0.919547 0.526163 0
0.685755 0.64563 0
0.657421 0.646594 0
0.671338 0.638533 0
0.674579 0.722312 0
0.857449 0.385852 0
0.867208 0.408932 0
0.798983 0.395879 0
0.826571 0.385062 0
0.785029 0.387005 0
0.803541 0.409231 0
0.815819 0.396156 0
0.824885 0.658965 0
0.837338 0.645954 0
0.74483 0.701011 0
0.731264 0.742252 0
0.780693 0.776226 0
0.648943 0.272456 0
0.669145 0.272318 0
0.677521 0.258628 0
0.672696 0.247937 0
0.686269 0.269665 0
0.584607 0.580514 0
0.602346 0.576042 0
0.448468 0.55672 0
0.458748 0.538249 0
0.464617 0.558539 0
0.454812 0.585577 0
0.506343 0.590127 0
0.521904 0.562001 0
0.530282 0.54748 0
0.541815 0.57448 0
0.50853 0.549591 0
0.507289 0.569696 0
0.492694 0.578748 0
0.494712 0.559678 0
0.524939 0.586007 0
0.518054 0.607136 0
0.550431 0.616997 0
0.540471 0.597432 0
0.533102 0.617943 0
0.557355 0.597157 0
0.573747 0.618342 0
0.578173 0.598831 0
0.560239 0.670416 0
0.542682 0.647507 0
0.597031 0.638049 0
0.56133 0.638667 0
0.588972 0.62124 0
0.579059 0.640357 0
0.589525 0.658499 0
0.573692 0.6597 0
0.704472 0.236139 0
0.692794 0.24282 0
0.714986 0.248446 0
0.744964 0.250212 0
0.709526 0.219986 0
0.747342 0.263673 0
0.744688 0.203179 0
0.688066 0.216796 0
0.730717 0.214891 0
0.67932 0.22645 0
0.756797 0.224253 0
0.722532 0.201312 0
0.739837 0.172737 0
0.702325 0.180061 0
0.73652 0.188007 0
0.707509 0.192471 0
0.719447 0.183822 0
0.674625 0.19135 0
0.690693 0.19578 0
0.676725 0.202685 0
0.74078 0.223195 0
0.746927 0.236181 0
0.76164 0.244208 0
0.76012 0.19144 0
0.766407 0.233321 0
0.771796 0.173512 0
0.751522 0.181377 0
0.772153 0.183822 0
0.566611 0.223614 0
0.545963 0.178126 0
0.589888 0.175914 0
0.523953 0.188699 0
0.532851 0.181176 0
0.461551 0.135676 0
0.464266 0.151402 0
0.454529 0.144172 0
0.476297 0.126997 0
0.488026 0.101426 0
0.472063 0.11218 0
0.469448 0.119985 0
0.566419 0.161143 0
0.555111 0.166592 0
0.577356 0.168978 0
0.46043 0.443566 0
0.448951 0.460577 0
0.42587 0.455115 0
0.43822 0.451994 0
0.434715 0.47526 0
0.410266 0.479697 0
0.437804 0.500656 0
0.421736 0.471266 0
0.423049 0.492086 0
0.434899 0.531153 0
0.4459 0.539723 0
0.441828 0.516718 0
0.401033 0.37021 0
0.411122 0.406235 0
0.425447 0.410683 0
0.434738 0.425384 0
0.428201 0.439169 0
0.452287 0.418331 0
0.466316 0.418513 0
0.414864 0.392524 0
0.38419 0.405196 0
0.444403 0.402083 0
0.39768 0.399499 0
0.386161 0.385084 0
0.396986 0.427893 0
0.408095 0.421077 0
0.319608 0.340346 0
0.295836 0.364319 0
0.326337 0.368975 0
0.236739 0.318701 0
0.250503 0.34704 0
0.237787 0.3847 0
0.259406 0.366669 0
0.241134 0.363322 0
0.212229 0.362855 0
0.249131 0.377499 0
0.250501 0.36104 0
0.226475 0.357559 0
0.234744 0.354594 0
0.231924 0.371153 0
0.2219 0.391694 0
0.204214 0.276415 0
0.247506 0.237951 0
0.222869 0.259455 0
0.210506 0.254477 0
0.215917 0.273026 0
0.208731 0.266092 0
0.212133 0.289562 0
0.197119 0.29698 0
0.215646 0.301004 0
0.203529 0.288758 0
0.20379 0.217364 0
0.213246 0.232778 0
0.196923 0.169428 0
0.190723 0.147854 0
0.190836 0.15948 0
0.166004 0.153974 0
0.177559 0.160453 0
0.176932 0.144817 0
0.165659 0.17262 0
0.173558 0.152694 0
0.169292 0.16324 0
0.176414 0.173434 0
0.169746 0.198024 0
0.184856 0.190599 0
0.170417 0.184346 0
0.18313 0.180035 0
0.160079 0.183665 0
0.176454 0.191632 0
0.180869 0.208652 0
0.14014 0.222045 0
0.147895 0.200306 0
0.1521 0.189377 0
0.158808 0.201268 0
0.163134 0.192883 0
0.152528 0.217675 0
0.166363 0.213101 0
0.153007 0.207385 0
0.174115 0.214227 0
0.161835 0.230308 0
0.167074 0.223238 0
0.236892 0.15319 0
0.244933 0.157201 0
0.240787 0.120445 0
0.220453 0.144191 0
0.242704 0.136715 0
0.226654 0.152164 0
0.231931 0.141741 0
0.214535 0.155261 0
0.231987 0.129446 0
0.24375 0.146112 0
0.208668 0.144783 0
0.19877 0.141139 0
0.184477 0.120503 0
0.186835 0.134022 0
0.214575 0.107997 0
0.225871 0.116716 0
0.261589 0.153702 0
0.270418 0.11286 0
0.279886 0.121816 0
0.284795 0.112446 0
0.309053 0.111794 0
0.29907 0.112066 0
0.307359 0.12171 0
0.310897 0.0968896 0
0.305216 0.103873 0
0.436385 0.123245 0
0.42434 0.133388 0
0.436018 0.13127 0
0.421876 0.123792 0
0.394642 0.12305 0
0.407742 0.130366 0
0.375299 0.125404 0
0.408191 0.120815 0
0.394167 0.132766 0
0.367376 0.13075 0
0.379301 0.133769 0
0.362985 0.115407 0
0.356364 0.121338 0
0.382001 0.112784 0
0.400753 0.108627 0
0.37352 0.117749 0
0.848403 0.317213 0
0.85703 0.333943 0
0.844514 0.350884 0
0.884504 0.329888 0
0.852327 0.296191 0
0.840723 0.369542 0
0.868571 0.323653 0
0.934961 0.362625 0
0.912182 0.309744 0
0.836057 0.290562 0
0.839504 0.305553 0
0.864606 0.367138 0
0.89811 0.385686 0
0.877657 0.380599 0
0.882517 0.397182 0
0.89618 0.361757 0
0.886416 0.413481 0
0.892917 0.315805 0
0.892419 0.345202 0
0.915895 0.350519 0
0.953615 0.331473 0
0.912765 0.329865 0
0.938308 0.344913 0
0.973752 0.357653 0
0.933081 0.330323 0
0.944966 0.315645 0
0.95321 0.355497 0
0.931075 0.305431 0
0.916574 0.270626 0
0.913402 0.289794 0
0.890597 0.297715 0
0.938144 0.281903 0
0.871337 0.29703 0
0.882504 0.274513 0
0.930624 0.293014 0
0.992107 0.276782 0
0.895388 0.284543 0
0.965958 0.284089 0
0.996697 0.311953 0
0.970119 0.31009 0
0.958587 0.249787 0
0.988013 0.294453 0
0.980914 0.328049 0
0.94202 0.263868 0
0.968968 0.296864 0
1.0304 0.29459 0
0.970137 0.341788 0
1.03262 0.340914 0
1.00126 0.345245 0
0.953601 0.274105 0
0.913889 0.239608 0
1.00914 0.287466 0
1.01157 0.301557 0
1.02473 0.320255 0
1.02907 0.27925 0
0.921403 0.254705 0
0.936949 0.243236 0
0.896866 0.25132 0
0.967862 0.221305 0
0.933217 0.222336 0
0.95705 0.23455 0
0.928759 0.233105 0
1.00376 0.32707 0
0.885708 0.261746 0
0.806585 0.24863 0
0.858014 0.266693 0
0.86024 0.281728 0
0.849583 0.221858 0
0.87554 0.59924 0
0.889872 0.566176 0
0.864953 0.570338 0
0.91545 0.590117 0
0.924103 0.572965 0
0.902678 0.578136 0
0.898034 0.601409 0
0.917071 0.635796 0
0.91785 0.612684 0
0.901422 0.623628 0
0.971039 0.625992 0
0.942805 0.62505 0
0.941813 0.659671 0
0.957711 0.601531 0
0.935458 0.599368 0
0.966568 0.58483 0
0.956313 0.642683 0
0.990598 0.68754 0
0.986765 0.654515 0
0.93466 0.642038 0
0.90661 0.50643 0
0.628767 0.656588 0
0.660794 0.67422 0
0.678212 0.66623 0
0.645572 0.662856 0
0.669153 0.703262 0
0.628513 0.770917 0
0.689915 0.729485 0
0.692135 0.706575 0
0.842951 0.403019 0
0.81284 0.373083 0
0.737613 0.72271 0
0.711002 0.747143 0
0.703918 0.780141 0
0.774074 0.742422 0
0.596355 0.559822 0
0.469119 0.579363 0
0.420391 0.584444 0
0.45014 0.637558 0
0.511257 0.68953 0
0.614457 0.617955 0
0.615221 0.640754 0
0.604686 0.654432 0
0.622097 0.602523 0
0.730666 0.242464 0
0.784569 0.212088 0
0.772693 0.201433 0
0.765113 0.2128 0
0.748571 0.213566 0
0.648263 0.19466 0
0.654422 0.205137 0
0.829501 0.16948 0
0.75755 0.147889 0
0.575804 0.180025 0
0.607735 0.181974 0
0.619663 0.152294 0
0.598584 0.160801 0
0.637799 0.17072 0
0.604902 0.170885 0
0.621268 0.174685 0
0.62393 0.163204 0
0.582303 0.157772 0
0.597001 0.145051 0
0.477606 0.156946 0
0.461351 0.160693 0
0.501819 0.113245 0
0.486268 0.11797 0
0.488705 0.109629 0
0.456725 0.0954163 0
0.425162 0.513879 0
0.361257 0.443899 0
0.408473 0.446209 0
0.3842 0.456381 0
0.39476 0.445252 0
0.398358 0.465467 0
0.37801 0.498483 0
0.385056 0.478329 0
0.367138 0.46859 0
0.395356 0.497521 0
0.373362 0.482862 0
0.359969 0.484303 0
0.346522 0.462996 0
0.41083 0.4624 0
0.40754 0.49578 0
0.301347 0.351652 0
0.279364 0.372815 0
0.323048 0.354907 0
0.310488 0.371106 0
0.320297 0.395251 0
0.319167 0.380333 0
0.332548 0.385331 0
0.345355 0.3845 0
0.356002 0.377585 0
0.242344 0.33009 0
0.239468 0.302767 0
0.229643 0.307856 0
0.223178 0.331861 0
0.270373 0.358748 0
0.233645 0.410636 0
0.220825 0.373877 0
0.197914 0.394408 0
0.2094 0.384666 0
0.198262 0.369308 0
0.208115 0.404776 0
0.206221 0.372111 0
0.19226 0.431875 0
0.216636 0.403037 0
0.205353 0.427863 0
0.197258 0.413985 0
0.17813 0.402025 0
0.186212 0.415074 0
0.187771 0.397035 0
0.176532 0.420473 0
0.179784 0.380044 0
0.181902 0.437757 0
0.175649 0.47868 0
0.176174 0.456457 0
0.203003 0.476054 0
0.190996 0.459278 0
0.189889 0.379559 0
0.153681 0.345188 0
0.220271 0.454198 0
0.200352 0.446922 0
0.199093 0.462159 0
0.209856 0.460567 0
0.216743 0.483632 0
0.212115 0.442124 0
0.183788 0.452494 0
0.157291 0.385497 0
0.161309 0.413807 0
0.168253 0.421987 0
0.168272 0.35803 0
0.168749 0.388414 0
0.176346 0.364992 0
0.163978 0.373332 0
0.158916 0.358928 0
0.162206 0.398006 0
0.1931 0.280971 0
0.178673 0.25568 0
0.183578 0.270924 0
0.195327 0.261455 0
0.161847 0.277394 0
0.201434 0.252058 0
0.188764 0.240533 0
0.18676 0.259322 0
0.171984 0.269792 0
0.164413 0.251092 0
0.171159 0.28778 0
0.170822 0.257887 0
0.155214 0.309458 0
0.176412 0.32274 0
0.177296 0.343568 0
0.161257 0.294788 0
0.176744 0.303859 0
0.165059 0.334503 0
0.196281 0.332409 0
0.151813 0.285119 0
0.166226 0.311478 0
0.188627 0.313761 0
0.172482 0.333598 0
0.187817 0.343285 0
0.198198 0.350451 0
0.209536 0.338058 0
0.151023 0.261162 0
0.144601 0.300854 0
0.159992 0.32209 0
0.185168 0.301234 0
0.214687 0.326692 0
0.204416 0.32225 0
0.204138 0.307198 0
0.206913 0.351392 0
0.218559 0.346427 0
0.147616 0.273338 0
0.151803 0.297872 0
0.12214 0.30258 0
0.144547 0.325699 0
0.133029 0.296521 0
0.14775 0.313166 0
0.139384 0.293079 0
0.213568 0.21432 0
0.18267 0.15224 0
0.164054 0.138099 0
0.194322 0.203663 0
0.145022 0.211799 0
0.12338 0.193377 0
0.132634 0.205997 0
0.148928 0.237229 0
0.256682 0.139024 0
0.266507 0.138249 0
0.261098 0.124455 0
0.270887 0.125437 0
0.251307 0.129951 0
0.196013 0.125345 0
0.195019 0.133543 0
0.209064 0.120075 0
0.20393 0.125903 0
0.184505 0.14219 0
0.238634 0.103037 0
0.327284 0.107286 0
0.319844 0.113121 0
0.449492 0.111963 0
0.393538 0.114984 0
0.383337 0.0958009 0
0.364341 0.101471 0
0.35841 0.108113 0
0.915079 0.372728 0
0.923171 0.392905 0
0.972392 0.409134 0
0.948726 0.431078 0
0.944934 0.406145 0
0.935982 0.446003 0
0.985229 0.465919 0
0.963292 0.450918 0
0.936772 0.419492 0
0.956937 0.417476 0
0.962889 0.38282 0
0.957295 0.476105 0
0.998182 0.434125 0
0.960333 0.397483 0
0.949235 0.461548 0
0.934375 0.486231 0
0.91519 0.490438 0
0.991043 0.511054 0
0.984489 0.447892 0
1.01159 0.456089 0
0.974805 0.430035 0
0.980181 0.488996 0
1.02143 0.488643 0
0.955999 0.502052 0
1.02412 0.470656 0
1.00298 0.477531 0
1.00186 0.495453 0
0.946753 0.520041 0
0.971671 0.527083 0
0.979093 0.549642 0
1.04515 0.554541 0
1.01127 0.558159 0
0.993167 0.560146 0
0.972207 0.510285 0
0.903397 0.402594 0
0.99547 0.360994 0
0.982856 0.374995 0
1.02333 0.359945 0
0.992871 0.394686 0
1.0677 0.400701 0
0.996562 0.414103 0
1.03646 0.422056 0
1.02192 0.401205 0
1.01479 0.423167 0
1.02703 0.440355 0
1.07582 0.362316 0
1.04477 0.405096 0
1.04792 0.378551 0
1.01058 0.38964 0
1.04986 0.35583 0
1.08622 0.32007 0
1.0268 0.375431 0
1.05528 0.32568 0
1.03771 0.328886 0
1.05445 0.340733 0
1.06264 0.302908 0
1.05438 0.285879 0
1.04409 0.312005 0
1.06771 0.31544 0
1.11924 0.265535 0
1.08332 0.271727 0
1.06421 0.275108 0
1.08221 0.289555 0
1.08606 0.304533 0
1.14523 0.312012 0
1.11427 0.312126 0
1.10708 0.281155 0
1.11902 0.345263 0
1.10765 0.296723 0
1.14271 0.288424 0
1.10858 0.329014 0
1.08375 0.339942 0
1.13747 0.330278 0
1.1286 0.277698 0
1.17097 0.265885 0
1.14497 0.265778 0
1.15781 0.277463 0
1.17457 0.295384 0
1.1581 0.250909 0
1.07325 0.329304 0
1.06958 0.349272 0
1.16016 0.355529 0
1.18201 0.328356 0
1.12409 0.220653 0
1.14217 0.345468 0
1.13025 0.361963 0
1.16464 0.339544 0
1.10282 0.360556 0
1.09977 0.347265 0
1.09215 0.383567 0
1.15914 0.324273 0
1.17682 0.311777 0
1.14729 0.233359 0
1.18448 0.203435 0
1.1086 0.242116 0
1.15751 0.215266 0
1.13358 0.245794 0
1.11691 0.253255 0
1.08723 0.254111 0
1.12454 0.233112 0
1.14343 0.222729 0
1.16893 0.226914 0
1.09903 0.263959 0
1.04399 0.216175 0
1.07172 0.232407 0
1.0982 0.227123 0
1.08676 0.241392 0
1.09393 0.203525 0
1.10351 0.214776 0
1.12766 0.203769 0
1.07349 0.215285 0
1.11097 0.196199 0
1.07884 0.175777 0
1.09925 0.184104 0
1.15567 0.194303 0
1.05943 0.223371 0
1.01916 0.242518 0
1.04501 0.236927 0
1.06302 0.248021 0
0.988979 0.235486 0
1.01904 0.261042 0
1.06782 0.261332 0
0.97245 0.241573 0
0.985018 0.258226 0
1.13657 0.195103 0
1.02392 0.226766 0
1.04107 0.254665 0
1.01133 0.272889 0
0.964844 0.262504 0
1.0037 0.251684 0
1.00797 0.205861 0
1.00786 0.233119 0
0.974142 0.273018 0
1.02256 0.214571 0
0.949004 0.205871 0
0.891953 0.217711 0
0.909489 0.226044 0
0.884385 0.234786 0
0.87156 0.223367 0
0.872908 0.208692 0
0.85792 0.237941 0
0.828236 0.235282 0
0.85485 0.249424 0
0.844036 0.2319 0
0.789259 0.245405 0
0.793131 0.258514 0
0.819628 0.259428 0
0.825111 0.247392 0
0.947079 0.708908 0
0.966001 0.673612 0
0.96873 0.655605 0
0.944364 0.684088 0
0.929479 0.673355 0
0.923679 0.699132 0
0.865802 0.718512 0
0.892649 0.702243 0
0.96875 0.698259 0
0.980319 0.754494 0
0.968484 0.727483 0
0.849093 0.685177 0
1.00798 0.724389 0
0.98819 0.711401 0
0.832076 0.677477 0
0.988699 0.733848 0
1.01845 0.667385 0
0.640883 0.642355 0
0.647038 0.739451 0
0.664744 0.789297 0
0.742395 0.79619 0
0.770224 0.723232 0
0.752497 0.74341 0
0.74095 0.767635 0
0.724281 0.783268 0
0.723719 0.761553 0
0.724607 0.80957 0
0.725157 0.87842 0
0.748176 0.834979 0
0.719651 0.843698 0
0.739845 0.816779 0
0.759526 0.780428 0
0.774158 0.810199 0
0.763776 0.759583 0
0.67076 0.868302 0
0.736969 0.856924 0
0.692671 0.847406 0
0.705327 0.835591 0
0.707577 0.86522 0
0.704276 0.901531 0
0.815172 0.748496 0
0.437589 0.577033 0
0.430986 0.554408 0
0.435291 0.610583 0
0.415915 0.537305 0
0.431558 0.593026 0
0.386109 0.538381 0
0.414442 0.561358 0
0.400761 0.530804 0
0.3889 0.516915 0
0.398381 0.554282 0
0.401824 0.581272 0
0.377374 0.570721 0
0.388415 0.581509 0
0.385769 0.556782 0
0.458195 0.612292 0
0.447039 0.601243 0
0.446346 0.619691 0
0.52189 0.661355 0
0.801426 0.176309 0
0.756507 0.161838 0
0.755864 0.171257 0
0.79245 0.155591 0
0.730329 0.154217 0
0.772352 0.15516 0
0.781706 0.164281 0
0.746564 0.154576 0
0.638125 0.183438 0
0.66168 0.176785 0
0.604914 0.152555 0
0.620126 0.135435 0
0.574452 0.124369 0
0.558507 0.133677 0
0.564276 0.141779 0
0.553551 0.121543 0
0.571887 0.104542 0
0.53558 0.123008 0
0.567519 0.114499 0
0.554375 0.107486 0
0.553478 0.0905365 0
0.558701 0.0987554 0
0.578397 0.0937614 0
0.531192 0.0986748 0
0.540394 0.104774 0
0.544886 0.0964266 0
0.531506 0.0871087 0
0.529407 0.130871 0
0.54457 0.130146 0
0.590454 0.101483 0
0.592656 0.114741 0
0.584391 0.108361 0
0.586774 0.0703404 0
0.545897 0.0834497 0
0.562898 0.0746788 0
0.50359 0.0774572 0
0.507773 0.0926287 0
0.588233 0.0820658 0
0.52089 0.0798965 0
0.50857 0.0846597 0
0.488455 0.0839827 0
0.522147 0.0927621 0
0.58904 0.0889333 0
0.472358 0.0895315 0
0.472117 0.0985834 0
0.459596 0.104539 0
0.48758 0.0924772 0
0.504636 0.12155 0
0.5203 0.113901 0
0.512113 0.103344 0
0.5009 0.0989761 0
0.525797 0.106274 0
0.423837 0.0952903 0
0.377061 0.428798 0
0.371848 0.452728 0
0.357698 0.459046 0
0.339278 0.431904 0
0.305133 0.481347 0
0.285539 0.36121 0
0.268685 0.373709 0
0.284168 0.400456 0
0.298221 0.38741 0
0.289826 0.377211 0
0.302267 0.418423 0
0.295737 0.403977 0
0.287924 0.415896 0
0.308422 0.402471 0
0.321008 0.422416 0
0.309189 0.387141 0
0.232527 0.330992 0
0.22249 0.31748 0
0.228333 0.343537 0
0.23108 0.39568 0
0.25124 0.405156 0
0.246313 0.391883 0
0.189315 0.487502 0
0.228661 0.433678 0
0.226415 0.419234 0
0.21941 0.432795 0
0.248688 0.472921 0
0.245095 0.430316 0
0.224926 0.405346 0
0.235644 0.457333 0
0.236291 0.425087 0
0.228376 0.448648 0
0.169667 0.405746 0
0.196132 0.228767 0
0.193904 0.216148 0
0.185087 0.226353 0
0.186051 0.216057 0
0.177586 0.239791 0
0.169534 0.235245 0
0.185237 0.328167 0
0.152567 0.32986 0
0.138471 0.352635 0
0.147868 0.363036 0
0.145918 0.348509 0
0.128808 0.409609 0
0.154438 0.371321 0
0.136124 0.382448 0
0.146449 0.385405 0
0.151712 0.403719 0
0.140123 0.368278 0
0.129145 0.364689 0
0.139804 0.404699 0
0.131006 0.350065 0
0.136198 0.334763 0
0.135612 0.315016 0
0.106097 0.378795 0
0.124877 0.38669 0
0.133238 0.396919 0
0.13756 0.441375 0
0.128913 0.30831 0
0.121344 0.323868 0
0.116642 0.366184 0
0.129889 0.378061 0
0.135711 0.422012 0
0.147316 0.426896 0
0.128215 0.331607 0
0.10999 0.311356 0
0.122653 0.359278 0
0.110897 0.340713 0
0.145886 0.412317 0
0.155522 0.46557 0
0.153867 0.418654 0
0.156155 0.441566 0
0.117008 0.31245 0
0.112954 0.32553 0
0.117854 0.336981 0
0.115836 0.351164 0
0.107467 0.358902 0
0.166277 0.466599 0
0.146713 0.447351 0
0.139201 0.465664 0
0.0951497 0.336739 0
0.103414 0.327859 0
0.0963033 0.36498 0
0.15998 0.507167 0
0.131652 0.455747 0
0.12553 0.433779 0
0.147267 0.464943 0
0.143836 0.500079 0
0.151057 0.485007 0
0.142952 0.481751 0
0.151837 0.503124 0
0.143774 0.557703 0
0.152982 0.534157 0
0.10203 0.345359 0
0.0963277 0.350593 0
0.102857 0.312695 0
0.0940485 0.316853 0
0.102336 0.367199 0
0.166001 0.488704 0
0.158753 0.481092 0
0.170524 0.509072 0
0.164348 0.530701 0
0.180399 0.500443 0
0.0842832 0.291138 0
0.0810395 0.330723 0
0.157999 0.522572 0
0.0908221 0.300576 0
0.0833004 0.310893 0
0.088379 0.328543 0
0.0854515 0.345212 0
0.0902497 0.354472 0
0.0772724 0.299225 0
0.0701107 0.321457 0
0.0766723 0.316988 0
0.0721081 0.307139 0
0.124178 0.266106 0
0.136632 0.26031 0
0.174587 0.131697 0
0.17142 0.139123 0
0.181521 0.127918 0
0.166578 0.129525 0
0.172076 0.117999 0
0.182032 0.101053 0
0.156539 0.0981898 0
0.179965 0.110973 0
0.196595 0.108834 0
0.168534 0.103579 0
0.187765 0.107211 0
0.172101 0.110279 0
0.192877 0.116852 0
0.137156 0.13725 0
0.186308 0.200801 0
0.20545 0.203564 0
0.210425 0.191462 0
0.195102 0.190877 0
0.136815 0.184927 0
0.143893 0.190222 0
0.137118 0.196339 0
0.130533 0.190928 0
0.126061 0.171406 0
0.125462 0.182407 0
0.110913 0.181954 0
0.11803 0.185067 0
0.116417 0.172808 0
0.118015 0.217597 0
0.113151 0.201011 0
0.154104 0.228779 0
0.157327 0.242225 0
0.253691 0.112145 0
0.251298 0.120724 0
0.21833 0.128949 0
0.224532 0.135813 0
0.214398 0.137144 0
0.225284 0.124407 0
0.216732 0.115755 0
0.235533 0.111975 0
0.244566 0.109238 0
0.226232 0.10486 0
0.230452 0.0953362 0
0.206244 0.0790979 0
0.220222 0.0852491 0
0.227961 0.0886248 0
0.336302 0.112514 0
0.44817 0.119968 0
0.433978 0.11342 0
0.439025 0.102116 0
0.423336 0.10497 0
0.409046 0.0998252 0
0.40626 0.0861239 0
0.394939 0.100576 0
0.412021 0.0925491 0
0.396056 0.0919741 0
0.382752 0.104116 0
0.384532 0.087875 0
0.440154 0.0921507 0
0.454129 0.0849759 0
0.425987 0.0838902 0
0.439964 0.0844185 0
0.435969 0.0606473 0
0.434413 0.0722266 0
0.453185 0.0748483 0
0.412169 0.0744699 0
0.441461 0.0777206 0
0.481626 0.0603926 0
0.447741 0.0666735 0
0.414589 0.0809917 0
0.471117 0.0690527 0
0.458422 0.0569385 0
0.465254 0.0741902 0
0.448796 0.0607571 0
0.462709 0.0632708 0
1.02278 0.60842 0
0.992253 0.601346 0
0.974938 0.608215 0
1.02411 0.526509 0
1.01898 0.507583 0
1.06994 0.507195 0
1.04424 0.500307 0
1.04716 0.479188 0
1.05011 0.522489 0
1.12679 0.451557 0
1.03968 0.537482 0
1.07871 0.532591 0
1.08403 0.460476 0
1.06198 0.465165 0
1.07272 0.485055 0
1.06457 0.437614 0
1.11158 0.499584 0
1.04532 0.43554 0
1.06147 0.418719 0
1.08916 0.497633 0
1.09801 0.516991 0
1.10308 0.477374 0
1.10304 0.424221 0
1.08398 0.413528 0
1.083 0.429678 0
1.11047 0.401753 0
1.08898 0.575668 0
1.14171 0.479798 0
1.10651 0.459559 0
1.10756 0.441573 0
1.09005 0.398716 0
1.14894 0.420668 0
1.12684 0.429567 0
1.12858 0.412317 0
1.15249 0.39839 0
1.11395 0.385839 0
1.11543 0.37157 0
1.09189 0.552461 0
1.06823 0.551001 0
1.12171 0.484818 0
1.08779 0.44488 0
1.13075 0.395946 0
1.20163 0.413753 0
1.16744 0.377627 0
1.17369 0.411418 0
1.17964 0.442743 0
1.19092 0.392442 0
1.18547 0.426061 0
1.20816 0.439226 0
1.1497 0.368759 0
1.20824 0.359682 0
1.1906 0.345474 0
1.24036 0.33073 0
1.2108 0.331662 0
1.17052 0.391763 0
1.21722 0.397772 0
1.26503 0.424124 0
1.21255 0.378507 0
1.24542 0.406859 0
1.19018 0.371167 0
1.22667 0.346201 0
1.23776 0.365037 0
1.2244 0.3166 0
1.27922 0.303294 0
1.25432 0.31397 0
1.19963 0.318355 0
1.24232 0.443261 0
1.29935 0.373977 0
1.27584 0.331517 0
1.24179 0.28762 0
1.23088 0.301456 0
1.23905 0.424687 0
1.22389 0.41282 0
1.2774 0.493238 0
1.26662 0.374742 0
1.2842 0.399299 0
1.25854 0.348931 0
1.27677 0.317234 0
1.25578 0.299342 0
1.29009 0.456195 0
1.25182 0.471047 0
1.28344 0.384306 0
1.26079 0.393474 0
1.26705 0.408792 0
1.25788 0.36236 0
1.29075 0.349598 0
1.26937 0.443335 0
1.25573 0.455407 0
1.28239 0.363605 0
1.13008 0.300647 0
1.1541 0.299657 0
1.07052 0.378258 0
1.14906 0.204804 0
1.20545 0.17149 0
0.950045 0.216964 0
0.97283 0.207656 0
0.991977 0.217017 0
0.989423 0.201385 0
1.01797 0.179965 0
1.00788 0.192136 0
1.03736 0.198871 0
1.05769 0.205538 0
1.07121 0.190902 0
1.04876 0.179886 0
1.07502 0.200925 0
1.09057 0.193258 0
1.05839 0.168113 0
1.1121 0.145264 0
1.07824 0.153051 0
1.11465 0.164797 0
1.0625 0.158742 0
1.10042 0.173095 0
1.09099 0.162468 0
1.1066 0.155097 0
1.03323 0.169848 0
0.978916 0.152545 0
1.00039 0.165234 0
1.02068 0.160678 0
1.02125 0.137028 0
1.0267 0.148706 0
1.05681 0.139591 0
1.00067 0.145118 0
1.03786 0.141446 0
1.00308 0.155026 0
1.03337 0.187695 0
0.995984 0.133123 0
0.957486 0.13697 0
0.97856 0.14149 0
0.97516 0.131975 0
0.924957 0.175891 0
0.916846 0.206095 0
0.918038 0.216603 0
0.894168 0.203945 0
0.909814 0.189722 0
0.932655 0.195178 0
0.953264 0.194447 0
0.817552 0.21475 0
0.840827 0.197593 0
0.860006 0.199856 0
0.846837 0.209335 0
0.80558 0.233425 0
0.818463 0.225835 0
0.793577 0.223229 0
0.911824 0.776521 0
0.92285 0.738271 0
0.929944 0.718749 0
0.907482 0.72037 0
0.946372 0.736996 0
0.935779 0.763878 0
0.941137 0.811626 0
0.957741 0.758251 0
0.951886 0.785677 0
0.930149 0.790012 0
0.962979 0.807226 0
0.897007 0.825826 0
0.980592 0.784182 0
0.917512 0.812696 0
0.921771 0.850147 0
0.929875 0.82974 0
0.965682 0.861392 0
0.954105 0.835845 0
0.943037 0.858749 0
0.976824 0.838495 0
0.948698 0.926701 0
1.00977 0.874431 0
0.95161 0.891726 0
0.989091 0.861238 0
0.984144 0.899551 0
1.01621 0.833938 0
0.996036 0.832395 0
1.00678 0.852815 0
0.926508 0.882747 0
0.96991 0.883667 0
0.965169 0.910921 0
0.975726 0.947253 0
0.90971 0.925196 0
0.934011 0.907229 0
0.911906 0.900228 0
0.87079 0.693564 0
0.867592 0.665816 0
0.892841 0.65191 0
0.847906 0.663726 0
0.888252 0.677079 0
0.873795 0.645928 0
0.912096 0.655419 0
0.870943 0.628285 0
0.99894 0.669672 0
1.01804 0.696508 0
1.02969 0.68206 0
0.657475 0.722162 0
0.667964 0.750188 0
0.65067 0.767341 0
0.679237 0.771452 0
0.685499 0.799583 0
0.665637 0.828602 0
0.68748 0.823726 0
0.671152 0.808588 0
0.765363 0.829782 0
0.813553 0.820953 0
0.744919 0.94115 0
0.759554 0.895395 0
0.744099 0.880292 0
0.73287 0.910788 0
0.763426 0.866779 0
0.750638 0.917243 0
0.77052 0.939192 0
0.719807 0.898594 0
0.715219 0.927077 0
0.760299 1.00686 0
0.789378 0.906352 0
0.786867 0.874713 0
0.758901 0.970841 0
0.785652 0.928509 0
0.776245 0.892082 0
0.842698 0.883143 0
0.803252 0.850103 0
0.717761 0.987208 0
0.711497 0.957296 0
0.731958 0.964859 0
0.72804 0.942 0
0.739423 0.994689 0
0.720845 1.03692 0
0.742318 1.02687 0
0.725146 1.01117 0
0.787024 0.986707 0
0.81379 0.887007 0
0.832493 0.848592 0
0.735807 1.05126 0
0.768438 1.0483 0
0.780058 0.961939 0
0.770181 0.987998 0
0.802972 0.870976 0
0.817537 0.840442 0
0.758409 1.02983 0
0.689655 0.880508 0
0.667255 0.913569 0
0.685474 0.906445 0
0.672708 0.891368 0
0.641817 0.884847 0
0.795862 0.732321 0
0.805525 0.708617 0
0.832145 0.70847 0
0.790809 0.755376 0
0.818845 0.725696 0
0.844627 0.742957 0
0.850685 0.705882 0
0.41092 0.617937 0
0.409902 0.597515 0
0.528552 0.644317 0
0.537739 0.691039 0
0.808635 0.164209 0
0.8328 0.15056 0
0.825103 0.159575 0
0.731404 0.13504 0
0.716827 0.166479 0
0.732908 0.163691 0
0.716049 0.157547 0
0.694619 0.167403 0
0.724352 0.174706 0
0.664942 0.154866 0
0.64192 0.154708 0
0.682054 0.17744 0
0.674156 0.165784 0
0.683043 0.156231 0
0.654683 0.164873 0
0.687344 0.131833 0
0.689868 0.14402 0
0.653664 0.139761 0
0.633686 0.143842 0
0.637003 0.134319 0
0.713444 0.14354 0
0.653509 0.148701 0
0.670758 0.144299 0
0.730861 0.144485 0
0.709664 0.131557 0
0.728643 0.119607 0
0.723895 0.127511 0
0.65969 0.187151 0
0.612679 0.143653 0
0.596622 0.13045 0
0.617146 0.120474 0
0.619685 0.104748 0
0.606096 0.100488 0
0.559539 0.057543 0
0.62558 0.0800702 0
0.578423 0.076298 0
0.56659 0.0835233 0
0.386755 0.419961 0
0.361895 0.407621 0
0.352654 0.397029 0
0.348113 0.444949 0
0.326941 0.479193 0
0.277079 0.388183 0
0.308612 0.448856 0
0.333244 0.41536 0
0.267178 0.414735 0
0.184283 0.472039 0
0.203888 0.515946 0
0.191295 0.511893 0
0.226813 0.471991 0
0.237581 0.476243 0
0.230134 0.489861 0
0.247994 0.451128 0
0.269541 0.460056 0
0.259798 0.435821 0
0.257767 0.461091 0
0.256772 0.419504 0
0.270512 0.431176 0
0.113055 0.409651 0
0.114889 0.387457 0
0.119688 0.37827 0
0.111992 0.375221 0
0.108087 0.39591 0
0.0998499 0.424859 0
0.105542 0.412938 0
0.0947068 0.395539 0
0.0990541 0.382115 0
0.111423 0.44425 0
0.0990037 0.408179 0
0.110376 0.426292 0
0.120547 0.457723 0
0.117592 0.432995 0
0.120069 0.401099 0
0.121821 0.418133 0
0.140361 0.52847 0
0.176792 0.571286 0
0.194431 0.552408 0
0.16059 0.565872 0
0.196156 0.530949 0
0.186236 0.538569 0
0.174963 0.546026 0
0.184904 0.559393 0
0.187652 0.587217 0
0.159446 0.546525 0
0.152354 0.558555 0
0.16716 0.553962 0
0.147184 0.605257 0
0.147632 0.580315 0
0.17211 0.530183 0
0.211751 0.603203 0
0.134383 0.580497 0
0.158201 0.593854 0
0.198442 0.602424 0
0.140891 0.57377 0
0.167607 0.583548 0
0.169807 0.623136 0
0.165951 0.603996 0
0.156681 0.626146 0
0.177201 0.603421 0
0.155014 0.577746 0
0.20544 0.574021 0
0.210187 0.54402 0
0.154312 0.609041 0
0.179751 0.587042 0
0.196759 0.58253 0
0.205189 0.591604 0
0.131201 0.278583 0
0.136989 0.272127 0
0.13086 0.266612 0
0.121484 0.283741 0
0.126408 0.292538 0
0.109929 0.268089 0
0.113667 0.294153 0
0.117141 0.271888 0
0.117218 0.255207 0
0.106192 0.297755 0
0.108325 0.282891 0
0.0945362 0.269283 0
0.0910275 0.283781 0
0.102171 0.272516 0
0.103446 0.253326 0
0.101436 0.286825 0
0.0964965 0.280482 0
0.12351 0.236383 0
0.127854 0.250743 0
0.11019 0.255055 0
0.0990134 0.225671 0
0.118213 0.243548 0
0.115575 0.230473 0
0.107955 0.219116 0
0.137632 0.241541 0
0.103738 0.237928 0
0.112581 0.211631 0
0.100067 0.207654 0
0.14394 0.251844 0
0.143462 0.263556 0
0.15118 0.249184 0
0.142202 0.232762 0
0.130383 0.239374 0
0.108876 0.23067 0
0.10222 0.217087 0
0.205685 0.111646 0
0.173352 0.093651 0
0.161331 0.0849393 0
0.164878 0.0960125 0
0.169301 0.0870669 0
0.157991 0.110512 0
0.164295 0.115499 0
0.15044 0.133643 0
0.123767 0.20705 0
0.127329 0.221593 0
0.13373 0.216853 0
0.261721 0.116449 0
0.263443 0.0919397 0
0.252424 0.099406 0
0.277619 0.0998866 0
0.249985 0.0892441 0
0.241412 0.0946359 0
0.264794 0.101369 0
0.277288 0.107328 0
0.266039 0.0678872 0
0.26223 0.10863 0
0.247773 0.074715 0
0.245274 0.0821088 0
0.261051 0.0806862 0
0.204549 0.0940564 0
0.19321 0.0977319 0
0.204006 0.102761 0
0.21687 0.0971399 0
0.194183 0.085663 0
0.184402 0.0910818 0
0.212791 0.0901217 0
0.196965 0.0917807 0
0.399807 0.0787561 0
0.420264 0.065828 0
0.422562 0.0716161 0
0.432491 0.0662226 0
0.411217 0.0523047 0
0.386631 0.062919 0
0.389805 0.0714045 0
0.420485 0.0582149 0
0.43573 0.0500235 0
0.402722 0.0594349 0
0.424185 0.0526893 0
0.418578 0.0465953 0
0.378057 0.0348315 0
0.391401 0.0440923 0
0.404019 0.0469268 0
0.406511 0.0390444 0
0.388611 0.0526791 0
0.404231 0.0672036 0
0.423877 0.0306984 0
0.391067 0.0379503 0
0.402469 0.0314986 0
0.390131 0.033124 0
0.385908 0.0231566 0
0.391305 0.0277346 0
0.410387 0.0230165 0
0.40506 0.0269591 0
0.391524 0.0578634 0
0.419493 0.0358959 0
0.485819 0.0743901 0
0.502231 0.0660716 0
0.51687 0.071287 0
0.526421 0.0594943 0
0.516929 0.0645494 0
0.537094 0.0672332 0
0.486142 0.0670667 0
0.497793 0.0717845 0
0.529781 0.0720417 0
0.548774 0.071714 0
0.564032 0.0657399 0
0.543553 0.0604594 0
0.543925 0.0524526 0
0.572697 0.0703803 0
0.529452 0.0537267 0
0.501311 0.0523504 0
0.50599 0.0589671 0
0.514873 0.0542952 0
0.492843 0.0568736 0
0.586263 0.0404756 0
0.568223 0.0477311 0
0.55862 0.0518553 0
0.547302 0.0442252 0
0.565142 0.0405977 0
0.516888 0.0337352 0
0.574962 0.031608 0
0.527802 0.0401406 0
0.575375 0.0365353 0
0.534098 0.0440987 0
0.543261 0.0332392 0
0.55841 0.0355854 0
0.55753 0.0304775 0
0.54406 0.0385577 0
0.498181 0.0413875 0
0.530374 0.0354034 0
0.513988 0.0439537 0
0.511562 0.0385612 0
0.50102 0.0466683 0
0.470872 0.0460709 0
0.477047 0.0528614 0
0.486043 0.0449593 0
0.462838 0.051013 0
0.448775 0.0523598 0
1.01248 0.63698 0
1.03125 0.580223 0
1.02902 0.563272 0
1.00594 0.580824 0
1.06234 0.603427 0
1.05982 0.576836 0
1.04132 0.597965 0
1.00065 0.536693 0
1.15583 0.518871 0
1.1391 0.501453 0
1.12354 0.517828 0
1.15631 0.458459 0
1.14839 0.439839 0
1.16523 0.430474 0
1.13787 0.464409 0
1.18488 0.484137 0
1.16156 0.492197 0
1.16562 0.474553 0
1.18865 0.46296 0
1.12019 0.469766 0
1.18096 0.358126 0
1.20449 0.280697 0
1.18117 0.278352 0
1.21525 0.292083 0
1.36281 0.405552 0
1.31284 0.425958 0
1.29031 0.416724 0
1.29366 0.437999 0
1.32412 0.450289 0
1.31384 0.473857 0
1.36986 0.438601 0
1.28775 0.475285 0
1.34274 0.521071 0
1.35018 0.450745 0
1.34204 0.430449 0
1.36346 0.422207 0
1.44131 0.416917 0
1.40117 0.413179 0
1.3331 0.410453 0
1.30875 0.404401 0
1.33632 0.494444 0
1.33868 0.382792 0
1.33264 0.479604 0
1.30661 0.495202 0
1.28767 0.531337 0
1.29001 0.510894 0
1.31402 0.522811 0
1.32002 0.563597 0
1.32198 0.507092 0
1.33038 0.541789 0
1.30494 0.546594 0
1.34754 0.559267 0
1.27615 0.553314 0
1.3803 0.537394 0
1.35498 0.537933 0
1.36878 0.552706 0
1.34399 0.397225 0
1.26397 0.625619 0
1.39495 0.494579 0
1.26258 0.588048 0
1.36551 0.487518 0
1.26183 0.568579 0
1.29224 0.577455 0
1.35704 0.505263 0
1.39265 0.463849 0
1.37282 0.454868 0
1.28936 0.605995 0
1.38547 0.479439 0
1.26683 0.606604 0
1.21294 0.605736 0
1.23955 0.613234 0
1.23389 0.589308 0
1.21585 0.637399 0
1.18441 0.561364 0
1.24099 0.635278 0
1.20502 0.580367 0
1.23349 0.683936 0
1.23078 0.658555 0
1.19626 0.674355 0
1.27954 0.667113 0
1.21684 0.67253 0
1.26262 0.648791 0
1.25404 0.670251 0
1.27043 0.71002 0
1.26965 0.687461 0
1.31019 0.697578 0
1.29242 0.684105 0
1.31766 0.656921 0
1.29282 0.638451 0
1.36878 0.469779 0
1.2266 0.568197 0
1.1574 0.600352 0
1.29653 0.656352 0
1.28401 0.622665 0
1.18561 0.598388 0
1.16969 0.580103 0
1.17325 0.619411 0
1.14493 0.552358 0
1.11109 0.646149 0
1.19551 0.626428 0
1.16277 0.562557 0
1.1718 0.539107 0
1.13292 0.53552 0
1.11825 0.557661 0
1.14508 0.638785 0
1.15089 0.619344 0
1.11757 0.599787 0
1.21173 0.537074 0
1.22541 0.550471 0
1.24751 0.518181 0
1.27017 0.519771 0
1.25688 0.536155 0
1.23409 0.533126 0
1.19219 0.544643 0
1.1899 0.515042 0
1.21885 0.513098 0
1.17985 0.500259 0
1.23941 0.493748 0
1.25853 0.502871 0
1.25814 0.486319 0
1.228 0.476717 0
1.2049 0.475468 0
1.20604 0.495412 0
1.18652 0.185855 0
0.98702 0.179393 0
0.990064 0.189088 0
1.00278 0.174471 0
0.970803 0.166624 0
0.984615 0.1609 0
0.937729 0.154244 0
0.959016 0.179748 0
0.958875 0.157253 0
0.9605 0.146925 0
0.942162 0.166579 0
1.0853 0.140498 0
1.12415 0.116619 0
1.07422 0.12022 0
1.11079 0.129999 0
1.07249 0.130869 0
1.09179 0.132407 0
1.04075 0.124556 0
1.05276 0.131146 0
1.01139 0.122125 0
1.02362 0.128538 0
1.03286 0.108947 0
1.02882 0.117296 0
1.05293 0.114841 0
1.07477 0.110311 0
1.05225 0.106838 0
1.0977 0.115411 0
1.09322 0.123679 0
0.993493 0.107597 0
1.00977 0.113159 0
0.824421 0.184707 0
0.817811 0.175978 0
0.804579 0.18819 0
0.799513 0.201518 0
0.819427 0.197188 0
0.855773 0.181138 0
0.838363 0.178133 0
0.888767 0.173507 0
0.905792 0.179004 0
0.888021 0.184787 0
0.77519 0.222684 0
0.899173 0.852397 0
0.865819 0.842743 0
0.883818 0.840669 0
1.01683 0.914157 0
1.0435 0.860145 0
0.944023 0.972522 0
0.675932 0.846438 0
0.638233 0.80995 0
0.647391 0.7901 0
0.796736 0.798789 0
0.79209 0.824833 0
0.81982 0.793144 0
0.827017 0.769255 0
0.804705 0.774738 0
0.834294 0.984218 0
0.812926 0.920747 0
0.821747 0.953276 0
0.829796 0.904499 0
0.867729 0.924283 0
0.888806 0.909767 0
0.850761 0.907882 0
0.837676 0.932045 0
0.870466 0.883229 0
0.805692 0.972536 0
0.886251 0.889454 0
0.8566 0.864928 0
0.826957 0.870605 0
0.83963 0.817539 0
0.848078 0.837101 0
0.868769 0.805933 0
0.851829 0.803369 0
0.782732 1.0202 0
0.828265 1.08768 0
0.800738 1.05982 0
0.786116 1.04497 0
0.649444 0.853002 0
0.655341 0.87355 0
0.648324 0.82907 0
0.631359 0.831527 0
0.595149 0.810921 0
0.611534 0.826789 0
0.614596 0.79544 0
0.635244 0.863785 0
0.623099 0.813002 0
0.629791 0.791977 0
0.600046 0.760135 0
0.597683 0.785319 0
0.586752 0.77047 0
0.612568 0.773537 0
0.87891 0.757016 0
0.8999 0.745113 0
0.886269 0.726177 0
0.426888 0.642647 0
0.543571 0.66979 0
0.52466 0.681378 0
0.523368 0.726462 0
0.524502 0.703753 0
0.567252 0.718127 0
0.581498 0.740811 0
0.578288 0.690118 0
0.609581 0.716635 0
0.560332 0.694988 0
0.587004 0.714411 0
0.595293 0.694111 0
0.598812 0.735825 0
0.620419 0.74266 0
0.634386 0.751606 0
0.631967 0.717071 0
0.630832 0.686448 0
0.613237 0.692685 0
0.618821 0.672696 0
0.63906 0.701246 0
0.646423 0.683004 0
0.664839 0.128762 0
0.673456 0.135753 0
0.687349 0.107793 0
0.660859 0.113769 0
0.697966 0.119508 0
0.656647 0.121601 0
0.713322 0.109061 0
0.679283 0.116579 0
0.699518 0.112052 0
0.713239 0.116912 0
0.705542 0.0847103 0
0.678695 0.124782 0
0.702735 0.0969532 0
0.701154 0.104221 0
0.589299 0.122871 0
0.579226 0.134952 0
0.611357 0.128329 0
0.609329 0.112049 0
0.636363 0.113209 0
0.63152 0.120444 0
0.607621 0.0842949 0
0.626675 0.0924745 0
0.607054 0.0743159 0
0.621365 0.0862356 0
0.643395 0.101268 0
0.593009 0.0759488 0
0.630189 0.0690313 0
0.62927 0.0993488 0
0.63337 0.106224 0
0.648987 0.108493 0
0.667474 0.10093 0
0.621651 0.0739428 0
0.671682 0.108191 0
0.685114 0.0991856 0
0.373398 0.413364 0
0.372417 0.39573 0
0.36317 0.425603 0
0.349578 0.418163 0
0.339361 0.47801 0
0.310461 0.431313 0
0.325182 0.445742 0
0.332341 0.461562 0
0.328794 0.431983 0
0.318233 0.463142 0
0.261172 0.402128 0
0.213236 0.50391 0
0.203564 0.495801 0
0.213555 0.524302 0
0.195387 0.498047 0
0.0905228 0.378516 0
0.0735347 0.404982 0
0.0808884 0.38726 0
0.0849646 0.377832 0
0.101882 0.39507 0
0.125766 0.448769 0
0.105263 0.495181 0
0.145838 0.540441 0
0.147555 0.519417 0
0.130384 0.506219 0
0.131624 0.55018 0
0.126726 0.633683 0
0.146713 0.630255 0
0.13616 0.616369 0
0.164866 0.666877 0
0.203268 0.555967 0
0.0938377 0.215464 0
0.0787328 0.222114 0
0.0857029 0.215302 0
0.0877817 0.241817 0
0.0916198 0.229177 0
0.0959132 0.245066 0
0.0845371 0.229315 0
0.0905908 0.255937 0
0.0753833 0.260805 0
0.0837612 0.270193 0
0.0788748 0.24343 0
0.0972621 0.257501 0
0.0762474 0.279708 0
0.0815718 0.256406 0
0.0667854 0.241601 0
0.0813975 0.280879 0
0.0786082 0.269545 0
0.0725702 0.247525 0
0.0740169 0.232865 0
0.0716985 0.218293 0
0.0673966 0.227901 0
0.0773033 0.193508 0
0.0767529 0.207821 0
0.0831805 0.201525 0
0.0688456 0.199277 0
0.0884833 0.177615 0
0.0716697 0.207757 0
0.0838832 0.187944 0
0.0911186 0.189771 0
0.0792008 0.172845 0
0.0995485 0.177333 0
0.0787248 0.183235 0
0.0939799 0.180914 0
0.104597 0.193637 0
0.106546 0.20456 0
0.110617 0.191797 0
0.104557 0.183307 0
0.0973632 0.195811 0
0.161074 0.103789 0
0.138676 0.106484 0
0.158217 0.131611 0
0.148684 0.119599 0
0.147339 0.154813 0
0.292754 0.092573 0
0.224636 0.0679118 0
0.232285 0.0765779 0
0.23802 0.0682998 0
0.219655 0.0759298 0
0.251739 0.0657115 0
0.232611 0.0485371 0
0.257053 0.071481 0
0.262775 0.057165 0
0.231922 0.0583539 0
0.260416 0.0628336 0
0.23155 0.0640848 0
0.242249 0.0614255 0
0.188024 0.0688135 0
0.365599 0.0468201 0
0.59484 0.0563051 0
0.576718 0.0538801 0
0.580012 0.0613001 0
0.592887 0.0479493 0
0.605638 0.0645037 0
0.580677 0.0449942 0
0.637396 0.0507432 0
0.616207 0.0415267 0
0.59131 0.0647737 0
0.613836 0.0514454 0
0.600416 0.0429861 0
0.612179 0.0580157 0
0.62445 0.0466435 0
0.646219 0.0433261 0
0.632328 0.0403683 0
0.694819 0.0539801 0
0.696314 0.0364378 0
0.66682 0.0502341 0
0.668411 0.0381212 0
0.651696 0.0482623 0
0.665674 0.043933 0
0.653124 0.0390605 0
0.528785 0.0276828 0
0.449012 0.0423619 0
0.440671 0.0351201 0
0.488759 0.0500794 0
1.00406 0.618137 0
1.04623 0.632019 0
1.24208 0.249491 0
1.42586 0.392951 0
1.31412 0.387654 0
1.38096 0.380231 0
1.33034 0.356837 0
1.31284 0.347889 0
1.42679 0.561339 0
1.39798 0.555485 0
1.38367 0.514984 0
1.42272 0.528632 0
1.40995 0.510935 0
1.39948 0.527645 0
1.41683 0.545445 0
1.45808 0.503416 0
1.42877 0.489918 0
1.43541 0.512192 0
1.4606 0.533726 0
1.45698 0.481532 0
1.45584 0.447879 0
1.46451 0.464429 0
1.42832 0.463984 0
1.42011 0.43823 0
1.39497 0.444595 0
1.3893 0.428002 0
1.41066 0.477057 0
1.43412 0.449532 0
1.20591 0.708485 0
1.20044 0.653306 0
1.31156 0.760129 0
1.32284 0.678329 0
1.37626 0.6265 0
1.33197 0.621315 0
1.34146 0.590147 0
1.31637 0.636555 0
1.31655 0.584285 0
1.14073 0.693261 0
1.11298 0.578467 0
1.1412 0.578607 0
1.13746 0.596272 0
1.12325 0.623797 0
1.09102 0.61752 0
1.17578 0.194224 0
1.22825 0.19571 0
1.15965 0.167944 0
1.14171 0.153835 0
0.93938 0.18412 0
1.1544 0.129389 0
0.829356 0.206364 0
0.860907 0.162729 0
1.02829 0.89064 0
1.00384 0.896375 0
0.993928 0.926723 0
1.02449 0.968578 0
1.01411 0.942463 0
0.999387 0.966624 0
1.04811 0.939633 0
1.11515 0.865779 0
1.07069 0.795698 0
0.964594 0.968882 0
0.857696 0.960363 0
0.83978 0.955516 0
0.892813 0.796388 0
0.892077 0.773675 0
0.870829 0.780433 0
0.858199 0.761101 0
0.865722 0.740517 0
0.812209 1.01252 0
0.796004 1.0061 0
0.776407 1.10037 0
0.782916 1.07311 0
0.763526 1.07532 0
0.802618 1.09803 0
0.812338 1.0778 0
0.832364 1.0448 0
0.793029 1.18464 0
0.791151 1.13935 0
0.790131 1.11466 0
0.823605 1.1341 0
0.818649 1.10928 0
0.655022 0.809151 0
0.424142 0.622585 0
0.440503 0.660735 0
0.472397 0.689979 0
0.461199 0.663472 0
0.44978 0.679531 0
0.490993 0.655017 0
0.477097 0.667325 0
0.491596 0.686035 0
0.472945 0.635768 0
0.494812 0.620056 0
0.508108 0.619308 0
0.504122 0.641265 0
0.49248 0.599347 0
0.485034 0.720757 0
0.502947 0.669986 0
0.471363 0.616644 0
0.461195 0.629491 0
0.499655 0.707925 0
0.498136 0.728839 0
0.483209 0.701208 0
0.748054 0.0955323 0
0.74065 0.107622 0
0.727765 0.111915 0
0.583036 0.143131 0
0.641466 0.0753881 0
0.669245 0.084694 0
0.672979 0.0927664 0
0.645492 0.0854387 0
0.658733 0.0781128 0
0.687251 0.0871761 0
0.68872 0.0729971 0
0.671782 0.0736843 0
0.677397 0.0625305 0
0.682727 0.0798485 0
0.643503 0.0931654 0
0.0709384 0.35881 0
0.0783686 0.354458 0
0.0731798 0.339427 0
0.0758884 0.372661 0
0.0667971 0.384008 0
0.0748456 0.388739 0
0.0705425 0.373517 0
0.0781333 0.341344 0
0.0848036 0.420187 0
0.0923375 0.418767 0
0.08892 0.434525 0
0.0955489 0.439117 0
0.100999 0.465869 0
0.103255 0.443081 0
0.117262 0.48782 0
0.137695 0.511213 0
0.134829 0.489025 0
0.128214 0.567996 0
0.138526 0.545371 0
0.131232 0.527912 0
0.118498 0.51996 0
0.119321 0.549152 0
0.125342 0.518299 0
0.122984 0.500031 0
0.125537 0.539637 0
0.136649 0.645352 0
0.140008 0.630385 0
0.123722 0.690333 0
0.137292 0.683401 0
0.127935 0.662834 0
0.139975 0.66387 0
0.112714 0.652935 0
0.130105 0.681756 0
0.132288 0.718438 0
0.120813 0.65029 0
0.117533 0.672997 0
0.106919 0.680405 0
0.139444 0.59691 0
0.127472 0.60089 0
0.11312 0.611237 0
0.115963 0.632159 0
0.121019 0.614609 0
0.117952 0.59591 0
0.103212 0.572534 0
0.112308 0.575023 0
0.129506 0.617565 0
0.107003 0.593998 0
0.0880427 0.609901 0
0.101991 0.626711 0
0.0967527 0.59588 0
0.108592 0.634861 0
0.106502 0.613014 0
0.103077 0.647099 0
0.11756 0.565515 0
0.108603 0.547738 0
0.107037 0.661368 0
0.163893 0.642613 0
0.155243 0.647626 0
0.0554736 0.194244 0
0.0852508 0.166636 0
0.0978115 0.145719 0
0.0900856 0.153889 0
0.0989055 0.161114 0
0.0933624 0.168851 0
0.085774 0.13156 0
0.0956379 0.153729 0
0.0902038 0.141413 0
0.0818059 0.143068 0
0.0850362 0.150239 0
0.0665084 0.122301 0
0.0664579 0.148156 0
0.0752444 0.130011 0
0.0743214 0.149045 0
0.0802182 0.134234 0
0.0707033 0.138801 0
0.0760409 0.140235 0
0.0696689 0.129677 0
0.0697382 0.165457 0
0.0751757 0.159982 0
0.0701134 0.155396 0
0.106823 0.169181 0
0.148816 0.105255 0
0.144399 0.112306 0
0.133033 0.119514 0
0.155687 0.117725 0
0.142231 0.127715 0
0.140427 0.119345 0
0.145213 0.143246 0
0.155645 0.146397 0
0.162835 0.14628 0
0.288127 0.0993343 0
0.303711 0.0907803 0
0.283287 0.0785114 0
0.27802 0.0888611 0
0.272277 0.0942371 0
0.288247 0.085334 0
0.272529 0.081786 0
0.273364 0.0738827 0
0.264321 0.0750431 0
0.302407 0.0563731 0
0.28547 0.0635435 0
0.276782 0.0675207 0
0.274088 0.0601988 0
0.28645 0.0546425 0
0.273104 0.0531613 0
0.292959 0.0592761 0
0.304209 0.0698746 0
0.302476 0.0362156 0
0.298237 0.0457611 0
0.282098 0.0463529 0
0.295956 0.0513543 0
0.289083 0.0398067 0
0.299507 0.0407953 0
0.318961 0.0443466 0
0.310303 0.0500528 0
0.282183 0.0287417 0
0.331002 0.0614039 0
0.326275 0.0511413 0
0.289499 0.033638 0
0.356723 0.071385 0
0.363731 0.0831652 0
0.328985 0.0461921 0
0.339104 0.030541 0
0.331022 0.0376009 0
0.34122 0.054646 0
0.304545 0.0278857 0
0.266512 0.0361602 0
0.373044 0.0736668 0
0.330798 0.0558832 0
0.316606 0.0587658 0
0.348375 0.0628589 0
0.352619 0.0502204 0
0.368816 0.0562887 0
0.363198 0.0517697 0
0.354148 0.0566586 0
0.293516 0.0292999 0
0.289868 0.0230392 0
0.272824 0.0416011 0
0.278856 0.036536 0
0.273293 0.0319793 0
0.269785 0.026804 0
0.259834 0.0309607 0
0.279323 0.0245945 0
0.271423 0.0137588 0
0.278124 0.0185594 0
0.266475 0.0216248 0
0.362944 0.0766241 0
0.373855 0.0800626 0
0.317419 0.053592 0
0.30634 0.0628324 0
0.29605 0.0654023 0
0.292073 0.0726681 0
0.319653 0.0676801 0
0.301453 0.0765676 0
0.317204 0.0768791 0
0.364082 0.0638873 0
0.223888 0.0313438 0
0.243989 0.038504 0
0.265455 0.0172519 0
0.254059 0.0134095 0
0.2624 0.0145624 0
0.337346 0.0714776 0
0.321643 0.0875755 0
0.374923 0.0612991 0
0.241448 0.0297294 0
0.254361 0.0357359 0
0.25 0.0317159 0
0.255503 0.0425905 0
0.263681 0.0403616 0
0.346903 0.0686584 0
0.330098 0.0670769 0
0.24343 0.0449803 0
0.244685 0.0529317 0
0.235597 0.0533918 0
0.251587 0.0579101 0
0.25443 0.0489332 0
0.213199 0.0528181 0
0.224252 0.0533029 0
0.217835 0.0604557 0
0.200188 0.0603868 0
0.208927 0.068521 0
0.208952 0.0581723 0
0.211467 0.0742567 0
0.216516 0.0660177 0
0.194728 0.0761716 0
0.202533 0.0730568 0
0.18346 0.0766367 0
0.163605 0.0650477 0
0.185594 0.0835469 0
0.170269 0.0740779 0
0.178421 0.0701436 0
0.379684 0.0476747 0
0.376995 0.0410778 0
0.354694 0.0372977 0
0.367398 0.0375975 0
0.646999 0.0602703 0
0.653435 0.0542698 0
0.663339 0.0590918 0
0.671214 0.0236808 0
0.542378 0.0289999 0
0.530276 0.0175183 0
0.492559 0.0254994 0
0.436417 0.0445061 0
0.44366 0.0281629 0
0.990495 0.633939 0
1.0279 0.626017 0
1.03156 0.649097 0
1.06101 0.658156 0
1.04219 0.666106 0
1.09382 0.689748 0
1.07243 0.635356 0
1.06109 0.621051 0
1.08692 0.655875 0
1.09298 0.636626 0
1.0757 0.675465 0
1.1073 0.669511 0
1.11726 0.689944 0
1.10504 0.744602 0
1.12465 0.719927 0
1.09611 0.717555 0
1.1422 0.753761 0
1.06911 0.705674 0
1.12563 0.740697 0
1.16146 0.722675 0
1.03999 0.720639 0
1.14366 0.712747 0
1.05011 0.704465 0
1.023 0.71418 0
1.23164 0.268192 0
1.42267 0.407806 0
1.48919 0.389883 0
1.38727 0.397541 0
1.40643 0.382077 0
1.32265 0.371264 0
1.35762 0.366625 0
1.38891 0.359764 0
1.44582 0.307322 0
1.42443 0.335782 0
1.4132 0.351282 0
1.45447 0.555053 0
1.52837 0.515585 0
1.44364 0.433294 0
1.49451 0.423804 0
1.46684 0.42353 0
1.49255 0.448197 0
1.48103 0.40735 0
1.51684 0.405608 0
1.45759 0.393381 0
1.47436 0.438265 0
1.54946 0.437846 0
1.46574 0.364741 0
1.44462 0.350251 0
1.44218 0.378466 0
1.45861 0.407719 0
1.54072 0.418468 0
1.52074 0.432661 0
1.47006 0.379839 0
1.4985 0.334594 0
1.47512 0.346758 0
1.52086 0.363334 0
1.49354 0.369463 0
1.46411 0.325816 0
1.50215 0.350845 0
1.5392 0.342603 0
1.52243 0.38435 0
1.43781 0.322045 0
1.38314 0.304183 0
1.40385 0.319711 0
1.38459 0.337845 0
1.44814 0.336235 0
1.41483 0.302453 0
1.40379 0.332321 0
1.37343 0.320948 0
1.33068 0.303152 0
1.30488 0.311898 0
1.34778 0.336804 0
1.35652 0.308241 0
1.29577 0.324333 0
1.3621 0.289491 0
1.33512 0.320511 0
1.36605 0.350307 0
1.45305 0.260272 0
1.39974 0.281352 0
1.37756 0.280696 0
1.39735 0.29401 0
1.23315 0.709131 0
1.25141 0.722611 0
1.26608 0.762627 0
1.27661 0.736685 0
1.25301 0.744356 0
1.28838 0.755701 0
1.28804 0.790543 0
1.29601 0.718873 0
1.35203 0.727768 0
1.32458 0.719785 0
1.30955 0.737516 0
1.33468 0.746952 0
1.34538 0.704022 0
1.34882 0.79237 0
1.37427 0.760377 0
1.41366 0.701652 0
1.33489 0.771324 0
1.35695 0.747455 0
1.37962 0.709033 0
1.31809 0.795639 0
1.40552 0.736827 0
1.38774 0.674717 0
1.3056 0.779313 0
1.40002 0.717452 0
1.39314 0.693486 0
1.35236 0.649309 0
1.33801 0.663325 0
1.36583 0.666215 0
1.38809 0.649366 0
1.446 0.615461 0
1.46504 0.586129 0
1.4124 0.627179 0
1.44636 0.573156 0
1.41119 0.592651 0
1.40727 0.573322 0
1.35305 0.629612 0
1.36052 0.60711 0
1.38844 0.605897 0
1.36477 0.588329 0
1.45131 0.663439 0
1.41764 0.662295 0
1.42284 0.609563 0
1.43984 0.593306 0
1.43904 0.639938 0
1.43347 0.683114 0
1.41057 0.680749 0
1.44692 0.710599 0
1.40951 0.645182 0
1.44662 0.748369 0
1.47782 0.6887 0
1.45621 0.68206 0
1.45637 0.729409 0
1.4299 0.728124 0
1.46861 0.705977 0
1.31486 0.605359 0
1.16264 0.669193 0
1.09422 0.596271 0
1.20306 0.194997 0
1.21703 0.183384 0
1.28507 0.162128 0
1.24676 0.169918 0
1.22664 0.174123 0
1.14953 0.180595 0
1.17154 0.177258 0
1.13565 0.170773 0
1.17349 0.15484 0
1.15912 0.144286 0
1.16963 0.136001 0
1.21815 0.120003 0
1.19738 0.129656 0
1.13539 0.143712 0
1.15678 0.159193 0
1.18411 0.165174 0
1.21556 0.154071 0
1.22771 0.163175 0
1.255 0.150054 0
1.19461 0.156652 0
1.17642 0.114529 0
1.21956 0.13988 0
1.1944 0.120373 0
1.17234 0.123457 0
1.15059 0.117272 0
1.15642 0.106304 0
1.20503 0.146257 0
1.23277 0.147649 0
1.22242 0.129718 0
1.25455 0.122552 0
1.11579 0.0921146 0
1.09857 0.102036 0
1.11305 0.108811 0
1.13529 0.109171 0
1.13699 0.0987035 0
1.08415 0.091818 0
1.117 0.0992757 0
1.1009 0.0789652 0
1.03394 0.0864101 0
1.03487 0.0973511 0
1.10032 0.0864791 0
1.05725 0.092058 0
1.06996 0.0818311 0
0.998415 0.0921991 0
1.01429 0.102564 0
1.05315 0.0853002 0
1.07608 0.0696934 0
1.0194 0.091979 0
1.0095 0.0834275 0
1.03472 0.072237 0
1.0096 0.0745132 0
1.0275 0.0791597 0
1.00939 0.0590639 0
0.980543 0.0666048 0
1.01623 0.0665987 0
0.990595 0.0722346 0
1.04942 0.061778 0
0.998277 0.0640278 0
1.02851 0.0614233 0
1.04036 0.054163 0
1.08174 0.0761287 0
1.05762 0.074781 0
1.0553 0.0680388 0
1.09015 0.0536098 0
1.01598 0.0520351 0
0.977011 0.0387314 0
1.00151 0.0441038 0
1.0458 0.0794921 0
1.06543 0.055938 0
1.07318 0.0624414 0
1.06733 0.0466126 0
1.0919 0.0653966 0
1.05658 0.0510699 0
1.13214 0.1257 0
1.1295 0.134699 0
1.14828 0.137217 0
0.868671 0.172675 0
0.891499 0.155915 0
1.03719 0.918967 0
1.07657 0.999518 0
1.07835 0.873423 0
1.04844 0.823324 0
0.854263 0.938365 0
0.857683 0.992175 0
0.840832 1.01472 0
0.868835 1.04643 0
0.865088 1.01843 0
0.850729 1.03704 0
0.851216 1.0721 0
0.852374 1.11605 0
0.881692 1.0868 0
0.844781 1.09435 0
0.868734 1.07031 0
0.888186 0.953827 0
0.892371 0.931737 0
0.817297 0.989925 0
0.813247 1.03919 0
0.798198 1.02895 0
0.741878 1.15441 0
0.809139 1.16032 0
0.846517 1.23843 0
0.845279 1.18095 0
0.829325 1.16233 0
0.819635 1.20378 0
0.850166 1.14857 0
0.877866 1.17402 0
0.86854 1.13458 0
0.86059 1.16869 0
0.870517 1.10813 0
0.421517 0.604346 0
0.48688 0.636126 0
0.452214 0.729882 0
0.447252 0.704872 0
0.463239 0.710974 0
0.45945 0.692263 0
0.72446 0.0916446 0
0.709442 0.0909751 0
0.721079 0.100415 0
0.743711 0.0851378 0
0.736875 0.100532 0
0.725199 0.0743831 0
0.724587 0.0833321 0
0.739881 0.0781784 0
0.746098 0.11618 0
0.707515 0.0638756 0
0.0802489 0.405829 0
0.087405 0.401531 0
0.0895213 0.494688 0
0.121781 0.474517 0
0.11172 0.467872 0
0.106618 0.45732 0
0.110535 0.484727 0
0.112367 0.505307 0
0.104345 0.522358 0
0.111486 0.52871 0
0.0971728 0.506799 0
0.100379 0.542845 0
0.0974424 0.525619 0
0.0981737 0.485537 0
0.0939332 0.469652 0
0.0902111 0.516671 0
0.0761861 0.509519 0
0.0818029 0.536282 0
0.0833623 0.50741 0
0.0871598 0.531199 0
0.0792073 0.470652 0
0.0801061 0.52049 0
0.0727448 0.534613 0
0.0791939 0.491003 0
0.0863842 0.469187 0
0.0797033 0.442989 0
0.0824507 0.457167 0
0.0765558 0.423807 0
0.0694328 0.514675 0
0.0690032 0.48073 0
0.0716823 0.497217 0
0.0745485 0.480754 0
0.0717591 0.454984 0
0.0661735 0.590165 0
0.0739978 0.439081 0
0.0606798 0.430539 0
0.0668723 0.439067 0
0.0674516 0.559279 0
0.0698701 0.421324 0
0.0667959 0.403576 0
0.0620904 0.3937 0
0.0644409 0.418578 0
0.0583679 0.410985 0
0.0599516 0.463956 0
0.0682085 0.54223 0
0.0404229 0.418696 0
0.0656253 0.458108 0
0.0614862 0.447361 0
0.0488192 0.409623 0
0.0508348 0.444983 0
0.0559427 0.450587 0
0.0535832 0.404896 0
0.052651 0.425096 0
0.121687 0.720344 0
0.127154 0.731322 0
0.126654 0.70759 0
0.106543 0.752689 0
0.115447 0.743151 0
0.110803 0.711947 0
0.116105 0.695457 0
0.115513 0.724002 0
0.144654 0.765105 0
0.136213 0.746252 0
0.151569 0.716433 0
0.141842 0.723625 0
0.148778 0.741292 0
0.155599 0.764865 0
0.158439 0.735455 0
0.174613 0.708542 0
0.162617 0.706912 0
0.144551 0.6991 0
0.137329 0.703643 0
0.15023 0.820075 0
0.168162 0.727974 0
0.168976 0.688594 0
0.189886 0.668375 0
0.17743 0.651023 0
0.18025 0.684158 0
0.167791 0.803281 0
0.150151 0.790146 0
0.204529 0.641502 0
0.198801 0.724739 0
0.183445 0.743427 0
0.176725 0.729406 0
0.187054 0.71208 0
0.181966 0.666012 0
0.173353 0.670311 0
0.163918 0.778788 0
0.158582 0.7993 0
0.178082 0.777444 0
0.170802 0.769211 0
0.204817 0.619414 0
0.195517 0.62984 0
0.186082 0.639158 0
0.195815 0.651281 0
0.207347 0.685379 0
0.20419 0.663852 0
0.178853 0.625668 0
0.228269 0.658834 0
0.215693 0.653449 0
0.216705 0.627027 0
0.190496 0.731213 0
0.195901 0.767537 0
0.189258 0.690359 0
0.197817 0.680548 0
0.197209 0.702598 0
0.219744 0.679452 0
0.224925 0.605623 0
0.217307 0.72084 0
0.207411 0.709987 0
0.2159 0.699327 0
0.238399 0.555241 0
0.224861 0.542376 0
0.245449 0.517371 0
0.245093 0.494434 0
0.23579 0.507043 0
0.229879 0.524145 0
0.21946 0.578708 0
0.234746 0.58329 0
0.27115 0.504655 0
0.264362 0.482653 0
0.213535 0.562554 0
0.226428 0.588663 0
0.257155 0.505285 0
0.254375 0.487227 0
0.262442 0.544524 0
0.264406 0.522884 0
0.253794 0.530993 0
0.275843 0.53701 0
0.243105 0.536881 0
0.250946 0.554896 0
0.298211 0.519816 0
0.288505 0.534126 0
0.284745 0.511146 0
0.275883 0.519739 0
0.295779 0.497738 0
0.287045 0.470802 0
0.294694 0.481526 0
0.298797 0.462283 0
0.294585 0.440666 0
0.275549 0.476433 0
0.282447 0.450652 0
0.280436 0.493403 0
0.273113 0.445787 0
0.0932003 0.567681 0
0.0865387 0.554805 0
0.0955704 0.552246 0
0.0768886 0.564247 0
0.0855523 0.582475 0
0.0810495 0.553354 0
0.090658 0.592486 0
0.0762385 0.606352 0
0.082226 0.600418 0
0.0793227 0.582466 0
0.0724344 0.582032 0
0.0948673 0.618303 0
0.0961402 0.64029 0
0.081425 0.668161 0
0.0894833 0.659203 0
0.0886206 0.634354 0
0.0811368 0.626095 0
0.0903383 0.715908 0
0.0728066 0.633798 0
0.083231 0.646825 0
0.076773 0.651759 0
0.0876856 0.687639 0
0.0693789 0.611921 0
0.0969895 0.69304 0
0.093471 0.675459 0
0.100073 0.725383 0
0.100909 0.678832 0
0.0959074 0.71183 0
0.0616093 0.201414 0
0.0639641 0.18144 0
0.0710797 0.184764 0
0.0646812 0.192299 0
0.0683435 0.175507 0
0.106465 0.152013 0
0.104772 0.160574 0
0.119978 0.139608 0
0.114619 0.148854 0
0.124783 0.155404 0
0.107349 0.133467 0
0.120986 0.148154 0
0.129933 0.145029 0
0.10901 0.142781 0
0.135864 0.157568 0
0.0964698 0.127976 0
0.137695 0.147428 0
0.129621 0.162648 0
0.137507 0.170914 0
0.0915254 0.132825 0
0.131864 0.177337 0
0.143155 0.178451 0
0.146363 0.166757 0
0.156511 0.166082 0
0.157745 0.155985 0
0.129757 0.10961 0
0.128796 0.0899607 0
0.120954 0.099972 0
0.131642 0.0993701 0
0.12363 0.106737 0
0.143514 0.091798 0
0.135821 0.0927988 0
0.142974 0.0996549 0
0.368713 0.0920339 0
0.344219 0.0920816 0
0.356367 0.089539 0
0.344787 0.0809114 0
0.330864 0.0788464 0
0.325989 0.0729623 0
0.334507 0.0865007 0
0.316312 0.03799 0
0.309879 0.0417326 0
0.312937 0.0323488 0
0.323346 0.026173 0
0.31483 0.0283997 0
0.325758 0.0311601 0
0.300811 0.0240314 0
0.312949 0.023854 0
0.292746 0.0183132 0
0.317154 0.0108454 0
0.33269 0.0171426 0
0.320362 0.0197324 0
0.284683 0.0149137 0
0.307771 0.0150208 0
0.335375 0.0221628 0
0.284397 0.00918851 0
0.302701 0.0175794 0
0.32022 0.0159426 0
0.324931 0.0226757 0
0.335644 0.0262681 0
0.36114 0.026017 0
0.348365 0.0272554 0
0.361989 0.0317013 0
0.376074 0.0268985 0
0.280863 0.0118806 0
0.296286 0.012189 0
0.356651 0.0185556 0
0.351066 0.0225524 0
0.349818 0.0328454 0
0.373548 0.0308492 0
0.295656 0.0151099 0
0.307354 0.0121178 0
0.303271 0.00803991 0
0.343607 0.0191465 0
0.245358 0.0192976 0
0.256554 0.0196022 0
0.251598 0.0164926 0
0.237415 0.0152805 0
0.244434 0.0133675 0
0.210115 0.0120254 0
0.222399 0.0215746 0
0.224897 0.0125993 0
0.23274 0.0191155 0
0.226359 0.0160018 0
0.234511 0.0244316 0
0.23347 0.0129334 0
0.223561 0.0261831 0
0.209545 0.0243807 0
0.231682 0.0286228 0
0.245559 0.0253363 0
0.325723 0.0970174 0
0.338238 0.101263 0
0.351153 0.100586 0
0.234368 0.0344699 0
0.218824 0.0407037 0
0.231596 0.0407106 0
0.224502 0.0362699 0
0.219397 0.0471121 0
0.210069 0.0440731 0
0.227065 0.0447931 0
0.197363 0.066938 0
0.157039 0.0742458 0
0.644682 0.0663879 0
0.630499 0.0569551 0
0.623504 0.0627934 0
0.677221 0.0551443 0
0.677141 0.030538 0
0.535767 0.0223257 0
0.511081 0.0212802 0
0.521851 0.0239929 0
0.509387 0.0280857 0
0.524366 0.0204369 0
0.505476 0.0244784 0
0.489493 0.0331882 0
0.502827 0.0347616 0
0.474627 0.0383763 0
0.496098 0.0294109 0
0.488488 0.0378118 0
0.466146 0.0307829 0
0.480177 0.028498 0
0.468069 0.0210144 0
0.477857 0.0241121 0
0.490435 0.0207266 0
0.47869 0.0184346 0
0.457874 0.00986239 0
0.471555 0.0134613 0
0.463131 0.0415167 0
0.475905 0.0338096 0
0.429784 0.0264067 0
0.435998 0.0312555 0
1.11841 0.770185 0
1.08802 0.770123 0
1.10421 0.802703 0
1.07006 0.740162 0
1.11849 0.789679 0
1.08909 0.790057 0
1.08647 0.750376 0
1.07772 0.722592 0
1.05897 0.767776 0
1.04543 0.745777 0
1.0199 0.778471 0
1.00869 0.752469 0
1.03769 0.766394 0
1.04215 0.794831 0
1.00194 0.79603 0
0.999085 0.772868 0
1.02511 0.737904 0
1.02804 0.813436 0
1.19459 0.779745 0
1.23037 0.772365 0
1.17707 0.697251 0
1.18461 0.718448 0
1.17887 0.750449 0
1.15973 0.687741 0
1.1596 0.742777 0
1.16385 0.776983 0
1.2077 0.754216 0
1.20444 0.731266 0
1.14426 0.773481 0
1.22536 0.279838 0
1.20555 0.253308 0
1.19591 0.266488 0
1.18161 0.252615 0
1.49044 0.517073 0
1.46782 0.518077 0
1.48762 0.537012 0
1.50767 0.494438 0
1.48056 0.492824 0
1.5704 0.479893 0
1.5293 0.467671 0
1.52904 0.44955 0
1.54192 0.493401 0
1.50976 0.477587 0
1.54717 0.477773 0
1.56295 0.45794 0
1.60709 0.462737 0
1.58346 0.466279 0
1.52588 0.326726 0
1.51865 0.283205 0
1.53007 0.304217 0
1.48771 0.306158 0
1.50196 0.319104 0
1.46721 0.312577 0
1.57934 0.368037 0
1.54831 0.373027 0
1.57044 0.385387 0
1.55726 0.356259 0
1.61487 0.418245 0
1.60628 0.338059 0
1.58657 0.404685 0
1.57225 0.338799 0
1.5723 0.423071 0
1.63107 0.38747 0
1.60108 0.381504 0
1.60936 0.396608 0
1.62972 0.360423 0
1.60532 0.366169 0
1.58912 0.352178 0
1.40312 0.254199 0
1.3743 0.785005 0
1.37865 0.733001 0
1.40416 0.763964 0
1.43697 0.781557 0
1.423 0.751065 0
1.53311 0.593459 0
1.5 0.77162 0
1.55218 0.703803 0
1.3051 0.621209 0
1.18132 0.661323 0
1.16137 0.650218 0
1.13477 0.663308 0
1.11951 0.177404 0
1.26021 0.160584 0
1.30491 0.140486 0
1.24186 0.109597 0
1.25262 0.135969 0
1.24252 0.128894 0
1.27648 0.142293 0
1.27833 0.152222 0
1.2857 0.128724 0
1.26503 0.129392 0
1.34375 0.122614 0
1.27716 0.120402 0
1.31053 0.120248 0
1.31194 0.130354 0
1.33479 0.138212 0
1.33967 0.0982472 0
1.36443 0.132358 0
1.3335 0.129796 0
1.33295 0.110241 0
1.44682 0.143417 0
1.40263 0.113476 0
1.32918 0.117362 0
1.30349 0.101999 0
1.40249 0.140978 0
1.37643 0.120879 0
1.36973 0.10628 0
1.3071 0.110928 0
1.32452 0.10335 0
1.37882 0.139679 0
1.3945 0.129804 0
1.42822 0.132286 0
1.34827 0.104907 0
1.35657 0.114242 0
1.3803 0.113049 0
1.42509 0.140792 0
1.4753 0.128912 0
1.41579 0.122627 0
1.44758 0.123029 0
1.45347 0.133963 0
1.47052 0.120459 0
1.5494 0.119312 0
1.50908 0.114861 0
1.43507 0.112389 0
1.4497 0.0863671 0
1.45063 0.0994221 0
1.45115 0.106931 0
1.4157 0.102232 0
1.39379 0.105747 0
1.42696 0.0929246 0
1.39461 0.075944 0
1.41766 0.0830457 0
1.45226 0.0694557 0
1.37443 0.0885056 0
1.37999 0.0974232 0
1.40351 0.0953112 0
1.35904 0.0940404 0
1.34458 0.085166 0
1.42553 0.0742162 0
1.39255 0.0832573 0
1.36612 0.0788714 0
1.29834 0.0868799 0
1.45257 0.077685 0
1.49599 0.0832362 0
1.48115 0.0734288 0
1.47097 0.0825161 0
1.48018 0.0929302 0
1.41294 0.0612719 0
1.36423 0.0648386 0
1.37307 0.0716136 0
1.39878 0.0679711 0
1.34625 0.0703779 0
1.31061 0.0570963 0
1.33396 0.0624969 0
1.32036 0.0834849 0
1.32005 0.0920148 0
1.50211 0.0766594 0
1.56666 0.08497 0
1.53924 0.0777064 0
1.45765 0.0927156 0
1.47967 0.102694 0
1.49071 0.109624 0
1.53488 0.0988005 0
1.51644 0.105724 0
1.54822 0.108318 0
1.50605 0.0970649 0
1.52661 0.088353 0
1.4273 0.0670466 0
1.36335 0.0511772 0
1.29326 0.06864 0
1.29681 0.0774743 0
1.31954 0.069651 0
1.30911 0.0635481 0
1.61384 0.0644134 0
1.53216 0.113922 0
1.58712 0.113257 0
1.57289 0.0991593 0
1.5033 0.0898694 0
1.55185 0.0920021 0
1.54387 0.0839925 0
1.5195 0.0816517 0
1.33862 0.0550715 0
1.3632 0.0578045 0
1.33803 0.0483821 0
1.38635 0.061053 0
1.30558 0.0492015 0
1.40063 0.0533999 0
1.26428 0.0741035 0
1.56012 0.0649116 0
1.56436 0.113523 0
1.58767 0.105319 0
1.59965 0.0907898 0
1.25453 0.0373519 0
1.24849 0.0554315 0
1.27672 0.0604105 0
1.42385 0.0556764 0
1.23657 0.0898229 0
1.54042 0.0701326 0
1.57734 0.0742474 0
1.59423 0.0972474 0
1.69853 0.0887161 0
1.28585 0.0418164 0
1.28657 0.0539509 0
1.24716 0.0640523 0
1.24256 0.0804077 0
1.56164 0.0787226 0
1.59696 0.0813974 0
1.64747 0.0849051 0
1.61116 0.0730378 0
1.62002 0.0855426 0
1.63642 0.0946937 0
1.30334 0.04436 0
1.20311 0.0591787 0
1.24981 0.0698292 0
1.26659 0.0868412 0
1.67145 0.0698205 0
1.67501 0.115711 0
1.66785 0.0921287 0
1.66193 0.10385 0
1.22029 0.0648827 0
1.22711 0.0584934 0
1.22425 0.0505988 0
1.16722 0.0728094 0
1.19051 0.0670014 0
1.27058 0.0666714 0
1.26114 0.0987838 0
1.27542 0.0801652 0
1.63931 0.0691937 0
1.63742 0.0770432 0
1.63611 0.102549 0
1.71905 0.10434 0
1.69351 0.0980941 0
1.20233 0.052943 0
1.14556 0.0531779 0
1.17366 0.0515276 0
1.2565 0.0467397 0
1.28093 0.0479159 0
1.22542 0.0420408 0
1.19856 0.0823664 0
1.25523 0.0922893 0
1.28235 0.0936378 0
1.69009 0.107406 0
1.15774 0.0625042 0
1.15381 0.0392373 0
1.24414 0.0505255 0
1.21633 0.0461581 0
1.22158 0.0838879 0
1.20353 0.0936048 0
1.19192 0.074635 0
1.21391 0.0769097 0
1.30204 0.0951878 0
1.17047 0.0669209 0
1.16324 0.0566328 0
1.17072 0.044502 0
1.20918 0.070423 0
1.19234 0.0368306 0
1.14078 0.0456207 0
1.17508 0.0396539 0
1.11777 0.0391085 0
1.11736 0.0504213 0
1.13559 0.0410598 0
1.11367 0.0581515 0
1.09446 0.0465532 0
1.11606 0.0445718 0
1.09322 0.0593312 0
1.13302 0.0624049 0
1.1382 0.0709753 0
1.11647 0.0734959 0
1.13935 0.0826349 0
1.13851 0.0905217 0
1.14959 0.076648 0
1.16883 0.0839094 0
1.18633 0.0886537 0
1.03483 0.0329747 0
0.954577 0.0519474 0
0.977399 0.0574894 0
0.995689 0.0541542 0
0.871978 0.154282 0
0.852461 0.151896 0
0.843199 0.160183 0
0.880068 0.164149 0
0.908901 0.165371 0
0.926068 0.161648 0
0.908882 0.13383 0
1.05441 0.974484 0
1.04109 0.959469 0
1.03191 1.02527 0
1.01015 1.00016 0
1.09289 0.953753 0
1.05108 1.00475 0
1.05839 1.03809 0
1.06895 0.95261 0
1.08014 0.974298 0
1.10602 0.992234 0
1.08221 0.915813 0
1.0312 0.993433 0
1.11092 0.96771 0
1.13441 0.917138 0
1.11545 0.938053 0
1.14117 0.945843 0
1.10831 0.908963 0
1.09634 0.931531 0
1.22177 0.993947 0
1.17692 0.920252 0
1.12721 0.89017 0
1.09116 0.893255 0
1.17784 0.976487 0
1.15509 0.926463 0
1.16578 0.951671 0
1.162 0.854584 0
1.15494 0.97423 0
1.16002 1.05696 0
1.16327 1.0147 0
1.13994 0.867131 0
1.1587 0.893163 0
1.13493 0.829384 0
1.10761 1.05243 0
1.1759 0.815676 0
1.13268 1.00941 0
1.18205 0.895548 0
1.1817 0.86967 0
1.21488 0.838285 0
1.18616 0.841564 0
1.20257 0.858806 0
1.09601 1.02253 0
1.08106 1.05412 0
1.17782 0.793737 0
1.14996 0.99684 0
1.14506 1.034 0
1.12256 1.03275 0
1.13314 1.06275 0
1.15384 1.10706 0
1.14978 1.08064 0
1.07531 1.02402 0
1.0574 0.877856 0
1.03533 0.839883 0
1.06762 0.845085 0
1.09327 0.850096 0
1.11463 0.841119 0
1.08462 0.822527 0
1.10419 0.823344 0
1.0663 0.815723 0
0.959811 1.08416 0
0.992975 1.04948 0
1.00881 1.02856 0
0.983454 1.01846 0
0.955557 1.00614 0
0.963131 1.04612 0
0.917936 1.00651 0
0.97666 1.06727 0
1.00911 1.14389 0
0.988038 1.10863 0
0.96619 1.02394 0
0.936597 0.996367 0
0.922882 1.05939 0
0.944851 1.06264 0
0.936494 1.03023 0
0.87146 0.946203 0
0.875142 0.974607 0
0.916478 0.960184 0
0.93557 0.947863 0
0.899016 0.980393 0
0.927588 0.927808 0
0.768647 1.16402 0
0.786572 1.25621 0
0.839639 1.2098 0
0.867446 1.21147 0
0.894204 1.2871 0
0.874331 1.25388 0
0.863133 1.23524 0
0.472434 0.758733 0
0.468 0.734566 0
0.693374 0.0600497 0
0.707464 0.0711897 0
0.701559 0.0776701 0
0.761236 0.049625 0
0.0845837 0.48531 0
0.0769105 0.456286 0
0.0561626 0.434836 0
0.206612 0.749577 0
0.209192 0.729874 0
0.197517 0.746077 0
0.204234 0.768686 0
0.221106 0.752788 0
0.213438 0.759918 0
0.186312 0.765834 0
0.19467 0.849169 0
0.199767 0.808651 0
0.190291 0.792299 0
0.188969 0.822223 0
0.180464 0.804522 0
0.174489 0.846491 0
0.180137 0.828009 0
0.184364 0.852345 0
0.192206 0.911462 0
0.190761 0.879284 0
0.174478 0.900776 0
0.177391 0.873435 0
0.169046 0.865433 0
0.161897 0.835027 0
0.209214 0.889895 0
0.183936 0.897716 0
0.157358 0.819129 0
0.199173 0.892925 0
0.205024 0.926347 0
0.203016 0.866776 0
0.215327 0.862762 0
0.206173 0.835845 0
0.227834 0.816628 0
0.212428 0.808911 0
0.224338 0.843847 0
0.218949 0.825091 0
0.221922 0.792348 0
0.214198 0.842185 0
0.227695 0.563517 0
0.253345 0.590187 0
0.262333 0.570054 0
0.283215 0.618339 0
0.272845 0.558148 0
0.276441 0.588719 0
0.280179 0.571283 0
0.307111 0.586598 0
0.294356 0.574387 0
0.305126 0.548495 0
0.294689 0.547819 0
0.264775 0.590604 0
0.294225 0.600488 0
0.305024 0.567535 0
0.340453 0.558551 0
0.322022 0.558237 0
0.286824 0.587239 0
0.30471 0.640564 0
0.307869 0.61356 0
0.295853 0.623308 0
0.285945 0.65031 0
0.316075 0.630487 0
0.322533 0.678095 0
0.316074 0.655462 0
0.301635 0.682834 0
0.335446 0.652618 0
0.311536 0.673732 0
0.325145 0.642899 0
0.320498 0.598945 0
0.342274 0.5939 0
0.318592 0.578138 0
0.33036 0.585775 0
0.332554 0.604231 0
0.0976757 0.578589 0
0.103806 0.702083 0
0.0930931 0.744903 0
0.0988149 0.766411 0
0.100496 0.746099 0
0.0997539 0.828369 0
0.0970684 0.797471 0
0.0829716 0.826379 0
0.111841 0.798942 0
0.0887764 0.804519 0
0.11814 0.77373 0
0.105867 0.779775 0
0.111478 0.767583 0
0.104269 0.806684 0
0.0910837 0.835162 0
0.129556 0.8228 0
0.0944837 0.817131 0
0.084116 0.869657 0
0.0974674 0.866653 0
0.13944 0.805255 0
0.121563 0.803017 0
0.0857853 0.846992 0
0.0780973 0.849551 0
0.0906138 0.864487 0
0.0913185 0.942802 0
0.0892662 0.903467 0
0.0961911 0.845547 0
0.142692 0.785802 0
0.130737 0.780653 0
0.11484 0.846105 0
0.109991 0.82471 0
0.105629 0.852823 0
0.117383 0.823126 0
0.0702642 0.803505 0
0.137004 0.768196 0
0.124715 0.770515 0
0.128566 0.801171 0
0.103086 0.871577 0
0.0982069 0.900519 0
0.111333 0.867778 0
0.126918 0.924545 0
0.117609 0.900281 0
0.0757082 0.821989 0
0.079366 0.782235 0
0.0673111 0.841333 0
0.0757289 0.799386 0
0.0727786 0.841614 0
0.0933251 0.885612 0
0.0940829 0.920008 0
0.108706 0.959814 0
0.103016 0.930809 0
0.0824794 0.802508 0
0.0851489 0.78282 0
0.0817539 0.742049 0
0.0858651 0.759501 0
0.0989644 0.963747 0
0.11237 0.928445 0
0.104132 0.908075 0
0.0874924 0.735224 0
0.0815425 0.710223 0
0.0973975 0.940886 0
0.0896967 0.983501 0
0.105972 1.03909 0
0.120263 0.958398 0
0.119509 0.924193 0
0.111048 0.905544 0
0.0816736 0.689023 0
0.0692249 0.6987 0
0.0756424 0.699153 0
0.0749239 0.674832 0
0.0722288 0.733369 0
0.0716216 0.65878 0
0.0675484 0.676087 0
0.0765198 0.719864 0
0.052277 0.675585 0
0.0596515 0.697529 0
0.0644052 0.691896 0
0.064107 0.724962 0
0.0930432 0.964609 0
0.10484 0.997842 0
0.114348 0.949697 0
0.104191 0.975113 0
0.106789 0.730184 0
0.123707 0.126685 0
0.129047 0.13453 0
0.126287 0.119236 0
0.113536 0.1226 0
0.134534 0.128265 0
0.114738 0.132272 0
0.119501 0.12098 0
0.109564 0.107379 0
0.104201 0.121793 0
0.114222 0.113745 0
0.0959665 0.114826 0
0.0896907 0.121698 0
0.103023 0.112192 0
0.0967814 0.0904523 0
0.0969585 0.102325 0
0.0806144 0.119163 0
0.105534 0.0961459 0
0.087368 0.0964044 0
0.0929465 0.108041 0
0.0855364 0.117106 0
0.0997367 0.0962151 0
0.0932643 0.0962969 0
0.121071 0.163982 0
0.10039 0.136136 0
0.118619 0.0893705 0
0.123475 0.0937097 0
0.110173 0.0884919 0
0.102274 0.0795638 0
0.113388 0.096637 0
0.107769 0.0823106 0
0.258899 0.00710828 0
0.267298 0.00989565 0
0.273491 0.00704322 0
0.253605 0.0098512 0
0.285427 0.00668349 0
0.265476 0.00165691 0
0.265813 0.00398767 0
0.277698 0.00479711 0
0.277382 0.00266257 0
0.266014 0.00569081 0
0.26754 0.00269296 0
0.28692 0.00366041 0
0.321001 0.0018241 0
0.305033 0.00298621 0
0.284765 0.000717495 0
0.29109 0.00181928 0
0.277207 0.00142609 0
0.294925 0.00286554 0
0.305176 0 0
0.30569 0.000706717 0
0.29522 0.000991018 0
0.305055 0.00161491 0
0.328887 0.00568709 0
0.29511 0.00963228 0
0.223795 0.00635825 0
0.211079 0.0175175 0
0.188233 0.0315418 0
0.163611 0.0781487 0
0.163514 0.0710908 0
0.145915 0.0628643 0
0.14967 0.08247 0
0.136794 0.08049 0
0.152349 0.0904125 0
0.156318 0.0803616 0
0.14516 0.0726651 0
0.142555 0.0847476 0
0.159498 0.0913412 0
0.15051 0.0763834 0
0.151993 0.0680017 0
0.133348 0.0670241 0
0.140738 0.0674154 0
0.13755 0.0606949 0
0.68055 0.0348907 0
0.712712 0.0275218 0
0.648574 0.0283454 0
0.510533 0.0165971 0
0.50165 0.0189497 0
0.530238 0.0082923 0
0.525081 0.0124823 0
0.522263 0.0151351 0
0.501466 0.0121198 0
0.50094 0.0147206 0
0.451852 0.0319983 0
0.454644 0.0369978 0
0.452724 0.0236361 0
0.457279 0.0274368 0
0.44203 0.0150457 0
0.448015 0.0190787 0
0.458498 0.0158847 0
0.457106 0.0126919 0
1.25543 0.792131 0
1.22381 0.805238 0
1.19892 0.806613 0
1.27285 0.814151 0
1.26409 0.875528 0
1.23384 0.864353 0
1.27572 0.845588 0
1.21463 0.786334 0
1.2447 0.828638 0
1.2545 0.854402 0
1.31646 0.878803 0
1.24378 0.808501 0
1.29069 0.868704 0
1.31291 0.8499 0
1.33697 0.824457 0
1.37749 0.823112 0
1.31823 0.815557 0
1.35675 0.812997 0
1.14317 0.731907 0
1.22559 0.256789 0
1.21705 0.231573 0
1.19303 0.228667 0
1.21215 0.213691 0
1.18385 0.216319 0
1.61201 0.493673 0
1.57671 0.507078 0
1.56398 0.494452 0
1.60013 0.288584 0
1.50745 0.296252 0
1.47471 0.280279 0
1.43923 0.286858 0
1.46404 0.294893 0
1.48614 0.291121 0
1.45087 0.274107 0
1.42411 0.265922 0
1.39863 0.26749 0
1.64469 0.442648 0
1.58934 0.442756 0
1.61691 0.445668 0
1.63471 0.458969 0
1.59551 0.427685 0
1.65286 0.373483 0
1.69408 0.338523 0
1.68033 0.358334 0
1.65259 0.340991 0
1.67443 0.345633 0
1.43314 0.832137 0
1.50045 0.581311 0
1.48043 0.573903 0
1.48967 0.614385 0
1.4684 0.632437 0
1.52129 0.654938 0
1.49853 0.637912 0
1.47803 0.65455 0
1.53534 0.624759 0
1.51154 0.621943 0
1.5388 0.553578 0
1.51041 0.549848 0
1.52061 0.568177 0
1.52859 0.53512 0
1.56795 0.534328 0
1.50849 0.600368 0
1.47846 0.75071 0
1.46065 0.769246 0
1.47045 0.808902 0
1.45848 0.79036 0
1.43732 0.806801 0
1.51223 0.704789 0
1.51713 0.739327 0
1.49458 0.737015 0
1.23813 0.117352 0
1.25832 0.114588 0
1.20632 0.107289 0
1.18147 0.105171 0
1.51774 0.129342 0
1.60425 0.142764 0
1.58725 0.0672713 0
1.31342 0.0298748 0
1.23156 0.0997026 0
1.21114 0.100198 0
1.26199 0.106467 0
1.26328 0.0418231 0
1.1805 0.0609098 0
1.18544 0.0556987 0
1.20154 0.0416538 0
1.22362 0.0349861 0
1.23531 0.0383332 0
1.25775 0.0262877 0
1.19228 0.025126 0
1.2475 0.031441 0
1.20073 0.0306913 0
1.28169 0.032864 0
1.22579 0.0270109 0
1.15669 0.0300066 0
1.16635 0.0346294 0
1.17843 0.0308126 0
1.27696 0.0373527 0
1.31009 0.0363775 0
1.28685 0.0273362 0
1.26716 0.0298131 0
1.22138 0.0308336 0
1.23508 0.0181674 0
1.3142 0.0239044 0
1.27727 0.0226911 0
1.2663 0.0181117 0
1.25006 0.0217624 0
1.22143 0.0221154 0
1.20641 0.018275 0
1.17797 0.0203639 0
1.19952 0.021603 0
1.38109 0.0270723 0
1.34793 0.0178165 0
1.30181 0.0093737 0
1.12745 0.0164571 0
1.16308 0.0246595 0
1.34504 0.0269608 0
1.32411 0.0198829 0
1.34921 0.0221218 0
1.37672 0.0197139 0
1.29122 0.0138514 0
1.31348 0.0161114 0
1.31918 0.0122588 0
1.15623 0.0172538 0
1.13133 0.0260596 0
1.32473 0.0268798 0
1.35958 0.0358285 0
1.35494 0.042336 0
1.37201 0.0233615 0
1.41591 0.0226851 0
1.28548 0.0166681 0
1.33686 0.0146135 0
1.37104 0.0144229 0
1.36176 0.0072959 0
1.13483 0.0302286 0
1.14298 0.0347137 0
1.14141 0.0212539 0
1.07736 0.0232182 0
1.36257 0.0306681 0
1.33678 0.0326715 0
1.33525 0.0379643 0
1.39863 0.0434065 0
1.40014 0.020029 0
1.41205 0.0104344 0
1.33436 0.00905656 0
1.12344 0.0349719 0
1.10186 0.0260877 0
1.40884 0.0481962 0
1.38373 0.0478519 0
1.37835 0.0396361 0
1.42333 0.0334106 0
1.3924 0.0322925 0
1.40476 0.0376082 0
1.44554 0.0409319 0
1.42381 0.0437076 0
1.42787 0.0378409 0
1.45871 0.034357 0
1.39737 0.0131646 0
1.37875 0.0100582 0
1.32928 0.00576179 0
1.10545 0.0202726 0
1.07053 0.0304593 0
1.08055 0.0382422 0
1.08071 0.0429558 0
1.4131 0.0279521 0
1.53346 0.0441304 0
1.44464 0.0292316 0
1.4567 0.0228509 0
1.45882 0.026378 0
1.39841 0.00746116 0
1.35673 0.00943033 0
1.34348 0.0117252 0
1.34091 0.00718456 0
1.31627 0.00746665 0
1.26841 0.00569281 0
1.28975 0.00705987 0
1.29677 0.00444998 0
1.2494 0.010296 0
1.27463 0.00927971 0
1.21742 0.0130563 0
1.25408 0.00764304 0
1.26969 0.0121089 0
1.20457 0.0152558 0
1.24158 0.00552169 0
1.20321 0.00799535 0
1.22902 0.00848824 0
1.21835 0.00621444 0
1.21243 0.0102924 0
1.17261 0.0107919 0
1.19334 0.0123825 0
1.11645 0.0233911 0
1.08166 0.0269744 0
1.5077 0.035586 0
1.36499 0.0119194 0
1.3172 0.00445455 0
1.2207 0 0
1.25969 0.00239031 0
1.24476 0.00365812 0
1.25044 0.0147766 0
1.27092 0.014676 0
1.22969 0.0152755 0
1.14706 0.0130506 0
1.48438 0.0331809 0
1.48016 0.0399033 0
1.27243 0.00377837 0
1.29322 0.00218496 0
1.16881 0.0135222 0
1.13243 0.0076036 0
1.10825 0.0116013 0
1.46758 0.0475082 0
1.50811 0.0412142 0
1.50403 0.0491196 0
1.33393 0.000828067 0
1.27002 0 0
1.1476 0.00988142 0
1.16819 0.00670192 0
1.12519 0.00989976 0
1.16477 0.00870404 0
1.19126 0.00497641 0
1.1252 0.0133668 0
1.10086 0.0152374 0
1.46456 0.0429598 0
1.48907 0.0447605 0
1.4767 0.0586364 0
1.45253 0.0546972 0
1.44143 0.060898 0
1.54564 0.0540869 0
1.52348 0.0614346 0
1.31946 0.00169324 0
1.27196 0.000652935 0
1.2969 0.00105237 0
1.29836 0.000185489 0
1.18833 0.00667291 0
1.18592 0.00106473 0
1.21972 0.00186841 0
1.15342 0.00349026 0
1.48197 0.0524882 0
1.50338 0.0566689 0
1.47738 0.0658788 0
1.49891 0.0626844 0
1.52957 0.0495522 0
1.54697 0.0598241 0
1.58699 0.0563775 0
1.27453 0.00149394 0
1.24452 0.00109562 0
1.31291 0.000577226 0
1.29504 0 0
1.27513 0.000167005 0
1.24524 0 0
1.23297 0.000287358 0
1.19841 0.00303284 0
1.16841 0.00475002 0
1.14256 0.0053503 0
1.1327 0.00386739 0
1.12953 0.000961002 0
1.13652 0.00214487 0
1.11797 0.00571175 0
1.16496 0.00194033 0
1.05179 0.00617953 0
1.08413 0.00539537 0
1.09735 0.00813558 0
1.17236 0 0
1.2513 0.000542364 0
1.19808 0.00181504 0
1.17543 0.00310639 0
1.15788 0.000763192 0
1.10006 0.00627684 0
1.07278 0.00747242 0
1.03922 0.0107634 0
1.07885 0.0106505 0
1.05173 0.00849004 0
1.01449 0.00728398 0
1.03118 0.00850603 0
1.19846 0.000251976 0
1.25399 0.000144188 0
1.13881 0.000259446 0
1.05921 0.0120281 0
1.02591 0.0181064 0
1.03806 0.0143802 0
1.21647 0.000145904 0
1.17711 0.000438324 0
1.14856 0 0
0.985238 0.0127529 0
1.01027 0.010925 0
1.05631 0.0181095 0
1.00902 0.0146802 0
1.05609 0.0152086 0
1.04102 0.0238161 0
1.05879 0.0264922 0
1.03732 0.0281906 0
1.01673 0.0252426 0
1.02383 0.0216627 0
1.00356 0.0312377 0
0.979403 0.0185553 0
1.00291 0.0194178 0
0.989514 0.0156895 0
1.09661 0.0715499 0
1.15991 0.0904919 0
1.02514 0.0395417 0
1.01935 0.0437338 0
1.04939 0.0418038 0
1.01572 0.0350911 0
0.994038 0.0355852 0
0.962528 0.0304606 0
0.974918 0.0340393 0
1.00546 0.0393336 0
0.973457 0.046032 0
0.977292 0.0515473 0
0.936448 0.0410668 0
0.953782 0.0368961 0
0.957511 0.042201 0
0.924418 0.0337849 0
0.943028 0.04667 0
0.904114 0.0572647 0
0.927318 0.0529967 0
0.944267 0.0326159 0
0.930305 0.0224999 0
0.942276 0.0269837 0
0.898987 0.0471125 0
0.920695 0.0454268 0
0.916089 0.040132 0
0.936834 0.0660175 0
0.966024 0.0252445 0
0.978497 0.0221964 0
0.953821 0.0201065 0
0.910654 0.027481 0
0.908775 0.0517515 0
0.959042 0.0626085 0
0.939466 0.0588797 0
0.919988 0.0617296 0
0.892891 0.0663325 0
0.957009 0.0149063 0
0.930614 0.0175493 0
0.925885 0.0257562 0
0.962846 0.017536 0
0.934496 0.0139446 0
0.914242 0.00682359 0
0.918762 0.0103197 0
0.89179 0.143089 0
0.913669 0.149526 0
0.933786 0.141883 0
1.0614 0.920738 0
1.20224 1.03987 0
1.1929 1.00638 0
1.15196 0.811917 0
1.16115 0.832033 0
0.945398 1.18359 0
0.90883 1.21316 0
0.888255 1.20155 0
0.891323 1.23315 0
1.02604 1.09863 0
1.0235 1.06097 0
1.00352 1.08207 0
1.03924 1.07821 0
1.04001 1.04746 0
0.895381 1.05487 0
0.911251 1.03422 0
0.898542 1.01382 0
0.882713 1.02862 0
0.912045 1.0996 0
0.935933 1.0928 0
0.93085 1.13961 0
0.926911 1.11485 0
0.908232 1.16878 0
0.954439 1.12017 0
0.907441 1.07466 0
0.952903 1.15243 0
0.983862 1.18326 0
0.975884 1.13812 0
0.964478 1.17476 0
0.993439 1.13138 0
0.969324 1.10522 0
0.78523 1.16249 0
0.769707 1.1312 0
0.753202 1.10638 0
0.75198 1.13263 0
0.750075 1.19229 0
0.753617 1.16935 0
0.769473 1.22231 0
0.754473 1.21539 0
0.769038 1.19299 0
0.7974 1.22175 0
0.817605 1.25785 0
0.826244 1.2313 0
0.802251 1.2465 0
0.847233 1.29812 0
0.484749 0.744237 0
0.729247 0.0544199 0
0.250663 0.718658 0
0.233611 0.703682 0
0.247334 0.776035 0
0.235308 0.790984 0
0.230537 0.681244 0
0.255373 0.658822 0
0.241637 0.664645 0
0.258639 0.62353 0
0.23499 0.758915 0
0.251204 0.687815 0
0.240583 0.687237 0
0.2373 0.638785 0
0.226598 0.771908 0
0.247278 0.746612 0
0.230176 0.731525 0
0.266929 0.704301 0
0.227681 0.627271 0
0.246999 0.626574 0
0.251673 0.609217 0
0.25383 0.639987 0
0.269414 0.761059 0
0.240777 0.728115 0
0.225816 0.71401 0
0.263476 0.679035 0
0.271947 0.688057 0
0.270276 0.652378 0
0.257065 0.703613 0
0.2232 0.643354 0
0.245339 0.647683 0
0.25713 0.76117 0
0.263164 0.733658 0
0.278497 0.663574 0
0.277502 0.6363 0
0.270523 0.616765 0
0.266834 0.634352 0
0.169958 0.826097 0
0.152356 0.850472 0
0.144129 0.902707 0
0.150721 0.879895 0
0.137804 0.858478 0
0.159069 0.92166 0
0.145505 0.862223 0
0.142935 0.836238 0
0.157733 0.895729 0
0.135345 0.836819 0
0.125588 0.856964 0
0.151559 0.911687 0
0.146213 0.979259 0
0.150869 0.946666 0
0.165739 0.905429 0
0.137546 0.947419 0
0.161902 0.981205 0
0.172992 0.946853 0
0.171383 0.92308 0
0.182566 0.929392 0
0.144197 0.956792 0
0.154081 0.970565 0
0.161717 0.950677 0
0.187754 0.981307 0
0.182188 0.95744 0
0.173517 0.980876 0
0.194498 0.952293 0
0.167739 1.00171 0
0.181248 1.02163 0
0.202052 0.945929 0
0.190507 0.932889 0
0.231353 0.937715 0
0.243144 0.594671 0
0.24592 0.573847 0
0.331382 0.521282 0
0.297592 0.660207 0
0.291387 0.676414 0
0.344525 0.689041 0
0.348192 0.625888 0
0.331095 0.568002 0
0.0792285 0.904342 0
0.059543 0.808926 0
0.0596016 0.896229 0
0.0756698 0.757797 0
0.0682756 0.757701 0
0.0718961 0.778575 0
0.0654436 0.784758 0
0.0601139 0.785729 0
0.0495281 0.760704 0
0.0524913 0.793308 0
0.0552797 0.767948 0
0.0648277 0.807932 0
0.0573095 0.737313 0
0.0675043 0.738429 0
0.0618379 0.742971 0
0.0593505 0.718269 0
0.050937 0.712243 0
0.0687871 0.718461 0
0.0969578 0.993018 0
0.0913641 1.01209 0
0.0998058 1.02065 0
0.114887 1.01456 0
0.0732326 0.118927 0
0.0658566 0.100701 0
0.0679605 0.111073 0
0.0765145 0.101398 0
0.0575575 0.110521 0
0.0710037 0.1039 0
0.0753448 0.110179 0
0.0812405 0.107196 0
0.0627139 0.107887 0
0.0615893 0.117118 0
0.0552846 0.12152 0
0.0493381 0.142073 0
0.0508486 0.130009 0
0.0580686 0.1399 0
0.0641453 0.136189 0
0.0594384 0.129153 0
0.0551401 0.132888 0
0.103416 0.103822 0
0.0877341 0.0832727 0
0.109082 0.0635188 0
0.311231 0.00526563 0
0.31831 0.00762493 0
0.218995 0.00924485 0
0.229425 0.00994053 0
0.208619 0.0066959 0
0.241295 0.00706744 0
0.216537 0.00733225 0
0.208354 0.00915669 0
0.178155 0.0121179 0
0.193807 0.0112782 0
0.202303 0.0108649 0
0.200114 0.0148807 0
0.244393 0.00912377 0
0.208689 0.0146787 0
0.218005 0.0145667 0
0.187513 0.0147457 0
0.20228 0.0178248 0
0.186175 0.0121357 0
0.182401 0.00622435 0
0.182205 0.00902427 0
0.169836 0.0190248 0
0.167795 0.00748225 0
0.176868 0.0158218 0
0.183478 0.0208541 0
0.183879 0.0175177 0
0.176061 0.00752884 0
0.207583 0.0207045 0
0.219954 0.0182793 0
0.196632 0.0265327 0
0.201586 0.0237788 0
0.190993 0.0231829 0
0.205473 0.0340293 0
0.214449 0.0360676 0
0.204582 0.0393296 0
0.194864 0.0361405 0
0.166759 0.0441661 0
0.179429 0.0549567 0
0.179337 0.0386258 0
0.146834 0.047611 0
0.181417 0.0623833 0
0.186197 0.0358845 0
0.188827 0.0419306 0
0.140166 0.0531928 0
0.190807 0.061974 0
0.17129 0.0598221 0
0.178427 0.0458773 0
0.189977 0.049858 0
0.193431 0.0557175 0
0.171828 0.0660172 0
0.168424 0.0517438 0
0.197799 0.0310236 0
0.207479 0.0290066 0
0.216552 0.0287794 0
0.150965 0.0551228 0
0.173758 0.0419866 0
0.163237 0.0327853 0
0.170077 0.0366296 0
0.17513 0.0301197 0
0.181121 0.0256294 0
0.17471 0.0224557 0
0.163929 0.0229071 0
0.182157 0.0501459 0
0.157793 0.0488449 0
0.144525 0.0574163 0
0.155564 0.061249 0
0.160252 0.0551827 0
0.188411 0.0274711 0
0.161606 0.0276225 0
0.125023 0.0789561 0
0.119694 0.0827479 0
0.697334 0.0309115 0
0.691755 0.0255521 0
0.71462 0.0196025 0
0.689678 0.0200841 0
0.707708 0.0233436 0
0.700779 0.017108 0
0.651197 0.0150806 0
0.666879 0.0185496 0
0.681568 0.0159278 0
0.635728 0.0210329 0
0.654381 0.0216268 0
0.646961 0.0183608 0
0.628152 0.0156082 0
0.643124 0.02448 0
0.606748 0.0267585 0
0.623779 0.0245645 0
0.602931 0.0198604 0
0.62526 0.0308765 0
0.62048 0.0359935 0
0.597379 0.0338462 0
0.609799 0.0230276 0
0.634738 0.0086786 0
0.612981 0.0170438 0
0.56655 0.0178369 0
0.640235 0.0317873 0
0.633537 0.0275427 0
0.609285 0.0309104 0
0.590656 0.0290803 0
0.573035 0.025821 0
0.590752 0.0239532 0
0.575838 0.021362 0
0.557159 0.0215137 0
0.586029 0.0176228 0
0.548246 0.0178456 0
0.557307 0.011567 0
0.540591 0.0143195 0
0.575237 0.0137923 0
0.637369 0.0120296 0
0.5575 0.0147897 0
0.590889 0.0145158 0
0.590515 0.00700006 0
0.588177 0.0104209 0
0.669925 0.0101292 0
0.679766 0.0126595 0
0.662089 0.0126548 0
0.617026 0.0106609 0
0.569001 0.00832213 0
0.572657 0.011004 0
0.651053 0.0100187 0
0.661421 0.00663219 0
0.621168 0.0131124 0
0.613522 0.00726432 0
0.602235 0.0114325 0
0.582334 0.00852707 0
0.571299 0.00516497 0
0.549477 0.00859216 0
0.538434 0.0107062 0
0.557828 0.0065087 0
0.632814 0.00568104 0
0.600947 0.0088206 0
0.57677 0.00674216 0
0.645122 0.00697969 0
0.564453 0 0
0.605197 0.00146114 0
0.604442 0.00389934 0
0.603015 0.00568409 0
0.617829 0.00487008 0
0.588015 0.0045881 0
0.588369 0.00248793 0
0.603587 0.00254876 0
0.631511 0.00219633 0
0.619849 0.00318091 0
0.575906 0.000645466 0
0.633822 0.00393244 0
0.587577 0.00129674 0
0.566909 0.00168749 0
0.531738 0 0
0.572586 0.00284436 0
0.527453 0.00112266 0
0.545798 0.0017322 0
0.54854 0.000358319 0
0.520707 0.00391678 0
0.555884 0.000964597 0
0.54124 0.000885417 0
0.528183 0.000306141 0
0.537788 0.00313025 0
0.522962 0.00228036 0
0.537322 0.0054599 0
0.488193 0.00103584 0
0.507466 0.00132996 0
0.515747 0 0
0.519253 0.00611921 0
0.480063 0.00459259 0
0.509808 0.00883932 0
0.500858 0.00478238 0
0.551596 0.00472935 0
0.502663 0.00036165 0
0.513743 0.0110905 0
0.483048 0.0087257 0
0.504602 0.00279881 0
0.504602 0.00668391 0
0.515318 0.000715969 0
0.512212 0.0134775 0
0.496179 0.00966346 0
0.483808 0.0114529 0
0.471701 0.0101261 0
0.665078 0.0274388 0
1.35853 0.862913 0
1.33398 0.861968 0
1.34369 0.88936 0
1.20135 0.240753 0
1.24912 0.220019 0
1.62232 0.477189 0
1.6963 0.540724 0
1.56904 0.301631 0
1.50201 0.259239 0
1.42215 0.278291 0
1.65446 0.355621 0
1.66586 0.302958 0
1.62807 0.345712 0
1.40688 0.818474 0
1.39842 0.856266 0
1.41182 0.839138 0
1.42922 0.864703 0
1.40096 0.903895 0
1.37282 0.894167 0
1.39359 0.880266 0
1.4312 0.895097 0
1.41526 0.880762 0
1.44878 1.00931 0
1.43204 0.952565 0
1.4234 0.923794 0
1.38633 0.942547 0
1.47336 0.924798 0
1.40998 0.943361 0
1.39633 0.99618 0
1.41115 0.971765 0
1.38014 0.918059 0
1.44849 0.914899 0
1.42385 0.996782 0
1.44821 0.978424 0
1.51793 0.992585 0
1.46181 0.951847 0
1.48132 0.993184 0
1.50394 0.9531 0
1.48308 0.944567 0
1.49202 1.05763 0
1.49926 0.97673 0
1.47728 1.02678 0
1.51287 1.02808 0
1.49982 1.00802 0
1.57695 1.09764 0
1.55462 1.01577 0
1.538 1.06902 0
1.53088 1.01244 0
1.53908 1.03993 0
1.58364 1.05145 0
1.56317 1.03829 0
1.58876 1.02117 0
1.66378 1.04902 0
1.62322 1.04239 0
1.51719 1.05365 0
1.46735 0.605433 0
1.49934 0.67159 0
1.58678 0.656892 0
1.57785 0.607196 0
1.55475 0.517798 0
1.57184 0.558684 0
1.55002 0.574484 0
1.55935 0.592929 0
1.53129 0.681432 0
1.56504 0.678052 0
1.59111 0.701635 0
1.55399 0.653142 0
1.60675 0.677979 0
1.57551 0.749994 0
1.57445 0.632639 0
1.69171 0.632129 0
1.57332 0.723401 0
1.54367 0.727792 0
1.61817 0.734124 0
1.59827 0.721365 0
1.5583 0.618452 0
1.65388 0.660263 0
1.63409 0.675418 0
1.62089 0.649496 0
1.65136 0.629519 0
1.6089 0.622437 0
1.59912 0.640058 0
1.62819 0.632398 0
1.60808 0.597558 0
1.65798 0.573651 0
1.62817 0.580206 0
1.642 0.604028 0
1.67373 0.611179 0
1.75688 0.587146 0
1.664 0.592692 0
1.71015 0.590306 0
1.70368 0.611687 0
1.74695 0.637708 0
1.72029 0.629132 0
1.7465 0.611592 0
1.80487 0.624087 0
1.73438 0.595514 0
1.77291 0.624369 0
1.7747 0.646594 0
1.78845 0.600408 0
1.82875 0.600923 0
1.80299 0.558167 0
2 0.65918 0
1.78634 0.577557 0
1.81995 0.57818 0
1.90955 0.635366 0
1.87439 0.611733 0
1.85507 0.598864 0
1.8422 0.625734 0
1.8213 0.650959 0
1.87397 0.636781 0
1.89595 0.690163 0
1.8937 0.661294 0
1.79911 0.642004 0
1.83506 0.694779 0
1.8561 0.660603 0
1.94703 0.673522 0
1.81768 0.674557 0
1.84485 0.643964 0
1.91707 0.674761 0
1.93036 0.653233 0
1.96574 0.652002 0
2 0.615967 0
2 0.63739 0
1.49696 0.123197 0
1.49504 0.145509 0
1.47646 0.138465 0
1.50091 0.136234 0
1.5414 0.143253 0
1.58504 0.128337 0
1.1246 0.019474 0
1.09091 0.0332424 0
1.05815 0.0352992 0
1.51684 0.0215782 0
1.43685 0.0181298 0
1.4319 0.0136438 0
1.42165 0.0161001 0
1.4878 0.0148556 0
1.46583 0.00888575 0
1.4581 0.0153952 0
1.47709 0.0190019 0
1.46912 0.0119679 0
1.44276 0.0106485 0
1.43841 0.00778196 0
1.45572 0.0196113 0
1.48765 0.0232824 0
1.50468 0.0178621 0
1.53932 0.0178655 0
1.4176 0.0083759 0
1.56247 0.0110463 0
1.51389 0.00988258 0
1.48805 0.0101343 0
1.55933 0.0146227 0
1.53347 0.0124881 0
1.50639 0.01259 0
1.52198 0.0152769 0
1.23843 0.0124859 0
1.44542 0.0459042 0
1.63393 0.0541321 0
1.64359 0.0612921 0
1.71017 0.0527496 0
1.67252 0.0552948 0
1.67385 0.0623378 0
1.71261 0.0668026 0
1.67695 0.0444325 0
1.65645 0.0493859 0
1.68532 0.0499157 0
1.57542 0.04692 0
1.0332 0 0
1.21288 0.000808685 0
1.19641 0 0
1.16066 0.000188895 0
1.08123 0.0188958 0
1.05817 0.0216264 0
0.983573 0.0293099 0
0.827572 0.043117 0
0.86225 0.0538423 0
0.885409 0.0528597 0
0.876788 0.0601151 0
0.901724 0.0323126 0
0.863781 0.026075 0
0.886202 0.0280401 0
0.889225 0.0200828 0
0.861272 0.0347868 0
0.896392 0.0240684 0
0.882181 0.0342741 0
0.868861 0.0303904 0
0.910333 0.0208646 0
0.877109 0.0231206 0
0.856379 0.0177458 0
0.903079 0.0174646 0
0.878765 0.0138281 0
0.884214 0.0834654 0
0.955373 0.00982216 0
0.950018 0.0123052 0
0.984612 0.00885598 0
0.972958 0.0107823 0
1.00297 0.00884924 0
0.962392 0.00619526 0
0.967118 0.00807312 0
1.17766 1.03736 0
0.893941 1.10559 0
0.923783 1.19052 0
0.931015 1.16588 0
0.909456 1.13952 0
0.891671 1.15619 0
0.760569 1.26033 0
0.722902 1.29031 0
0.776735 1.3082 0
0.738674 1.26563 0
0.748515 1.3076 0
0.751364 1.2818 0
0.774858 1.27892 0
0.797755 1.28895 0
0.818942 1.29036 0
0.854823 1.26791 0
0.836206 1.2622 0
0.870731 1.29407 0
0.862984 1.34939 0
0.887471 1.32817 0
0.860733 1.31965 0
0.835627 1.33559 0
0.881704 1.35614 0
0.939525 1.32494 0
0.831295 1.30939 0
0.805968 1.39907 0
0.913001 1.31551 0
0.815151 1.36065 0
0.905476 1.34544 0
0.936057 1.26171 0
0.91358 1.24731 0
0.940396 1.22224 0
0.966277 1.21163 0
0.896482 1.25958 0
0.916725 1.28029 0
0.93673 1.29323 0
0.966698 1.30382 0
0.788712 1.3475 0
0.843192 1.39962 0
0.87181 1.39791 0
1.01028 1.23756 0
0.798334 1.37232 0
0.764554 1.38896 0
0.78469 1.39866 0
0.778631 1.37131 0
0.756558 1.34798 0
0.770415 1.41738 0
0.792768 1.31997 0
0.844263 1.36602 0
0.824574 1.38831 0
0.85865 1.44875 0
0.99105 1.2156 0
0.974871 1.25721 0
1.02196 1.19255 0
0.977038 1.23203 0
1.0097 1.21195 0
1.03239 1.22379 0
1.04418 1.29776 0
1.05585 1.25542 0
0.772493 1.33577 0
0.73015 1.33961 0
0.857951 1.41859 0
0.954557 1.24546 0
0.744669 1.33186 0
0.732196 1.31256 0
0.711744 1.31924 0
0.676478 1.26133 0
0.697677 1.28389 0
0.712192 1.2399 0
0.721615 1.26265 0
0.727267 1.40285 0
0.746965 1.42457 0
0.666759 1.32645 0
0.689122 1.32404 0
0.69471 1.25275 0
0.691663 1.20433 0
0.680985 1.23053 0
0.674939 1.20506 0
0.637177 1.23482 0
0.658826 1.23011 0
0.723475 1.20099 0
0.743355 1.37751 0
0.721633 1.37012 0
0.707437 1.49271 0
0.678568 1.29495 0
0.652826 1.2824 0
0.645529 1.2006 0
0.73822 1.20787 0
0.734367 1.17919 0
0.739406 1.47993 0
0.663612 1.30075 0
0.6496 1.25407 0
0.630555 1.26869 0
0.597233 1.2302 0
0.616683 1.24167 0
0.634585 1.12848 0
0.749325 1.4546 0
0.725153 1.44491 0
0.615864 1.19023 0
0.596567 1.29051 0
0.61473 1.28588 0
0.645535 1.16198 0
0.6849 1.41762 0
0.704322 1.39648 0
0.72187 1.4751 0
0.610797 1.2161 0
0.595329 1.19266 0
0.628929 1.20904 0
0.632066 1.18035 0
0.602251 1.2604 0
0.704252 1.434 0
0.683308 1.46712 0
0.689893 1.44284 0
0.71161 0.0571072 0
0.288442 0.728859 0
0.292302 0.702879 0
0.279565 0.709825 0
0.310589 0.726809 0
0.314005 0.70016 0
0.275798 0.733969 0
0.299245 0.720661 0
0.321769 0.717579 0
0.331627 0.699722 0
0.303382 0.702259 0
0.123453 0.835034 0
0.119139 0.873639 0
0.128402 0.889987 0
0.123845 0.905395 0
0.134984 0.910478 0
0.14115 0.925453 0
0.137599 0.884908 0
0.131469 0.869532 0
0.128798 0.95299 0
0.125699 0.97754 0
0.117564 0.986272 0
0.135687 0.989369 0
0.111266 0.994223 0
0.134136 0.967089 0
0.141282 1.07249 0
0.135771 1.03257 0
0.132766 1.01091 0
0.143299 1.01068 0
0.153846 1.00449 0
0.144971 1.04229 0
0.158166 1.07749 0
0.149859 1.0664 0
0.148183 1.1107 0
0.15743 1.04501 0
0.158961 1.02172 0
0.180468 0.99615 0
0.203789 1.02603 0
0.219021 0.916953 0
0.33126 0.542499 0
0.31684 0.531611 0
0.317177 0.502935 0
0.306616 0.498093 0
0.306078 0.531232 0
0.321407 0.517343 0
0.334913 0.67442 0
0.387298 0.678055 0
0.33736 0.633203 0
0.356474 0.65872 0
0.364528 0.600411 0
0.376985 0.592736 0
0.084269 0.92789 0
0.0710946 0.956372 0
0.084599 0.959305 0
0.0766572 0.934726 0
0.0822059 0.989071 0
0.0776284 0.965769 0
0.0704082 0.908154 0
0.0749802 0.915021 0
0.0840806 0.892486 0
0.0787607 0.880262 0
0.0654105 0.874413 0
0.0691646 0.86091 0
0.0584711 0.848707 0
0.0650071 0.899683 0
0.0611409 0.936299 0
0.0694606 0.886721 0
0.063196 0.854195 0
0.0623168 0.829782 0
0.0411771 0.798395 0
0.0544455 0.695813 0
0.0455317 0.689096 0
0.0516723 0.737187 0
0.0470384 0.727323 0
0.108487 1.01711 0
0.0949857 0.0819732 0
0.0959622 0.0713162 0
0.0905053 0.0766547 0
0.0732837 0.0792874 0
0.0794666 0.0894665 0
0.0712993 0.0921672 0
0.0759498 0.0944341 0
0.074428 0.0861898 0
0.0643337 0.0906208 0
0.0683596 0.0842794 0
0.0579183 0.0978383 0
0.0622366 0.0965756 0
0.0591605 0.0902983 0
0.0462417 0.0826699 0
0.0529167 0.0846905 0
0.054173 0.0637486 0
0.0478118 0.0986827 0
0.0507308 0.073491 0
0.0487686 0.0899765 0
0.0526909 0.0956709 0
0.0520551 0.105848 0
0.0499464 0.0798166 0
0.0557378 0.0772934 0
0.0647827 0.0697738 0
0.0550598 0.0703357 0
0.0599104 0.0729067 0
0.0646816 0.0776823 0
0.0549712 0.0901978 0
0.0463391 0.10887 0
0.0530134 0.113992 0
0.0401812 0.10034 0
0.0434514 0.0926604 0
0.038076 0.090831 0
0.0357182 0.127044 0
0.0440831 0.102286 0
0.0414349 0.0848484 0
0.0422289 0.0742795 0
0.0428108 0.132158 0
0.0461556 0.0673597 0
0.0308048 0.0747823 0
0.035714 0.0803667 0
0.0469549 0.134371 0
0.0426251 0.119029 0
0.0409689 0.109701 0
0.0377071 0.117391 0
0.0287132 0.113531 0
0.032847 0.118132 0
0.0348835 0.10672 0
0.0271847 0.13537 0
0.0308902 0.128489 0
0.0504327 0.0671412 0
0.0394834 0.0789677 0
0.0364487 0.0709493 0
0.0342754 0.0876256 0
0.0459235 0.125217 0
0.0397356 0.125665 0
0.0364104 0.0999215 0
0.0302901 0.103285 0
0.0267368 0.123696 0
0.0317693 0.142066 0
0.029928 0.0530125 0
0.0340334 0.0750961 0
0.023209 0.102852 0
0.0266816 0.0884922 0
0.0304096 0.0901029 0
0.031271 0.0823264 0
0.0245906 0.114528 0
0.0230673 0.130544 0
0.0275335 0.148382 0
0.0392872 0.150656 0
0.043816 0.144191 0
0.0449265 0.160321 0
0.0471929 0.151107 0
0.0429445 0.152659 0
0.0336024 0.134302 0
0.0360622 0.143006 0
0.0385555 0.134978 0
0.035171 0.153086 0
0.0363834 0.179472 0
0.0347262 0.166343 0
0.0401695 0.142379 0
0.0342487 0.0605808 0
0.0266105 0.105872 0
0.0274416 0.0970611 0
0.0165345 0.134028 0
0.0199937 0.193126 0
0.0401872 0.168752 0
0.0379913 0.160119 0
0.0367276 0.0648105 0
0.0195225 0.129076 0
0.0271757 0.181227 0
0.0450239 0.190033 0
0.0315356 0.176704 0
0.0263954 0.164316 0
0.0456992 0.174826 0
0.0312523 0.196134 0
0.0285194 0.171879 0
0.0282243 0.157031 0
0.0412351 0.18121 0
0.0381187 0.193421 0
0.0507194 0.183787 0
0.0476829 0.166817 0
0.0332939 0.186581 0
0.0311944 0.166055 0
0.0347843 0.198626 0
0.0424284 0.204586 0
0.0570093 0.179635 0
0.0496293 0.174826 0
0.0492943 0.203956 0
0.0417287 0.194776 0
0.0429651 0.251444 0
0.0597809 0.188711 0
0.0612976 0.165478 0
0.0647946 0.157714 0
0.0581527 0.153156 0
0.052551 0.151182 0
0.0537098 0.142445 0
0.0509831 0.194116 0
0.0457305 0.199655 0
0.0558422 0.217354 0
0.0597354 0.232955 0
0.0411683 0.227544 0
0.0607638 0.174644 0
0.0615515 0.146389 0
0.0563067 0.162821 0
0.0601215 0.212105 0
0.0402026 0.215251 0
0.0461043 0.217992 0
0.0470259 0.236212 0
0.0508457 0.215582 0
0.0524814 0.230374 0
0.0448136 0.227655 0
0.0543165 0.263583 0
0.0552743 0.245976 0
0.0491802 0.252543 0
0.0617255 0.257286 0
0.0683293 0.260446 0
0.0510125 0.241577 0
0.0602006 0.245231 0
0.0573857 0.255695 0
0.063435 0.278698 0
0.0697084 0.276968 0
0.0643599 0.267003 0
0.108409 0.0725177 0
0.118188 0.0716129 0
0.102512 0.0674951 0
0.100787 0.0581029 0
0.112893 0.0682443 0
0.121544 0.0617165 0
0.126353 0.0711698 0
0.133385 0.073936 0
0.109782 0.0545116 0
0.0817491 0.0514307 0
0.104019 0.0539114 0
0.106428 0.0587214 0
0.114635 0.0592134 0
0.120763 0.0504834 0
0.0918403 0.0526091 0
0.131373 0.0471708 0
0.111581 0.0458734 0
0.0977845 0.0532315 0
0.138993 0.0475231 0
0.143182 0.0349205 0
0.142995 0.0413151 0
0.152146 0.0310669 0
0.107846 0.0496845 0
0.155261 0.040834 0
0.161697 0.0375626 0
0.130336 0.0378789 0
0.152981 0.0452208 0
0.151487 0.036028 0
0.137591 0.0379595 0
0.302753 0.00439024 0
0.302213 0.00612621 0
0.321888 0.00360102 0
0.338735 0.00371353 0
0.3149 0.00267036 0
0.349637 0.000888972 0
0.330716 0.00257536 0
0.345754 0.00214903 0
0.334437 0.00119202 0
0.355957 0 0
0.320992 0.000676088 0
0.337769 0.000247681 0
0.317505 0 0
0.311304 0.000182218 0
0.3523 0.000210392 0
0.376755 0.000750419 0
0.369263 0 0
0.362713 0.00058995 0
0.375997 0.000163176 0
0.366308 0.00200709 0
0.363844 0.000131647 0
0.342896 0 0
0.325289 0.000186264 0
0.355631 0.00161125 0
0.215061 0.0044199 0
0.213793 0.000860967 0
0.211108 0.0022894 0
0.209612 0.00342618 0
0.250101 0.00460444 0
0.232462 0.00342073 0
0.2249 0.00446521 0
0.235162 0.00518993 0
0.221788 0.0027398 0
0.231585 0.00764119 0
0.195388 0.00622231 0
0.196455 0.00864056 0
0.202638 0.0055394 0
0.18879 0.00758364 0
0.171284 0.00454879 0
0.13877 0.0120441 0
0.170259 0.0262017 0
0.130317 0.0832073 0
0.619931 0.0201374 0
0.659419 0.0330268 0
0.718249 0.00263519 0
0.628131 0.00057714 0
0.51479 0.000178332 0
0.488415 0.00636642 0
1.35765 0.838408 0
1.24521 0.206281 0
1.22753 0.221615 0
1.24435 0.234441 0
1.31152 0.244892 0
1.27566 0.243327 0
1.66153 0.510492 0
1.62734 0.540646 0
1.61972 0.560379 0
1.59663 0.545133 0
1.60556 0.521018 0
1.5829 0.522279 0
1.63532 0.520554 0
1.66164 0.536389 0
1.63698 0.501575 0
1.59899 0.506126 0
1.6484 0.554308 0
1.67812 0.557649 0
1.68668 0.57761 0
1.72074 0.562768 0
1.75749 0.561198 0
1.55093 0.309429 0
1.59316 0.317858 0
1.5721 0.313657 0
1.63311 0.321294 0
1.59644 0.303029 0
1.63093 0.298086 0
1.61136 0.3256 0
1.61843 0.309928 0
1.64392 0.30924 0
1.67161 0.322349 0
1.65868 0.280506 0
1.7096 0.319515 0
1.65168 0.32845 0
1.62811 0.282315 0
1.64093 0.270944 0
1.58734 0.253567 0
1.6176 0.259487 0
1.63221 0.22754 0
1.59087 0.271072 0
1.63316 0.244096 0
1.65247 0.292448 0
1.77482 0.346356 0
1.70318 0.299997 0
1.61531 0.271655 0
1.5465 0.264414 0
1.56741 0.283702 0
1.70105 0.2361 0
1.59878 0.236184 0
1.73595 0.337107 0
1.68727 0.311069 0
1.74496 0.269628 0
1.57131 0.26314 0
1.55654 0.249011 0
1.56352 0.231978 0
1.54726 0.293142 0
1.66921 0.24428 0
1.60873 0.247187 0
1.71429 0.331925 0
1.71687 0.354691 0
1.73826 0.321638 0
1.73217 0.28736 0
1.57691 0.242043 0
1.50687 0.197829 0
1.6982 0.262706 0
1.6692 0.227127 0
1.70229 0.368378 0
1.76641 0.414135 0
1.72863 0.393569 0
1.70915 0.383061 0
1.74666 0.352428 0
1.74277 0.373416 0
1.79821 0.291019 0
1.78501 0.314809 0
1.52779 0.217123 0
1.67583 0.256198 0
1.69633 0.281138 0
1.65112 0.23557 0
1.72555 0.203048 0
1.6499 0.213443 0
1.76786 0.390909 0
1.7639 0.29424 0
1.7645 0.307056 0
1.77541 0.277897 0
1.53916 0.227883 0
1.72054 0.27532 0
1.67814 0.27141 0
1.68174 0.292197 0
1.70408 0.217944 0
1.59007 0.207022 0
1.56194 0.216022 0
1.75016 0.402114 0
1.70412 0.429055 0
1.73389 0.41967 0
1.69242 0.405141 0
1.75103 0.462589 0
1.76013 0.438231 0
1.82309 0.40365 0
1.78393 0.368922 0
1.82163 0.27028 0
1.77998 0.257096 0
1.73731 0.228073 0
1.68562 0.202736 0
1.67699 0.215408 0
1.60217 0.220934 0
1.62012 0.209742 0
1.55167 0.196357 0
1.72657 0.446166 0
1.80949 0.458069 0
1.79143 0.402964 0
1.80846 0.384279 0
1.76068 0.363792 0
1.76542 0.377411 0
1.80159 0.278371 0
1.83062 0.286585 0
1.86343 0.317676 0
1.85473 0.29994 0
1.7139 0.227324 0
1.78458 0.210753 0
1.7329 0.215232 0
1.76188 0.219834 0
1.75541 0.206233 0
1.78866 0.187831 0
1.77852 0.198922 0
1.7053 0.207931 0
1.70707 0.170336 0
1.66314 0.205241 0
1.57901 0.223608 0
1.5434 0.207443 0
1.6844 0.453297 0
1.7788 0.453635 0
1.78003 0.476535 0
1.80432 0.429943 0
1.86055 0.383054 0
1.82185 0.363747 0
1.82446 0.313025 0
1.82029 0.299272 0
1.92756 0.300499 0
1.70625 0.187254 0
1.74714 0.187888 0
1.7029 0.443837 0
1.71364 0.469106 0
1.742 0.510431 0
1.8099 0.476687 0
2 0.495117 0
1.87419 0.466763 0
1.84003 0.467041 0
1.85777 0.500481 0
1.85664 0.447512 0
1.85739 0.481875 0
1.83155 0.491335 0
1.7788 0.427568 0
1.83483 0.389251 0
1.86137 0.405005 0
1.84831 0.368997 0
1.79791 0.355289 0
1.80949 0.333535 0
1.89081 0.304861 0
1.70577 0.197202 0
1.67415 0.189888 0
1.68511 0.178524 0
1.65345 0.157144 0
1.67594 0.166199 0
1.70392 0.15464 0
1.62536 0.176313 0
1.67883 0.156548 0
1.64604 0.185246 0
1.64672 0.168295 0
1.60831 0.191516 0
1.60964 0.159017 0
1.76752 0.165007 0
1.72751 0.178845 0
1.75794 0.176355 0
1.73702 0.167438 0
1.6816 0.474403 0
1.66501 0.490709 0
1.70688 0.495688 0
1.73589 0.537169 0
1.76864 0.496994 0
1.78335 0.527786 0
1.76738 0.514009 0
1.83653 0.432155 0
1.82273 0.418976 0
1.81808 0.443132 0
2 0.354492 0
1.9379 0.393033 0
1.80594 0.321039 0
1.82867 0.346976 0
1.85697 0.335662 0
1.92807 0.344583 0
1.89016 0.344783 0
1.9011 0.286905 0
1.62384 0.199386 0
1.7126 0.520982 0
1.68382 0.522846 0
1.71751 0.546851 0
1.74001 0.483792 0
1.76364 0.542002 0
1.84809 0.417667 0
1.8967 0.393534 0
1.9188 0.322213 0
1.89246 0.367553 0
2 0.237305 0
1.91827 0.420172 0
1.9129 0.310281 0
1.90886 0.334875 0
1.88243 0.328683 0
1.88555 0.380877 0
1.90931 0.355606 0
1.92902 0.372844 0
2 0.264404 0
1.90357 0.24297 0
1.91767 0.404145 0
1.88982 0.412478 0
1.90158 0.444866 0
2 0.387451 0
1.95201 0.277147 0
1.89249 0.264366 0
1.87808 0.440267 0
1.96532 0.378735 0
1.93041 0.286549 0
1.96286 0.295031 0
1.92103 0.271786 0
1.92175 0.256061 0
1.95119 0.239137 0
1.92902 0.245035 0
1.88649 0.27639 0
2 0.370789 0
1.95703 0.358301 0
2 0.322998 0
1.96785 0.3371 0
2 0.3078 0
1.97621 0.349522 0
2 0.338562 0
1.95945 0.316213 0
1.94114 0.331393 0
1.97569 0.325346 0
1.49861 0.273263 0
1.52332 0.270063 0
1.5431 0.278736 0
1.47782 0.264728 0
1.33867 0.970835 0
1.55338 0.95837 0
1.56525 1.07222 0
1.61079 1.0789 0
1.63964 1.06812 0
1.64904 1.13756 0
1.63648 1.10362 0
1.60566 1.05677 0
1.60564 1.11017 0
1.56245 1.17415 0
1.57747 1.13717 0
1.69155 1.10223 0
1.66907 1.07977 0
1.70426 1.06776 0
1.53365 1.11797 0
1.54964 1.09513 0
1.55875 1.11948 0
1.54459 1.14784 0
1.51331 1.14337 0
1.44567 1.22364 0
1.47352 1.17737 0
1.48824 1.15337 0
1.60502 1.17128 0
1.66414 1.11247 0
1.71756 1.09187 0
1.74009 1.18454 0
1.76115 1.13002 0
1.74415 1.1056 0
1.7383 1.01123 0
1.58299 1.16145 0
1.6068 1.14055 0
1.72978 1.04397 0
1.62702 1.12652 0
1.69427 1.01828 0
1.70315 1.04215 0
1.54029 0.768035 0
1.62321 0.792457 0
1.72503 0.737014 0
1.67003 0.644018 0
1.71422 0.682632 0
1.72058 0.655824 0
1.68687 0.666641 0
1.66552 0.689939 0
1.75223 0.666638 0
1.69743 0.649963 0
1.65706 0.722549 0
1.76873 0.708414 0
1.80024 0.697299 0
1.77484 0.686818 0
1.74345 0.692828 0
1.80791 0.742716 0
1.71591 0.70998 0
1.82038 0.718172 0
1.79128 0.723334 0
1.83784 0.737669 0
1.75952 0.734704 0
1.86187 0.715094 0
1.74259 0.716869 0
1.75053 0.815946 0
1.74625 0.774156 0
1.74398 0.752376 0
1.77899 0.760883 0
1.65132 0.704507 0
1.69246 0.6971 0
1.69089 0.7298 0
1.86536 0.692234 0
1.77815 0.792858 0
1.83719 0.785202 0
1.84546 0.761302 0
1.67833 0.712944 0
1.66151 0.764283 0
1.87443 0.674224 0
1.75241 0.794645 0
1.69927 0.7946 0
1.70945 0.764725 0
1.7976 0.831781 0
1.81061 0.768934 0
1.66855 0.7426 0
1.64086 0.748062 0
1.60936 0.763714 0
1.72235 0.783801 0
1.6853 0.775111 0
1.6608 0.800685 0
1.77796 0.815541 0
1.81071 0.804497 0
1.63522 0.771492 0
1.59873 0.745744 0
1.57663 0.784857 0
1.63448 0.821506 0
1.68581 0.824066 0
1.82766 0.825801 0
1.58658 0.767072 0
1.59369 0.817116 0
1.72024 0.883298 0
1.71757 0.817412 0
1.71014 0.85028 0
1.6152 0.81088 0
1.68398 0.846772 0
1.75818 0.856789 0
1.73239 0.862731 0
1.73555 0.837577 0
1.93594 0.59162 0
1.52008 0.150086 0
1.55148 0.131179 0
1.57247 0.140028 0
1.56624 0.154211 0
1.5432 0.152159 0
1.56805 0.175166 0
1.55691 0.164659 0
1.58595 0.165864 0
1.59647 0.176536 0
1.63756 0.128332 0
1.66342 0.141115 0
1.43645 0.0213281 0
1.61284 0.0579837 0
1.7025 0.0772138 0
1.66975 0.0783785 0
1.67584 0.0852157 0
1.73505 0.0593639 0
1.70321 0.0596219 0
1.73447 0.0647837 0
1.82181 0.0524404 0
1.76531 0.048449 0
1.78161 0.0578964 0
1.74124 0.0526306 0
1.75976 0.0610549 0
1.56944 0.0522439 0
1.60551 0.0500988 0
1.57375 0.0336838 0
1.05099 0.0015105 0
0.871023 0.0426613 0
0.871478 0.048392 0
0.84953 0.045638 0
0.852286 0.0398327 0
0.876563 0.0171732 0
0.897216 0.0117044 0
0.855523 0.00749272 0
0.872471 0.0100653 0
0.893891 0.008478 0
0.832664 0.0120996 0
0.887549 0.00524946 0
0.856252 0.0125633 0
0.846678 0.00986961 0
0.842173 0.0150546 0
0.862956 0.0150346 0
0.819796 0.00697159 0
0.837885 0.0181428 0
0.848465 0.0222396 0
0.826119 0.00935253 0
0.824363 0.0297354 0
0.846285 0.0307612 0
0.837172 0.00758844 0
0.844606 0.004167 0
0.80544 0.00879792 0
0.831271 0.0250896 0
0.830676 0.03588 0
0.778956 0.0158251 0
0.809453 0.0159341 0
0.787569 0.0116683 0
0.824845 0.0145556 0
0.809955 0.0118598 0
0.864269 0.0206714 0
0.846624 0.0268182 0
0.787276 0.0352791 0
0.7395 0.0101963 0
0.726688 0.0144564 0
0.794372 0.0142895 0
0.8092 0.0338647 0
0.803734 0.0404471 0
0.76116 0.0125247 0
0.819602 0.0391703 0
0.775985 0.0424257 0
0.80079 0.0525054 0
0.828799 0.051419 0
0.775862 0.0132661 0
0.771185 0.00989929 0
0.742779 0.0129847 0
0.749808 0.0186506 0
0.754458 0.0153179 0
0.735125 0.0234532 0
0.788055 0.0395307 0
0.808996 0.0464265 0
0.788152 0.0473333 0
0.880741 0.0741474 0
0.917162 0.0770668 0
0.915673 0.0690874 0
0.900255 0.0733621 0
0.935141 0.00820844 0
0.992647 0.00657052 0
0.941673 0.0016465 0
0.965555 1.34777 0
0.934671 1.38264 0
0.916365 1.37036 0
0.932628 1.35279 0
0.975171 1.32614 0
0.957139 1.32516 0
1.00418 1.409 0
0.990701 1.37032 0
0.964053 1.39189 0
1.03643 1.36161 0
0.973247 1.37031 0
0.951938 1.36875 0
0.942087 1.43794 0
0.911203 1.41954 0
0.984247 1.3993 0
0.983303 1.45221 0
1.01207 1.3513 0
1.01861 1.38293 0
1.03049 1.32717 0
1.03296 1.42063 0
0.946354 1.40773 0
0.964974 1.42941 0
0.957589 1.45857 0
0.89198 1.40617 0
0.889352 1.45451 0
0.877256 1.42866 0
1.01187 1.44948 0
1.06923 1.39503 0
0.99676 1.43372 0
1.03364 1.45236 0
1.01794 1.52925 0
1.04773 1.50029 0
1.02041 1.48819 0
1.05467 1.4182 0
1.04744 1.38853 0
0.989158 1.50459 0
1.00006 1.47652 0
1.00723 1.50706 0
0.992589 1.28795 0
1.01797 1.29529 0
1.0325 1.26766 0
1.00885 1.26758 0
1.01164 1.32071 0
1.05531 1.15018 0
1.05513 1.11107 0
1.09644 1.10201 0
1.12523 1.09965 0
1.09527 1.07488 0
1.03369 1.13072 0
1.03224 1.16282 0
1.04315 1.18718 0
1.07408 1.09524 0
1.07907 1.1304 0
1.11597 1.07706 0
1.08805 1.18064 0
1.06559 1.18508 0
1.07609 1.15754 0
1.13014 1.15647 0
1.10284 1.14835 0
1.1353 1.12691 0
1.11265 1.12291 0
1.16032 1.1489 0
1.16954 1.12508 0
1.19576 1.08725 0
1.1731 1.0797 0
1.18969 1.06174 0
1.15712 1.22547 0
1.15075 1.18636 0
1.11851 1.19488 0
1.1994 1.19437 0
1.13272 1.17958 0
1.11305 1.17023 0
1.09087 1.23104 0
1.07961 1.20663 0
1.1378 1.21002 0
1.18271 1.16775 0
1.17426 1.19677 0
0.955494 1.27665 0
0.697317 1.1316 0
0.709736 1.16656 0
0.724527 1.1194 0
0.713089 1.07874 0
0.6657 1.12297 0
0.685687 1.16464 0
0.707082 1.19314 0
0.713609 1.14026 0
0.735898 1.09833 0
0.650739 1.13583 0
0.666029 1.15294 0
0.680292 1.13751 0
0.726383 1.22672 0
0.644093 1.43812 0
0.679076 1.52929 0
0.123258 1.04981 0
0.176342 1.0755 0
0.126465 1.13028 0
0.163171 1.12613 0
0.192667 1.01192 0
0.191244 1.05824 0
0.202419 0.993671 0
0.195448 1.03585 0
0.227247 1.0022 0
0.196292 0.975907 0
0.215081 0.989013 0
0.216728 1.02343 0
0.225586 0.968147 0
0.211601 1.0762 0
0.203415 1.05607 0
0.213047 1.04887 0
0.239342 1.07278 0
0.22515 1.06745 0
0.198422 1.09522 0
0.220764 0.943618 0
0.221881 1.11234 0
0.234026 1.03629 0
0.197624 1.07219 0
0.215893 0.964509 0
0.230882 1.09366 0
0.251598 1.19152 0
0.238601 1.14593 0
0.231923 1.12262 0
0.220637 1.16501 0
0.24743 1.10964 0
0.228476 1.14822 0
0.234301 1.19191 0
0.219735 1.08777 0
0.21137 1.1048 0
0.225769 1.02563 0
0.232821 1.05819 0
0.255098 1.03698 0
0.221645 1.04603 0
0.24441 1.04701 0
0.253805 1.07515 0
0.249447 0.977559 0
0.244171 1.01072 0
0.246211 1.08698 0
0.260098 1.1038 0
0.256571 1.14776 0
0.254922 1.12386 0
0.261999 1.05756 0
0.287854 1.02685 0
0.276032 1.04823 0
0.237946 0.964038 0
0.251074 0.933386 0
0.246839 0.954578 0
0.25737 1.00417 0
0.235099 1.01331 0
0.296357 1.09679 0
0.278596 1.12143 0
0.266745 1.13068 0
0.270531 1.10443 0
0.282546 1.08593 0
0.280335 1.18732 0
0.276243 1.15471 0
0.265564 1.18106 0
0.300228 1.15407 0
0.28809 1.14264 0
0.290431 1.17147 0
0.297815 1.12543 0
0.292253 1.20655 0
0.311285 1.13391 0
0.324778 1.2025 0
0.312317 1.09655 0
0.3238 1.1617 0
0.267086 1.02497 0
0.269328 0.963749 0
0.258312 0.954511 0
0.269701 0.994412 0
0.260696 0.979522 0
0.266772 0.939732 0
0.277565 1.01405 0
0.292954 0.976463 0
0.281457 0.987125 0
0.28645 0.933669 0
0.283193 0.959853 0
0.293788 1.06039 0
0.256966 1.17182 0
0.266428 1.25956 0
0.308461 1.21144 0
0.301904 1.18463 0
0.311442 1.16604 0
0.339617 1.0566 0
0.358357 1.17757 0
0.283818 1.06251 0
0.30424 1.07503 0
0.321121 1.06062 0
0.305589 1.02982 0
0.262218 1.22027 0
0.28025 1.23632 0
0.314998 1.19052 0
0.339937 1.17995 0
0.325932 1.09 0
0.296331 1.03838 0
0.246732 1.25333 0
0.27158 1.20509 0
0.282492 1.21174 0
0.270224 1.2354 0
0.329563 1.1813 0
0.349686 1.25392 0
0.347818 1.12932 0
0.337136 1.10855 0
0.355611 1.08629 0
0.337215 1.08212 0
0.348169 1.10465 0
0.256965 1.24541 0
0.248973 1.22211 0
0.349947 1.21305 0
0.322357 1.2679 0
0.334894 1.14245 0
0.348546 1.15819 0
0.349348 1.18951 0
0.337169 1.20872 0
0.328191 1.23597 0
0.314609 1.2406 0
0.336093 1.26322 0
0.340209 1.23602 0
0.331543 1.3057 0
0.370422 1.23409 0
0.358099 1.23369 0
0.364405 1.20561 0
0.386118 1.20036 0
0.210841 0.910855 0
0.231673 0.903603 0
0.222336 0.893153 0
0.240596 0.921082 0
0.331135 0.499512 0
0.316151 0.485453 0
0.403952 0.652359 0
0.346882 0.645954 0
0.366379 0.691816 0
0.352229 0.606322 0
0.36759 0.631805 0
0.377679 0.615352 0
0.385385 0.642994 0
0.398137 0.630582 0
0.371874 0.656021 0
0.365068 0.672086 0
0.382855 0.660887 0
0.0534396 0.825531 0
0.0552724 0.807812 0
0.0469739 0.813676 0
0.0527754 0.85259 0
0.0482955 0.838832 0
0.0530769 0.885628 0
0.0387761 0.848409 0
0.0436528 0.850305 0
0.0414462 0.825447 0
0.0404973 0.900821 0
0.0360228 0.813453 0
0.0433673 0.877846 0
0.0384935 0.875706 0
0.0472699 0.909715 0
0.0301489 0.859072 0
0.0357843 0.898572 0
0.0345572 0.860627 0
0.0319182 0.884363 0
0.0351498 0.836733 0
0.024524 0.892208 0
0.0279466 0.881102 0
0.0469519 0.785479 0
0.0419599 0.75703 0
0.0455104 0.766232 0
0.0575052 0.873119 0
0.0541674 0.921925 0
0.048614 0.887792 0
0.0554848 0.902209 0
0.0643543 0.964207 0
0.0698642 1.0232 0
0.0769031 1.01307 0
0.0723345 0.987823 0
0.0636085 1.00082 0
0.0684214 1.00135 0
0.0523577 1.03439 0
0.0612558 1.04763 0
0.0568698 1.00911 0
0.0644393 1.02652 0
0.0570768 1.03414 0
0.0547379 1.07033 0
0.0621762 1.121 0
0.056884 1.1018 0
0.0631946 1.08349 0
0.0593053 1.06958 0
0.0750349 1.11073 0
0.0916633 1.08866 0
0.097438 1.05781 0
0.089713 1.04517 0
0.0681645 1.0575 0
0.0681642 1.10606 0
0.0677123 1.13996 0
0.0723423 1.08166 0
0.074587 1.14462 0
0.0818129 1.07976 0
0.0756315 1.04854 0
0.0891474 1.21881 0
0.0852501 1.13071 0
0.0803299 1.18736 0
0.0793107 1.12897 0
0.0818503 1.15718 0
0.08258 1.10633 0
0.0758234 1.17082 0
0.0885401 1.18021 0
0.103167 1.10022 0
0.0951183 1.03556 0
0.0921579 1.06562 0
0.0825573 1.0489 0
0.0864784 1.06623 0
0.0769259 1.07131 0
0.0850809 1.20069 0
0.0727568 1.27462 0
0.0802134 1.24296 0
0.100463 1.19583 0
0.0979586 1.08401 0
0.104895 1.06966 0
0.116264 1.09547 0
0.113829 1.05869 0
0.109431 1.08962 0
0.111137 1.12124 0
0.117332 1.15867 0
0.118793 1.123 0
0.0937447 1.19791 0
0.117306 1.03749 0
0.119776 1.07265 0
0.130336 1.07859 0
0.124416 1.10042 0
0.134946 1.05813 0
0.137183 1.10701 0
0.14307 1.09495 0
0.141829 1.13689 0
0.134079 1.13219 0
0.0498459 0.69242 0
0.0441068 0.632686 0
0.0360047 0.684034 0
0.0809472 0.0780561 0
0.082507 0.0841034 0
0.0424416 0.0455858 0
0.0455083 0.0555872 0
0.0495754 0.0598296 0
0.0561167 0.0533494 0
0.053714 0.0580001 0
0.0442505 0.0614763 0
0.0277328 0.0637701 0
0.0324239 0.0673788 0
0.0202958 0.151767 0
0.0207938 0.139844 0
0.0177283 0.144453 0
0.023633 0.147074 0
0.0146124 0.142795 0
0.023152 0.158289 0
0.0184161 0.171665 0
0.0225632 0.172814 0
0.0201435 0.162554 0
0.0155489 0.158637 0
0.0177131 0.153681 0
0.0136687 0.151841 0
0.00976139 0.166343 0
0.0125921 0.164234 0
0.0243216 0.138398 0
0.0202652 0.181164 0
0.0235885 0.188086 0
0.0246933 0.218472 0
0.0270355 0.194373 0
0.0231376 0.203529 0
0.0285444 0.209302 0
0.0325107 0.20906 0
0.0349178 0.225654 0
0.0108233 0.156004 0
0.00698536 0.141303 0
0.00914204 0.14628 0
0.011716 0.182602 0
0.0151094 0.171211 0
0.0128783 0.174056 0
0.0163913 0.185891 0
0.0259886 0.203782 0
0.0292925 0.227208 0
0.00687329 0.158277 0
0.00872571 0.15725 0
0.0275713 0.218769 0
0.00754072 0.149813 0
0.0541849 0.205737 0
0.0427249 0.238921 0
0.0603933 0.30658 0
0.0660951 0.309561 0
0.128787 0.0619621 0
0.123724 0.0558378 0
0.0923216 0.0403354 0
0.0857078 0.0605008 0
0.0757307 0.0664473 0
0.0764902 0.0732746 0
0.0706925 0.0706362 0
0.121134 0.0422689 0
0.128438 0.0234087 0
0.139941 0.0272098 0
0.144455 0.0305613 0
0.397736 0.00561219 0
0.189552 0.0010681 0
0.250011 0.00630327 0
0.165097 0.00566243 0
0.151251 0.00861172 0
0.158678 0.00722205 0
0.160414 0.0133467 0
0.167434 0.0154759 0
0.162219 0.00997116 0
0.155597 0.018201 0
0.168759 0.012033 0
0.173653 0.00981563 0
0.157233 0.0213446 0
0.675718 0.00106286 0
0.685433 0.00387269 0
0.621762 0.00124466 0
1.27004 0.264581 0
1.27353 0.283128 0
1.25329 0.274943 0
1.3047 0.290391 0
1.33308 0.286247 0
1.30957 0.267845 0
1.31491 0.279575 0
1.33642 0.270227 0
1.35255 0.249325 0
1.3266 0.256614 0
1.35119 0.261163 0
1.37749 0.258607 0
1.28799 0.272808 0
1.2969 0.222767 0
1.52795 0.253484 0
1.76748 0.329245 0
1.71787 0.40747 0
1.66183 0.39598 0
1.63602 0.405306 0
1.64418 0.423414 0
1.67244 0.432666 0
1.66923 0.415255 0
1.74092 0.249921 0
1.74706 0.238582 0
1.83153 0.24277 0
1.6601 0.176729 0
1.58042 0.195117 0
1.57973 0.184415 0
1.62903 0.149762 0
1.6324 0.138784 0
1.6112 0.132059 0
1.61267 0.120541 0
1.62138 0.110947 0
1.64939 0.111822 0
1.65213 0.120611 0
1.68422 0.1287 0
1.74306 0.122301 0
1.71496 0.11524 0
1.68529 0.13714 0
1.71688 0.128881 0
1.69558 0.12096 0
1.74859 0.148947 0
1.74786 0.158515 0
1.75174 0.135131 0
1.73392 0.141524 0
1.81952 0.143891 0
1.79702 0.125 0
1.7818 0.142858 0
1.7683 0.127113 0
1.7878 0.133616 0
1.7769 0.153935 0
1.80896 0.163613 0
1.80227 0.175924 0
1.86389 0.156961 0
1.80601 0.153063 0
1.83361 0.157323 0
1.84953 0.16615 0
1.91511 0.185392 0
1.89526 0.16946 0
1.83477 0.530828 0
1.83176 0.510919 0
1.80995 0.522342 0
1.83448 0.326581 0
1.93796 0.478559 0
1.89832 0.488163 0
1.90824 0.468048 0
2 0.533936 0
1.94017 0.518381 0
1.92773 0.498496 0
1.89393 0.518399 0
1.96421 0.500971 0
2 0.514343 0
1.97131 0.524071 0
1.94071 0.554472 0
1.94888 0.536245 0
1.91203 0.539143 0
1.87189 0.540125 0
1.84148 0.556263 0
1.89935 0.568619 0
1.86244 0.520466 0
1.82091 0.545543 0
1.91537 0.555559 0
1.87125 0.560385 0
2 0.457764 0
1.85643 0.266087 0
1.87112 0.250816 0
1.83266 0.256839 0
1.80607 0.250155 0
1.96274 0.256321 0
1.97276 0.268302 0
2 0.278503 0
2 0.250671 0
1.97518 0.283702 0
1.97485 0.24542 0
2 0.21167 0
1.97442 0.306027 0
1.35686 0.946826 0
1.37002 0.976888 0
1.34813 1.00866 0
1.37216 1.0026 0
1.38227 1.10456 0
1.37098 1.0537 0
1.36512 1.0278 0
1.33651 1.04888 0
1.4165 1.04472 0
1.39115 1.03479 0
1.42735 1.02181 0
1.45003 1.04762 0
1.33402 1.0259 0
1.2702 1.09151 0
1.34953 1.08608 0
1.42944 1.09425 0
1.29877 1.0617 0
1.3522 1.06355 0
1.43159 1.0668 0
1.39944 1.07449 0
1.46457 1.0835 0
1.31473 1.04534 0
1.37561 1.07922 0
1.40577 1.0995 0
1.40586 1.16859 0
1.42459 1.13376 0
1.45536 1.14679 0
1.46925 1.06016 0
1.49645 1.09152 0
1.523 1.09242 0
1.39328 1.13668 0
1.45868 1.11472 0
1.43218 1.16227 0
1.42502 1.19655 0
1.36606 1.16902 0
1.43739 1.11542 0
1.45159 1.19447 0
1.39422 1.2503 0
1.38584 1.15931 0
1.36003 1.13218 0
1.4164 1.22842 0
1.38218 1.20838 0
1.36013 1.10751 0
1.33106 1.15725 0
1.40177 1.19431 0
1.52726 0.967165 0
1.54892 0.986977 0
1.57119 0.975531 0
1.63433 0.921937 0
1.60691 0.953041 0
1.66739 0.88838 0
1.53599 0.891446 0
1.58622 1.21488 0
1.63968 1.17203 0
1.68658 1.20323 0
1.67766 1.16419 0
1.71694 1.14166 0
1.65805 1.19567 0
1.70773 1.17749 0
1.71112 0.986542 0
1.66229 0.964444 0
1.691 0.967117 0
1.67363 0.993601 0
1.63194 0.991402 0
1.66462 1.02046 0
1.55031 0.74828 0
1.51887 0.759504 0
1.52239 0.789414 0
1.49502 0.796378 0
1.55212 0.78663 0
1.57073 0.806707 0
1.5592 0.850509 0
1.5585 0.827137 0
1.50964 0.839921 0
1.53584 0.839312 0
1.52342 0.865218 0
1.51737 0.814773 0
1.489 0.86528 0
1.49225 0.821938 0
1.60905 0.861474 0
1.46159 0.847714 0
1.48507 0.895706 0
1.50978 0.88657 0
1.50914 0.919753 0
1.53153 0.938554 0
1.62999 0.845453 0
1.60472 0.838213 0
1.63886 0.873529 0
1.60995 0.895517 0
1.64207 0.898017 0
1.57184 0.919022 0
1.55529 0.935493 0
1.5793 0.948764 0
1.48515 0.84313 0
1.456 0.826258 0
1.46327 0.899172 0
1.5778 0.87913 0
1.60275 0.92382 0
1.58389 0.856505 0
1.55268 0.873319 0
1.5859 0.900384 0
1.58077 0.835106 0
1.78666 0.921515 0
1.80554 0.875395 0
1.91062 0.609851 0
1.94973 0.623335 0
1.90526 0.588956 0
1.97297 0.633459 0
1.59173 0.15147 0
1.52633 0.180982 0
1.53481 0.170574 0
1.69543 0.0711657 0
1.76578 0.0845101 0
1.73359 0.0734869 0
1.731 0.0826496 0
1.76841 0.0752337 0
1.73403 0.0935968 0
1.8173 0.0807885 0
1.78226 0.105646 0
1.77167 0.115886 0
1.78891 0.0802423 0
1.75123 0.101878 0
1.7799 0.0944199 0
1.80098 0.0879432 0
1.83782 0.0889261 0
1.75755 0.0910791 0
1.81804 0.0992772 0
1.79441 0.0997105 0
1.82034 0.112345 0
1.7946 0.112376 0
1.7913 0.0517608 0
1.81195 0.0429416 0
1.79015 0.0462242 0
1.739 0.0319874 0
1.75872 0.039394 0
1.72496 0.0445162 0
1.56288 0.0400821 0
1.5949 0.0414494 0
1.54105 0.0351993 0
1.53001 0.0392938 0
1.54666 0.0271203 0
1.51216 0.029086 0
1.50918 0.0251233 0
1.55278 0.0312324 0
1.554 0.0220406 0
1.53403 0.0239713 0
1.61248 0.0254813 0
1.58093 0.0278121 0
1.63035 0.0338495 0
1.61915 0.0386603 0
1.65166 0.0400163 0
1.60184 0.0344317 0
1.69459 0.035716 0
1.61331 0.0300211 0
1.67737 0.0393132 0
1.70491 0.0405799 0
1.6631 0.033936 0
1.72404 0.0363972 0
1.65064 0.0275168 0
1.58628 0.0225025 0
1.73504 0.0402954 0
1.05999 0.00343296 0
0.890067 0.0424579 0
0.876292 0.00714741 0
0.864683 0.00510233 0
0.793619 0.021071 0
0.791188 0.0277313 0
0.810374 0.0238595 0
0.79521 0.0316169 0
0.808831 0.0276907 0
0.714891 0.0109194 0
0.69296 0.00965512 0
0.712653 0.0133774 0
0.720274 0.00607692 0
0.754654 0.00607648 0
0.767585 0.00755079 0
0.749873 0.00817404 0
0.737382 0.00661375 0
0.739298 0.00386158 0
0.724066 0.00845447 0
0.705417 0.00759836 0
0.700699 0.00523698 0
0.716063 0.00417186 0
0.680921 0.00593554 0
0.701702 0.00318124 0
0.700013 0.00148911 0
0.667944 0.00449991 0
0.675034 0.00791544 0
0.668956 0.0024457 0
0.791718 0.00233035 0
0.781454 0.00461303 0
0.742676 0 0
0.668457 0 0
0.68726 0.00231724 0
0.651627 0.00132675 0
0.75327 0.00114926 0
0.760785 0.00399833 0
0.775943 0.00309106 0
0.772704 0.00164485 0
0.751134 0.00245867 0
0.861328 0 0
0.775248 0.000382229 0
0.733474 0.00159973 0
0.731996 0.000348158 0
0.694731 0.000338115 0
0.648774 0.00250604 0
0.658987 0.000322639 0
0.690246 0.00085312 0
0.662022 0.000847646 0
0.761541 0.036414 0
0.771312 0.0312356 0
0.763281 0.0247113 0
0.728583 0.0373815 0
0.716937 0.0326489 0
0.734283 0.0329526 0
0.750863 0.0427454 0
0.774663 0.0273761 0
0.745436 0.038099 0
0.739985 0.0483695 0
0.730999 0.0429777 0
0.710886 0.0407704 0
0.688456 0.0428106 0
0.713262 0.0482288 0
0.695218 0.0480246 0
0.819731 0.0652808 0
0.846787 0.0508733 0
0.840423 0.0592791 0
0.818281 0.057764 0
0.841208 0.0666114 0
0.818655 0.0903398 0
0.824685 0.077324 0
0.827896 0.0708634 0
0.858119 0.0615448 0
0.85432 0.0801642 0
0.849665 0.0729766 0
0.871195 0.0793178 0
0.731211 0.0178415 0
0.732331 0.0279533 0
0.960163 0.00331837 0
0.912521 0.00307626 0
0.871613 1.48253 0
0.899243 1.59684 0
0.913076 1.52015 0
0.895475 1.49226 0
0.879502 1.5458 0
0.923809 1.47562 0
0.893386 1.52343 0
0.905559 1.55799 0
0.905777 1.468 0
0.941632 1.59404 0
0.920046 1.58489 0
0.937979 1.54653 0
0.869494 1.5159 0
0.976387 1.56323 0
0.936274 1.5083 0
0.954875 1.56733 0
0.966601 1.60333 0
0.962751 1.52905 0
1.01211 1.60977 0
0.988628 1.61718 0
0.996289 1.58252 0
1.02282 1.57055 0
0.997129 1.54641 0
1.03473 1.60114 0
1.03756 1.69319 0
1.03016 1.64726 0
1.0003 1.6625 0
1.04531 1.54318 0
0.981395 1.53064 0
1.07831 1.65304 0
1.01188 1.63917 0
0.962265 1.7448 0
1.01951 1.67576 0
0.995667 1.72084 0
1.04145 1.5706 0
1.11444 1.53024 0
1.05343 1.66252 0
1.0605 1.62532 0
0.977007 1.68735 0
1.08066 1.54868 0
1.0954 1.6012 0
1.07457 1.60246 0
1.04222 1.62639 0
0.925443 1.68062 0
0.923796 1.63222 0
0.975419 1.71989 0
0.950232 1.70026 0
1.06197 1.55907 0
1.06447 1.52385 0
0.946143 1.6544 0
0.950542 1.6228 0
0.926287 1.73009 0
0.960027 1.67451 0
0.901318 1.70643 0
0.934276 1.8051 0
0.945194 1.73054 0
0.935448 1.76587 0
0.915316 1.78375 0
0.871854 1.82386 0
0.905744 1.84427 0
0.890754 1.79495 0
0.916251 1.81659 0
0.899883 1.65865 0
0.851904 1.72823 0
0.890047 1.82709 0
0.878419 1.86968 0
0.904445 1.62745 0
0.872981 1.75833 0
0.871564 1.68488 0
0.869812 1.62693 0
0.910749 1.93505 0
0.885553 1.72982 0
0.841013 1.78924 0
0.889494 1.68338 0
0.889285 1.91049 0
0.853402 1.76247 0
0.860409 1.79508 0
0.912252 1.88868 0
0.89652 1.87207 0
0.933639 1.91405 0
0.949125 1.85945 0
0.927564 1.84936 0
0.934196 1.88054 0
0.976926 1.48063 0
1.06908 1.23275 0
1.0957 1.29931 0
1.12573 1.26149 0
1.13744 1.2378 0
1.11395 1.2352 0
1.15478 1.26855 0
1.20702 1.25949 0
1.18891 1.22929 0
1.18187 1.27392 0
1.17141 1.24803 0
0.682115 1.04331 0
0.699508 1.01565 0
0.684569 0.977196 0
0.701712 0.977755 0
0.701704 1.04474 0
0.676523 1.00945 0
0.636976 0.969268 0
0.660581 1.03339 0
0.659873 0.98194 0
0.631871 1.01561 0
0.669452 0.94879 0
0.659444 1.00755 0
0.643957 1.03293 0
0.684885 0.954002 0
0.679426 0.929657 0
0.645962 0.934046 0
0.652746 0.957951 0
0.66036 0.932134 0
0.707215 1.10645 0
0.687408 1.08138 0
0.681623 1.1086 0
0.663144 1.08401 0
0.647504 1.10405 0
0.699649 1.06757 0
0.674478 1.06568 0
0.660481 1.0566 0
0.666287 1.44045 0
0.657718 1.38273 0
0.653957 1.47585 0
0.667721 1.40871 0
0.682115 1.37225 0
0.664384 1.50577 0
0.681016 1.49801 0
0.696961 1.37388 0
0.689658 1.34979 0
0.666965 1.35681 0
0.643172 1.34205 0
0.647034 1.31186 0
0.604954 1.35905 0
0.611438 1.32294 0
0.623869 1.35017 0
0.62128 1.40343 0
0.61738 1.37587 0
0.637269 1.38117 0
0.63704 1.41093 0
0.174796 1.04518 0
0.165967 1.05932 0
0.182429 1.05709 0
0.15679 1.10578 0
0.154906 1.13272 0
0.186763 1.08974 0
0.176276 1.11725 0
0.211434 0.943217 0
0.21663 1.13766 0
0.24284 1.17322 0
0.210274 1.24833 0
0.328652 1.0224 0
0.301056 1.00078 0
0.310192 1.0531 0
0.317378 1.03193 0
0.372704 1.1255 0
0.360616 1.14215 0
0.360591 1.11351 0
0.375734 1.16443 0
0.382886 1.14178 0
0.40856 1.08056 0
0.389679 1.10045 0
0.373031 1.08747 0
0.386318 1.17505 0
0.379052 1.10666 0
0.386204 1.06715 0
0.364615 1.0663 0
0.39641 1.08001 0
0.406646 0.991165 0
0.392583 1.02487 0
0.402812 1.04995 0
0.407956 1.02119 0
0.451888 0.999141 0
0.428579 1.00272 0
0.416427 1.00466 0
0.385099 1.04327 0
0.360373 1.32776 0
0.388107 1.23941 0
0.380133 1.22151 0
0.378203 1.25337 0
0.363911 1.28111 0
0.415046 1.27853 0
0.347552 1.29342 0
0.374403 1.30935 0
0.415879 1.21308 0
0.402717 1.18789 0
0.39878 1.26753 0
0.343273 1.32787 0
0.357803 1.30255 0
0.38091 1.37446 0
0.400658 1.2204 0
0.411307 1.2454 0
0.43139 1.25265 0
0.426927 1.16072 0
0.399366 1.32586 0
0.3735 1.34394 0
0.387761 1.34548 0
0.397109 1.37582 0
0.417016 1.18288 0
0.410539 1.15051 0
0.403554 1.29634 0
0.388241 1.30625 0
0.425154 1.1135 0
0.40009 1.12526 0
0.413122 1.12438 0
0.41361 0.637923 0
0.410346 0.689311 0
0.422897 0.73032 0
0.437404 0.723263 0
0.437276 0.764175 0
0.433333 0.74356 0
0.354058 0.721165 0
0.0414959 0.961637 0
0.0376691 0.932867 0
0.048445 0.989881 0
0.0430572 0.930939 0
0.0344241 0.973163 0
0.0519167 1.00798 0
0.0531701 0.981948 0
0.0543205 0.951975 0
0.0475556 0.954928 0
0.0374241 0.957542 0
0.0450473 0.974622 0
0.0404941 0.993955 0
0.0365858 0.992607 0
0.0437522 1.03852 0
0.0477704 1.02334 0
0.0436395 1.01208 0
0.0479195 1.06743 0
0.0514828 1.05646 0
0.0353286 1.10927 0
0.042681 1.10365 0
0.0465944 1.0924 0
0.0423873 1.07029 0
0.0386168 1.04723 0
0.0386005 1.08823 0
0.0402826 1.02519 0
0.0286549 1.05772 0
0.0333677 1.0738 0
0.0367884 1.06758 0
0.0338786 1.04231 0
0.0303262 0.827758 0
0.020481 0.798907 0
0.0256094 0.806089 0
0.0237797 0.847706 0
0.0250858 0.868965 0
0.0209589 0.870182 0
0.0286653 0.809995 0
0.0264968 0.830928 0
0.0190697 0.834834 0
0.0211193 0.896438 0
0.0175612 0.961035 0
0.0238843 0.94577 0
0.0185454 0.925531 0
0.0232831 0.918152 0
0.0275651 0.927134 0
0.0273016 0.903793 0
0.017616 0.860878 0
0.0118621 0.82003 0
0.0113145 0.883132 0
0.0150607 0.834538 0
0.0145475 0.879023 0
0.0209933 0.849115 0
0.0204276 0.948312 0
0.0209752 0.988743 0
0.0284948 0.966529 0
0.0130753 0.931165 0
0.0170557 0.80982 0
0.0122685 0.851911 0
0.015084 0.856934 0
0.0313456 0.942767 0
0.0341514 0.929404 0
0.026798 0.948253 0
0.0158219 0.938031 0
0.0150982 0.908436 0
0.0125057 0.905695 0
0.0066675 0.930051 0
0.00961641 0.926778 0
0.0171778 0.771918 0
0.0142515 0.810866 0
0.0110251 0.764439 0
0.0120216 0.790985 0
0.00843674 0.840888 0
0.018063 0.790964 0
0.0146815 0.785533 0
0.0087714 0.789442 0
0.010467 0.838026 0
0.0095196 0.813953 0
0.00967484 0.863217 0
0.00595863 0.879006 0
0.00850675 0.894532 0
0.00755302 0.864424 0
0.00597272 0.839255 0
0.00772901 0.820229 0
0.0103374 0.904381 0
0.00797252 0.916192 0
0.00215422 0.810499 0
0.00399689 0.81705 0
0.00527147 0.820732 0
0.0704806 1.22338 0
0.0746155 1.20073 0
0.0757296 1.2269 0
0.08209 1.29102 0
0.109754 1.18481 0
0.111244 1.16143 0
0.103833 1.17264 0
0.0953052 1.14371 0
0.0965072 1.11357 0
0.0966409 1.17175 0
0.101016 1.13222 0
0.0901683 1.1146 0
0.111465 1.28221 0
0.126397 1.22857 0
0.135454 1.18553 0
0.136785 1.15808 0
0.108116 1.23376 0
0.119417 1.19796 0
0.106262 1.20762 0
0.117092 1.23306 0
0.127624 1.19741 0
0.113119 1.21014 0
0.112647 1.25444 0
0.0466866 0.659549 0
0.0398802 0.657756 0
0.0430383 0.671666 0
0.0432859 0.650374 0
0.0404679 0.695569 0
0.032724 0.734811 0
0.0369184 0.717578 0
0.0319661 0.704446 0
0.037283 0.744873 0
0.0331404 0.766861 0
0.0408201 0.737816 0
0.0352242 0.701714 0
0.0300262 0.670227 0
0.0236822 0.727396 0
0.0272716 0.770732 0
0.0351663 0.788691 0
0.0379653 0.769253 0
0.0323666 0.684654 0
0.0281727 0.723148 0
0.0302629 0.777858 0
0.0298443 0.752133 0
0.0259825 0.747027 0
0.0211978 0.756857 0
0.027356 0.694229 0
0.0186725 0.639164 0
0.0255563 0.711081 0
0.0211145 0.678486 0
0.0238889 0.691149 0
0.0250654 0.660177 0
0.0269422 0.675195 0
0.0362957 0.050602 0
0.0397067 0.0565935 0
0.0421316 0.0514466 0
0.0360837 0.0558549 0
0.0615862 0.0602808 0
0.0590856 0.0660905 0
0.0690471 0.0615931 0
0.0649014 0.0640871 0
0.076037 0.0575292 0
0.0661865 0.0542268 0
0.0799709 0.0620444 0
0.0611138 0.0525806 0
0.0709191 0.0562464 0
0.0527558 0.0401488 0
0.0304355 0.0592689 0
0.00938093 0.178369 0
0.00750422 0.170439 0
0.00388304 0.171337 0
0.00554845 0.167534 0
0.00406828 0.149894 0
0.00571232 0.149937 0
0.00534954 0.185981 0
0.00426948 0.160626 0
0.00621374 0.176985 0
0.003042 0.1566 0
0.0319064 0.219918 0
0.0251647 0.234686 0
0.0133353 0.232273 0
0.0188366 0.229074 0
0.0221375 0.227655 0
0.0200547 0.213835 0
0.0208312 0.243475 0
0.0164264 0.203631 0
0.0163688 0.245377 0
0.0193337 0.274581 0
0.0175209 0.194585 0
0.0168038 0.217583 0
0.0159336 0.229746 0
0.0184188 0.239775 0
0.0211282 0.259727 0
0.017476 0.2605 0
0.0114159 0.263229 0
0.0155634 0.276216 0
0.0142181 0.257668 0
0.0125177 0.278104 0
0.00640583 0.287471 0
0.00906931 0.278631 0
0.0137191 0.244829 0
0.032759 0.253898 0
0.0375326 0.246082 0
0.0289801 0.243443 0
0.0334653 0.239266 0
0.0641621 0.29419 0
0.0949268 0.0463518 0
0.102808 0.0406541 0
0.0866127 0.0454879 0
0.0869321 0.0503425 0
0.0806549 0.0359783 0
0.0854769 0.0397383 0
0.0895372 0.0350747 0
0.076801 0.0435948 0
0.0710218 0.048379 0
0.0994404 0.0332577 0
0.081214 0.0463656 0
0.0758149 0.051495 0
0.0911824 0.065436 0
0.0919138 0.0588426 0
0.097304 0.0635107 0
0.117747 0.0461848 0
0.124696 0.0463524 0
0.116288 0.0308291 0
0.128624 0.0302105 0
0.135413 0.0329794 0
0.392932 0.00241837 0
0.197731 0.00213896 0
0.204988 0.0013449 0
0.215332 0 0
0.201986 0.000315992 0
0.182467 0.00273126 0
0.189127 0.00199046 0
0.18892 0.00429613 0
0.179901 0.00417053 0
0.195033 0.00334345 0
0.148622 0.0143121 0
0.155343 0.0152688 0
0.152919 0.0114503 0
0.145294 0.010371 0
0.136318 0.00596219 0
0.14253 0.00770465 0
0.149818 0.00600888 0
0.136536 0.017768 0
0.140736 0.0149609 0
0.145871 0.0182603 0
0.140101 0.0220433 0
0.133312 0.0207714 0
0.120592 0.0160204 0
0.128014 0.0176969 0
0.13181 0.0142479 0
0.12606 0.00916734 0
0.131083 0.0112546 0
0.136737 0.00939283 0
0.121966 0.0122069 0
0.135014 0.0245464 0
0.146 0.0246187 0
0.13168 0.00761905 0
0.126751 0.0053265 0
0.116667 0.00935956 0
0.114925 0.0136251 0
0.0983006 0.0190878 0
0.109816 0.0186683 0
0.120854 0.00704338 0
0.10147 0.00518265 0
0.110288 0.00664279 0
0.109816 0.00888216 0
1.26297 0.253059 0
1.29184 0.255327 0
1.27389 0.216795 0
1.27527 0.229874 0
1.29688 0.235003 0
1.33973 0.227453 0
1.75567 0.259075 0
1.76509 0.247973 0
1.72512 0.260481 0
1.70719 0.249373 0
1.66055 0.13213 0
1.91497 0.213382 0
1.87319 0.183012 0
1.89619 0.17891 0
1.86961 0.172778 0
1.83422 0.19474 0
1.80877 0.202405 0
1.81954 0.18487 0
1.8262 0.221528 0
1.80965 0.213107 0
1.79385 0.225871 0
1.80033 0.237813 0
1.82233 0.232344 0
1.86758 0.230655 0
1.88829 0.199127 0
1.87918 0.240279 0
1.89206 0.18938 0
2 0.164795 0
1.92906 0.147448 0
1.79217 0.51025 0
1.88427 0.502473 0
1.95384 0.442581 0
1.93691 0.458965 0
1.96887 0.468124 0
1.97452 0.452538 0
1.9635 0.484243 0
2 0.476257 0
2 0.224304 0
1.95792 0.217948 0
1.38944 0.965238 0
1.324 0.995028 0
1.27461 0.944852 0
1.30397 0.964539 0
1.29031 0.908101 0
1.32385 0.934987 0
1.28138 0.8882 0
1.25117 0.912833 0
1.32139 0.906537 0
1.26664 0.992627 0
1.29505 0.997186 0
1.27593 1.0306 0
1.32311 0.95641 0
1.2989 0.938757 0
1.24246 0.888513 0
1.27985 0.970362 0
1.4055 1.01714 0
1.31063 1.10819 0
1.33539 1.11967 0
1.32331 1.07562 0
1.36041 1.19592 0
1.35221 1.24387 0
1.34524 1.17582 0
1.26712 1.18936 0
1.60667 1.19832 0
1.51935 1.23144 0
1.51417 1.1872 0
1.53662 1.17392 0
1.54921 1.20999 0
1.52647 1.20788 0
1.56931 1.19772 0
1.61692 1.26813 0
1.68657 1.13402 0
1.74404 1.15459 0
1.80008 1.17713 0
1.77526 1.15769 0
1.82214 1.12496 0
1.80344 1.14783 0
1.79075 1.08596 0
1.76416 1.0887 0
1.78047 1.03832 0
1.76471 1.06114 0
1.7539 1.03216 0
1.63661 0.949661 0
1.61139 0.97686 0
1.61671 1.01497 0
1.6398 1.02415 0
1.76034 0.892849 0
1.78767 0.855207 0
1.779 0.876649 0
1.81689 0.852355 0
1.96925 0.602019 0
2 0.59491 0
1.96513 0.578507 0
1.52827 0.191841 0
1.55223 0.184579 0
1.45314 0.175695 0
1.49271 0.17042 0
1.42195 0.160046 0
1.50193 0.159121 0
1.46786 0.154606 0
1.44198 0.153411 0
1.4473 0.164385 0
1.47216 0.164507 0
1.83239 0.0659647 0
1.80251 0.0714162 0
1.83341 0.0737152 0
1.84556 0.0801802 0
1.80122 0.0637794 0
1.82457 0.0591376 0
1.78162 0.0677341 0
1.91887 0.0574063 0
1.87007 0.0548351 0
1.89054 0.0693278 0
1.86502 0.0739128 0
1.84397 0.0553274 0
1.82308 0.121244 0
1.82289 0.132338 0
1.86808 0.139641 0
1.84142 0.138745 0
1.84787 0.148429 0
1.79417 0.0366236 0
1.78394 0.0411684 0
1.81704 0.0384914 0
1.7955 0.0250128 0
1.76672 0.0341579 0
1.79546 0.0305538 0
1.76373 0.0277258 0
1.7532 0.0198781 0
1.71698 0.0248475 0
1.68967 0.0291911 0
1.76787 0.0233755 0
1.74093 0.0231178 0
1.72451 0.0199036 0
1.73664 0.0276756 0
1.7113 0.0319729 0
1.67882 0.0233876 0
1.66716 0.0300907 0
1.70203 0.0218847 0
1.64197 0.0219139 0
1.61211 0.0186226 0
1.60289 0.0132168 0
1.57862 0.0129612 0
1.66714 0.0193184 0
1.6689 0.0113372 0
1.67617 0.0150599 0
1.6174 0.0219087 0
1.59428 0.0161447 0
1.7404 0.011654 0
1.72476 0.0152945 0
1.63978 0.0138573 0
1.76568 0.0150869 0
1.79846 0.0188363 0
1.70419 0.0120454 0
1.65294 0.0165613 0
1.74585 0.0168837 0
1.79569 0.0100021 0
1.77383 0.0179305 0
1.71609 0.0067574 0
1.70057 0.0146959 0
1.63614 0.018725 0
1.7712 0.0118583 0
1.80758 0.0140536 0
1.71948 0.00942744 0
1.75898 0.00811643 0
1.68546 0.0083292 0
1.68061 0.00511793 0
1.63237 0.00767427 0
1.69291 0.00652237 0
1.62564 0.0107253 0
1.64939 0.009519 0
1.59779 0.00851083 0
1.56557 0.00793776 0
1.54107 0.00921624 0
1.06513 0.00488052 0
1.08593 0.00336839 0
1.10483 0.00186124 0
1.07233 0.00210746 0
1.11864 0.00261958 0
1.07861 0 0
1.08006 0.000582572 0
1.06982 0.0011848 0
1.1042 0.000805694 0
1.10168 0 0
1.0893 0.00131755 0
1.09012 0.000149625 0
1.11395 0.000250565 0
1.02185 0.00292182 0
0.809097 0.0192353 0
0.771525 0.019865 0
0.799239 0.00598635 0
0.818765 0.0043413 0
0.832837 0.00556173 0
0.828435 0.00171477 0
0.830231 0.00300826 0
0.852852 0.00249617 0
0.811817 0.002362 0
0.876241 0.000697747 0
0.803225 0.000843108 0
0.869749 0.0016256 0
0.789218 0.0013441 0
0.894877 0.00185833 0
0.84856 0.000812407 0
0.917964 0.00163941 0
0.902832 0 0
0.929446 0.000374992 0
0.929633 0.00102751 0
0.845228 0.00158585 0
0.86032 0.000239188 0
0.881958 0 0
0.820801 0 0
0.880254 0.000191708 0
0.902636 0.000519936 0
0.834969 0.000200479 0
0.891547 0.00105407 0
0.92395 0 0
0.898235 0.000159177 0
0.840942 0 0
0.812142 0.000207156 0
0.800903 0 0
0.793619 0.000284965 0
0.828038 0.000748611 0
0.761841 0 0
0.753516 0.00032942 0
0.723755 0 0
0.717722 0.00091633 0
0.713338 0.000286792 0
0.686646 0 0
0.676702 0.000350898 0
0.650513 0 0
0.644691 0.00060458 0
0.641618 0.000171778 0
0.751095 0.0220962 0
0.835476 0.0846922 0
0.852838 0.100034 0
0.856884 0.089856 0
0.837931 0.0937565 0
0.806974 0.11319 0
0.774579 0.10744 0
0.757574 0.109839 0
0.826952 0.104603 0
0.875369 0.0962463 0
0.899297 0.0917725 0
0.874467 0.0891631 0
0.799028 0.10063 0
0.847843 0.123596 0
0.945087 0.100208 0
0.905896 0.083873 0
0.928166 0.0908701 0
0.810497 0.105859 0
0.830794 0.115387 0
0.875475 0.130172 0
0.91512 0.0982029 0
0.962874 0.0883971 0
0.856961 0.111779 0
0.873807 0.105495 0
0.882474 0.117374 0
0.877659 0.138294 0
0.946917 0.0926374 0
0.843894 0.106603 0
0.86431 0.119523 0
0.895319 0.125592 0
0.935611 0.118159 0
0.954142 0.125619 0
0.916354 0.109589 0
0.917614 0.124297 0
0.903449 0.116855 0
0.89201 0.110282 0
0.938294 0.108822 0
0.965601 0.107615 0
0.957038 0.11611 0
0.979449 0.0989824 0
0.979375 0.0917309 0
0.979518 0.114219 0
0.97083 0.00459239 0
0.935801 0.00478578 0
0.89375 0.00364712 0
0.910375 0.00475084 0
0.922487 1.44487 0
0.989879 1.77369 0
1.10411 1.56514 0
1.15401 1.61115 0
1.13875 1.56581 0
1.11001 1.64415 0
1.0919 1.63081 0
1.09807 1.68086 0
1.06937 1.70772 0
1.07887 1.68221 0
1.13936 1.649 0
1.12448 1.60635 0
1.17603 1.70424 0
1.12124 1.57836 0
1.15205 1.68454 0
1.18115 1.64926 0
1.16015 1.65554 0
0.845401 1.68454 0
0.85858 1.65692 0
0.874821 1.58616 0
0.847173 1.55656 0
0.864602 1.56202 0
0.850191 1.59898 0
0.868847 1.71609 0
1.00073 1.86361 0
1.06999 1.28655 0
1.08115 1.25913 0
1.06734 1.33577 0
1.06229 1.36559 0
1.04979 1.32344 0
1.07758 1.31192 0
0.643499 0.994612 0
0.649469 0.908239 0
0.615401 0.936723 0
0.629797 0.915846 0
0.615755 0.885908 0
0.583827 0.860631 0
0.602232 0.851653 0
0.588184 0.834967 0
0.59792 0.87813 0
0.566907 0.807908 0
0.581243 0.79391 0
0.565918 0.914768 0
0.601076 0.910895 0
0.580613 0.816203 0
0.578987 0.890705 0
0.628879 0.894616 0
0.615782 0.907951 0
0.597368 0.937552 0
0.583679 0.919152 0
0.57163 0.947382 0
0.542276 0.861169 0
0.534522 0.946067 0
0.560197 1.02012 0
0.557761 0.883814 0
0.553035 0.937837 0
0.537731 0.906815 0
0.550205 0.98004 0
0.541247 0.927444 0
0.546456 0.957951 0
0.56281 0.851816 0
0.552339 0.905257 0
0.542636 0.884502 0
0.523014 0.873521 0
0.572205 0.982829 0
0.570489 0.871492 0
0.546496 0.825948 0
0.561932 0.965449 0
0.560411 0.996478 0
0.598413 1.01395 0
0.550268 0.845093 0
0.51524 0.826721 0
0.588804 0.99066 0
0.579166 1.01746 0
0.613066 0.982208 0
0.573366 1.09179 0
0.627603 0.991886 0
0.615136 1.01006 0
0.611503 1.06349 0
0.627704 1.04832 0
0.608962 1.03586 0
0.571423 1.05324 0
0.624942 1.09395 0
0.591697 1.05403 0
0.63233 1.07197 0
0.51388 0.852118 0
0.529973 0.841358 0
0.536183 1.06478 0
0.598742 1.10141 0
0.581293 1.07124 0
0.555454 1.07491 0
0.61068 1.08742 0
0.614404 1.12256 0
0.617625 1.15597 0
0.593934 1.13797 0
0.555108 1.04666 0
0.536038 1.02172 0
0.539571 1.10497 0
0.632045 1.15222 0
0.583567 1.11486 0
0.560058 1.12672 0
0.541451 1.04313 0
0.558846 1.10039 0
0.167931 1.0962 0
0.17607 1.21696 0
0.190539 1.13626 0
0.191517 1.11083 0
0.219413 1.21047 0
0.329749 1.04598 0
0.353435 1.01101 0
0.359405 1.03809 0
0.346629 1.03386 0
0.352109 1.06018 0
0.290043 1.00228 0
0.374592 1.19092 0
0.377861 0.97352 0
0.42749 1.04986 0
0.415051 1.04208 0
0.438471 0.964057 0
0.431837 1.29006 0
0.418978 1.32306 0
0.416189 1.3662 0
0.452163 1.34994 0
0.409657 1.3421 0
0.438992 1.41692 0
0.445743 1.31405 0
0.433161 1.3494 0
0.423822 1.39967 0
0.437386 1.38242 0
0.454953 1.39597 0
0.432304 1.31885 0
0.448613 1.37423 0
0.458713 1.20803 0
0.436966 1.19973 0
0.436852 1.13542 0
0.418634 0.665819 0
0.422497 0.684458 0
0.419658 0.707259 0
0.430228 0.670312 0
0.431896 0.70577 0
0.400658 0.673459 0
0.388413 0.733875 0
0.405196 0.724634 0
0.39198 0.705429 0
0.406176 0.776957 0
0.420193 0.76136 0
0.405751 0.750568 0
0.422165 0.791832 0
0.403823 0.705335 0
0.379523 0.696365 0
0.434681 0.785331 0
0.456961 0.785097 0
0.400345 0.827554 0
0.407881 0.803651 0
0.389441 0.793538 0
0.422378 0.833018 0
0.419167 0.812356 0
0.369633 0.7644 0
0.386382 0.818902 0
0.368837 0.86625 0
0.374492 0.838603 0
0.391689 0.866299 0
0.38957 0.842235 0
0.380193 0.858342 0
0.376221 0.785755 0
0.387847 0.763452 0
0.378437 0.748069 0
0.364114 0.740063 0
0.370172 0.716383 0
0.342949 0.76921 0
0.355801 0.759968 0
0.341164 0.830593 0
0.344475 0.742451 0
0.355787 0.794097 0
0.357116 0.84206 0
0.38205 0.71673 0
0.352753 0.818275 0
0.338976 0.88806 0
0.352715 0.871854 0
0.339318 0.858985 0
0.309283 0.837097 0
0.325403 0.841102 0
0.352505 0.901626 0
0.332691 0.946653 0
0.367587 0.89565 0
0.339596 0.918814 0
0.390502 0.925409 0
0.376642 0.916921 0
0.373151 0.945311 0
0.387978 0.895426 0
0.352763 0.963478 0
0.410988 0.904009 0
0.377675 0.882326 0
0.361261 0.947209 0
0.348728 0.937856 0
0.398552 0.907639 0
0.326484 0.797962 0
0.340558 0.803144 0
0.314493 0.884787 0
0.327069 0.872909 0
0.31859 0.818718 0
0.330486 0.819688 0
0.305804 0.784241 0
0.300517 0.75289 0
0.305502 0.810987 0
0.314949 0.797419 0
0.296735 0.797127 0
0.291118 0.772361 0
0.284173 0.751789 0
0.278922 0.776353 0
0.262853 0.800642 0
0.274146 0.797996 0
0.271375 0.855777 0
0.269849 0.825989 0
0.263277 0.778666 0
0.249729 0.873263 0
0.242387 0.894141 0
0.240703 0.840447 0
0.255633 0.901797 0
0.238524 0.869414 0
0.232166 0.834467 0
0.316081 0.858913 0
0.321742 0.917693 0
0.327818 0.896825 0
0.24789 0.809432 0
0.288147 0.8367 0
0.298232 0.867388 0
0.298649 0.82911 0
0.257124 0.844128 0
0.266991 0.884718 0
0.302849 0.915707 0
0.313752 0.954044 0
0.305409 0.974762 0
0.299748 0.945871 0
0.253702 0.792174 0
0.237784 0.813188 0
0.277917 0.839104 0
0.284335 0.864931 0
0.280184 0.816786 0
0.290103 0.895843 0
0.257222 0.820498 0
0.248426 0.852173 0
0.259852 0.866917 0
0.312501 0.906446 0
0.322194 0.940144 0
0.301492 0.890975 0
0.278679 0.887691 0
0.292744 0.91669 0
0.279669 0.912888 0
0.354963 0.699948 0
0.342998 0.710643 0
0.049652 0.931816 0
0.0224987 0.821727 0
0.0270642 0.852171 0
0.016169 1.00507 0
0.026037 1.01378 0
0.031181 1.00535 0
0.0280181 0.992097 0
0.0244084 0.98923 0
0.0227273 1.01166 0
0.0226945 0.968471 0
0.0291582 1.02951 0
0.00826639 0.961245 0
0.00612266 0.733612 0
0.00364213 0.858857 0
0.0783063 1.2694 0
0.0714219 1.37021 0
0.0927255 1.26979 0
0.0976998 1.2348 0
0.0919068 1.24285 0
0.102024 1.27121 0
0.0970863 1.30227 0
0.102881 1.2462 0
0.105122 1.39438 0
0.0990205 1.35151 0
0.095766 1.32859 0
0.0891483 1.1523 0
0.127614 1.16348 0
0.121987 1.17547 0
0.0382145 0.63024 0
0.0364035 0.647846 0
0.0424091 0.561215 0
0.0323337 0.583971 0
0.0417429 0.597174 0
0.0340487 0.610782 0
0.0413901 0.617028 0
0.0368358 0.591194 0
0.0377819 0.60938 0
0.040133 0.578263 0
0.0254503 0.611561 0
0.0296251 0.620845 0
0.0306861 0.601718 0
0.0262189 0.635965 0
0.0222009 0.62796 0
0.0281988 0.652579 0
0.0190039 0.580771 0
0.0216162 0.651358 0
0.0214892 0.601387 0
0.0257048 0.573315 0
0.0285842 0.585009 0
0.0169994 0.609134 0
0.0223151 0.580266 0
0.0248675 0.592137 0
0.0221161 0.544203 0
0.0205395 0.562412 0
0.0235066 0.560379 0
0.0305616 0.533802 0
0.027367 0.550803 0
0.0356049 0.553534 0
0.0302273 0.565426 0
0.0191313 0.545519 0
0.035467 0.572789 0
0.0194316 0.619419 0
0.0189099 0.598127 0
0.023583 0.782157 0
0.0239701 0.761936 0
0.0196666 0.730332 0
0.0205362 0.704389 0
0.0182883 0.750538 0
0.0342663 0.0370651 0
0.0565865 0.0457842 0
0.0492162 0.0475247 0
0.0525194 0.0446866 0
0.00313871 0.188036 0
0.00590437 0.222239 0
0.0135669 0.194743 0
0.0139276 0.184257 0
0.0105798 0.195849 0
0.00803022 0.208351 0
0.012327 0.212925 0
0.0142231 0.220451 0
0.00881255 0.198966 0
0.0100896 0.208774 0
0.0139859 0.205482 0
0.0063698 0.260361 0
0.0094296 0.311784 0
0.0377627 0.233914 0
0.112291 0.0381553 0
0.108601 0.0417671 0
0.120561 0.035958 0
0.122585 0.0319126 0
0.121608 0.0266221 0
0.118775 0.021116 0
0.105721 0.0356985 0
0.125144 0.02047 0
0.116053 0.0181945 0
0.109136 0.0250703 0
0.114892 0.0268687 0
0.1062 0.0299723 0
0.0983053 0.025309 0
0.100107 0.0290548 0
0.112239 0.0218331 0
0.0667973 0.0351315 0
0.0599997 0.0387993 0
0.0678307 0.0417729 0
0.0605252 0.0434126 0
0.0558755 0.0254617 0
0.0734197 0.0376088 0
0.0644994 0.038788 0
0.055021 0.0325362 0
0.055851 0.0368525 0
0.0609711 0.0330879 0
0.0583731 0.0291537 0
0.0680489 0.022445 0
0.0621963 0.024909 0
0.0660382 0.0293088 0
0.0609045 0.0185055 0
0.0585336 0.0219151 0
0.0437021 0.0145833 0
0.0515183 0.0173279 0
0.0559016 0.0187985 0
0.057395 0.0131648 0
0.0632975 0.0214169 0
0.0674839 0.0180079 0
0.0820732 0.0194352 0
0.0743011 0.0198086 0
0.0748503 0.0301628 0
0.0773034 0.0136706 0
0.0720123 0.0155487 0
0.0700592 0.0318122 0
0.0761257 0.0340804 0
0.0787753 0.0246373 0
0.0777879 0.0169604 0
0.0732995 0.0235361 0
0.0824181 0.0294395 0
0.0876377 0.0238746 0
0.0846576 0.033152 0
0.0827904 0.0225842 0
0.092411 0.0260688 0
0.0935254 0.0219147 0
0.0898496 0.0172162 0
0.0838809 0.0149976 0
0.094674 0.0108985 0
0.102229 0.00996909 0
0.0904001 0.0136053 0
0.0959112 0.00748473 0
0.101207 0.0142421 0
0.0835838 0.00947235 0
0.0952859 0.0155202 0
0.0823169 0.0121126 0
0.0884838 0.0109377 0
0.0876246 0.020322 0
0.103166 0.00736877 0
0.0919326 0.00479501 0
0.0962578 0.00574325 0
0.0957031 0 0
0.0848216 0.00634869 0
0.099176 0.00130425 0
0.0669832 0.0059168 0
0.0892412 0.0080991 0
0.0911279 0.00238301 0
0.0757951 0.00545416 0
0.088932 0.00351811 0
0.0975365 0.00335072 0
0.110463 0.00286344 0
0.0968456 0.00217535 0
0.104085 0.00214865 0
0.104295 0.00359301 0
0.110528 0.00455966 0
0.115712 0.000642125 0
0.118549 0.00486602 0
0.111209 0.0015073 0
0.117843 0.00220313 0
0.109863 0 0
0.116362 0.00343602 0
0.10589 0.000556172 0
0.0809244 0.00520196 0
0.0787935 0.00754602 0
0.0762631 0.0103064 0
0.0715594 0.00791386 0
0.0714765 0.0121997 0
0.105231 0.00125563 0
0.111448 0.000204516 0
0.11731 0 0
0.121101 0.000196789 0
0.130131 0.00113232 0
0.123332 0.00071808 0
0.125129 0.00191825 0
0.14447 0.00249875 0
0.134422 0.00234074 0
0.158203 0 0
0.149557 0.00395105 0
0.141113 0 0
0.140155 0.00404321 0
0.132223 0.000206102 0
0.143017 0.0054756 0
0.0967831 0.000331816 0
0.0626889 0.00934143 0
0.0663376 0.0111849 0
0.131881 0.00382595 0
0.102661 0 0
0.0825195 0 0
0.0905375 0.000949839 0
0.0664025 0.00788385 0
0.102443 0.000169979 0
0.0889893 0 0
0.0857135 0.000315812 0
0.0910623 0.000402783 0
0.0762792 0.000292049 0
0.0810642 0.000159385 0
0.0976552 0.0377553 0
0.380349 0.00168981 0
0.37698 0.00395573 0
0.212604 0.000248932 0
0.228618 0.000432963 0
0.225708 0 0
0.232854 0.00149492 0
0.2052 0 0
0.17627 0 0
0.198004 0.000855416 0
0.14943 0.021296 0
1.3347 0.240039 0
1.92192 0.228846 0
1.9481 0.228062 0
1.9759 0.23074 0
1.89342 0.223002 0
1.92509 0.199161 0
1.94091 0.20861 0
1.96478 0.195585 0
2 0.199402 0
1.95901 0.176987 0
1.97304 0.185696 0
2 0.175964 0
1.86288 0.193504 0
1.85237 0.209009 0
1.86732 0.21878 0
1.90115 0.156212 0
1.93445 0.1648 0
1.89683 0.144902 0
1.9306 0.121711 0
1.90093 0.131123 0
1.92926 0.175554 0
1.96711 0.165487 0
2 0.153992 0
1.9524 0.155304 0
1.96338 0.143496 0
1.97536 0.151216 0
2 0.123779 0
1.93556 0.135327 0
2 0.133484 0
1.966 0.128601 0
1.89075 0.1187 0
1.87075 0.129681 0
1.97561 0.136146 0
1.92773 0.099993 0
1.8611 0.109662 0
1.91845 0.110693 0
1.83656 0.105501 0
1.84353 0.114902 0
1.86768 0.116598 0
1.87588 0.0966745 0
1.96237 0.112438 0
1.88969 0.110056 0
1.86287 0.0905203 0
1.95767 0.120506 0
1.94266 0.106687 0
1.92665 0.436285 0
1.2719 0.921504 0
1.23436 0.952084 0
1.2544 0.968601 0
1.24404 0.990405 0
1.27119 1.06063 0
1.23916 1.03883 0
1.2533 1.01595 0
1.29411 1.08819 0
1.36936 1.28054 0
1.39782 1.28354 0
1.45243 1.32151 0
1.43644 1.26904 0
1.42118 1.30995 0
1.4168 1.25484 0
1.37228 1.25465 0
1.3028 1.30058 0
1.44209 1.29609 0
1.49349 1.28351 0
1.465 1.27539 0
1.47387 1.30385 0
1.48166 1.34305 0
1.48683 1.24513 0
1.45449 1.24977 0
1.47883 1.21131 0
1.49194 1.19128 0
1.41938 1.28467 0
1.34342 1.3269 0
1.33367 1.27993 0
1.53841 1.34653 0
1.3643 1.31002 0
1.35162 1.26809 0
1.30959 1.23772 0
1.32588 1.30717 0
1.30677 1.34376 0
1.50942 1.35546 0
1.51551 1.31517 0
1.32963 1.25219 0
1.30729 1.26911 0
1.26055 1.24826 0
1.28617 1.25101 0
1.28649 1.21564 0
1.31134 1.20705 0
1.26169 1.21832 0
1.23318 1.19539 0
1.55642 1.30299 0
1.49258 1.31946 0
1.2434 1.13884 0
1.21566 1.22158 0
1.23915 1.23203 0
1.53842 1.31989 0
1.56285 1.2551 0
1.52855 1.27772 0
1.24722 1.16924 0
1.21542 1.15924 0
1.56578 1.22898 0
1.55166 1.27762 0
1.50974 1.258 0
1.21683 1.12495 0
1.24105 1.10317 0
1.19809 1.11237 0
1.21645 1.18279 0
1.17887 1.1031 0
1.612 1.23435 0
1.59109 1.25516 0
1.59172 1.29077 0
1.73095 0.91806 0
1.7372 0.897753 0
1.69637 0.907627 0
1.66595 0.917359 0
1.66038 0.940494 0
1.75649 0.947894 0
1.75886 0.917478 0
1.70762 0.928941 0
1.7344 0.939333 0
1.73809 0.971386 0
1.79073 0.987609 0
1.76852 1.00708 0
1.76697 0.972284 0
1.79949 0.953744 0
1.77945 0.941852 0
1.81757 0.975308 0
1.82752 1.02067 0
1.8303 0.996472 0
1.79768 1.01466 0
1.48218 0.185577 0
1.47538 0.176392 0
1.4453 0.192982 0
1.50218 0.179715 0
1.45937 0.185116 0
1.47427 0.199542 0
1.49413 0.212544 0
1.51543 0.207773 0
1.44523 0.218668 0
1.50201 0.229146 0
1.46722 0.211452 0
1.44213 0.205608 0
1.47195 0.225764 0
1.43884 0.239533 0
1.47904 0.243934 0
1.45008 0.229544 0
1.42952 0.252241 0
1.5062 0.245133 0
1.91478 0.0400931 0
1.86417 0.0419616 0
1.85025 0.0482029 0
1.83854 0.0434995 0
1.88843 0.061353 0
1.86348 0.0656017 0
1.84286 0.022235 0
1.83107 0.0277328 0
1.82093 0.0242287 0
1.82014 0.0312861 0
1.90544 0.0279464 0
1.86827 0.0262871 0
1.85667 0.031154 0
1.86278 0.0363021 0
1.88698 0.0388834 0
1.90925 0.0337749 0
1.8819 0.0329435 0
1.89811 0.0219245 0
2 0.0358887 0
1.95472 0.0300779 0
1.87047 0.0224093 0
1.92725 0.0305029 0
1.94524 0.0360487 0
1.9558 0.0439979 0
1.97233 0.0339028 0
2 0.0411987 0
2 0.0309448 0
1.94016 0.0403289 0
1.859 0.0103154 0
1.79215 0.00695087 0
1.77963 0.00230793 0
1.75802 0.00458529 0
1.76817 0.00623256 0
1.79592 0.00436201 0
1.77524 0.00356604 0
1.74121 0.00259638 0
1.72805 0.00409167 0
1.7525 0.000684008 0
1.75698 0.00154739 0
1.64258 0 0
1.71336 0.00124221 0
1.71898 0.00210125 0
1.62604 0.00187734 0
1.66088 0.00681257 0
1.63759 0.00409427 0
1.63944 0.00575655 0
1.61215 0.00499288 0
1.58063 0.00273131 0
1.59048 0.00409436 0
1.60875 0.00283516 0
1.51009 0.00395813 0
1.4958 0.00661556 0
1.54992 0.00438422 0
1.46141 0.00530531 0
1.53946 0.00650805 0
1.56146 0.00583117 0
1.528 0.00497005 0
1.6106 0.00681877 0
1.04268 0.0025645 0
0.987204 0.00117967 0
1.03765 0.00432712 0
1.0139 0.00455576 0
1.03095 0.00606651 0
0.799314 0.0037443 0
0.91672 0.000172958 0
0.792532 0.108132 0
0.784239 0.12008 0
0.768434 0.116315 0
0.778182 0.135481 0
0.775529 0.145172 0
0.773945 0.126945 0
0.813784 0.131096 0
0.79385 0.128769 0
0.80008 0.141976 0
0.811851 0.150926 0
0.80753 0.122204 0
0.821673 0.141043 0
0.84476 0.140398 0
0.828021 0.124517 0
0.839432 0.131585 0
0.81647 0.0980121 0
0.782928 0.0868251 0
0.763615 0.0843675 0
0.953029 0.0764083 0
0.960749 0.069496 0
0.943775 0.00639726 0
0.937423 0.00301639 0
1.00955 1.75206 0
1.04073 1.74311 0
1.01924 1.71737 0
0.962769 1.79371 0
0.972261 1.76886 0
0.952825 1.76943 0
0.951949 1.82407 0
0.975147 1.84742 0
0.966581 1.88178 0
0.996404 1.81803 0
0.980839 1.8007 0
1.00456 1.79122 0
1.1794 1.56544 0
1.14889 1.51684 0
1.20896 1.68257 0
0.796833 1.52121 0
0.810272 1.58542 0
0.831463 1.58116 0
0.822062 1.53784 0
0.823085 1.61559 0
0.803972 1.55289 0
0.762294 1.56222 0
0.782365 1.54885 0
0.76757 1.50152 0
0.781994 1.59959 0
0.780016 1.52044 0
0.797727 1.64391 0
0.791634 1.57432 0
0.804964 1.61516 0
0.839682 1.52817 0
0.819927 1.48453 0
0.804184 1.72653 0
0.813468 1.5119 0
0.828023 1.71564 0
0.831994 1.75364 0
0.813188 1.79033 0
0.810711 1.68436 0
0.822255 1.8727 0
0.813066 1.75627 0
0.785445 1.76396 0
0.850012 1.86515 0
0.847465 1.82625 0
0.810639 1.83395 0
0.828134 1.81681 0
0.796504 1.7869 0
0.76389 1.69419 0
0.738139 1.80204 0
0.839104 1.90636 0
0.864992 1.8514 0
0.780929 1.72241 0
0.786202 1.6808 0
0.752403 1.74894 0
0.763833 1.72555 0
0.764379 1.79514 0
0.804184 1.93542 0
0.8469 2.01999 0
0.766733 1.6428 0
0.779869 1.79113 0
0.767911 1.76331 0
0.749803 1.77974 0
0.757803 1.89028 0
0.818923 1.90973 0
0.790095 1.88046 0
0.879701 1.9803 0
0.849362 1.96128 0
0.82601 1.952 0
0.807453 1.97968 0
0.834034 1.98844 0
0.812446 2.05214 0
0.826653 2.02443 0
0.803824 2.01735 0
0.782056 1.65255 0
0.767964 1.84411 0
0.805276 1.86473 0
0.890983 1.94816 0
0.87005 1.94633 0
0.850695 1.9296 0
0.752952 1.82304 0
0.727133 1.86054 0
0.773035 1.87533 0
0.777098 1.92689 0
0.785744 1.84759 0
0.792197 1.9124 0
0.740975 1.96137 0
0.788112 1.9598 0
0.764402 1.96622 0
0.805042 1.89461 0
0.75684 1.9295 0
0.73431 1.90767 0
0.748359 2.04619 0
0.741841 1.87748 0
0.720768 1.88994 0
0.723846 1.94125 0
0.686925 1.98964 0
0.717208 2.0034 0
0.702521 1.95677 0
0.725615 1.97441 0
0.738 2.00875 0
0.725176 2.04441 0
0.759804 2.00875 0
0.66229 1.9045 0
0.688418 1.85184 0
0.702415 1.87785 0
0.68249 1.89298 0
0.678169 1.94228 0
0.702718 1.98939 0
0.694926 2.03211 0
0.6538 1.95335 0
0.693583 1.92639 0
0.657576 2.03882 0
0.668927 1.97684 0
0.67266 2.0155 0
0.678128 2.08542 0
0.673176 2.05106 0
0.691352 2.06555 0
0.844028 1.63208 0
1.10303 1.26989 0
0.630956 0.9456 0
0.50761 0.920234 0
0.511721 0.893694 0
0.522316 0.912071 0
0.530899 0.977192 0
0.513127 0.955297 0
0.530475 1.00032 0
0.521388 0.935706 0
0.476294 0.95283 0
0.494766 0.944563 0
0.480616 0.901954 0
0.496365 0.901444 0
0.488664 0.922146 0
0.491464 0.98825 0
0.500254 0.967868 0
0.561506 0.829033 0
0.542138 0.780881 0
0.607053 0.958487 0
0.601036 1.16468 0
0.512758 1.04335 0
0.524543 1.08824 0
0.521604 1.06322 0
0.575121 1.14032 0
0.172722 1.16655 0
0.161115 1.16385 0
0.167266 1.14786 0
0.151469 1.22366 0
0.166168 1.1973 0
0.153694 1.18884 0
0.164144 1.24496 0
0.144524 1.18149 0
0.141096 1.21654 0
0.133273 1.21646 0
0.136052 1.27272 0
0.132688 1.24578 0
0.123064 1.27176 0
0.158854 1.21087 0
0.168247 1.22247 0
0.144526 1.25155 0
0.122217 1.24717 0
0.149332 1.31063 0
0.154449 1.25761 0
0.148235 1.27953 0
0.164554 1.29923 0
0.16158 1.2722 0
0.156256 1.29471 0
0.224818 1.18863 0
0.202704 1.18384 0
0.209924 1.16143 0
0.212429 1.18939 0
0.205539 1.21686 0
0.190523 1.21076 0
0.198377 1.20467 0
0.228045 1.25643 0
0.236864 1.23167 0
0.22691 1.22842 0
0.390359 0.993294 0
0.397293 0.959139 0
0.407144 0.93399 0
0.373604 1.00887 0
0.384958 0.953321 0
0.419094 0.923238 0
0.420546 0.956468 0
0.36353 0.985281 0
0.431303 0.945666 0
0.409139 0.967513 0
0.427215 0.977823 0
0.424825 1.0812 0
0.447722 1.09383 0
0.43886 1.06952 0
0.434822 1.09692 0
0.446152 1.11838 0
0.468482 1.04881 0
0.445433 1.03411 0
0.454973 1.06622 0
0.479468 1.10477 0
0.462467 1.10973 0
0.500397 1.08412 0
0.469899 1.07929 0
0.485196 1.0785 0
0.44063 1.01152 0
0.460192 1.02376 0
0.480264 1.01875 0
0.471285 0.986803 0
0.485283 1.04774 0
0.497863 1.02492 0
0.511065 1.01985 0
0.481677 0.973304 0
0.457558 0.962394 0
0.469217 1.00864 0
0.461072 0.922912 0
0.447255 0.939108 0
0.448321 0.977472 0
0.464614 0.944005 0
0.448356 1.23901 0
0.446783 1.21431 0
0.450529 1.17515 0
0.439788 1.16041 0
0.481945 1.16538 0
0.473274 1.13597 0
0.465562 1.16357 0
0.472922 1.19209 0
0.483119 1.2596 0
0.47392 1.22801 0
0.469971 1.30298 0
0.463618 1.25731 0
0.461177 1.28325 0
0.508172 1.21091 0
0.491202 1.19593 0
0.459391 1.32367 0
0.476026 1.36105 0
0.491221 1.22952 0
0.503206 1.26098 0
0.509756 1.1624 0
0.467657 1.38441 0
0.492426 1.30064 0
0.523173 1.24208 0
0.503936 1.18595 0
0.5054 1.28869 0
0.519238 1.3714 0
0.515773 1.32748 0
0.492858 1.27551 0
0.509423 1.23718 0
0.557796 1.27376 0
0.579456 1.26333 0
0.537437 1.18971 0
0.520598 1.18596 0
0.527307 1.21303 0
0.531579 1.14926 0
0.545682 1.23758 0
0.535948 1.26743 0
0.564612 1.241 0
0.580607 1.23354 0
0.567269 1.20066 0
0.558128 1.16505 0
0.542909 1.31844 0
0.533497 1.29567 0
0.582121 1.20653 0
0.547247 1.14394 0
0.552727 1.19092 0
0.428945 1.22369 0
0.454668 0.75724 0
0.486343 0.803486 0
0.492757 0.837832 0
0.409151 0.856187 0
0.410788 0.835999 0
0.403847 0.880717 0
0.433643 0.875521 0
0.42582 0.898752 0
0.418786 0.875681 0
0.426102 0.855621 0
0.449713 0.843292 0
0.331792 0.98446 0
0.0189866 1.00773 0
0.0310838 0.981599 0
0.0081125 0.938974 0
0.00459361 0.977337 0
0.0115612 0.967552 0
0.0143737 0.964786 0
0.0131703 0.994269 0
0.0161496 0.981046 0
0.0111244 0.99014 0
0.0124788 1.0652 0
0.0115405 1.02787 0
0.014744 1.03808 0
0.0174642 1.03127 0
0.0192269 1.09463 0
0.0191076 1.06088 0
0.00655111 1.06697 0
0.0135502 1.01779 0
0.0156414 1.07109 0
0.0237081 1.07606 0
0.00925278 1.05602 0
0.0135215 1.10004 0
0.020999 1.07703 0
0.0284986 1.10746 0
0.0109895 1.04976 0
0.00845388 1.12923 0
0.0163952 1.11382 0
0.0221997 1.19785 0
0.0184411 1.16022 0
0.0165779 1.14046 0
0.031853 1.09803 0
0.0111552 1.12337 0
0.00937412 1.09329 0
0.0113078 1.09802 0
0.0105423 1.07393 0
0.0081235 1.07523 0
0.00803536 0.756794 0
0.0034611 0.76483 0
0.00504195 0.858924 0
0.0028648 0.834955 0
0.00102783 0.847 0
0.00239713 0.859487 0
0.00174709 0.833619 0
0.00147032 0.867226 0
0 0.897217 0
0.000578494 0.914955 0
0.00112858 0.894615 0
0.000269166 0.873922 0
0.000771402 0.869547 0
0.00193965 0.944337 0
0.000556256 0.891226 0
0.000176967 0.904718 0
0.00132908 0.922854 0
0 0.923035 0
0.000203342 0.938248 0
0.00234565 0.915206 0
0.000810358 0.959368 0
0.00369934 0.941483 0
0.00361684 0.89359 0
0.000790923 0.936096 0
0.00341978 0.917453 0
0.00493637 0.924812 0
0.00542955 0.952142 0
0.00603649 0.905144 0
0.00647966 0.978115 0
0.00542918 1.02223 0
0.0054698 0.997176 0
0.00360036 1.00701 0
0.00727609 1.01034 0
0.00693878 1.03852 0
0.00899596 1.02674 0
0.00243468 1.06469 0
0.00380274 1.04383 0
0.00266121 1.02765 0
0.00402576 1.08424 0
0.00524322 1.0494 0
0.00340716 1.0651 0
0.0745778 1.32293 0
0.0857253 1.26276 0
0.0884613 1.2931 0
0.0856589 1.39781 0
0.112921 1.34252 0
0.0542345 0.567432 0
0.0117262 0.570609 0
0.0153384 0.560967 0
0.0136438 0.637301 0
0.0147581 0.68415 0
0.0178931 0.688051 0
0.0183601 0.663471 0
0.0158466 0.709037 0
0.0159848 0.6495 0
0.0103687 0.712963 0
0.0182477 0.71388 0
0.0160039 0.628456 0
0.0130776 0.724349 0
0.0125477 0.699762 0
0.0113025 0.665892 0
0.0125852 0.680569 0
0.0135996 0.658798 0
0.0108262 0.738315 0
0.0135099 0.751271 0
0.0129873 0.771497 0
0.0157267 0.75564 0
0.0405472 0.527445 0
0.0320563 0.549936 0
0.0318586 0.0445683 0
0.0370909 0.0430552 0
0.0389543 0.0472283 0
0.0417752 0.0371166 0
0.04051 0.0414113 0
0.0468027 0.0412074 0
0.0487946 0.0347051 0
0.0498622 0.0283121 0
0.0455915 0.0371005 0
0.054021 0.028746 0
0.0498961 0.0224006 0
0.0464919 0.0309798 0
0.0456006 0.0188011 0
0.0454457 0.0252344 0
0.0475223 0.0159312 0
0.0310151 0.0207232 0
0.0377498 0.0234399 0
0.0411824 0.0255852 0
0.0417352 0.0212834 0
0.00411964 0.181513 0
0.00193586 0.173701 0
0.00232034 0.164392 0
0.00443803 0.204687 0
0.00650632 0.197769 0
0.00592736 0.209489 0
0.00713675 0.273695 0
0.00871981 0.260682 0
0.0100936 0.241754 0
0.0102914 0.224933 0
0.0102364 0.253536 0
0.00751967 0.245485 0
0.0113772 0.233741 0
0.0122197 0.22334 0
0.00509988 0.244437 0
0.00481479 0.257231 0
0.00379292 0.279626 0
0.00518609 0.271938 0
0.00393708 0.266934 0
0.00635836 0.235041 0
0.00833262 0.232297 0
0.00841412 0.220031 0
0.00270399 0.228124 0
0.00355987 0.24019 0
0.00464523 0.231225 0
0.00431339 0.217913 0
0.00305276 0.210302 0
0.003302 0.199106 0
0.00842964 0.29547 0
0.0109635 0.292451 0
0.104346 0.0216 0
0.0614283 0.0151603 0
0.0707433 0.0271528 0
0.103731 0.0171826 0
0.108099 0.0145932 0
0.163022 0.00148195 0
0.154599 0.00233058 0
0.164246 0.00302007 0
0.149117 0.000577774 0
0.154403 0.00120511 0
0.162556 0.000390928 0
0.145629 0.00132912 0
0.139574 0.00061834 0
0.14392 0.000188566 0
0.149536 0 0
0.137726 0.00138066 0
0.153833 0.000203519 0
0.173273 0.00294153 0
0.132935 0 0
0.0582973 0.00611538 0
0.0762939 0 0
0.0611811 0.00111036 0
0.366665 0.00321994 0
0.365253 0.00907539 0
0.391175 0.00394988 0
0.258301 0 0
0.221555 0.000172678 0
0.223931 0.000988833 0
0.21869 0.00170503 0
0.246141 0.00240513 0
0.189702 0.000290058 0
0.185669 0 0
0.176338 0.000614105 0
0.176363 0.00152764 0
0.169726 0.00100824 0
0.184269 0.000598723 0
1.97184 0.207128 0
1.88739 0.210552 0
1.90959 0.0889584 0
2 0.114441 0
1.89878 0.101904 0
1.25258 0.93709 0
1.21513 0.919019 0
1.19786 0.948633 0
1.19617 0.926755 0
1.20281 0.975604 0
1.21679 0.940754 0
1.22024 1.02121 0
1.22127 1.06747 0
1.21845 1.0946 0
1.24633 1.06602 0
1.56515 1.33404 0
1.5923 1.45473 0
1.59117 1.39006 0
1.58481 1.35793 0
1.53745 1.25115 0
1.6864 0.943192 0
1.40666 0.180548 0
1.42644 0.172166 0
1.43182 0.183118 0
1.41447 0.190876 0
1.39515 0.225503 0
1.42224 0.228387 0
1.41785 0.214789 0
1.40327 0.239349 0
1.37192 0.23641 0
1.38425 0.246755 0
1.36666 0.221981 0
1.38731 0.211279 0
1.33095 0.198138 0
1.3712 0.191654 0
1.34271 0.212029 0
1.38679 0.19997 0
1.36105 0.202962 0
1.31248 0.209816 0
1.32005 0.220871 0
1.2992 0.195674 0
1.32239 0.175888 0
1.2663 0.185456 0
1.24174 0.183257 0
1.25232 0.194905 0
1.31827 0.187546 0
1.34541 0.187383 0
1.29343 0.179696 0
1.27788 0.193979 0
1.36698 0.168372 0
1.36595 0.179956 0
1.39737 0.167953 0
1.34603 0.173733 0
1.33845 0.157954 0
1.30894 0.153754 0
1.38653 0.176351 0
1.39076 0.153861 0
1.3025 0.169581 0
1.27102 0.173745 0
1.33623 0.147954 0
1.4146 0.15005 0
1.31834 0.16253 0
1.45611 0.247961 0
1.90366 0.0484984 0
1.8771 0.0466265 0
1.83606 0.0172124 0
1.82286 0.0200265 0
1.8562 0.0193164 0
1.85671 0.013953 0
1.8315 0.0118797 0
1.8291 0.00865078 0
2 0.0183105 0
1.95324 0.0222065 0
1.93419 0.0258034 0
2 0.0593262 0
1.97093 0.0391071 0
1.69971 0 0
1.67023 0.00170466 0
1.53669 0.00197665 0
1.47285 0.00688656 0
1.4865 0.00478097 0
1.4521 0.00125155 0
1.46333 0.00288484 0
1.51795 0.00758993 0
0.966284 0.001834 0
0.982528 0.00281229 0
0.960441 0.000533009 0
1.00194 0.00323854 0
1.00677 0.00182553 0
1.02863 0.00161471 0
1.03625 0.000384552 0
1.01088 0.000690564 0
0.98877 0 0
1.01086 0 0
0.999789 0.000193471 0
1.02073 0.000169225 0
0.976186 0.000173418 0
0.966919 0 0
0.956024 0.000141906 0
0.987138 0.000507978 0
0.754628 0.134947 0
0.745987 0.142006 0
0.798651 0.0920118 0
0.776237 0.0966883 0
0.967924 0.0811809 0
0.934429 0.0729682 0
0.942412 0.083862 0
1.08152 1.81994 0
1.05039 1.71625 0
1.15903 1.57958 0
1.1601 1.54605 0
1.18319 1.60696 0
1.25898 1.57215 0
1.21838 1.57937 0
1.19685 1.58328 0
1.13426 1.5372 0
1.15404 1.40755 0
1.1878 1.67842 0
1.2005 1.71969 0
1.16046 1.80911 0
1.20342 1.78723 0
1.14405 1.7481 0
1.20897 1.75259 0
1.17603 1.75913 0
1.15512 1.71825 0
1.10564 1.73853 0
1.10901 1.70744 0
1.15668 1.77576 0
1.12001 1.80267 0
1.18069 1.79293 0
1.18638 1.84696 0
1.26447 1.66849 0
0.791128 1.473 0
0.790495 1.435 0
0.809208 1.4531 0
0.82614 1.42629 0
0.744316 1.5263 0
0.725294 1.51103 0
0.704333 1.53924 0
0.726929 1.54923 0
0.742526 1.57266 0
0.743112 1.62026 0
0.695336 1.51364 0
0.683412 1.6049 0
0.762026 1.60744 0
0.745211 1.66475 0
0.687993 1.56557 0
0.656673 1.57007 0
0.703035 1.59209 0
0.672756 1.57994 0
0.661963 1.53834 0
0.705604 1.6646 0
0.711926 1.56626 0
0.715791 1.62672 0
0.740715 1.7089 0
0.696346 1.63216 0
0.647909 1.69028 0
0.675997 1.67381 0
0.677964 1.63851 0
0.725305 1.65918 0
0.724495 1.75154 0
0.738061 1.73756 0
0.840436 1.47019 0
0.841251 1.44135 0
0.86053 1.99233 0
0.881083 2.05361 0
0.875687 2.01707 0
0.650729 2.09729 0
0.704492 2.17897 0
0.550636 0.801896 0
0.561975 0.785994 0
0.530154 0.805722 0
0.518031 0.773886 0
0.528934 0.785563 0
0.512696 0.799619 0
0.500695 0.81611 0
0.180592 1.14609 0
0.183312 1.18152 0
0.175599 1.1908 0
0.182879 1.20567 0
0.178465 1.26981 0
0.184485 1.24029 0
0.169846 1.26607 0
0.190293 1.27344 0
0.198146 1.2458 0
0.204996 1.29711 0
0.203684 1.26863 0
0.196084 1.29447 0
0.129397 1.29785 0
0.119389 1.31033 0
0.117704 1.28551 0
0.11205 1.31222 0
0.105302 1.33101 0
0.105668 1.36251 0
0.123521 1.35163 0
0.126186 1.32416 0
0.105248 1.29933 0
0.118761 1.33538 0
0.199408 1.15364 0
0.190628 1.16433 0
0.497401 1.12007 0
0.487574 1.14013 0
0.508213 1.13654 0
0.499488 1.0569 0
0.4818 1.328 0
0.497848 1.35827 0
0.53071 1.12425 0
0.531196 1.34515 0
0.542848 1.38948 0
0.532701 1.37157 0
0.4738 0.785167 0
0.465297 0.817976 0
0.491277 0.775374 0
0.504743 0.781598 0
0.481553 0.867031 0
0.49121 0.881476 0
0.492778 0.858107 0
0.475458 0.840447 0
0.478248 0.819891 0
0.462362 0.838721 0
0.459804 0.882754 0
0.472944 0.88373 0
0.436927 0.830692 0
0.324376 0.964632 0
0.324648 1.00122 0
0.339959 1.00694 0
0.348149 0.987398 0
0.340412 0.966294 0
0.0111469 0.943447 0
0.0247763 1.04445 0
0.0219064 1.05258 0
0.0270484 1.08214 0
0.0232576 1.11888 0
0.0197953 1.12975 0
0.0226541 1.15865 0
0.0206025 1.17637 0
0.0151764 1.22327 0
0.0183764 1.20666 0
0.0296322 1.18466 0
0.026837 1.14291 0
0.0107491 1.18624 0
0.0152387 1.18292 0
0.0184086 1.24937 0
0.0254915 1.18105 0
0.0316712 1.13612 0
0.0117402 1.15544 0
0.00919787 1.16017 0
0.0128505 1.17875 0
0.00567582 1.16111 0
0.00731247 1.15206 0
0.00580269 1.11577 0
0.00744611 1.10219 0
0.00736119 1.20222 0
0.00877209 1.18586 0
0.0176247 1.18324 0
0.0209151 1.22776 0
0.0268678 1.23192 0
0.0272384 1.20448 0
0.0238678 1.22099 0
0.0296507 1.15789 0
0.0343713 1.17152 0
0.0414112 1.15338 0
0.0362099 1.14121 0
0.0391829 1.12077 0
0.0383625 1.17192 0
0.00925101 0.770347 0
0.00665967 0.778859 0
0.00620605 0.756526 0
0.0045882 0.746104 0
0.00490517 0.773705 0
0.00436602 0.71408 0
0.00284075 0.734847 0
0.00369571 0.790863 0
0.00500699 0.795982 0
0.00704096 0.692791 0
0.00384029 0.730844 0
0 0.65918 0
0.0013256 0.766637 0
0.00594152 0.710757 0
0.00797767 0.719472 0
0.00429297 0.670789 0
0.00490433 0.692033 0
0.00356561 0.688639 0
0.00196677 0.654954 0
0.00228382 0.678974 0
0.0030633 0.661515 0
0.000542248 0.681011 0
0.0050732 0.618636 0
0.00292869 0.631772 0
0.00124477 0.673468 0
0.000612021 0.634624 0
0.00116678 0.710284 0
0.000706261 0.658022 0
0.0017456 0.696132 0
0.000982564 0.69122 0
0.00120738 0.64385 0
0 0.615967 0
0.000177457 0.662862 0
0.00115277 0.62222 0
0.000642205 0.576647 0
0.000419387 0.605066 0
0.00223858 0.757108 0
0.00161221 0.734129 0
0.00209416 0.783501 0
0.00338706 0.603217 0
0.00189106 0.631453 0
0 0.63739 0
0.000144583 0.626651 0
0.00270291 0.615094 0
0.00381891 0.620493 0
0.00458663 0.64416 0
0.00609446 0.569599 0
0.00208372 0.572832 0
9.12483e-05 0.645047 0
0.00349073 0.645762 0
0.00650311 0.661865 0
0.00504378 0.59194 0
0.00236533 0.592702 0
0.00354886 0.576426 0
0.00133049 0.588242 0
0.00596646 0.679399 0
0.00636716 0.636807 0
0.00784301 0.648335 0
0.00784259 0.604153 0
0.00659897 0.617619 0
0.00298197 0.552123 0
0.00662676 0.588666 0
0.00902241 0.580244 0
0.00452791 0.556916 0
0.00101379 0.510799 0
0.0113205 0.606677 0
0.0137349 0.614799 0
0.0134834 0.590138 0
0.0137764 0.572997 0
0.00132318 0.543158 0
0.00954269 0.598041 0
0.00198409 0.554341 0
0.00117528 0.56329 0
0.00231238 0.529626 0
0.00145124 0.524908 0
0.00157821 0.973565 0
0.00287319 0.973526 0
0.00278094 0.951849 0
0.00260499 1.0981 0
0 1.05762 0
0.000990746 1.16278 0
0.00057794 1.09163 0
0.00192281 1.1357 0
0.00142594 1.08616 0
0.000990872 1.03729 0
0.00168236 1.02485 0
0.000864457 1.00037 0
0.00106928 1.1177 0
0.000895568 1.06592 0
0.0015306 1.05533 0
0.000245629 1.04511 0
0 1.00269 0
0.00181339 1.11002 0
0 1.11401 0
0.00124945 1.14062 0
0.000513232 1.02151 0
0.000233331 0.98672 0
0 1.02997 0
0.000137366 1.0163 0
0.000266569 1.13173 0
0 0.975769 0
0.000540791 1.11582 0
0.000102881 0.962856 0
0.0651685 1.3073 0
0.0821184 1.32937 0
0.077342 1.3545 0
0.0775081 1.39548 0
0.084158 1.36299 0
0.0914631 1.35757 0
0.0964832 1.38905 0
0.0683382 1.42538 0
0.080903 1.45551 0
0.0906928 1.3848 0
0.098966 1.45179 0
0.0919656 1.42599 0
0.0718135 1.4009 0
0.0749828 1.43407 0
0.0706299 1.4527 0
0.0812706 1.42227 0
0.0863181 1.44032 0
0.099958 1.41833 0
0.110342 1.44166 0
0.0610472 0.571437 0
0.0620001 0.54975 0
0.0520084 0.519044 0
0.057816 0.530065 0
0.0512188 0.48206 0
0.0548133 0.468621 0
0.0591861 0.496984 0
0.0652949 0.4985 0
0.058353 0.479981 0
0.0635855 0.477145 0
0.0618763 0.513658 0
0.0524277 0.543476 0
0.056528 0.512291 0
0.0526028 0.500096 0
0.0444364 0.499417 0
0.0483925 0.507696 0
0.0464636 0.531975 0
0.0569108 0.551239 0
0.0482291 0.561618 0
0.0440185 0.517158 0
0.0429274 0.542665 0
0.0452105 0.580224 0
0.048066 0.607576 0
0.058105 0.620889 0
0.0632926 0.610033 0
0.0577177 0.594233 0
0.0631772 0.633414 0
0.0568511 0.65111 0
0.0603969 0.671904 0
0.0679097 0.62949 0
0.0534213 0.608498 0
0.0508886 0.586804 0
0.0515548 0.652852 0
0.0531891 0.631019 0
0.048591 0.636609 0
0.0122079 0.534959 0
0.00922452 0.549939 0
0.00648056 0.539852 0
0.00991095 0.565524 0
0.00499801 0.539867 0
0.0113831 0.644558 0
0.0353576 0.529402 0
0.0376738 0.515397 0
0.0320867 0.510135 0
0.0250764 0.511293 0
0.0282707 0.45043 0
0.0266717 0.530056 0
0.0285241 0.514077 0
0.0289611 0.481719 0
0.0327049 0.489996 0
0.0385053 0.457769 0
0.0364514 0.476946 0
0.0405379 0.48686 0
0.0330473 0.458193 0
0.0405209 0.503745 0
0.0455302 0.47704 0
0.0319515 0.473772 0
0.035646 0.434811 0
0.0492909 0.463626 0
0.0441693 0.447437 0
0.0469637 0.429157 0
0.044613 0.415167 0
0.0408988 0.354278 0
0.0438053 0.383281 0
0.0453111 0.398691 0
0.0501821 0.383822 0
0.0427478 0.43207 0
0.0415496 0.469706 0
0.0357154 0.44936 0
0.0316626 0.440509 0
0.0316726 0.410976 0
0.032755 0.425644 0
0.057467 0.35104 0
0.0602414 0.371573 0
0.0654423 0.364962 0
0.0619699 0.330373 0
0.0658665 0.345707 0
0.0470804 0.362633 0
0.0538856 0.36749 0
0.0685091 0.334182 0
0.061263 0.343482 0
0.0469766 0.37591 0
0.0327172 0.0496623 0
0.0253334 0.0359372 0
0.0380134 0.0327691 0
0.0310749 0.028695 0
0.0338591 0.0320912 0
0.0364436 0.0279243 0
0.0294271 0.0339858 0
0.0332721 0.0244976 0
0.0285653 0.040013 0
0.0216867 0.0477677 0
0.031773 0.0399678 0
0.0244032 0.0423701 0
0.019741 0.037281 0
0.0258736 0.0492532 0
0.0282328 0.04523 0
0.0210884 0.0421121 0
0.0225828 0.0379392 0
0.0147654 0.0448572 0
0.0223721 0.0319677 0
0.018104 0.0460646 0
0.0263083 0.0293517 0
0.0229636 0.0556424 0
0.0168644 0.0402755 0
0.0164327 0.0333797 0
0.0154828 0.0563533 0
0.0282296 0.0245593 0
0.0239176 0.0625745 0
0.0222245 0.0764816 0
0.0252025 0.0704843 0
0.0264585 0.0553652 0
0.0190435 0.0330082 0
0.0108002 0.019672 0
0.0190149 0.0550808 0
0.0159862 0.0501953 0
0.0228118 0.0243356 0
0.0219408 0.0279228 0
0.0217747 0.0690713 0
0.0140039 0.0752749 0
0.0179065 0.0739843 0
0.0261528 0.0791533 0
0.0284682 0.069942 0
0.0142131 0.0252814 0
0.0254169 0.0258069 0
0.016205 0.0284739 0
0.00178059 0.187873 0
0.000445348 0.178011 0
0.000623952 0.199514 0
0.00112477 0.179488 0
0.000844715 0.163133 0
0.000678706 0.187996 0
0.000170185 0.188817 0
0.00127317 0.197021 0
0 0.21167 0
0.000144905 0.203626 0
0 0.199402 0
0.00023006 0.224311 0
0.00044171 0.212304 0
0.00120738 0.212101 0
0.000115819 0.21457 0
0 0.224304 0
0.00289743 0.17744 0
0.167114 0 0
0.171645 0.000217732 0
0.0483696 0.00875288 0
0.0479016 0.0120681 0
0.0532338 0.0105858 0
0.0581339 0.0104619 0
0.0554109 0.00815159 0
0.0675172 0.000406915 0
0.0600855 0.00312608 0
0.36591 0.00591259 0
0.347059 0.0062722 0
0.382356 0.00751951 0
0.384229 0.00543978 0
0.355882 0.00533762 0
0.338909 0.00517273 0
0.336168 0.00947478 0
0.331364 0.0129297 0
0.347527 0.0145341 0
0.357204 0.00734666 0
0.371506 0.00742684 0
0.380627 0.0109663 0
0.329517 0.00762907 0
0.327429 0.0107093 0
0.320716 0.013188 0
0.366911 0.0142707 0
0.342728 0.0117472 0
0.352151 0.0097362 0
0.361365 0.0115506 0
0.41404 0.0107322 0
0.357437 0.0156667 0
0.377404 0.0133854 0
0.34473 0.0081514 0
0.397352 0.0118812 0
0.409112 0.0166001 0
0.400634 0.00845458 0
0.399132 0.0146807 0
0.423925 0.00646586 0
0.415022 0.00340834 0
0.40232 0.00324172 0
0.389338 0.00934393 0
0.414469 0.00813467 0
0.247201 0.000368988 0
0.236982 0.00236345 0
0.2422 0.00363295 0
0.255931 0.00312965 0
2 0.088623 0
1.90475 0.0785565 0
1.95413 0.082274 0
1.92618 0.0831443 0
1.94235 0.0699658 0
1.91807 0.0646889 0
1.9158 0.0722841 0
1.22118 0.896289 0
1.31838 0.232144 0
1.36453 0.155959 0
1.89706 0.0538433 0
1.94049 0.0508162 0
1.9593 0.0581991 0
1.94581 0.0636007 0
2 0.0661011 0
1.97316 0.0696435 0
1.95881 0.0754092 0
1.97471 0.0632945 0
1.97083 0.0492025 0
2 0.0529175 0
1.96856 0.0259197 0
2 0.0221558 0
1.92711 0.0168711 0
1.90273 0.012306 0
1.87654 0.0121599 0
1.71769 0.000303662 0
1.7286 0.000723279 0
1.74553 0.00018758 0
1.72864 0 0
1.67103 0.000337848 0
1.69389 0.0001935 0
1.67102 0 0
1.69391 0.000640813 0
1.64954 0.00258589 0
1.66387 0.00383534 0
1.53251 0.00321455 0
1.49448 0.00147241 0
1.50967 0.00247697 0
1.41585 0.00262179 0
1.38197 0.00429345 0
1.36157 0.00206425 0
1.34189 0.00155809 0
1.38079 0.0060732 0
1.35578 0.00503328 0
1.36116 0.00343762 0
1.44006 0.00395915 0
1.05579 0 0
1.06704 0.000174419 0
0.763051 0.0916756 0
0.760903 0.101451 0
1.05466 1.78986 0
1.21555 1.63092 0
1.19551 1.62937 0
1.23288 1.5153 0
1.20457 1.54096 0
1.22845 1.54841 0
1.20898 1.50795 0
1.23503 1.42777 0
1.2277 1.47092 0
1.30057 1.47828 0
1.19142 1.43723 0
1.19637 1.47412 0
1.15794 1.46452 0
1.1754 1.48162 0
1.26478 1.45925 0
1.21458 1.4442 0
1.24403 1.45303 0
1.25039 1.48879 0
1.26372 1.52846 0
1.24888 1.54772 0
1.32075 1.56203 0
1.27692 1.49662 0
1.29646 1.53178 0
1.27872 1.55371 0
1.29095 1.60684 0
1.33498 1.50978 0
1.3193 1.53171 0
1.12248 1.76535 0
1.13541 1.88972 0
1.22175 1.8344 0
1.24451 1.78328 0
1.23829 1.68921 0
1.27208 1.73169 0
1.23988 1.64972 0
1.26465 1.62677 0
1.26036 1.70184 0
1.29008 1.64775 0
1.29387 1.69489 0
1.27013 1.59767 0
1.34873 1.79138 0
1.3143 1.7505 0
1.29586 1.7286 0
0.773664 1.47381 0
0.761958 1.53094 0
0.751001 1.50009 0
0.758115 1.47638 0
0.669131 1.72921 0
0.693582 1.70248 0
0.677823 1.70389 0
0.712189 1.71952 0
0.717491 1.6883 0
0.708406 1.79943 0
0.707449 1.83907 0
0.722725 1.82055 0
0.737489 1.83526 0
0.668531 2.13682 0
0.665533 2.10417 0
0.653702 2.12991 0
0.670273 2.22362 0
0.693705 2.12872 0
0.662678 2.18062 0
0.683502 2.1873 0
0.694806 2.2373 0
0.679959 2.11683 0
0.726659 2.12673 0
0.725849 2.08538 0
0.682421 2.15289 0
0.710283 2.14274 0
0.711258 2.1058 0
0.624364 2.05127 0
0.533245 0.753024 0
0.516599 0.748916 0
0.553132 0.756454 0
0.565033 0.74073 0
0.545409 0.725364 0
0.54784 0.705369 0
0.116138 1.38834 0
0.111681 1.36886 0
0.14063 1.42987 0
0.487839 1.39076 0
0.498972 1.46146 0
0.504675 1.38975 0
0.496682 1.42363 0
0.48138 1.44684 0
0.524788 1.43552 0
0.525832 1.40192 0
0.511868 1.4177 0
0.456715 1.45337 0
0.475894 1.5323 0
0.468352 1.43947 0
0.452131 1.42504 0
0.483376 1.49066 0
0.462638 1.49679 0
0.503677 1.53181 0
0.471542 1.471 0
0.43913 1.48862 0
0.42123 1.45271 0
0.427029 1.42717 0
0.438242 1.45255 0
0.456338 1.53804 0
0.499826 1.49686 0
0.489645 1.52039 0
0.513916 1.50826 0
0.519378 1.4717 0
0.451667 1.48025 0
0.445765 1.51658 0
0.450562 1.64487 0
0.511437 1.44706 0
0.469611 1.59553 0
0.467589 1.56124 0
0.448132 1.58449 0
0.489825 1.5721 0
0.447278 1.55666 0
0.51051 1.35147 0
0.500092 1.32741 0
0.554059 1.35373 0
0.55534 1.37963 0
0.579798 1.33801 0
0.568726 1.35666 0
0.595949 1.33367 0
0.576578 1.30044 0
0.561402 1.32122 0
0.552979 1.29912 0
0.452716 0.807069 0
0.44658 0.904066 0
0.446429 0.881039 0
0.0148307 1.26373 0
0.0109707 1.23866 0
0.00925371 1.2165 0
0.00649065 1.26513 0
0.00743506 1.23529 0
0.00895311 1.26596 0
0.011984 1.33042 0
0.0132531 1.24147 0
0.012635 1.21024 0
0.0117326 1.27613 0
0.0141701 1.30179 0
0.00760787 1.32483 0
0.00970361 1.30271 0
0.00763963 1.29185 0
0.0053339 1.29946 0
0.0117075 1.30325 0
0.00355281 1.39516 0
0.00397529 1.34295 0
0.00421257 1.31503 0
0.00565036 1.33497 0
0.00517745 1.37476 0
0.00393647 1.36979 0
0.00598911 1.44502 0
0.00503545 1.41211 0
0.00706082 1.41225 0
0.00724777 1.37418 0
0.00690135 1.34838 0
0.00959823 1.35545 0
0.00999534 1.32908 0
0.0047725 1.13745 0
0.00316449 1.17681 0
0.00420995 1.16185 0
0.00481156 1.20468 0
0.0060675 1.21933 0
0.00547927 1.0884 0
0.00445929 1.10754 0
0.0234624 1.28117 0
0.0241261 1.25118 0
0.0211369 1.26128 0
0.00881226 0.737832 0
0 0.703857 0
0 0.681335 0
0.000148037 0.692521 0
0.000157497 0.72672 0
0.000656397 0.734522 0
0.0011027 0.747653 0
0.00017985 0.584482 0
0 0.59491 0
0.000111027 0.605393 0
0.000958838 0.603889 0
0.0162057 0.588457 0
0.000144822 1.07812 0
0.000430265 1.06695 0
0 1.08563 0
0.000608754 0.980622 0
0 1.14276 0
0.0705902 1.30179 0
0.068439 1.33794 0
0.0619578 1.33812 0
0.0528988 1.41141 0
0.0561116 1.369 0
0.105459 1.46678 0
0.0129603 0.553581 0
0.0145277 0.539268 0
0.00785158 0.563976 0
0.00892382 0.515087 0
0.0392833 0.441237 0
0.0255453 0.422077 0
0.0289238 0.428077 0
0.034158 0.376862 0
0.0509016 0.323885 0
0.0428994 0.36786 0
0.0381448 0.368441 0
0.0154579 0.0658325 0
0.0166182 0.0903738 0
0.0181361 0.0222837 0
0.000620417 0.13922 0
0 0.164795 0
0 0.175964 0
0.000132222 0.170333 0
8.647e-05 0.179828 0
0.000432775 0.168111 0
0.000276465 0.152487 0
9.39194e-05 0.159893 0
0 0.153992 0
0.000704316 0.261646 0
0.00191147 0.270376 0
0.00170998 0.246875 0
0.00261951 0.24731 0
0.00204594 0.21721 0
0.00119118 0.230071 0
0.000662026 0.22336 0
0.000471391 0.242226 0
0.00192141 0.234983 0
0.00102866 0.241863 0
0.0510308 0.00639802 0
0.0399857 0.00448333 0
0.0445564 0.00621717 0
0.0456507 0.00379458 0
0.0382235 0.00757876 0
0.0479395 0.00517128 0
0.0504891 0.00137938 0
0.040689 0.00613439 0
0.0418134 0.0105659 0
0.0495259 0.00268138 0
0.054742 0.00280395 0
0.0582588 0.00194097 0
0.0396816 0.00128115 0
0.0440803 0.0020921 0
0.0439666 0.00837365 0
0.0355941 0.010989 0
0.0391982 0.00268439 0
0.0288487 0.00165613 0
0.0322016 0.00395776 0
0.0341785 0.00178539 0
0.0361771 0.00370849 0
0.0347799 0.00575793 0
0.0384226 0.0096583 0
0.0390236 0.0132814 0
0.033205 0.0154504 0
0.0395512 0.0171654 0
0.0395508 0 0
0.0319628 0.000457903 0
0.0311603 0.00256857 0
0.0256072 0.00348315 0
0.0366972 0.015343 0
0.0352739 0.0192014 0
0.0316367 0.00112932 0
0.0357481 0.000823862 0
0.0403704 0.000322342 0
0.0352783 0 0
0.0356575 0.000239919 0
0.0440674 0 0
0.0713207 0.000169617 0
0.059082 0 0
0.0719018 0.0021475 0
0.0568606 0.00433891 0
0.0623722 0.00471489 0
0.0683354 0.00366516 0
0.0709927 0.00494786 0
0.0652945 0.00219322 0
0.0683587 0.00116723 0
0.0755652 0.00100445 0
0.0796951 0.00216853 0
0.0828676 0.000957468 0
0.0756622 0.00343012 0
0.0855173 0.00183837 0
0.374459 0.0183796 0
0.370789 0.0225193 0
0.389985 0.0188435 0
0.397923 0.0216859 0
0.237781 0.000228123 0
0.238147 0.000742178 0
0.248701 0.00119058 0
1.94455 0.0913026 0
1.97099 0.0882518 0
2 0.0968628 0
1.9699 0.101084 0
2 0.0807495 0
1.9334 0.0768811 0
1.90267 0.0184652 0
1.96302 0.0178214 0
1.97644 0.020573 0
2 0.0148315 0
1.95442 0.0128415 0
1.94884 0.0154303 0
1.91831 0.00514879 0
1.6252 0.000437479 0
1.67915 0.00269978 0
1.47149 0.00177631 0
1.5253 0.000564759 0
1.48798 0.00316903 0
1.44059 0.00221755 0
1.40815 0.00410715 0
1.38748 0.00262459 0
1.40166 0.000646064 0
1.42044 0.00132527 0
1.36783 0.00079006 0
1.39424 0.00146526 0
1.37158 0 0
1.34583 0 0
1.33332 0.000189407 0
1.38084 0.000228534 0
1.39758 0 0
1.35718 0.000134709 0
1.41066 0.000177735 0
1.47705 0 0
1.44912 0.000242683 0
1.42778 0.000592082 0
1.05711 0.000581445 0
1.0394 1.77267 0
1.03518 1.84144 0
1.01414 1.83668 0
1.08299 1.77136 0
1.0646 1.74662 0
1.10343 1.78115 0
1.08418 1.73216 0
1.16742 1.43441 0
1.12329 1.48043 0
1.29444 1.43088 0
1.32225 1.60428 0
1.41346 1.6345 0
1.36553 1.62991 0
1.34044 1.62743 0
1.3558 1.58088 0
1.34651 1.54451 0
1.38566 1.54757 0
1.36382 1.51413 0
1.33494 1.58224 0
1.2978 1.57468 0
1.15632 1.85547 0
1.13863 1.82805 0
1.14032 1.79585 0
1.17334 1.91368 0
1.17442 1.87763 0
1.20091 1.82092 0
1.2064 1.85615 0
1.29293 1.89535 0
1.22457 1.80036 0
1.24121 1.60342 0
0.63754 1.75472 0
0.674168 1.79282 0
0.723557 1.78432 0
0.642153 2.06129 0
0.640352 2.01907 0
0.655684 2.00141 0
0.622924 2.11539 0
0.63495 2.0925 0
0.111084 1.41056 0
0.134193 1.38282 0
0.12584 1.47217 0
0.120955 1.42986 0
0.558715 1.4511 0
0.558539 1.41484 0
0.539226 1.46418 0
0.54139 1.42425 0
0.414798 1.51041 0
0.414031 1.60318 0
0.456579 1.61301 0
0.494418 1.64703 0
0.473015 1.64303 0
0.484801 1.61426 0
0.48242 1.67923 0
0.457001 1.70897 0
0.471812 1.7041 0
0.462328 1.67236 0
0.586634 1.37177 0
0.588915 1.43236 0
0.582525 1.40261 0
0.601734 1.40503 0
0.572253 1.43266 0
0.000889651 1.33652 0
0.00202299 1.36526 0
0.00289882 1.14867 0
0.00191667 1.16943 0
0.00101525 1.24806 0
0.00216156 1.2182 0
0.00234741 1.19257 0
0.00334896 1.21163 0
0.0030124 1.25188 0
0.00453072 1.23957 0
0.00580041 1.24355 0
0.00187284 1.24892 0
0.00136145 1.29303 0
0.00459851 1.2712 0
0.00597471 1.18768 0
0.00726791 1.17625 0
0 0.726746 0
0.000464021 0.708402 0
0 0.797607 0
0.000145615 1.10648 0
0.0431092 1.34258 0
0.060625 1.40764 0
0.0608984 1.46459 0
0.0658059 1.38776 0
0.0651966 1.35964 0
0.0608786 1.37775 0
0.00825756 0.533106 0
0.0101545 0.529275 0
0.0278711 0.408789 0
0.0311661 0.39148 0
0.0367413 0.398683 0
0.0409323 0.395785 0
0.0381872 0.383984 0
0.0460159 0.339926 0
0.0558831 0.333481 0
0.0581534 0.319944 0
0.0514832 0.34657 0
0.0181586 0.0670854 0
0.0175555 0.0606284 0
0.0107077 0.0609086 0
0.0119656 0.0515777 0
0.0157412 0.0716179 0
0.0161918 0.0813739 0
0.0125978 0.0858858 0
0.0198344 0.0846498 0
0.0147407 0.0864183 0
0.0197007 0.0782899 0
0.0201006 0.0952205 0
0.0233438 0.084608 0
0.0235337 0.0932574 0
0.0157698 0.107765 0
0.0162917 0.120527 0
0.0120586 0.127973 0
0.0126727 0.136925 0
0.0171691 0.0993231 0
0.0142125 0.0962141 0
0.0195436 0.10806 0
0.00908008 0.132286 0
0.0145678 0.12762 0
0.0129414 0.115451 0
0.017584 0.113411 0
0.0221951 0.109958 0
0.0103997 0.139108 0
0.0067028 0.128728 0
0.0150027 0.114479 0
0.0129235 0.105501 0
0.00463208 0.135656 0
0.00883328 0.115229 0
0.0107966 0.110448 0
0.00535243 0.129131 0
0.00828954 0.123867 0
0.0103153 0.121824 0
0.00665929 0.116775 0
0.00713878 0.0988911 0
0.00745499 0.108023 0
0.00925287 0.102121 0
0.00442351 0.105623 0
0.00517584 0.112997 0
0.00592927 0.104422 0
0.0145238 0.0192394 0
0.000994678 0.150261 0
0.000156689 0.141302 0
7.31155e-05 0.149183 0
0 0.123779 0
0 0.133484 0
0.000266655 0.126971 0
7.52105e-05 0.133062 0
0.000129822 0.236742 0
0 0.264404 0
0.000153768 0.253671 0
0 0.250671 0
0.00018389 0.272363 0
0.000416204 0.253286 0
0 0.278503 0
0.000917996 0.284816 0
0.000550266 0.27397 0
0.0296091 0.0116943 0
0.0239258 0 0
0.0235933 0.00165733 0
0.0450392 0.000829719 0
0.0463981 0.000211996 0
0.0538224 0.000238872 0
0.0606878 0.000291765 0
0.0645752 0 0
0.255404 0.00189481 0
1.898 0.00814392 0
1.86185 0.00696753 0
1.88929 0.00590739 0
1.8709 0.00153805 0
1.88783 0.00327309 0
1.83894 0.0031327 0
1.86085 0.0046192 0
1.8222 0.00425297 0
1.80878 0.00277174 0
2 0.0065918 0
1.64635 0.000954662 0
1.64611 0.000197609 0
1.58643 0 0
1.58906 0.000982501 0
1.51892 0.00122341 0
1.50403 0 0
1.49049 0.000294031 0
1.51762 0.000139878 0
1.47051 0.000137967 0
1.45032 0 0
1.03721 1.808 0
1.03399 1.92096 0
1.05778 1.82821 0
1.05683 1.88185 0
1.1441 1.48738 0
1.13251 1.43888 0
1.11261 1.38386 0
1.10073 1.34251 0
1.08679 1.37072 0
1.09381 1.44475 0
1.07647 1.42464 0
1.09874 1.41146 0
1.11239 1.43273 0
1.12998 1.40615 0
1.14106 1.34507 0
1.13494 1.37525 0
1.12044 1.35374 0
1.12249 1.31465 0
1.11907 1.2874 0
1.14557 1.31507 0
1.09126 1.49534 0
1.28625 1.45693 0
1.34482 1.44428 0
1.35225 1.47994 0
1.3265 1.4696 0
1.31947 1.43776 0
1.34112 1.38504 0
1.33622 1.41519 0
1.31617 1.39434 0
1.32285 1.36565 0
1.26519 1.40971 0
1.28514 1.40793 0
1.23939 1.33141 0
1.20838 1.3058 0
1.18783 1.2996 0
1.18726 1.36191 0
1.19293 1.33064 0
1.16094 1.36839 0
1.21582 1.35412 0
1.16486 1.33593 0
1.2736 1.4345 0
1.26015 1.36602 0
1.21896 1.3281 0
1.2078 1.3975 0
1.18079 1.40269 0
1.28316 1.35413 0
1.23786 1.36023 0
1.24139 1.39417 0
1.39065 1.59484 0
1.37655 1.57318 0
1.36989 1.60208 0
1.38969 1.62692 0
1.38323 1.71094 0
1.39447 1.66979 0
1.36001 1.6759 0
1.42324 1.70735 0
1.37553 1.65564 0
1.34667 1.72434 0
1.32039 1.70876 0
1.34063 1.69335 0
1.31356 1.67787 0
1.40261 1.69712 0
1.42253 1.66973 0
1.48403 1.68653 0
1.46024 1.63326 0
1.45165 1.68753 0
1.43692 1.64359 0
1.36238 1.70472 0
1.44252 1.56149 0
1.43366 1.60156 0
1.44819 1.72494 0
1.50634 1.78407 0
1.47269 1.76214 0
1.46737 1.66341 0
1.49893 1.64655 0
1.41208 1.56681 0
1.42255 1.52057 0
1.41142 1.6053 0
1.44925 1.87279 0
1.50493 1.73107 0
1.49631 1.57607 0
1.47198 1.82141 0
1.47663 1.72444 0
1.49499 1.75796 0
1.52886 1.68536 0
1.46547 1.59136 0
1.50666 1.61061 0
1.48262 1.79188 0
1.45283 1.79123 0
1.40031 1.81888 0
1.44153 1.83101 0
1.42378 1.79544 0
1.41507 1.86272 0
1.3982 1.7576 0
1.52058 1.65742 0
1.48166 1.61613 0
1.41963 1.83286 0
1.37243 1.8643 0
1.42277 1.93018 0
1.39342 1.85016 0
1.42815 1.8942 0
1.39812 1.8979 0
1.10814 1.85503 0
1.25234 1.87709 0
0.650259 1.72723 0
0.657598 1.76655 0
0.642964 1.79209 0
0.658211 1.84381 0
0.646201 1.82325 0
0.668708 1.87162 0
0.69186 1.78181 0
0.680133 1.75589 0
0.687549 1.81613 0
0.598198 2.0803 0
0.609816 2.20173 0
0.638707 2.2266 0
0.654183 2.21288 0
0.130657 1.35713 0
0.125021 1.38793 0
0.130759 1.42045 0
0.126867 1.44395 0
0.151835 1.37667 0
0.1166 1.46978 0
0.429223 1.51332 0
0.425407 1.48273 0
0.429652 1.58097 0
0.42023 1.54779 0
0.389105 1.5522 0
0.404282 1.53974 0
0.401204 1.57835 0
0.41349 1.57304 0
0.386447 1.58938 0
0.398211 1.61934 0
0.358814 1.55794 0
0.36877 1.59451 0
0.431075 1.62907 0
0.442853 1.61364 0
0.394942 1.70778 0
0.373906 1.55836 0
0.377881 1.50136 0
0.366464 1.5257 0
0.379888 1.53146 0
0.396427 1.49864 0
0.366256 1.49658 0
0.376307 1.43677 0
0.374061 1.46932 0
0.389999 1.41234 0
0.390817 1.45924 0
0.334831 1.62889 0
0.433389 1.68826 0
0.447811 1.68108 0
0.392251 1.6622 0
0.408872 1.476 0
0.406612 1.4407 0
0.376759 1.40471 0
0.357234 1.3795 0
0.368718 1.37037 0
0.344839 1.36198 0
0.326906 1.43529 0
0.355489 1.35236 0
0.342103 1.40796 0
0.386732 1.4845 0
0.349979 1.60084 0
0.43781 1.65726 0
0.358587 1.69765 0
0.412267 1.67792 0
0.423669 1.65796 0
0.41011 1.64133 0
0.395491 1.4352 0
0.358718 1.58518 0
0.376991 1.69131 0
0.362295 1.64473 0
0.400662 1.68225 0
0.379179 1.6582 0
0.370058 1.74129 0
0.366727 1.67412 0
0.370123 1.62346 0
0.368573 1.71148 0
0.38244 1.72469 0
0.526348 1.59924 0
0.505398 1.60763 0
0.512802 1.56865 0
0.523417 1.53913 0
0.500885 1.55857 0
0.00243385 1.32445 0
0.00284197 1.35057 0
0.00232099 1.29375 0
0.0016136 1.33832 0
0.000620977 1.40559 0
0.00096526 1.2051 0
0.000350729 1.28496 0
0.000309512 0.771109 0
0.000757221 0.805709 0
0.00106511 0.824578 0
0.00141708 0.797892 0
0.000301205 0.747705 0
0.0499604 1.34435 0
0.0565083 1.39599 0
0.0631269 1.43559 0
0.0570247 1.43664 0
0.0460683 1.48408 0
0.0505976 1.45244 0
0.0426967 1.41018 0
0.0542263 1.50628 0
0.0449165 1.44566 0
0.0507316 1.48404 0
0.0556807 1.47392 0
0.0476487 1.41647 0
0.0494619 1.38109 0
0.0464064 1.36083 0
0.0398854 1.44009 0
0.0392728 1.48902 0
0.0418691 1.46609 0
0.0361503 0.415848 0
0.0446163 0.352187 0
0.04299 0.314401 0
0.0123617 0.0677587 0
0.0133735 0.0609749 0
0.0095674 0.0684032 0
0.00821219 0.0823701 0
0.0089059 0.0918222 0
0.00827207 0.07451 0
0.0106606 0.0785918 0
0.0108692 0.0902907 0
0.0119444 0.0737694 0
0.00988274 0.0845265 0
0.0118377 0.0448146 0
0.0125548 0.0364039 0
0.011479 0.0401635 0
0.0143024 0.0397495 0
0.0131254 0.0304199 0
0.0105704 0.0257083 0
0.0123627 0.0269718 0
0.00749731 0.0518969 0
0.00957331 0.0484576 0
0.00941159 0.0550752 0
0.00738995 0.0597796 0
0.00438361 0.0552577 0
0.00889813 0.0627739 0
0.00599457 0.0555583 0
0.00505358 0.0637706 0
0.00456727 0.0791144 0
0.00636711 0.0781879 0
0.00528459 0.0716064 0
0.00566206 0.0890524 0
0.0049111 0.0969142 0
0.00292038 0.0976575 0
0.00715702 0.0914233 0
0.00203624 0.125392 0
0.00163673 0.138576 0
0.00271946 0.144422 0
0.00105686 0.128925 0
0.00164668 0.14722 0
0.00374841 0.1415 0
0.00319467 0.130673 0
0.000992863 0.107237 0
0.000570889 0.131181 0
0.00247327 0.136228 0
0.00122543 0.117729 0
0.00261093 0.111756 0
0.00376599 0.116154 0
0.00297263 0.122266 0
0.000439987 0.115483 0
0.00198842 0.117464 0
0 0.0732422 0
0 0.114441 0
0.000122478 0.109892 0
0.0127176 0.0219116 0
0.0156071 0.022266 0
0.0122099 0.0131229 0
0.0002284 0.292145 0
0.000102853 0.282942 0
0 0.322998 0
0.00113017 0.325287 0
0 0.3078 0
0.000769969 0.305339 0
0.000225491 0.315394 0
0.000579832 0.294173 0
0.00248236 0.304693 0
0.00032701 0.303959 0
0.000179541 0.338574 0
0.000589404 0.318618 0
0.00150237 0.296765 0
0.00161324 0.312255 0
0.00248065 0.2869 0
0.00233736 0.330435 0
9.48239e-05 0.326298 0
0.00158754 0.282567 0
0.0328051 0.0126794 0
0.0322394 0.0102111 0
0.0237996 0.00768401 0
0.0226151 0.0155285 0
0.025769 0.0194334 0
0.0274658 0 0
0.0256474 0.000423338 0
0.0230774 0.00273516 0
0.026158 0.00220383 0
0.0174168 0.000849479 0
0.053833 0 0
0.049835 0.000576022 0
1.93138 0.00988403 0
1.96961 0.00957742 0
1.92779 0.00725977 0
1.96079 0.00539312 0
2 0.00897217 0
1.95704 0.00742892 0
2 0.00457764 0
1.94402 0.00247146 0
1.94139 0.00397673 0
1.97221 0.00368582 0
1.91714 0.00303937 0
1.91307 0.00135436 0
1.8941 0.00208816 0
2 0.000732422 0
1.88681 0.000405392 0
1.95566 0.000933761 0
1.89007 0.000977576 0
1.93795 0.00152852 0
1.86403 0.00259034 0
1.55872 0 0
1.57252 0.000295644 0
1.59829 0.000408665 0
1.54541 0.000175851 0
1.5555 0.000930262 0
1.56278 0.0018606 0
1.61438 0 0
1.61448 0.000985917 0
1.47591 0.00087468 0
1.0245 1.88058 0
1.0582 1.92182 0
1.04487 2.01714 0
1.04547 1.96679 0
0.995575 1.9754 0
1.00063 1.91948 0
0.980213 1.90934 0
0.97498 1.95114 0
0.947414 2.06149 0
0.916113 2.01276 0
0.895506 2.00522 0
0.966877 2.01039 0
0.909563 1.97459 0
0.977387 1.98339 0
0.94083 1.97813 0
0.954544 1.95177 0
1.08482 1.99329 0
1.02159 1.99106 0
0.929257 1.94875 0
1.06208 1.99249 0
1.07384 1.95876 0
1.01501 1.95183 0
1.0149 2.05214 0
1.02562 2.02388 0
1.1401 1.28835 0
1.09378 1.52513 0
1.11051 1.50223 0
1.10329 1.47103 0
1.07591 1.46821 0
1.24071 1.28587 0
1.33904 1.7582 0
1.36846 1.76058 0
1.37626 1.79823 0
1.35814 1.82924 0
1.31075 1.83182 0
1.33539 1.87149 0
1.33406 1.81997 0
1.32166 1.78655 0
1.28263 1.79243 0
1.28575 1.75887 0
1.303 1.80254 0
1.3995 1.52387 0
1.43854 1.43758 0
1.42109 1.37472 0
1.45618 1.37219 0
1.42971 1.34216 0
1.40027 1.34888 0
1.36937 1.34666 0
1.45951 1.3462 0
1.44001 1.40179 0
1.47309 1.42167 0
1.3465 1.35608 0
1.4698 1.39431 0
1.47511 1.49197 0
1.53284 1.43443 0
1.53282 1.38985 0
1.5619 1.38067 0
1.56762 1.42238 0
1.46432 1.45706 0
1.43491 1.48007 0
1.50158 1.45976 0
1.50457 1.41647 0
1.54606 1.4121 0
1.59575 1.42215 0
1.66852 1.44897 0
1.64288 1.3968 0
1.62972 1.44344 0
1.61606 1.40178 0
1.62532 1.35522 0
1.4041 1.45452 0
1.37908 1.41021 0
1.37387 1.45348 0
1.4097 1.40957 0
1.39386 1.38154 0
1.36725 1.38087 0
1.41336 1.49285 0
1.45026 1.51058 0
1.47948 1.53615 0
1.54835 1.50237 0
1.62406 1.50814 0
1.65133 1.42556 0
1.68768 1.41086 0
1.41739 1.43397 0
1.45648 1.53835 0
1.5309 1.47136 0
1.51087 1.51047 0
1.56249 1.46833 0
1.58605 1.50346 0
1.64568 1.47788 0
1.67151 1.37866 0
1.675 1.30456 0
1.64757 1.3688 0
1.67042 1.34125 0
1.64014 1.31794 0
1.61857 1.29843 0
1.64854 1.28124 0
1.66256 1.23926 0
1.63747 1.23351 0
1.75405 1.47864 0
1.49771 1.48733 0
1.4892 1.51221 0
1.50624 1.54401 0
1.54205 1.57676 0
1.51898 1.58493 0
1.55397 1.44355 0
1.60709 1.48223 0
1.65557 1.51327 0
1.70711 1.50576 0
1.6823 1.51931 0
1.68224 1.48214 0
1.71729 1.46274 0
1.61784 1.32924 0
1.67965 1.26934 0
1.76276 1.29969 0
1.71814 1.29306 0
1.69436 1.28947 0
1.70311 1.32731 0
1.59935 1.57131 0
1.56636 1.54204 0
1.72929 1.48946 0
1.75872 1.57 0
1.75518 1.52408 0
1.75711 1.40849 0
1.696 1.44137 0
1.72701 1.42628 0
1.75457 1.44328 0
1.7295 1.39163 0
1.81913 1.46211 0
1.76693 1.35396 0
1.78461 1.46147 0
1.73367 1.3558 0
1.75384 1.37937 0
1.80121 1.50312 0
1.80259 1.41503 0
1.78713 1.38266 0
1.74898 1.32808 0
1.77784 1.42777 0
1.80215 1.44217 0
1.82128 1.38412 0
1.83045 1.31185 0
1.83467 1.34899 0
1.80052 1.34929 0
1.78045 1.32534 0
1.79878 1.2918 0
1.60251 1.53444 0
1.63351 1.55684 0
1.53601 1.53644 0
1.57073 1.57684 0
1.55627 1.60987 0
1.72077 1.55064 0
1.83654 1.49671 0
1.77352 1.50068 0
1.78887 1.54374 0
1.72613 1.31791 0
1.83242 1.27179 0
1.77002 1.24283 0
1.64035 1.64729 0
1.74429 1.54829 0
1.91475 1.53296 0
1.88483 1.44504 0
1.81536 1.61999 0
1.91363 1.29587 0
1.77602 1.27246 0
1.79974 1.25184 0
1.74109 1.26451 0
1.6276 1.60279 0
1.87185 1.52422 0
1.85403 1.46345 0
1.86546 1.4928 0
1.85243 1.42129 0
1.82819 1.41096 0
1.79291 1.58583 0
1.86994 1.2937 0
1.73488 1.22427 0
1.71419 1.20511 0
1.69824 1.23782 0
1.5923 1.61516 0
1.67762 1.60647 0
1.8309 1.57958 0
1.84566 1.29248 0
1.86068 1.32691 0
1.76523 1.20811 0
1.79541 1.21929 0
1.77474 1.18366 0
1.71251 1.26354 0
1.56941 1.66305 0
1.55409 1.63972 0
1.61551 1.63289 0
1.61061 1.68579 0
1.65659 1.58013 0
1.65185 1.61732 0
1.81209 1.55826 0
1.86537 1.62101 0
1.857 1.55707 0
1.85816 1.58936 0
1.9104 1.59097 0
1.56237 1.75485 0
1.49804 1.87832 0
1.50654 1.69901 0
1.41737 1.73851 0
1.12917 1.85774 0
1.10268 1.8224 0
1.0813 1.86338 0
1.07502 1.89348 0
1.1075 1.90053 0
1.11024 1.95581 0
1.12611 1.92583 0
1.14963 1.92 0
1.17248 2.02006 0
1.16678 1.96638 0
1.13787 1.96787 0
1.10107 1.92908 0
1.15289 1.99776 0
1.11804 2.01889 0
1.12011 1.98524 0
1.23003 1.86694 0
0.635626 1.88107 0
0.632937 1.9303 0
0.648381 1.92146 0
0.583187 1.89269 0
0.609724 1.89946 0
0.624641 1.9032 0
0.609855 1.95499 0
0.624219 1.95519 0
0.614781 2.08218 0
0.623604 2.16407 0
0.598621 2.14137 0
0.626261 2.20143 0
0.608584 2.16709 0
0.14228 1.35482 0
0.143119 1.38988 0
0.150714 1.34337 0
0.165768 1.35343 0
0.15772 1.35703 0
0.159133 1.32505 0
0.141577 1.32332 0
0.13676 1.30098 0
0.325978 1.39135 0
0.331903 1.41245 0
0.336819 1.38252 0
0.295307 1.34127 0
0.304502 1.41634 0
0.31277 1.35685 0
0.317021 1.41454 0
0.310125 1.38785 0
0.293841 1.38367 0
0.32279 1.36558 0
0.30197 1.36415 0
0.265515 1.35535 0
0.292699 1.41483 0
0.28088 1.35913 0
0.279649 1.30261 0
0.271913 1.39499 0
0.283287 1.39656 0
0.284496 1.33008 0
0.272352 1.32848 0
0.266239 1.29572 0
0.254935 1.27945 0
0.238338 1.41425 0
0.258458 1.45685 0
0.254067 1.3936 0
0.26862 1.43189 0
0.262801 1.40809 0
0.343068 1.45213 0
0.320835 1.53346 0
0.359322 1.44212 0
0.336729 1.5015 0
0.350249 1.52289 0
0.349373 1.4291 0
0.344547 1.4806 0
0.330886 1.46911 0
0.310586 1.46661 0
0.294067 1.45936 0
0.323202 1.49824 0
0.320831 1.45846 0
0.275739 1.48514 0
0.276173 1.45415 0
0.336161 1.54299 0
0.303362 1.44493 0
0.298967 1.51842 0
0.31122 1.51062 0
0.324395 1.58443 0
0.313371 1.43968 0
0.30087 1.48603 0
0.288162 1.49049 0
0.326828 1.55673 0
0.348328 1.63771 0
0.353358 1.66759 0
0.337845 1.70525 0
0.338603 1.66619 0
0.317085 1.66223 0
0.328032 1.65399 0
0.318947 1.62186 0
0.310102 1.63915 0
0.349766 1.80018 0
0.00100762 1.37379 0
0.00182812 1.41936 0
0.00337053 1.45568 0
0.00450029 1.44041 0
0.00158776 1.391 0
0.00141048 1.22611 0
0.000275016 1.18294 0
0.000807127 1.27578 0
0.000721009 1.3063 0
0 1.35425 0
0.000153017 1.32585 0
0.000278956 1.36762 0
0.000424208 1.34207 0
0.000105355 1.35083 0
0.000160226 1.40167 0
0 1.38593 0
0.0541711 1.34536 0
0.0292623 1.52139 0
0.0433168 1.5392 0
0.0485666 1.52197 0
0.0473619 1.55298 0
0.0544311 1.5539 0
0.0462145 0.324782 0
0.0401541 0.332891 0
0.0323509 0.344962 0
0.0343625 0.359803 0
0.0368499 0.345076 0
0.0279121 0.364647 0
0.0288451 0.37948 0
0.0312949 0.367696 0
0.0376589 0.316542 0
0.0345872 0.329592 0
0.0237517 0.314589 0
0.0285796 0.326217 0
0.0067751 0.0220041 0
0.00908278 0.0327688 0
0.0111614 0.0326679 0
0.00372136 0.0881928 0
0.00275528 0.0794005 0
0.00320099 0.0687148 0
0.00402269 0.0732873 0
0.00278763 0.0909205 0
0.000731007 0.0739343 0
0 0.088623 0
0.00015431 0.0968238 0
0.00356698 0.0613719 0
0.00287407 0.0548654 0
0.000753102 0.0571678 0
0.00159383 0.0541626 0
0.0020068 0.0626906 0
0.00147971 0.0791521 0
0.000639695 0.0424294 0
0.00131732 0.0595777 0
0.000732986 0.0652967 0
0.00211678 0.0725968 0
0.000564634 0.086232 0
0.000843773 0.0494424 0
0 0.0593262 0
0.000176679 0.069635 0
0.00139748 0.0679297 0
0.000860447 0.0804819 0
0.0014619 0.0441206 0
0.000220578 0.0478595 0
0.00013025 0.0796487 0
0 0.0661011 0
0.00331269 0.0368325 0
0 0.0529175 0
0.000177761 0.0557068 0
0.000351678 0.0750341 0
0 0.0807495 0
0.000138215 0.0880325 0
0.00135516 0.0334458 0
0.00251583 0.041795 0
0.00430626 0.0458269 0
0.00216092 0.0365129 0
0.00357188 0.0415251 0
0.00624048 0.0383476 0
0.00346297 0.0499681 0
0.00575479 0.0489634 0
0.00278924 0.0307436 0
0.00129192 0.0386622 0
0.00748291 0.0447164 0
0.00561674 0.0432766 0
0.00047191 0.0520972 0
0.000131649 0.0625306 0
0.000431983 0.0610243 0
0.00158769 0.0983138 0
0.00111017 0.091036 0
0.00054621 0.0943889 0
0.000435584 0.103262 0
0.00176258 0.106631 0
0.000931845 0.0995358 0
0.00321361 0.105148 0
0.000111434 0.119058 0
0.0124415 0.0166419 0
0 0.338562 0
0.000790268 0.382585 0
0.00485638 0.319339 0
0.00682733 0.310647 0
0.0050553 0.301111 0
0.00744346 0.344543 0
0.00486801 0.287655 0
0.00358509 0.296341 0
0.00356746 0.311615 0
0.00798916 0.326365 0
0.0060559 0.331995 0
0.00442925 0.334901 0
0.00532522 0.353787 0
0.0103815 0.340157 0
0.00343235 0.385024 0
0.00786275 0.37634 0
0.00995082 0.325709 0
0.0156309 0.326113 0
0.0126488 0.313914 0
0.0123472 0.30147 0
0.00393655 0.366036 0
0.006975 0.360876 0
0.00555646 0.376866 0
0.00917588 0.361659 0
0.0127429 0.331584 0
0.015377 0.351167 0
0.0146311 0.338273 0
0.015589 0.307917 0
0.00186888 0.364369 0
0.00673972 0.410977 0
0.00901723 0.348559 0
0.0192752 0.31673 0
0.0177036 0.291776 0
0.00277828 0.371682 0
0.00188214 0.391554 0
0.00668169 0.391941 0
0.00469924 0.40193 0
0.0191474 0.339663 0
0.018085 0.304759 0
0.0226049 0.291824 0
0.0046347 0.387331 0
0.00312194 0.404204 0
0.00467129 0.432765 0
0.00399859 0.417079 0
0.00540369 0.418745 0
0.00696054 0.437454 0
0.0180348 0.32788 0
0.0217405 0.328494 0
0.0234221 0.351067 0
0.0250442 0.328517 0
0.0200823 0.286502 0
0.0212496 0.30508 0
0.0252561 0.272645 0
0.00316504 0.478753 0
0.00214446 0.500762 0
0.00832117 0.423059 0
0.0131335 0.401193 0
0.00964955 0.397145 0
0.0104052 0.378349 0
0.00840147 0.407897 0
0.0114821 0.391137 0
0.0149013 0.376952 0
0.0125334 0.374935 0
0.00845086 0.474337 0
0.0238136 0.262518 0
0.00528971 0.46308 0
0.00308207 0.513769 0
0.00561092 0.502127 0
0.00509099 0.520248 0
0.00685121 0.517898 0
0.00838899 0.45334 0
0.00660616 0.45388 0
0.0276297 0.00881388 0
0.028372 0.00572294 0
0.0239404 0.011334 0
0.0286709 0.00404563 0
0.0172004 0.00957825 0
0.026502 0.0142299 0
0.0298422 0.0145102 0
0.0198228 0.0123839 0
0.0210815 0.00952895 0
0.0191301 0.00588591 0
0.0209456 0.00736055 0
0.0230021 0.00512619 0
0.0158492 0.0133722 0
0.0147014 0.0159814 0
0.0184843 0.0166355 0
0.025397 0.00608969 0
0.0204681 0.00445934 0
0.0141316 0.0105123 0
0.0116234 0.0103194 0
0.00643484 0.0103192 0
0.00883752 0.00961531 0
0.0212856 0.0196297 0
0.00825642 0.0148981 0
0.0101493 0.0162534 0
0.00830861 0.0189302 0
0.00873568 0.0230046 0
0.00714796 0.0279748 0
0.00788045 0.0119737 0
0.00989681 0.0128287 0
0.00900267 0.0284023 0
0.00551857 0.0254693 0
0.00506449 0.0319244 0
0.00692131 0.0331059 0
0.00387521 0.0303127 0
0.0260747 0.00108741 0
0.0288737 0.000241412 0
0.0198986 0.00157477 0
0.0219193 0.000700415 0
0.0227341 0.000222507 0
0.0206299 0 0
1.81689 0 0
1.788 0.000233234 0
1.7905 0.00102553 0
1.83591 0.000476178 0
1.83225 0.00150846 0
1.80871 0.000507747 0
1.80669 0.00166731 0
2 0.00164795 0
1.97381 0.00222427 0
2 0.000183105 0
1.93799 0 0
1.96887 0 0
1.95339 0.000224154 0
1.91823 0.000201674 0
1.90735 0 0
1.97488 0.000521719 0
0.939474 2.02076 0
1.0433 2.06885 0
1.02544 2.07915 0
1.09161 2.15832 0
1.07325 2.04547 0
1.06159 2.12256 0
1.05465 2.04386 0
1.04523 2.10296 0
1.06535 2.0829 0
0.993121 2.02273 0
0.973986 2.0563 0
0.995196 2.09785 0
1.269 1.30988 0
1.27131 1.27753 0
1.24877 1.30895 0
1.26172 1.33709 0
1.28928 1.32431 0
1.23058 1.2592 0
1.3102 1.86847 0
1.27948 1.8491 0
1.27379 1.88007 0
1.25152 1.83232 0
1.27135 1.81951 0
1.35649 1.89616 0
1.32436 1.92283 0
1.72901 1.52202 0
1.90904 1.48497 0
1.89508 1.22731 0
1.86107 1.24585 0
1.89331 1.26436 0
1.72315 1.60436 0
1.76595 1.63676 0
1.78782 1.61725 0
1.65262 1.69878 0
1.5961 1.65683 0
1.83985 1.65073 0
1.79968 1.66534 0
1.75874 1.69082 0
1.77378 1.66585 0
1.90996 1.6484 0
1.53027 1.75634 0
1.54448 1.80981 0
1.54531 1.72012 0
1.52923 1.78677 0
1.58164 1.71479 0
1.55418 1.68927 0
1.59312 1.75154 0
1.63988 1.85681 0
1.62331 1.79872 0
1.61455 1.76832 0
1.60568 1.71555 0
1.5863 1.68473 0
1.50635 1.83155 0
1.48549 1.84936 0
1.52103 1.86106 0
1.22641 1.97792 0
1.26335 1.94361 0
0.617478 1.85737 0
0.592282 1.78634 0
0.598087 1.86513 0
0.604358 1.82244 0
0.57286 1.83313 0
0.582794 1.8588 0
0.615902 1.77802 0
0.58794 1.82012 0
0.617478 1.80861 0
0.614407 1.71834 0
0.632415 1.71942 0
0.601432 1.74957 0
0.599247 1.71851 0
0.621824 1.74735 0
0.594753 1.92732 0
0.552677 1.97013 0
0.582576 1.994 0
0.57148 1.93857 0
0.593388 1.96481 0
0.605903 2.01287 0
0.607169 2.04941 0
0.623148 2.01211 0
0.554863 1.88687 0
0.568623 1.97475 0
0.55792 2.02213 0
0.568359 1.90414 0
0.553365 1.92819 0
0.527394 1.94692 0
0.541717 1.94811 0
0.574811 2.02944 0
0.590159 2.04592 0
0.532639 2.00851 0
0.54663 2.00081 0
0.581099 2.11142 0
0.536726 2.14391 0
0.575074 2.17375 0
0.592292 2.18764 0
0.579948 2.20661 0
0.557072 2.11518 0
0.583801 2.14555 0
0.568651 2.09926 0
0.548426 2.06793 0
0.540696 2.10411 0
0.506146 2.10447 0
0.523322 2.11484 0
0.519904 2.05715 0
0.510435 2.15314 0
0.529238 2.08318 0
0.320731 1.32805 0
0.287434 1.26971 0
0.294873 1.30263 0
0.306365 1.27476 0
0.276947 1.26282 0
0.306781 1.32103 0
0.315894 1.29731 0
0.297085 1.26537 0
0.248996 1.34882 0
0.249968 1.42872 0
0.236662 1.47443 0
0.240791 1.44501 0
0.362928 1.4097 0
0.345697 1.56744 0
0.336959 1.59368 0
0.305977 1.56736 0
0.312964 1.59354 0
0.350297 1.74567 0
0.320902 1.70799 0
0.329648 1.72439 0
0.328863 1.6854 0
0.296346 1.75863 0
0.296692 1.69208 0
0.310958 1.7433 0
0.309363 1.69143 0
0.300506 1.7254 0
0.312637 1.82594 0
0.316083 1.78365 0
0.302457 1.79634 0
0.287229 1.79524 0
0.299124 1.83701 0
0.295921 1.9502 0
0.294008 1.89226 0
0.292982 1.86142 0
0.331273 1.81643 0
0.27065 1.7283 0
0.285417 1.72751 0
0.327425 1.78535 0
0.339022 1.76642 0
0.321195 1.80949 0
0.259483 1.80819 0
0.278183 1.76323 0
0.264258 1.76692 0
0.27333 1.80447 0
0.339167 1.79632 0
0.256556 1.72967 0
0.23658 1.7772 0
0.250252 1.77368 0
0.242565 1.7416 0
0.216514 1.69817 0
0.226993 1.73574 0
0.235567 1.71475 0
0.363743 1.78048 0
0.000673499 1.18354 0
0.000438653 1.15695 0
0.000143473 1.15728 0
0.000685862 1.13781 0
0 1.2312 0
0.000290402 1.22738 0
0.000420156 1.25536 0
0.000120015 1.29867 0
0 1.32294 0
0.0335053 1.4931 0
0.0361395 1.47635 0
0.0355259 1.5511 0
0.0366052 1.51711 0
0.0329204 1.52748 0
0.0392097 1.54027 0
0.0402369 1.60623 0
0.043673 1.57893 0
0.0386894 1.57404 0
0.0314525 1.61417 0
0.0304564 1.56838 0
0.0356235 1.60169 0
0.0353179 1.65144 0
0.0239188 1.60383 0
0.0337495 1.57648 0
0.0277566 1.59676 0
0.0249682 1.55679 0
0.0268082 1.65067 0
0.0284589 1.62541 0
0.0218873 1.57483 0
0.0139645 1.60045 0
0.0186127 1.62239 0
0.0208804 1.6042 0
0.0220985 1.6497 0
0.0239215 1.50565 0
0.0244044 1.63267 0
0.0180265 1.67289 0
0.023085 1.53357 0
0.0280565 1.47093 0
0.019449 1.64924 0
0.0300502 1.49337 0
0.0428612 1.50691 0
0.0617275 1.65305 0
0.0633558 1.52828 0
0.0321336 0.310758 0
0.0316699 0.323309 0
0.0306691 0.285879 0
0.0276591 0.308647 0
0.0301662 0.299218 0
0.0265308 0.290409 0
0.0247342 0.301571 0
0.0276893 0.344991 0
0 0.0968628 0
0.00812323 0.0374792 0
0.000324232 0.363126 0
0.00340775 0.325761 0
0.00218226 0.347512 0
0.000907598 0.348877 0
0.00144039 0.377766 0
0.000884515 0.365673 0
0.000779742 0.416989 0
0.0191928 0.364614 0
0.0283251 0.260202 0
0.0288042 0.273743 0
0.0109334 0.41638 0
0.0172016 0.447319 0
0.0145036 0.426208 0
0.0129675 0.415633 0
0.0289392 0.0177655 0
0.0135389 0.00348246 0
0.0167541 0.00407452 0
0.0162155 0.00209502 0
0.0141646 0.00608179 0
0.0150051 0.00820278 0
0.0178277 0.00294893 0
0.0109232 0.000758634 0
0.0165302 0.0057421 0
0.0139325 0.00107955 0
0.00642205 0.0034272 0
0.012207 0 0
0.0115173 0.00200171 0
0.00703737 0.00641517 0
0.0148846 0.000233454 0
0.013746 0.00217876 0
0.00804782 0.00158235 0
0.00965077 0.00424963 0
0.00735226 0.00845077 0
0.0129571 0.000490039 0
0.009897 0.00143848 0
0.0092777 0.00258271 0
0.0112876 0.00327548 0
0.0118088 0.00509621 0
0.0169624 0.019235 0
0.00472187 0.0367469 0
1.78723 0 0
1.8468 0 0
1.86237 0.000711276 0
1.85996 0.000235412 0
1.9284 0.000648449 0
1.09491 2.02917 0
1.11788 2.095 0
1.11173 2.05674 0
1.08976 2.07656 0
1.14712 2.06146 0
1.09662 2.11686 0
1.03287 2.23087 0
0.994543 2.06096 0
1.88483 1.47342 0
1.89617 1.51104 0
2 1.48315 0
1.94238 1.43332 0
1.73349 1.57666 0
1.69943 1.5787 0
1.75316 1.60455 0
1.63452 1.67726 0
1.70229 1.66722 0
1.67453 1.64581 0
1.70206 1.63058 0
1.67611 1.68001 0
1.69378 1.7458 0
1.69999 1.70661 0
1.73282 1.64856 0
1.67427 1.72068 0
1.72203 1.73219 0
1.72749 1.68915 0
1.80114 1.7283 0
1.89484 1.61941 0
1.88066 1.64936 0
1.92998 1.74187 0
2 1.61792 0
1.58617 1.83522 0
1.58825 1.79294 0
1.56877 1.81242 0
1.19825 1.94862 0
1.1791 1.94274 0
1.18931 1.98781 0
1.22698 1.92906 0
1.19595 1.91344 0
1.2421 1.95386 0
1.29516 1.9429 0
1.28012 2.03688 0
1.26202 1.99407 0
1.33231 2.00607 0
1.29439 1.99213 0
1.31998 1.96603 0
1.35453 1.96653 0
1.27947 1.96695 0
1.30833 2.03018 0
1.29863 2.07786 0
1.40635 2.06442 0
1.39625 1.9791 0
1.23197 2.12053 0
1.35261 2.08308 0
1.33399 2.04948 0
1.3251 2.0896 0
1.37248 2.02936 0
1.35571 2.05042 0
1.37906 2.07212 0
1.38663 2.19428 0
1.37588 2.13378 0
1.37725 1.95902 0
1.26201 2.08715 0
1.3563 2.00232 0
1.34066 2.13791 0
1.27881 2.06876 0
1.24643 2.04033 0
1.20813 2.03998 0
1.28308 2.10996 0
1.35723 2.11586 0
1.30508 2.2738 0
1.27137 2.19885 0
1.28364 2.15637 0
1.25893 2.13384 0
1.31498 2.20508 0
1.29378 2.18953 0
1.28915 2.23499 0
1.23737 2.27251 0
1.26016 2.24274 0
1.22564 2.19365 0
1.27076 2.30336 0
1.23598 2.23107 0
1.23923 2.15933 0
1.28202 2.27053 0
1.25787 2.27654 0
1.24829 2.19937 0
1.17867 2.25169 0
1.20883 2.25432 0
1.36004 2.17288 0
1.33399 2.17722 0
1.35325 2.24347 0
1.36448 2.20986 0
1.33806 2.21418 0
1.32746 2.25228 0
1.34211 2.33292 0
1.34568 2.28734 0
1.32207 2.30564 0
1.36703 2.31472 0
1.38448 2.26719 0
1.24038 2.00586 0
1.23592 2.07876 0
1.19516 2.20708 0
1.19241 2.29537 0
1.48208 2.25101 0
1.2137 2.22123 0
1.20231 2.15086 0
1.1544 2.19545 0
1.1305 2.32414 0
1.21908 2.30775 0
1.24705 2.38018 0
1.22692 2.35055 0
1.29906 2.38347 0
1.25223 2.33593 0
1.3166 2.34923 0
1.27329 2.36577 0
1.24 2.30721 0
1.29605 2.31957 0
1.43384 2.27292 0
1.20735 2.18186 0
1.17328 2.21516 0
1.17701 2.16948 0
1.15931 2.29738 0
1.40836 2.28469 0
1.41186 2.23095 0
1.14719 2.24745 0
1.16233 2.36792 0
1.38813 2.23077 0
1.44948 2.21905 0
1.11651 2.20765 0
1.13676 2.28428 0
1.09683 2.28646 0
1.1169 2.29612 0
1.11925 2.2516 0
1.10015 2.34569 0
1.15188 2.33364 0
1.43261 2.23976 0
1.13697 2.21584 0
1.08653 2.3181 0
1.06126 2.27085 0
1.07147 2.46698 0
1.1274 2.38863 0
1.17687 2.32949 0
1.07819 2.39997 0
1.1198 2.35492 0
1.0819 2.36318 0
0.614399 1.62419 0
0.624061 1.67089 0
0.604225 1.67862 0
0.573982 1.55478 0
0.612075 1.65339 0
0.549101 1.53765 0
0.577451 1.62774 0
0.593463 1.64709 0
0.53603 1.52857 0
0.536952 1.56722 0
0.551652 1.61286 0
0.540139 1.59582 0
0.555129 1.49464 0
0.580795 1.48181 0
0.541358 1.49178 0
0.565234 1.52362 0
0.566312 1.47584 0
0.481286 1.87858 0
0.522733 1.9811 0
0.549732 2.2037 0
0.520739 2.22278 0
0.510593 2.19252 0
0.527719 2.18195 0
0.535113 2.04622 0
0.517907 2.02009 0
0.49282 2.04576 0
0.256419 1.36655 0
0.258551 1.32469 0
0.224449 1.35428 0
0.242437 1.37966 0
0.236445 1.34765 0
0.230246 1.38637 0
0.201979 1.41341 0
0.221089 1.43532 0
0.230378 1.44892 0
0.222224 1.46501 0
0.207323 1.45782 0
0.214974 1.39084 0
0.228438 1.41565 0
0.274186 1.57479 0
0.279621 1.53029 0
0.257012 1.52241 0
0.289691 1.5655 0
0.288789 1.51868 0
0.267532 1.54279 0
0.267508 1.50897 0
0.265394 1.47918 0
0.284758 1.61051 0
0.297404 1.59283 0
0.298059 1.54768 0
0.260956 1.64064 0
0.255851 1.58621 0
0.26426 1.57069 0
0.267541 1.60759 0
0.287875 1.65455 0
0.274515 1.64288 0
0.266983 1.68296 0
0.298986 1.65974 0
0.284056 1.6901 0
0.254523 1.67451 0
0.231832 1.62968 0
0.236311 1.67072 0
0.259179 1.70066 0
0.246145 1.63604 0
0.276115 1.67214 0
0.223525 1.66241 0
0.254196 1.61706 0
0.24073 1.5917 0
0.245464 1.66579 0
0.226774 1.69542 0
0.204642 1.5818 0
0.246868 1.55251 0
0.216517 1.61516 0
0.256591 1.55186 0
0.24346 1.51113 0
0.227043 1.54644 0
0.223126 1.63352 0
0.252774 1.4885 0
0.248718 1.46189 0
0.236503 1.56098 0
0.226477 1.58834 0
0.230775 1.50883 0
0.236685 1.53155 0
0.215952 1.56583 0
0.216894 1.52868 0
0.348783 1.71453 0
0.264108 1.90945 0
0.267654 1.85564 0
0.26687 1.82594 0
0.317818 1.91391 0
0.309563 1.87263 0
0.305262 1.9086 0
0.327568 1.86848 0
0.318027 1.85327 0
0.318833 1.88392 0
0.210637 1.75372 0
0 1.20135 0
0.000698698 1.22678 0
0.0418718 1.73909 0
0.0279649 1.54848 0
0.0311618 1.65133 0
0.0154749 1.45476 0
0.0152019 1.64273 0
0.0160911 1.61442 0
0.0167175 1.56681 0
0.0155831 1.67194 0
0.0163225 1.50996 0
0.0176511 1.53711 0
0.0123249 1.54309 0
0.0148682 1.54211 0
0.01363 1.56909 0
0.0101504 1.58298 0
0.0109175 1.64052 0
0.0127449 1.66687 0
0.00811927 1.7143 0
0.009946 1.68235 0
0.0129997 1.62936 0
0.00560989 1.63148 0
0.011377 1.735 0
0.00725637 1.66773 0
0.00993608 1.71322 0
0.011944 1.69873 0
0.00898895 1.65312 0
0.00428232 1.69078 0
0.00604553 1.70139 0
0.00479637 1.72402 0
0.00658865 1.75294 0
0.00545135 1.66695 0
0.00893568 1.75523 0
0.00605244 1.86752 0
0.0135295 1.84382 0
0.00573165 1.80856 0
0.0117055 1.79223 0
0.00557091 1.77652 0
0.00762271 1.79015 0
0.00747308 1.83412 0
0.00957878 1.78784 0
0.00991698 1.90246 0
0.0081333 1.87441 0
0.00661284 1.92557 0
0.010605 1.85719 0
0.0103393 1.82124 0
0.00806514 1.908 0
0.00933634 1.94563 0
0.00761785 1.94888 0
0.0137974 2.03293 0
0.010919 1.99638 0
0.00950005 1.97664 0
0.00869146 1.81331 0
0.0192915 1.7549 0
0.0242654 1.71316 0
0.0243273 1.67694 0
0.020963 1.69428 0
0.0274672 1.69559 0
0.0177103 1.71576 0
0.0213518 1.72867 0
0.023909 1.77644 0
0.0310023 1.75842 0
0.0300906 1.72248 0
0.0268334 1.74849 0
0.0357356 1.72972 0
0.0237896 1.74512 0
0.0146894 1.74554 0
0.0132282 1.72295 0
0.0126033 1.76198 0
0.0154896 1.79737 0
0.0563148 1.60845 0
0.0579676 1.52932 0
0.0604645 1.49857 0
0.0657633 1.50004 0
9.78865e-05 0.352268 0
0 0.387451 0
0.00148986 0.33868 0
0.000593434 0.334965 0
0.00103021 0.399565 0
0.00158079 0.413927 0
0.00220199 0.404719 0
0.000861427 0.462803 0
0.00143312 0.440004 0
0.0204876 0.351869 0
0.0165055 0.36486 0
0.0196892 0.400567 0
0.0233191 0.37399 0
0.0249363 0.362622 0
0.0201665 0.382121 0
0.0171289 0.389182 0
0.0229963 0.393472 0
0.0164479 0.409269 0
0.0224208 0.411751 0
0.0214105 0.437468 0
0.0176218 0.427482 0
0.0196524 0.416444 0
0.0129507 0.452741 0
0.0105408 0.454087 0
0.00391812 0.00547429 0
0.0179287 0.000248109 0
0.0147705 0 0
0.00800222 0.00039922 0
0.00368157 0.000934594 0
0.00770352 0.00460616 0
1.13968 2.02698 0
1.14242 2.10214 0
1.12473 2.15051 0
1.05859 2.18577 0
1.00036 2.17626 0
1.95459 1.50286 0
1.91577 1.45174 0
1.94503 1.46855 0
1.97176 1.47868 0
2 1.45038 0
1.9732 1.43409 0
1.7875 1.69708 0
1.77321 1.72598 0
1.90696 1.69851 0
1.95111 1.61995 0
1.59662 1.9163 0
1.6154 1.83545 0
1.60056 1.87347 0
1.57394 1.86709 0
1.24904 1.91359 0
1.34864 1.93076 0
1.45581 2.00684 0
1.40129 2.02157 0
1.43118 2.03596 0
1.42632 1.99088 0
1.45195 1.95711 0
1.45465 1.91449 0
1.4156 1.96148 0
1.49557 1.94106 0
1.52775 1.91255 0
1.4728 1.88834 0
1.47165 1.93803 0
1.48099 1.98031 0
1.4877 2.03097 0
1.44576 2.10141 0
1.50389 1.9101 0
1.58014 2.04355 0
1.4626 2.06092 0
1.43047 2.07241 0
1.53994 1.98814 0
1.5108 1.97714 0
1.51812 2.02021 0
1.5315 1.95088 0
1.54911 2.03109 0
1.56993 1.95469 0
1.52583 2.06969 0
1.57242 1.99943 0
1.62925 2.0038 0
1.60022 2.01341 0
1.60675 1.96398 0
1.5632 1.90991 0
1.50455 2.05467 0
1.52605 2.17089 0
1.6669 1.93371 0
1.51668 2.12004 0
1.63103 1.92881 0
1.47752 2.13959 0
1.57425 2.12511 0
1.63492 1.96634 0
1.66724 1.9947 0
1.65168 1.89606 0
1.73879 1.86021 0
1.62551 1.8868 0
1.68908 1.8544 0
1.66472 1.86671 0
1.49379 2.11605 0
1.50237 2.15283 0
1.47892 2.19135 0
1.54612 2.10409 0
1.54886 2.14539 0
1.57171 2.08332 0
1.56702 2.21387 0
1.63098 2.09719 0
1.55085 2.18342 0
1.52462 2.23575 0
1.62212 2.05048 0
1.59991 2.10088 0
1.61718 2.17702 0
1.61759 2.13473 0
1.593 2.15533 0
1.59205 2.19566 0
1.59237 2.24191 0
1.66087 2.30522 0
1.62198 2.28355 0
1.65202 2.02826 0
1.65409 2.0698 0
1.72433 2.16247 0
1.69448 2.10821 0
1.67881 2.07989 0
1.65912 2.14005 0
1.75082 1.98804 0
1.65904 1.96415 0
1.47125 2.2222 0
1.55026 2.06579 0
1.70939 2.00469 0
1.69391 1.96293 0
1.68631 2.01411 0
1.72379 1.96952 0
1.76068 1.92112 0
1.74786 1.95252 0
1.78948 1.96463 0
1.70624 1.90717 0
1.67934 1.89731 0
1.72441 1.9337 0
1.69088 1.93148 0
1.73638 1.89833 0
1.21005 2.00357 0
1.1806 2.07441 0
1.16274 2.09314 0
1.20759 2.09317 0
1.18593 2.11459 0
1.3114 2.16381 0
1.45672 2.2561 0
1.47126 2.34808 0
1.45762 2.30424 0
1.42746 2.32754 0
1.39592 2.48653 0
1.40359 2.40229 0
1.37696 2.36712 0
1.3406 2.41167 0
1.33674 2.37189 0
1.40765 2.35848 0
1.44161 2.38875 0
1.3726 2.41932 0
1.3505 2.48426 0
1.39486 2.44306 0
1.37166 2.461 0
1.43902 2.46193 0
1.41988 2.4341 0
1.08562 2.23077 0
1.09997 2.25303 0
1.01703 2.32047 0
1.16085 2.46287 0
1.10614 2.44397 0
1.10234 2.39023 0
0.646681 1.62891 0
0.659631 1.60429 0
0.660642 1.6528 0
0.52963 1.68481 0
0.519243 1.64333 0
0.506488 1.63623 0
0.507934 1.68389 0
0.539127 1.6466 0
0.494577 1.69675 0
0.518056 1.76418 0
0.508151 1.72685 0
0.558005 1.693 0
0.527119 1.72664 0
0.558494 1.65138 0
0.573778 1.67292 0
0.54446 1.67732 0
0.545137 1.77254 0
0.532217 1.75701 0
0.528922 1.79877 0
0.547397 1.72935 0
0.499394 1.82078 0
0.51866 1.8425 0
0.512553 1.79913 0
0.493608 1.7696 0
0.56988 1.75678 0
0.574449 1.79416 0
0.584842 1.73879 0
0.559831 1.78245 0
0.571492 1.7154 0
0.560879 1.73426 0
0.50127 1.86896 0
0.532865 1.88059 0
0.505305 1.7561 0
0.488992 1.84727 0
0.448286 1.81004 0
0.46706 1.83719 0
0.496116 1.93252 0
0.544924 1.86355 0
0.516595 1.87972 0
0.505197 1.90368 0
0.511754 1.93816 0
0.524394 1.91104 0
0.53959 1.91214 0
0.568268 1.59256 0
0.558258 1.56549 0
0.61499 1.47535 0
0.612234 1.43738 0
0.627949 1.45262 0
0.633211 1.48759 0
0.554093 2.15962 0
0.505217 2.06696 0
0.252053 1.3048 0
0.211061 1.42749 0
0.179837 1.4682 0
0.208422 1.34517 0
0.198759 1.32794 0
0.18479 1.37654 0
0.1976 1.37 0
0.189669 1.34592 0
0.176995 1.33081 0
0.192398 1.39958 0
0.179837 1.42038 0
0.191932 1.44593 0
0.206896 1.37461 0
0.196596 1.65638 0
0.20991 1.65723 0
0.205013 1.62117 0
0.280293 1.92591 0
0.244992 1.86594 0
0.24532 1.81805 0
0.254278 1.84268 0
0.255769 1.88145 0
0.245886 1.90841 0
0.331459 1.90753 0
0.345197 1.85163 0
0.343916 1.89099 0
0.367129 1.84121 0
0.369629 1.80899 0
0.357806 1.87475 0
0.392451 1.92139 0
0.376705 1.88818 0
0.217458 1.73085 0
0.202006 1.71081 0
0.208014 1.68764 0
0.202927 1.88072 0
0.222126 1.78195 0
0.228864 1.76407 0
0.206743 1.81664 0
0.228196 1.84052 0
0.212366 1.78791 0
0.201604 1.78218 0
0.217829 1.82297 0
0.180367 1.83521 0
0.210763 1.85334 0
0.193107 1.82153 0
0.218782 1.91305 0
0.21216 1.88765 0
0.222728 1.87542 0
0.229505 1.90596 0
0.237834 1.88899 0
0.238067 1.84135 0
0.229995 1.80506 0
0.183575 1.78603 0
0.189729 1.87042 0
0.200561 1.84509 0
0.185615 1.81411 0
0.19248 1.78784 0
0.176592 1.71218 0
0.166296 1.79491 0
0.187654 1.84217 0
0.1675 1.9255 0
0.191688 1.96109 0
0.205008 1.93699 0
0.183327 1.74443 0
0.189036 1.7013 0
0.17159 1.75368 0
0.175298 1.80393 0
0.176723 1.88666 0
0.194207 1.91393 0
0.194446 1.72431 0
0.196522 1.68695 0
0.163428 1.71356 0
0.182025 1.86475 0
0.185084 1.9026 0
0.170026 1.72558 0
0.160327 1.75657 0
0.143111 1.71275 0
0.155544 1.79572 0
0.153046 1.72471 0
0.132783 1.79914 0
0.156457 1.69276 0
0.144837 1.76584 0
0.152606 1.76507 0
0.146748 1.73756 0
0.145608 1.81004 0
0.139801 1.78966 0
0.132745 1.7439 0
0.136031 1.89437 0
0.143115 1.85719 0
0.138142 1.82725 0
0.150884 1.91867 0
0.151047 1.87801 0
0.144087 1.89778 0
0.138834 1.95481 0
0.159613 1.89895 0
0.000127582 1.20548 0
0.0215483 1.44198 0
0.0199132 1.50222 0
0.0221252 1.47597 0
0.0248049 1.4541 0
0.0186845 1.46441 0
0.0260546 1.37765 0
0.016539 1.48088 0
0.0123572 1.48975 0
0.0245178 1.41433 0
0.013824 1.51402 0
0.0094755 1.4517 0
0.00864851 1.42478 0
0.0305577 1.41353 0
0.0279694 1.43785 0
0.0363075 1.40011 0
0.0312682 1.45378 0
0.0180783 1.36866 0
0.0274355 1.40326 0
0.0217561 1.38318 0
0.0166273 1.33091 0
0.0231561 1.33251 0
0.0185867 1.41125 0
0.017559 1.43796 0
0.0142194 1.32924 0
0.0132688 1.38464 0
0.0147584 1.41755 0
0.0115008 1.42108 0
0.0158959 1.38872 0
0.0148349 1.35957 0
0.0235755 1.36048 0
0.0198052 1.31863 0
0.020426 1.34894 0
0.0223198 1.30624 0
0.0214346 1.41234 0
0.0117615 1.36064 0
0.0118689 1.45534 0
0.0111709 1.39261 0
0.00995473 1.54844 0
0.00875501 1.50085 0
0.0074097 1.59717 0
0.00914682 1.61693 0
0.00738258 1.63248 0
0.00845767 1.57575 0
0.00257144 1.82364 0
0.00395109 1.90785 0
0.00725903 2.1247 0
0.0167427 1.93634 0
0.0127342 1.93562 0
0.0127878 1.8888 0
0.0147134 1.91271 0
0.0188556 1.87696 0
0.0204169 1.79604 0
0.0178818 1.78296 0
0.0190772 1.83477 0
0.0163334 1.85361 0
0.0163298 1.88711 0
0.0286231 1.81651 0
0.0281372 1.78128 0
0.0397947 1.68878 0
0.0134371 1.81176 0
0.053385 1.58396 0
0.0669141 1.5922 0
0.000212018 0.383812 0
0.000383089 0.401752 0
0.000214082 0.422513 0
0 0.370789 0
0 0.457764 0
0.000556403 0.438507 0
0.000112723 0.371814 0
0 0.439636 0
0.000158841 0.448664 0
0.000970226 0.44827 0
9.37251e-05 0.434613 0
0.000167537 0.476346 0
0.000445344 0.453575 0
7.2809e-05 0.462464 0
0.00118615 0.485965 0
0.00205598 0.481977 0
0.00234117 0.457637 0
0.000563658 0.479592 0
0.00156006 0.467156 0
0.0036804 0.459495 0
0.00462259 0.448758 0
0.0030541 0.440436 0
0.0215328 0.476263 0
0.0249871 0.440773 0
0.0225901 0.456519 0
0.0198623 0.451124 0
0.0253087 0.471664 0
0.0240644 0.491085 0
0.0192057 0.504309 0
0.0203717 0.524795 0
0.0211518 0.492646 0
0.0234174 0.527193 0
0.0147778 0.4423 0
0.0121693 0.434998 0
0.0050414 0.00776239 0
0.00540386 0.00561534 0
0.00358971 0.00763414 0
0.00434427 0.010914 0
0.00242702 0.0174503 0
0.00426131 0.0198942 0
0.00527753 0.0219637 0
0.0059718 0.0169621 0
0.0061037 0.0134223 0
0.00298687 0.0133272 0
0.00438649 0.0148823 0
0.00200618 0.0238852 0
0.00075928 0.0123491 0
0.00352645 0.0171691 0
0.00274315 0.0265314 0
0.00310699 0.0222679 0
0.00168317 0.0284836 0
0.000481532 0.0235006 0
0.00068802 0.028983 0
0.00110337 0.0249191 0
0.00128965 0.0195827 0
0.00171018 0.0118334 0
0.000201703 0.0276894 0
0.000492194 0.0353084 0
0.00204118 0.0204274 0
0.00128986 0.0152513 0
0 0.0358887 0
0 0.0183105 0
0.00212563 0.01456 0
0.000339805 0.0313297 0
0 0.0309448 0
0.000157313 0.0352234 0
0 0.0411987 0
0.000351234 0.0171668 0
0.000173127 0.0414132 0
0.000835571 0.0173071 0
0.0098877 0 0
0.0108901 0.000242696 0
0.00547354 0.00172292 0
0.00439453 0 0
1.10975 2.17444 0
1.0705 2.15555 0
1.04051 2.15118 0
1.01757 2.14951 0
1.03592 2.19061 0
0.996524 2.13713 0
0.961435 2.12114 0
1.01523 2.20601 0
0.976696 2.24251 0
0.993235 2.21493 0
0.968208 2.17804 0
1.0042 2.26807 0
0.962248 2.08519 0
0.977416 2.30325 0
1.0298 2.27832 0
1.04326 2.31962 0
1.03089 2.40322 0
1.04847 2.36696 0
1.02518 2.36095 0
1.05458 2.40987 0
0.975594 2.407 0
1.00286 2.39395 0
0.98574 2.27236 0
0.998001 2.30475 0
0.986672 2.35174 0
1.00447 2.51736 0
0.958942 2.34329 0
1.01163 2.4549 0
0.907414 2.36879 0
0.970757 2.37171 0
0.938478 2.39814 0
1.01483 2.42042 0
0.993276 2.4316 0
0.931214 2.34258 0
0.924872 2.37525 0
0.91103 2.42592 0
0.944887 2.36532 0
0.93927 2.51793 0
0.964874 2.47163 0
0.918638 2.47965 0
0.941459 2.47174 0
0.953105 2.43277 0
0.957207 2.39702 0
1.05687 2.22842 0
1.92744 1.50665 0
1.95557 1.55062 0
2 1.5163 0
1.86243 1.75681 0
1.95348 1.69537 0
2 1.65253 0
1.97385 1.66994 0
1.94156 1.65987 0
1.41707 2.1491 0
1.41269 2.10629 0
1.39801 2.13153 0
1.41335 2.1897 0
1.44856 2.16783 0
1.43504 2.19394 0
1.45423 2.13384 0
1.50661 2.20236 0
1.55369 2.25797 0
1.5166 2.31207 0
1.48691 2.30958 0
1.5291 2.27578 0
1.55183 2.31631 0
1.53052 2.38275 0
1.53263 2.34316 0
1.50207 2.35431 0
1.48313 2.39246 0
1.50787 2.40077 0
1.4649 2.43319 0
1.44222 2.42533 0
1.59944 2.06576 0
1.65967 2.22627 0
1.69105 2.15419 0
1.66686 2.18286 0
1.64262 2.16865 0
1.70379 2.21785 0
1.70438 2.18322 0
1.72016 2.06093 0
1.7944 1.92188 0
1.83529 1.84275 0
1.77813 1.87412 0
1.82215 1.88802 0
1.77194 1.8068 0
1.78488 1.76646 0
1.80536 1.85492 0
1.80952 1.80862 0
1.78042 1.83953 0
1.79796 1.89158 0
1.84653 1.79844 0
1.91739 1.84915 0
1.82549 1.76162 0
1.89394 1.79919 0
1.87407 1.88541 0
1.80637 1.77947 0
1.87031 1.78622 0
1.86982 1.83138 0
1.85755 1.85998 0
1.89602 1.83059 0
1.84873 1.90874 0
1.90429 2.00695 0
1.89036 1.94521 0
1.87432 1.91849 0
1.91518 1.90164 0
1.80133 2.0631 0
1.71275 1.87256 0
1.18743 2.04285 0
1.16623 2.05115 0
1.44667 2.35112 0
1.08087 2.26499 0
1.0806 2.19239 0
1.15171 2.41467 0
1.12934 2.43192 0
1.12558 2.48773 0
1.09638 2.49463 0
1.15025 2.50801 0
1.19932 2.62807 0
1.16908 2.57521 0
1.1532 2.54746 0
1.14039 2.4626 0
1.05456 2.57315 0
1.11303 2.52109 0
1.08463 2.55127 0
1.07418 2.51108 0
1.03929 2.49619 0
1.03932 2.44815 0
1.08926 2.66046 0
1.07853 2.60686 0
1.11671 2.60986 0
1.14326 2.5953 0
1.16729 2.63354 0
1.10802 2.56623 0
1.09719 2.6239 0
1.18199 2.60574 0
1.22534 2.5297 0
1.19856 2.55839 0
1.17814 2.52125 0
1.18743 2.71263 0
1.22828 2.5921 0
1.18509 2.66628 0
1.21805 2.56207 0
1.08507 2.43686 0
0.6402 1.65999 0
0.630157 1.63377 0
0.629858 1.58073 0
0.643523 1.59778 0
0.620479 1.53236 0
0.620009 1.50291 0
0.598941 1.50143 0
0.583808 1.52318 0
0.599594 1.56445 0
0.599004 1.53279 0
0.584642 1.58205 0
0.600191 1.60084 0
0.615336 1.59309 0
0.615403 1.56174 0
0.556389 1.82003 0
0.560154 1.85381 0
0.570635 1.87369 0
0.467064 1.76687 0
0.472597 1.73667 0
0.480939 1.80479 0
0.480148 1.77309 0
0.466233 1.80185 0
0.44616 1.87157 0
0.597068 1.46448 0
0.215582 1.36255 0
0.218625 1.31288 0
0.175186 1.36451 0
0.180073 1.30076 0
0.172162 1.30851 0
0.166674 1.32706 0
0.161096 1.4443 0
0.163211 1.39838 0
0.187817 1.42207 0
0.200294 1.44108 0
0.290435 1.92258 0
0.280451 1.88189 0
0.273518 1.90355 0
0.262114 2.02437 0
0.252567 1.9682 0
0.246071 1.94227 0
0.334653 1.84545 0
0.355166 1.83121 0
0.362797 1.92921 0
0.35424 1.90625 0
0.402317 1.84315 0
0.202177 1.74263 0
0.204593 2.00015 0
0.167297 1.84814 0
0.169702 1.68316 0
0.177474 1.59508 0
0.171079 1.63572 0
0.19137 1.60282 0
0.181152 1.66386 0
0.159418 1.58249 0
0.19655 1.62634 0
0.186792 1.63443 0
0.181848 1.69191 0
0.189191 1.67077 0
0.16773 1.60099 0
0.158776 1.62324 0
0.178812 1.62514 0
0.13511 1.597 0
0.147386 1.60003 0
0.133723 1.70233 0
0.14167 1.65357 0
0.151223 1.65882 0
0.139801 1.68417 0
0.147215 1.63153 0
0.148532 1.68926 0
0.115009 1.77143 0
0.129353 1.93238 0
0.132139 1.9614 0
0.135993 1.92586 0
0.11907 1.86062 0
0.12823 1.84127 0
0.112348 1.93625 0
0.126384 1.88914 0
0.122525 1.80193 0
0.134851 1.85923 0
0.120843 1.94723 0
0.118403 1.9065 0
0.108014 1.88365 0
0.127251 1.77148 0
0.123449 1.73064 0
0.112818 1.82029 0
0.12187 1.83263 0
0.114315 1.8819 0
0.121057 1.75944 0
0.105519 1.78669 0
0.107067 1.81479 0
0.104142 1.68728 0
0.0880644 1.78508 0
0.10737 1.73573 0
0.115257 1.73226 0
0.0965263 1.79869 0
0.109194 1.76358 0
0.0990441 1.75445 0
0.0934951 1.76974 0
0.0861558 1.72947 0
0.100865 1.71937 0
0.0921647 1.67656 0
0.0934508 1.72796 0
0.0977385 1.69114 0
0.145018 2.0953 0
0.138562 2.02757 0
0.0315537 1.36619 0
0.0339346 1.42289 0
0.0403535 1.3754 0
0.0441126 1.38393 0
0.0369015 1.33847 0
0.0409119 1.26949 0
0.0333768 1.34296 0
0.0357176 1.36864 0
0.0364129 1.29649 0
0.0403027 1.31513 0
0.0341813 1.24499 0
0.031387 1.21664 0
0.0351264 1.21801 0
0.0397608 1.23369 0
0.0367635 1.26718 0
0.0316909 1.27933 0
0.0277779 1.26516 0
0.0303565 1.24446 0
0.0540306 1.23258 0
0.0271348 1.30467 0
0.0466452 1.24241 0
0.0280247 1.3415 0
0.0428809 1.24781 0
0.0202586 1.28713 0
0.0107452 1.51589 0
0.0102445 1.48023 0
0.00746607 1.47004 0
0.00420045 1.84251 0
0.00548554 1.83895 0
0.00396444 1.79972 0
0.00284945 1.86934 0
0.00455797 1.87606 0
0.00287065 1.90145 0
0.00448027 1.98085 0
0.00259344 1.959 0
0.00975585 2.06728 0
0.0140799 1.98206 0
0.0120378 1.96752 0
0.0127639 2.00608 0
0.0146695 1.95103 0
0.0252294 1.80844 0
0.0353922 1.68737 0
0.0391146 1.71829 0
0.0507785 1.68962 0
0.0404499 1.64739 0
0.0451494 1.67274 0
0.0459254 1.62525 0
0.0437414 1.70645 0
0.04957 1.65249 0
0.0554965 1.66264 0
0.0616738 1.74481 0
0.0578077 1.63672 0
0.0625957 1.61703 0
0.0600449 1.69858 0
0.0545062 1.73141 0
0.0480749 1.74053 0
0.0678933 1.71139 0
0.0552035 1.69937 0
0.0559126 1.7893 0
0.0507523 1.71876 0
0.0447305 1.78693 0
0.0633839 1.7179 0
0.0648822 1.68182 0
0.0704098 1.64047 0
0.0572374 1.75796 0
0.0519241 1.7645 0
0.0514342 1.79695 0
0.044845 1.75733 0
0.0604388 1.57384 0
0.0654816 1.5594 0
0.0768206 1.55947 0
0.0710212 1.56818 0
0.0717446 1.52505 0
0.0758637 1.60555 0
0.081494 1.50998 0
0.0707749 1.61076 0
0.0807674 1.66185 0
0.0811381 1.58553 0
0.0852163 1.54805 0
0.0819941 1.62365 0
0.0964942 1.51573 0
0.0872891 1.64841 0
0.102369 1.49686 0
0.0755721 1.49914 0
0.0771429 1.52914 0
0.0762556 1.63915 0
0.0735821 1.68077 0
0.0888259 1.5144 0
0.0868233 1.47781 0
0.0936598 1.55719 0
0.106838 1.55615 0
0.106344 1.52343 0
0.069099 1.6685 0
0.0922446 1.45871 0
0.0928166 1.48989 0
0.100296 1.61868 0
0.0979406 1.65378 0
0.0930232 1.62573 0
0.0954578 1.59179 0
0.102503 1.5848 0
0.116055 1.62373 0
0.108193 1.61203 0
0.109662 1.6538 0
0.114694 1.58019 0
0.117398 1.53082 0
0.103716 1.64382 0
0.100121 1.54463 0
0.0979796 1.47865 0
0.112633 1.69251 0
0.119028 1.70487 0
0.12435 1.59614 0
0.113066 1.55216 0
0.12076 1.49923 0
0.13107 1.53918 0
0.128963 1.50477 0
0.124354 1.52806 0
0.125102 1.56191 0
0.142885 1.50853 0
0.135704 1.51592 0
0.141969 1.55652 0
0.125394 1.64139 0
0.132173 1.66479 0
0.13293 1.63015 0
0.140038 1.62061 0
0.117992 1.66188 0
0.0272219 0.497185 0
0.0164557 0.477778 0
0.0219483 0.50969 0
0.0067419 0.00219674 0
0.00660378 0.00091277 0
0.00598145 0 0
0.00515546 0.000291524 0
0.00663782 0.000167611 0
0.00336034 0.000202416 0
0.00305176 0 0
0.00348948 0.00272492 0
0.917154 2.12036 0
0.976743 2.14476 0
0.939162 2.22516 0
0.89576 2.27363 0
0.908405 2.31778 0
0.921742 2.27421 0
0.863518 2.33858 0
0.939782 2.26164 0
0.8843 2.31528 0
0.883808 2.36237 0
0.85208 2.42579 0
0.863612 2.3852 0
0.838373 2.36205 0
0.876681 2.42791 0
0.893138 2.40075 0
0.842766 2.31423 0
0.863716 2.26629 0
0.860064 2.30225 0
0.87893 2.28255 0
0.77999 2.44201 0
0.805165 2.38969 0
0.818966 2.36166 0
0.828021 2.41012 0
0.806995 2.44758 0
0.794554 2.42022 0
0.790386 2.51352 0
0.792186 2.47281 0
0.962798 2.27337 0
0.97162 2.53731 0
0.9893 2.47893 0
0.974965 2.5017 0
0.930971 2.43624 0
1.9274 1.56316 0
1.95177 1.58499 0
1.97296 1.52623 0
1.89421 1.73755 0
1.87967 1.70872 0
1.83931 1.71372 0
1.81609 1.69331 0
1.90954 1.76833 0
2 1.75854 0
1.95699 1.79454 0
1.92553 1.80064 0
1.93767 1.77219 0
1.96558 1.74609 0
2 1.72284 0
1.86088 1.72762 0
1.84041 1.68151 0
1.97339 1.71625 0
1.93086 1.71125 0
1.50238 2.27688 0
1.61191 2.40674 0
1.5897 2.34953 0
1.56003 2.36638 0
1.56372 2.45161 0
1.533 2.43294 0
1.58368 2.3929 0
1.55728 2.40927 0
1.59013 2.43512 0
1.60127 2.53482 0
1.58841 2.4866 0
1.57565 2.32032 0
1.51832 2.53314 0
1.47829 2.50062 0
1.47968 2.46276 0
1.50959 2.48317 0
1.64329 2.48052 0
1.61879 2.45189 0
1.55957 2.53303 0
1.53912 2.47811 0
1.61639 2.49717 0
1.64441 2.54951 0
1.58058 2.51966 0
1.62589 2.23463 0
1.63955 2.20427 0
1.64895 2.26592 0
1.68672 2.26574 0
1.6827 2.23285 0
1.70063 2.32151 0
1.73273 2.26819 0
1.68358 2.29865 0
1.71005 2.25216 0
1.73672 2.02527 0
1.76042 2.0693 0
1.77712 2.0241 0
1.73491 2.11043 0
1.7857 2.12269 0
1.82293 2.008 0
1.77561 1.99155 0
1.73853 2.07968 0
1.71515 2.0923 0
1.71403 2.1305 0
1.78269 2.08785 0
1.75628 2.14642 0
1.75547 2.21088 0
1.78785 2.17262 0
1.74671 2.17832 0
1.80273 2.02925 0
1.89964 1.87426 0
1.94456 1.95945 0
2 1.90503 0
1.01917 2.49072 0
1.02857 2.54775 0
1.04876 2.53319 0
0.997973 2.58792 0
1.00886 2.55516 0
1.02816 2.61115 0
1.03643 2.57957 0
1.0543 2.6554 0
1.07231 2.64204 0
1.13235 2.69221 0
1.1151 2.65723 0
1.16063 2.69382 0
1.14082 2.64472 0
1.14401 2.84542 0
1.14528 2.76636 0
1.14595 2.72471 0
1.20546 2.45824 0
1.21698 2.40455 0
1.18181 2.42351 0
1.243 2.68585 0
1.21405 2.67426 0
1.21452 2.72566 0
1.23343 2.63987 0
1.29155 2.62751 0
1.2604 2.60578 0
1.26699 2.65622 0
1.2849 2.74849 0
1.29707 2.68918 0
1.26871 2.70657 0
1.24462 2.74136 0
1.28505 2.57675 0
1.24998 2.55738 0
1.34261 2.58131 0
1.27074 2.54898 0
1.31434 2.55466 0
1.31681 2.60389 0
1.34049 2.53115 0
1.38055 2.55152 0
1.31521 2.48956 0
1.36447 2.51893 0
1.30757 2.52171 0
1.33097 2.45326 0
1.31446 2.41889 0
1.27152 2.4438 0
1.29068 2.42051 0
1.29443 2.4634 0
1.26621 2.40423 0
1.24154 2.43455 0
1.25107 2.49095 0
1.22891 2.47144 0
0.640466 1.55027 0
0.453211 1.84193 0
0.461638 1.93357 0
0.463398 1.87961 0
0.45257 1.90448 0
0.472562 1.90854 0
0.210046 1.31872 0
0.230666 1.31587 0
0.234005 1.28429 0
0.243429 1.2789 0
0.223149 1.28426 0
0.213061 1.2791 0
0.218791 1.25796 0
0.171535 1.44425 0
0.171043 1.41274 0
0.166283 1.48446 0
0.156337 1.47723 0
0.150378 1.44389 0
0.150451 1.49858 0
0.149493 1.53496 0
0.150307 1.40987 0
0.15751 1.54886 0
0.150465 1.56834 0
0.17056 1.55248 0
0.142376 1.46865 0
0.133909 1.46268 0
0.166782 1.51966 0
0.180548 1.51767 0
0.2798 1.99229 0
0.377629 1.92934 0
0.370065 2.00248 0
0.388693 1.97772 0
0.370108 1.96272 0
0.351363 1.98238 0
0.365659 1.89798 0
0.384495 1.84556 0
0.391282 1.88117 0
0.412726 1.89674 0
0.392698 1.81041 0
0.419978 1.78217 0
0.397449 1.75923 0
0.407773 1.80617 0
0.425227 1.84454 0
0.439014 1.83705 0
0.43317 1.80136 0
0.413793 1.83324 0
0.437699 1.7444 0
0.443402 1.77665 0
0.403302 1.87551 0
0.200618 1.96804 0
0.192702 2.0073 0
0.175176 1.99018 0
0.184541 1.98679 0
0.178869 1.94387 0
0.181013 2.04317 0
0.186746 1.93458 0
0.17485 1.91696 0
0.17082 1.9587 0
0.156623 2.01424 0
0.165174 1.99327 0
0.155592 1.96402 0
0.16716 2.05114 0
0.159473 1.93346 0
0.170585 2.01929 0
0.188659 2.03493 0
0.147253 1.95329 0
0.143344 1.99135 0
0.135492 1.99399 0
0.147749 2.02825 0
0.143012 2.05876 0
0.142876 1.92863 0
0.150916 1.99112 0
0.220824 2.08103 0
0.217541 1.96972 0
0.161136 1.82321 0
0.159615 1.86346 0
0.167696 1.88452 0
0.0867977 1.91413 0
0.0915532 1.8559 0
0.0962391 1.83273 0
0.0898691 1.8202 0
0.0714635 1.83177 0
0.0802235 1.81673 0
0.108892 1.84898 0
0.080364 1.76431 0
0.0855066 1.75882 0
0.0809615 1.7349 0
0.0823648 1.69805 0
0.0881584 1.69971 0
0.0702781 1.77068 0
0.0828085 1.79061 0
0.0749976 1.75452 0
0.0753737 1.79199 0
0.0328272 1.3923 0
0.0473216 1.29641 0
0.0443664 1.31601 0
0.0484392 1.18716 0
0.0430333 1.18528 0
0.0454669 1.21203 0
0.0501861 1.21415 0
0.0545665 1.15047 0
0.0565373 1.19165 0
0.0613694 1.15832 0
0.0415062 1.21049 0
0.0573528 1.1283 0
0.057397 1.16825 0
0.00377459 1.94614 0
0.00530569 1.94865 0
0.00605848 1.98163 0
0.00515737 2.05908 0
0.00696625 2.02829 0
0.00520917 2.01771 0
0.00252977 2.03673 0
0.00379931 2.03757 0
0.00313284 2.0923 0
0.00713513 2.07617 0
0.000649154 1.9635 0
0.0509951 1.61694 0
0.0375914 1.78426 0
0.0755453 1.46796 0
0.13481 1.56582 0
0.141369 1.58496 0
0.0188762 0.467879 0
0.0152906 0.460904 0
0.0144821 0.505922 0
0.011494 0.508823 0
0.0119543 0.480022 0
0.00954641 0.49365 0
0.00734403 0.492141 0
0.00653337 0.475242 0
0.0127234 0.495372 0
0.00502653 0.000860231 0
0.00468161 0.00380156 0
0.00461306 0.00245028 0
0 0.00292969 0
0.00107988 0.0049842 0
0.00203536 0.0066216 0
0.00214906 0.0040053 0
0.000954273 0.00830735 0
0.00171169 0.00898215 0
0.00277144 0.00527322 0
0.00180128 0.00156564 0
0.00170019 0.00513885 0
0.00127115 0.00662989 0
0.0011537 0.0104326 0
0.00234298 0.00252806 0
0.00278429 0.0015194 0
0.00217754 0.000573318 0
0.00118123 0.00286299 0
0.00230226 0.000149852 0
0 0.000732422 0
0.000488281 0 0
0.00102479 0.000230998 0
0.000317128 0.00353489 0
0.000630652 0.00127475 0
0.00133134 0.00079851 0
0.000755832 0.00373419 0
0.001109 0.00175954 0
0.939243 2.10298 0
0.918208 2.06568 0
0.896532 2.09152 0
0.877018 2.08939 0
0.856796 2.06248 0
0.83396 2.06572 0
0.80955 2.14083 0
0.847176 2.11208 0
0.816769 2.09699 0
0.77917 2.08778 0
0.82876 2.12886 0
0.798618 2.08047 0
0.770244 2.04729 0
0.752115 2.10387 0
0.83134 2.2118 0
0.762995 2.07789 0
0.849267 2.16782 0
0.824844 2.17082 0
0.827116 2.26723 0
0.796223 2.19866 0
0.814145 2.20004 0
0.895796 2.13345 0
0.915932 2.18149 0
0.939929 2.15475 0
0.857073 2.2164 0
0.879911 2.18101 0
0.857829 2.13851 0
0.845375 2.27642 0
0.789607 2.27422 0
0.80438 2.24055 0
0.761466 2.35129 0
0.774778 2.39252 0
0.90896 2.22986 0
0.922493 2.15124 0
0.934719 2.18962 0
0.957413 2.15245 0
0.863231 2.18584 0
0.881417 2.2304 0
0.842995 2.23996 0
0.808883 2.28587 0
0.820563 2.23674 0
0.733976 2.42388 0
0.89779 2.19794 0
0.757304 2.42714 0
0.746723 2.38582 0
0.73137 2.32288 0
0.744053 2.34838 0
0.743714 2.49085 0
0.732402 2.24042 0
0.74481 2.45297 0
0.724324 2.46637 0
0.685919 2.39505 0
0.708353 2.42117 0
0.721618 2.37382 0
0.713227 2.25383 0
0.720847 2.28998 0
0.717447 2.21158 0
0.726395 2.17106 0
0.682843 2.47244 0
0.710823 2.33371 0
0.683727 2.33416 0
0.702268 2.37238 0
0.691082 2.43503 0
0.70193 2.47137 0
0.677966 2.27903 0
0.654519 2.26679 0
0.688553 2.30241 0
0.69182 2.26902 0
0.680631 2.24668 0
0.616509 2.30958 0
0.66175 2.31676 0
0.632704 2.27534 0
0.618166 2.24352 0
0.595796 2.24277 0
0.666273 2.36801 0
0.638462 2.32868 0
0.582333 2.31815 0
0.606743 2.27493 0
0.589769 2.28104 0
0.599363 2.31521 0
0.593067 2.39418 0
0.610707 2.36134 0
0.591864 2.3525 0
0.66376 2.42918 0
0.647841 2.29956 0
0.652439 2.34774 0
0.637082 2.37184 0
0.64523 2.41353 0
0.629026 2.51429 0
0.646759 2.47261 0
0.609383 2.40167 0
0.594712 2.48341 0
0.615073 2.45654 0
0.623918 2.34195 0
0.671311 2.39988 0
0.664753 2.5602 0
0.664676 2.47156 0
0.656121 2.51573 0
0.676873 2.51971 0
0.699605 2.58863 0
0.694772 2.51075 0
0.683844 2.56202 0
0.705262 2.54679 0
0.59798 2.43813 0
0.562098 2.43933 0
0.580001 2.45332 0
0.568384 2.37752 0
0.564971 2.49632 0
0.574905 2.41458 0
0.611482 2.50074 0
0.611989 2.57296 0
0.616556 2.53654 0
0.635262 2.56804 0
0.649325 2.55043 0
0.652001 2.60194 0
0.676992 2.62453 0
0.630014 2.47383 0
0.633848 2.43815 0
0.549371 2.47249 0
0.502962 2.46032 0
0.525479 2.47827 0
0.569849 2.60856 0
0.624375 2.59349 0
0.599161 2.65629 0
0.614729 2.63265 0
0.626195 2.72773 0
0.61593 2.6835 0
0.587477 2.75284 0
0.638538 2.67938 0
0.60561 2.72915 0
0.588871 2.70067 0
0.612384 2.82489 0
0.578968 2.65492 0
0.565996 2.7225 0
0.616328 2.77329 0
0.574661 2.6916 0
0.598948 2.79094 0
0.630342 2.80732 0
0.572334 2.81648 0
0.633776 2.90266 0
0.640581 2.76318 0
0.583951 2.79151 0
0.568051 2.76983 0
0.627061 2.85602 0
0.682207 2.7388 0
0.647689 2.86242 0
0.662418 2.76378 0
0.668457 3 0
0.660424 2.92842 0
0.648964 2.90181 0
0.641747 2.95173 0
0.650513 3 0
0.666992 2.59657 0
0.56164 2.55386 0
0.626524 2.65772 0
0.661914 2.70108 0
0.692149 2.84793 0
0.669038 2.8407 0
0.586756 2.55984 0
0.597439 2.52593 0
0.581156 2.51067 0
0.574662 2.54213 0
0.645754 2.72018 0
0.684346 2.68004 0
0.655942 2.65188 0
0.678132 2.89293 0
0.682985 2.79539 0
0.706866 2.71442 0
0.697445 2.63939 0
0.700642 2.67783 0
0.756493 2.64579 0
0.72929 2.67143 0
0.732854 2.59004 0
0.716243 2.57785 0
0.718566 2.62763 0
0.671114 2.65966 0
0.68166 2.95122 0
0.706928 2.80094 0
0.667337 2.80125 0
0.691906 2.71123 0
0.686646 3 0
0.740335 2.90161 0
0.70734 2.75751 0
0.718634 2.86069 0
0.692475 2.76622 0
0.706648 2.83792 0
0.702894 2.91305 0
0.727802 2.81332 0
0.786888 2.77071 0
0.755406 2.77941 0
0.738896 2.78406 0
0.692718 2.88528 0
0.960223 2.2156 0
0.94913 2.56939 0
0.89261 2.58428 0
0.919751 2.56266 0
0.918761 2.52103 0
0.922079 2.65918 0
0.938303 2.61755 0
0.913209 2.61149 0
1.632 2.35125 0
1.47269 2.59706 0
1.53889 2.57377 0
1.50529 2.58312 0
1.48968 2.54343 0
1.57961 2.57354 0
1.62759 2.66346 0
1.61606 2.58864 0
1.62112 2.55349 0
1.65599 2.61321 0
1.63992 2.58563 0
1.53882 2.515 0
1.66116 2.51429 0
1.7082 2.4272 0
1.67961 2.46459 0
1.653 2.41644 0
1.71955 2.48842 0
1.65726 2.45146 0
1.68031 2.42346 0
1.69738 2.37509 0
1.7035 2.46182 0
1.73509 2.38699 0
1.71805 2.35061 0
1.67436 2.34517 0
1.67048 2.38505 0
1.74802 2.44414 0
1.81162 2.37749 0
1.73114 2.42041 0
1.77229 2.36791 0
1.82459 2.26845 0
1.76092 2.40641 0
1.8031 2.45957 0
1.77694 2.44111 0
1.76787 2.51538 0
1.80145 2.41711 0
1.77985 2.48002 0
1.83241 2.43595 0
1.81472 2.21421 0
1.78421 2.30355 0
1.78498 2.21266 0
1.76874 2.25763 0
1.76766 2.33176 0
1.79607 2.26785 0
1.7554 2.29418 0
1.7241 2.30379 0
1.82422 2.10684 0
1.80933 2.13364 0
1.90988 2.13365 0
1.84423 2.05669 0
1.86433 2.13364 0
1.82405 2.07476 0
1.83905 2.13363 0
1.88225 2.22042 0
1.84939 2.19679 0
1.84005 2.23445 0
1.87966 2.17453 0
1.81782 1.97148 0
1.85904 1.98088 0
1.85215 2.0188 0
1.88676 1.97969 0
1.91621 1.97242 0
1.9216 1.93675 0
1.95776 1.91057 0
2 1.94257 0
1.97435 1.96144 0
2 2.05737 0
1.96361 2.01871 0
1.93938 1.9962 0
2 1.86786 0
1.95993 1.84945 0
1.97353 1.82078 0
2 1.79462 0
1.93868 1.82896 0
1.93845 1.87661 0
1.97279 1.88058 0
0.976473 2.5794 0
0.997241 2.67914 0
1.04979 2.61403 0
1.06986 2.70518 0
1.0309 2.71766 0
1.10322 2.73969 0
1.12563 2.7443 0
1.11059 2.81097 0
1.11012 2.69881 0
1.04905 2.69579 0
1.02685 2.66436 0
1.08259 2.7366 0
1.09034 2.78254 0
1.0332 3 0
1.0651 2.89401 0
1.08342 2.8431 0
1.08979 2.6993 0
1.01494 2.69514 0
0.992273 2.74905 0
1.04564 2.82704 0
1.10795 2.91702 0
1.06268 2.85177 0
1.06894 2.80853 0
1.08862 2.88921 0
1.11248 2.86405 0
1.18364 2.4786 0
1.20257 2.50874 0
1.19418 2.38526 0
1.31852 2.73662 0
1.35235 2.66845 0
1.34001 2.62715 0
1.31584 2.65266 0
1.37952 2.61869 0
1.2996 2.72435 0
1.30619 2.78339 0
1.2207 3 0
1.31296 2.89077 0
1.26179 2.83268 0
1.31704 2.8353 0
1.27998 2.79643 0
1.26354 2.76613 0
1.28907 2.84495 0
1.27002 3 0
1.26512 2.91592 0
1.2708 2.87314 0
1.28903 2.90404 0
1.28348 2.95455 0
1.29504 3 0
1.35676 2.7346 0
1.33787 2.7527 0
1.27525 2.48908 0
0.157688 1.4185 0
0.174673 1.49388 0
0.181454 1.55744 0
0.185021 1.58393 0
0.196075 1.5332 0
0.187401 1.53565 0
0.206604 1.5445 0
0.204852 1.50101 0
0.191943 1.49036 0
0.199848 1.47549 0
0.187547 1.46807 0
0.284783 1.9593 0
0.268262 1.95804 0
0.259079 1.94041 0
0.26869 1.99476 0
0.385118 2.02447 0
0.436201 2.07449 0
0.414484 2.0173 0
0.399287 2.00837 0
0.402725 2.0656 0
0.411305 1.95682 0
0.40877 1.9885 0
0.391679 2.05235 0
0.353004 1.94856 0
0.325375 1.98715 0
0.330356 1.94847 0
0.338134 1.9796 0
0.338774 2.09219 0
0.335155 2.03571 0
0.384436 1.758 0
0.413161 1.72798 0
0.427978 1.88498 0
0.453502 1.74621 0
0.442934 1.71289 0
0.183992 2.14637 0
0.209064 2.05068 0
0.201924 2.03182 0
0.202992 2.12615 0
0.222574 2.02363 0
0.210027 2.09309 0
0.19996 2.08807 0
0.186734 2.09366 0
0.212968 2.01733 0
0.217652 2.0505 0
0.19273 2.12652 0
0.17241 2.10809 0
0.180353 2.11538 0
0.213756 1.93995 0
0.225591 1.94336 0
0.233436 1.98793 0
0.224356 1.99116 0
0.240615 2.05617 0
0.233267 2.02696 0
0.230149 2.06375 0
0.23139 2.11686 0
0.246306 2.01153 0
0.217524 2.14523 0
0.240162 2.09478 0
0.256746 2.08136 0
0.255361 2.00002 0
0.242959 1.9786 0
0.222142 2.11524 0
0.25144 2.04642 0
0.0988692 1.93489 0
0.0992161 1.87644 0
0.0927889 1.89432 0
0.102762 1.90623 0
0.0597267 1.87023 0
0.0783004 1.87698 0
0.0669038 1.74413 0
0.0632692 1.79288 0
0.0591843 1.82658 0
0.0684242 1.80296 0
0.065096 1.83776 0
0.0541765 1.85156 0
0.0432268 1.93077 0
0.047573 1.88291 0
0.0499901 1.85744 0
0.0684628 1.89802 0
0.0688576 1.86281 0
0.0513922 1.31407 0
0.055945 1.27677 0
0.0526374 1.17539 0
0.0619169 1.22515 0
0.00307299 1.99818 0
0 2.13574 0
0.00430457 2.16624 0
0.00140811 1.9457 0
0.00164703 1.99666 0
0.00113347 1.9744 0
0.000719072 2.07084 0
0.000749717 2.0197 0
0.00143835 2.04643 0
0.00148574 2.09299 0
0 2.05737 0
0.00223512 2.10473 0
0.000221854 2.04369 0
0.000235215 1.99663 0
0 2.01874 0
0 2.09637 0
0.000262079 2.11602 0
0.000118208 2.01816 0
0.000285147 2.07921 0
0.000870442 2.13401 0
0.000609154 2.1041 0
0.00126824 2.26548 0
0.00133696 2.19699 0
0.0013685 2.16027 0
0 2.21558 0
0.000306778 2.18379 0
0.000745048 2.17747 0
0.000617937 2.23053 0
0.000418689 2.14914 0
0.000117852 2.15452 0
0 2.17548 0
0.00117014 2.23085 0
0.00301753 2.23354 0
0.000151333 2.22517 0
8.81666e-05 2.19454 0
0 2.25604 0
0.000306482 2.28429 0
0.000676526 2.26783 0
0.000105067 2.25913 0
0.0382936 1.75291 0
0.0167912 0.514411 0
0.016655 0.495836 0
0.0102721 0.470323 0
0 0.0065918 0
0.00109863 0 0
0.000342206 0.00613842 0
0.000276517 0.000356261 0
0.000148211 0.00182431 0
0.000107199 0.00285017 0
0 0.00457764 0
7.30906e-05 0.00551107 0
0.000462387 0.00220811 0
0.00024437 0.000986041 0
0 0.00164795 0
0.901168 2.0425 0
0.789899 2.04517 0
0.770196 2.12787 0
0.788147 2.15426 0
0.794161 2.11764 0
0.741802 2.07717 0
0.772336 2.22862 0
0.543356 2.30135 0
0.499329 2.60595 0
0.533998 2.6143 0
0.550374 2.66701 0
0.563752 2.6463 0
0.551729 2.61032 0
0.541418 2.56744 0
0.517888 2.5679 0
0.529533 2.53709 0
0.564453 3 0
0.589661 2.61059 0
0.598106 2.58142 0
0.725962 2.71614 0
0.738211 2.63227 0
0.732397 2.53685 0
0.764095 2.562 0
0.752489 2.5997 0
0.746247 2.56186 0
0.699341 2.95711 0
0.742676 3 0
0.723458 2.94628 0
0.722589 2.90283 0
0.743565 2.95029 0
0.761841 3 0
0.776561 2.91253 0
0.75769 2.91978 0
0.769794 2.95673 0
0.762513 2.84863 0
0.767882 2.71269 0
0.746578 2.70153 0
0.754108 2.7384 0
1.61041 2.36973 0
1.63603 2.31441 0
1.60828 2.31902 0
1.43127 2.5466 0
1.46022 2.53825 0
1.45208 2.49815 0
1.42319 2.50075 0
1.40273 2.52826 0
1.67172 2.57206 0
1.74046 2.66079 0
1.70073 2.62553 0
1.63482 2.38912 0
1.74788 2.48558 0
1.73028 2.55364 0
1.70209 2.57171 0
1.8214 2.32337 0
1.88855 2.36771 0
1.86612 2.41087 0
1.7957 2.34303 0
1.87046 2.30099 0
1.85344 2.26906 0
1.84932 2.36144 0
1.87109 2.33849 0
1.83636 2.39656 0
1.88705 2.08058 0
1.85395 2.0951 0
1.85448 1.94488 0
2 2.01874 0
1.94948 2.08545 0
1.92991 2.04313 0
1.89933 2.04497 0
1.87931 2.02124 0
1.91826 2.08011 0
1.00624 2.63361 0
0.985461 2.62248 0
1.13358 2.80506 0
0.957143 2.70298 0
0.971433 2.66284 0
0.948493 2.65935 0
1.00918 2.81491 0
1.32931 2.69326 0
1.36651 2.58439 0
1.39121 2.68365 0
1.24388 2.79763 0
1.2055 2.88685 0
1.23796 2.88073 0
1.21962 2.83379 0
1.22451 2.93759 0
1.24065 2.84109 0
1.18154 2.80242 0
1.15745 2.80558 0
1.19542 2.76014 0
1.16971 2.74898 0
1.24524 3 0
1.2486 2.9523 0
1.20384 2.8039 0
1.19185 2.84612 0
1.16781 2.84665 0
1.17236 3 0
1.15478 2.92455 0
1.15538 2.88182 0
1.13203 2.90191 0
1.17974 2.90441 0
1.12651 2.95018 0
1.17524 2.95179 0
1.14856 3 0
1.19641 3 0
1.19905 2.93567 0
1.146 2.96037 0
1.42383 3 0
0.194872 1.56873 0
0.395954 2.16221 0
0.419616 2.06141 0
0.413046 2.12117 0
0.411918 2.08752 0
0.430647 1.98023 0
0.432282 2.02757 0
0.462158 2.03477 0
0.44665 2.0437 0
0.450274 1.99182 0
0.472743 1.98355 0
0.443138 1.95533 0
0.462264 2.00222 0
0.419282 1.92781 0
0.405361 1.92552 0
0.317587 2.0349 0
0.326391 2.01846 0
0.3077 1.98975 0
0.309841 1.94802 0
0.319997 1.95858 0
0.319656 2.09314 0
0.316711 2.00365 0
0.305637 2.02714 0
0.293662 2.00131 0
0.326179 2.06131 0
0.31378 2.06559 0
0.282955 2.05762 0
0.274918 2.0282 0
0.285418 2.02357 0
0.295182 2.04021 0
0.267514 2.06176 0
0.356112 2.05265 0
0.401582 1.73163 0
0.410299 1.75996 0
0.42391 1.74912 0
0.425768 1.71587 0
0.174768 2.07108 0
0.158456 2.09917 0
0.152322 2.06589 0
0.159997 2.06544 0
0.171449 2.16387 0
0.202168 2.22995 0
0.197958 2.1771 0
0.182908 2.22678 0
0.21058 2.18973 0
0.192557 2.21351 0
0.188693 2.17877 0
0.20858 2.15446 0
0.225823 2.27404 0
0.179188 2.18838 0
0.173665 2.22068 0
0.16356 2.33484 0
0.166453 2.27362 0
0.215294 2.23957 0
0.234243 2.19761 0
0.206594 2.28131 0
0.191862 2.27429 0
0.236664 2.15521 0
0.226998 2.14927 0
0.222097 2.20127 0
0.228835 2.23384 0
0.252873 2.28178 0
0.239372 2.26714 0
0.216996 2.3152 0
0.198422 2.30415 0
0.181638 2.34257 0
0.193123 2.34882 0
0.19959 2.26241 0
0.250505 2.21826 0
0.248242 2.17281 0
0.281989 2.17455 0
0.270228 2.12445 0
0.264822 2.18546 0
0.265635 2.09463 0
0.2579 2.12797 0
0.216206 2.27721 0
0.220917 2.42575 0
0.188308 2.3127 0
0.17708 2.29432 0
0.177117 2.25584 0
0.184174 2.45659 0
0.247859 2.25183 0
0.239356 2.36231 0
0.215486 2.37217 0
0.169377 2.30838 0
0.185835 2.39795 0
0.242999 2.31448 0
0.227702 2.38324 0
0.171429 2.38861 0
0.201907 2.43637 0
0.229823 2.32252 0
0.235564 2.43327 0
0.179078 2.37707 0
0.177606 2.42305 0
0.167457 2.43216 0
0.155606 2.39201 0
0.17165 2.50297 0
0.15993 2.42232 0
0.174983 2.46341 0
0.166857 2.47143 0
0.192025 2.43105 0
0.198161 2.39116 0
0.208016 2.40192 0
0.22241 2.34627 0
0.251665 2.40887 0
0.236287 2.39674 0
0.24514 2.43642 0
0.259333 2.34583 0
0.252722 2.3183 0
0.0852013 1.87442 0
0.0813904 1.84917 0
0.0772888 1.93739 0
0.0421038 1.84188 0
0.0551396 1.9606 0
0.0510928 1.26052 0
0.0597917 1.29851 0
0.064463 1.26477 0
0.0592954 1.25238 0
0.0662236 1.23912 0
0.0575411 1.21655 0
0.0658803 1.19778 0
0.0653177 1.17242 0
0.00319971 2.13601 0
0.00252191 2.18295 0
0.00500119 2.11503 0
0.00206839 2.21743 0
0.00362028 2.19903 0
0.00552284 2.24748 0
0.00520885 2.2035 0
0.00615109 2.16299 0
0.0115354 2.20508 0
0.00887623 2.17301 0
0.00741732 2.2171 0
0.00625476 2.10172 0
0.00729931 2.18384 0
0.00722516 2.25771 0
0.0102428 2.26006 0
0.00936743 2.21086 0
0.00868881 2.24236 0
0 2.46387 0
0 0.00897217 0
0.000214652 0.0102654 0
0.000146574 0.0137629 0
0.000596312 0.0099407 0
0.000111882 0.00785358 0
0 0.0148315 0
0.000114706 0.0166658 0
0 0.0221558 0
0.000424081 0.0142591 0
0.000148196 0.0234463 0
0.000274234 0.0204852 0
0.000622816 0.000568162 0
0.000537841 0.00012317 0
0.00012207 0 0
0 0.000183105 0
0.779321 2.19707 0
0.750409 2.20705 0
0.733644 2.20305 0
0.746996 2.16358 0
0.759581 2.28666 0
0.740053 2.28527 0
0.754868 2.24673 0
0.56141 2.32769 0
0.568902 2.28398 0
0.554799 2.25013 0
0.537626 2.23653 0
0.55514 2.28407 0
0.523942 2.38188 0
0.5411 2.41838 0
0.542815 2.35604 0
0.555604 2.40202 0
0.52311 2.42997 0
0.536627 2.45428 0
0.536876 2.3862 0
0.556417 2.36001 0
0.513478 2.70707 0
0.546423 2.7188 0
0.531227 2.6831 0
0.52782 2.75601 0
0.537947 2.65022 0
0.514043 2.64795 0
0.532682 2.72057 0
0.514017 2.60705 0
0.509112 2.51515 0
0.512733 2.48217 0
0.500614 2.55741 0
0.459449 2.57328 0
0.480394 2.5776 0
0.482503 2.50509 0
0.495146 2.52149 0
0.468397 2.63415 0
0.470801 2.5388 0
0.454269 2.45978 0
0.466149 2.49294 0
0.473851 2.43723 0
0.445095 2.52065 0
0.457415 2.53506 0
0.469312 2.5969 0
0.489632 2.6756 0
0.484046 2.62269 0
0.45925 2.41591 0
0.433068 2.33072 0
0.449201 2.36555 0
0.494032 2.39477 0
0.509852 2.40425 0
0.503916 2.67669 0
0.46878 2.26868 0
0.421645 2.42127 0
0.440325 2.42271 0
0.480258 2.40302 0
0.489443 2.43774 0
0.463614 2.32403 0
0.448852 2.39919 0
0.432779 2.379 0
0.43045 2.47652 0
0.46066 2.35618 0
0.485688 2.3371 0
0.506552 2.34798 0
0.446952 2.28295 0
0.441531 2.45905 0
0.430774 2.44236 0
0.476753 2.30352 0
0.493321 2.25217 0
0.5056 2.22934 0
0.51245 2.28793 0
0.524978 2.26223 0
0.47331 2.34649 0
0.494727 2.36077 0
0.447616 2.32415 0
0.45917 2.29142 0
0.498475 2.3104 0
0.525607 2.32753 0
0.529888 2.29445 0
0.533833 2.89597 0
0.723755 3 0
0.796852 2.84724 0
0.772676 2.80613 0
0.741466 2.8512 0
0.751269 2.81831 0
0.812185 2.68221 0
1.40706 2.58607 0
1.4072 2.63541 0
1.43917 2.59962 0
1.4552 2.57388 0
1.45713 2.64107 0
1.49894 2.81484 0
1.47064 2.73208 0
1.45605 2.68957 0
1.42136 2.75132 0
1.5074 2.66922 0
1.44422 2.72916 0
1.45408 2.8034 0
1.48558 2.63865 0
1.48342 2.69172 0
1.51481 2.74471 0
1.50513 2.70838 0
1.67138 2.67855 0
1.71294 2.52525 0
1.73449 2.60711 0
1.81122 2.61544 0
1.76759 2.57418 0
1.75376 2.54453 0
1.8111 2.54511 0
1.80532 2.5025 0
1.84323 2.51391 0
1.82946 2.47714 0
1.73694 2.51794 0
1.78469 2.54484 0
1.85074 2.58005 0
1.83639 2.54933 0
1.88703 2.11521 0
1.96927 2.05618 0
2 2.09637 0
1.87069 2.05345 0
0.979775 2.70965 0
0.96496 2.75559 0
0.912951 2.81989 0
0.942189 2.79997 0
0.991922 2.79132 0
0.98877 3 0
1.02083 2.90176 0
1.04202 2.87798 0
1.02522 2.84704 0
1.03098 2.77597 0
1.01014 2.77076 0
1.05067 2.7872 0
1.37428 2.65681 0
1.36872 2.69866 0
1.3889 2.74252 0
1.36862 2.78943 0
1.40807 2.71508 0
1.36003 2.87369 0
1.42867 2.70311 0
1.35214 2.82752 0
1.3348 2.8677 0
0.393979 2.11063 0
0.402183 2.13413 0
0.414578 2.17547 0
0.446058 2.1577 0
0.459624 2.10081 0
0.456683 2.06657 0
0.476112 2.07334 0
0.49116 2.08798 0
0.491573 2.13704 0
0.428545 2.14501 0
0.477741 2.03365 0
0.490279 2.00072 0
0.496829 1.9684 0
0.475566 2.11822 0
0.461953 2.14452 0
0.4606 2.20799 0
0.456798 2.17548 0
0.428512 2.18479 0
0.442319 2.21789 0
0.440727 2.11621 0
0.426442 2.10475 0
0.477704 2.16945 0
0.434496 2.25582 0
0.453783 2.24541 0
0.481254 2.21604 0
0.480017 2.25079 0
0.479997 1.94575 0
0.329501 2.15174 0
0.357765 2.01507 0
0.34519 2.01427 0
0.344112 2.0596 0
0.362792 2.13248 0
0.379858 2.14121 0
0.381848 2.10672 0
0.365369 2.23914 0
0.38037 2.20011 0
0.385006 2.17017 0
0.369285 2.17136 0
0.34818 2.17838 0
0.358219 2.16338 0
0.347331 2.13034 0
0.35851 2.20384 0
0.352443 2.09205 0
0.367638 2.08861 0
0.336355 2.12522 0
0.344871 2.22341 0
0.333886 2.33555 0
0.335757 2.27556 0
0.400887 2.2289 0
0.411987 2.21097 0
0.370532 2.04491 0
0.150686 2.16777 0
0.164411 2.13345 0
0.15568 2.13595 0
0.160063 2.17429 0
0.144942 2.28372 0
0.301347 2.13784 0
0.265048 2.24327 0
0.272272 2.15994 0
0.257448 2.16239 0
0.172396 2.34721 0
0.163248 2.37481 0
0.126316 2.46633 0
0.281223 2.47452 0
0.250066 2.36797 0
0.266445 2.29971 0
0.273371 2.26908 0
0.290955 2.23596 0
0.0743061 1.90485 0
0.0702675 1.9382 0
0.0619195 1.93222 0
0.086077 2.03588 0
0.0807955 1.9089 0
0.045244 1.81961 0
0.0409921 1.80707 0
0.0419222 1.88663 0
0.0342526 1.86185 0
0.0374333 1.83353 0
0.0382392 1.86834 0
0.0349854 1.92567 0
0.0382078 1.90397 0
0.032934 1.82228 0
0.0496495 1.93076 0
0.0543487 1.89878 0
0.0463577 1.9125 0
0.053832 1.93016 0
0.0591201 1.90393 0
0.00426652 2.08539 0
0.0124422 2.13033 0
0.012878 2.36834 0
0 2.37964 0
8.72e-05 0.000121766 0
0.742629 2.13108 0
0.777882 2.31664 0
0.797195 2.34348 0
0.779698 2.35502 0
0.772997 2.26438 0
0.480989 2.82573 0
0.442975 2.62987 0
0.473015 2.68028 0
0.471042 2.75537 0
0.467671 2.71675 0
0.413847 2.46563 0
0.392777 2.40455 0
0.406286 2.42563 0
0.409739 2.35367 0
0.386988 2.48661 0
0.404233 2.38792 0
0.422771 2.35432 0
0.401399 2.4889 0
0.393847 2.44804 0
0.428826 2.52411 0
0.416349 2.60021 0
0.438148 2.57397 0
0.418813 2.55642 0
0.448831 2.59558 0
0.430205 2.60976 0
0.41597 2.70348 0
0.419764 2.65171 0
0.387164 2.6456 0
0.436071 2.69023 0
0.403564 2.63503 0
0.394504 2.56481 0
0.407005 2.57272 0
0.400517 2.52893 0
0.398459 2.68927 0
0.393201 2.6072 0
0.371089 2.5789 0
0.379937 2.61001 0
0.367364 2.61858 0
0.369027 2.73132 0
0.368475 2.67463 0
0.40359 2.74054 0
0.382425 2.70145 0
0.375554 2.64488 0
0.433635 2.80272 0
0.384127 2.75743 0
0.421024 2.75933 0
0.330078 3 0
0.367908 2.87645 0
0.391952 2.72657 0
0.415017 2.8161 0
0.439388 2.74712 0
0.455182 2.74684 0
0.427799 2.7232 0
0.379945 2.82271 0
0.409961 2.77908 0
0.430982 2.90215 0
0.446311 2.71403 0
0.386685 2.79321 0
0.370639 2.78188 0
0.341919 2.76682 0
0.356744 2.76132 0
0.347256 2.69932 0
0.351391 2.83104 0
0.348427 2.73662 0
0.365532 2.82734 0
0.35017 2.79253 0
0.427278 2.8509 0
0.454743 2.8582 0
0.440553 2.86829 0
0.460002 2.80241 0
0.359545 2.70386 0
0.446712 2.78488 0
0.444972 2.82735 0
0.467357 2.83897 0
0.469238 3 0
0.483327 2.91732 0
0.478459 2.87224 0
0.506478 2.87012 0
0.49248 2.8835 0
0.503331 2.93736 0
0.472882 2.79431 0
0.496776 2.7654 0
0.49637 2.71828 0
0.484641 2.74269 0
0.484497 3 0
0.476836 2.95943 0
0.49122 2.96134 0
0.463036 2.91402 0
0.446621 2.91542 0
0.435147 2.95091 0
0.454224 3 0
0.410645 3 0
0.461667 2.95992 0
0.424927 3 0
0.416338 2.94123 0
0.408417 2.87912 0
0.531738 3 0
0.396616 2.95272 0
0.418523 2.90186 0
0.401951 2.83684 0
0.387829 2.8866 0
0.515747 3 0
0.523073 2.94534 0
0.407345 2.9641 0
0.517957 2.90166 0
0.4885 2.28573 0
0.548644 2.8401 0
0.779749 2.86797 0
0.784732 2.65912 0
0.775999 2.60856 0
0.796805 2.61953 0
0.786422 2.56425 0
0.792329 2.7158 0
1.48951 2.7687 0
1.57104 2.8196 0
1.67601 2.63889 0
1.64188 2.72434 0
1.70678 2.67905 0
1.74868 2.77833 0
1.7354 2.72074 0
1.68881 2.75252 0
1.77738 2.73028 0
1.70773 2.72149 0
1.71838 2.76668 0
1.64258 3 0
1.71469 2.89205 0
1.72447 2.8296 0
1.75463 2.74258 0
1.75931 2.69489 0
1.77718 2.64339 0
1.6767 2.84389 0
1.6952 2.80215 0
1.66987 2.78432 0
1.7927 2.88909 0
1.8106 2.67348 0
1.78628 2.69165 0
1.78495 2.60478 0
1.70256 2.85407 0
1.76615 2.83771 0
1.88434 2.67606 0
1.74665 2.81548 0
1.74234 2.8696 0
1.7462 2.93563 0
1.84775 2.64529 0
1.84057 2.69239 0
1.88371 2.61586 0
1.83668 2.61133 0
1.87172 2.64613 0
1.9398 2.64465 0
2 2.46387 0
1.9079 2.64531 0
1.92937 2.45228 0
1.89333 2.44418 0
1.90211 2.5274 0
1.92317 2.58421 0
1.91664 2.40272 0
1.90719 2.48365 0
1.87807 2.49938 0
1.87187 2.54473 0
2 2.37964 0
1.9419 2.32653 0
1.90503 2.31861 0
1.96084 2.40922 0
1.9201 2.3589 0
1.95136 2.36768 0
2 2.33807 0
1.97253 2.31741 0
2 2.21558 0
1.94454 2.24686 0
1.95131 2.28706 0
1.92311 2.19327 0
1.91781 2.27584 0
1.91404 2.23365 0
0.91683 2.73879 0
0.941159 2.74191 0
0.934837 2.69714 0
0.940845 2.89933 0
0.988582 2.87316 0
1.00837 2.86936 0
0.335896 2.18441 0
0.353342 2.31139 0
0.38364 2.2567 0
0.150876 2.33604 0
0.154877 2.24884 0
0.154156 2.20656 0
0.13845 2.21473 0
0.146649 2.23058 0
0.144927 2.19367 0
0.14041 2.14409 0
0.147727 2.12994 0
0.307369 2.10256 0
0.315485 2.13984 0
0.307573 2.20001 0
0.308034 2.16503 0
0.295236 2.18064 0
0.285924 2.12272 0
0.294998 2.095 0
0.277733 2.09344 0
0.259874 2.21453 0
0.275109 2.21367 0
0.285049 2.20755 0
0.280679 2.24377 0
0.142127 2.44489 0
0.151074 2.43668 0
0.272171 2.40526 0
0.309587 2.29714 0
0.0620105 1.98818 0
0.0793055 1.99401 0
0.0334565 1.78632 0
0.0110909 2.16453 0
0.00970235 2.12397 0
0.0112762 2.09606 0
0.0149015 2.08713 0
0.0120115 2.05927 0
0.0104466 2.03233 0
0.00861517 2.09513 0
0.00870962 2.01338 0
0.0107377 2.31995 0
0 2.33807 0
0.455241 2.65056 0
0.416781 2.3869 0
0.432542 2.65272 0
0.31409 2.60725 0
0.334297 2.82106 0
0.326983 2.7744 0
0.332396 2.72146 0
0.298269 2.72199 0
0.310764 2.76028 0
0.323584 2.90714 0
0.331902 2.64691 0
0.320923 2.73658 0
0.340159 2.8821 0
0.324839 2.85729 0
0.336454 2.68372 0
0.341842 2.84589 0
0.355957 3 0
0.353849 2.87853 0
0.348217 2.94041 0
0.335495 2.92657 0
0.305176 3 0
0.342896 3 0
0.324838 2.95535 0
0.308408 2.93686 0
0.317505 3 0
0.307009 2.86969 0
0.367782 2.94479 0
0.293091 3 0
0.313087 2.9016 0
0.300244 2.81063 0
0.358376 2.91769 0
0.357585 2.96116 0
0.308403 2.8324 0
0.309149 2.79593 0
0.298841 2.76627 0
0.279189 2.74751 0
0.277069 2.8839 0
0.287153 2.93715 0
0.291301 2.86008 0
0.284187 2.80511 0
0.286855 2.89657 0
0.288181 2.76792 0
0.281176 2.84513 0
0.252988 2.82087 0
0.266331 2.84335 0
0.27056 2.79077 0
0.236328 3 0
0.264043 2.73628 0
0.258301 3 0
0.272775 2.71757 0
0.285835 2.68103 0
0.2312 2.65197 0
0.258859 2.77923 0
0.242954 2.72205 0
0.252901 2.7413 0
0.254033 2.68002 0
0.258842 2.91821 0
0.287369 2.72118 0
0.30252 2.65782 0
0.277765 2.5785 0
0.261724 2.70058 0
0.241976 2.67295 0
0.251526 2.57921 0
0.249634 2.63064 0
0.26454 2.61274 0
0.237233 2.59707 0
0.258903 2.64545 0
0.266213 2.88663 0
0.2544 2.87083 0
0.272274 2.93997 0
0.238749 2.85305 0
0.295774 2.68569 0
0.264444 2.55856 0
0.277715 2.63501 0
0.239935 2.53218 0
0.214217 2.58693 0
0.262591 2.95945 0
0.269653 3 0
0.279963 2.9623 0
0.275742 2.52455 0
0.290684 2.63591 0
0.242694 2.56727 0
0.253387 2.52631 0
0.233907 2.48508 0
0.225171 2.60766 0
0.228828 2.55795 0
0.212324 2.66713 0
0.221098 2.64665 0
0.298839 2.54024 0
0.264195 2.47829 0
0.227365 2.45534 0
0.28815 2.5136 0
0.28781 2.55648 0
0.287491 2.59689 0
0.300596 2.60372 0
0.301954 2.48332 0
0.263703 2.51827 0
0.272894 2.49123 0
0.255163 2.49054 0
0.300617 2.38683 0
0.305573 2.43412 0
0.32292 2.3953 0
0.289738 2.42742 0
0.31638 2.42593 0
0.291923 2.46594 0
0.285022 2.37379 0
0.278949 2.43572 0
0.296163 2.33143 0
0.274453 2.34054 0
0.310322 2.34783 0
0.295675 2.28207 0
0.285187 2.33528 0
0.267561 2.37015 0
0.311825 2.38573 0
0.320978 2.32062 0
0.321136 2.35803 0
0.321666 2.27497 0
0.309201 2.24818 0
0.320188 2.23775 0
0.300923 2.22677 0
0.499423 2.81923 0
0.522857 2.82159 0
0.524317 2.86346 0
0.511517 2.78681 0
0.509423 2.74619 0
0.396606 3 0
0.404967 2.92016 0
0.389865 2.84634 0
0.378676 2.86176 0
0.55761 2.8069 0
0.563307 2.91429 0
0.768636 2.67336 0
1.53525 2.79739 0
1.51315 2.78355 0
1.53281 2.89777 0
1.52403 2.8467 0
1.55316 2.86029 0
1.58643 3 0
1.6132 2.90103 0
1.58602 2.86857 0
1.57801 2.93398 0
1.55894 2.90327 0
1.54226 2.94914 0
1.55872 3 0
1.61969 2.83956 0
1.64698 2.87877 0
1.60283 2.7809 0
1.64922 2.83363 0
1.64215 2.93882 0
1.67953 2.90037 0
1.6211 2.80276 0
1.56349 2.73068 0
1.53791 2.69363 0
1.61438 3 0
1.69971 3 0
1.54086 2.75429 0
1.56511 2.77544 0
1.57332 2.67135 0
1.53416 2.64363 0
1.61293 2.95034 0
1.67102 3 0
1.68532 2.95227 0
1.71702 2.95678 0
1.66537 2.93125 0
1.72864 3 0
1.6021 2.7153 0
1.59256 2.6272 0
1.5251 2.6066 0
1.59185 2.96349 0
1.5801 2.70597 0
1.60039 2.66835 0
1.6175 2.62754 0
1.6472 2.68655 0
1.66935 2.72151 0
1.81906 2.81428 0
1.81689 3 0
1.76422 2.89963 0
1.78723 3 0
1.78593 2.94381 0
1.76415 2.96218 0
2 2.54956 0
1.95346 2.51608 0
1.93398 2.48944 0
1.96585 2.47165 0
2 2.50653 0
2 2.42157 0
1.9532 2.44185 0
1.89349 2.57478 0
1.962 2.20072 0
2 2.17548 0
1.94768 2.15169 0
1.97596 2.15557 0
1.92356 2.1607 0
1.93587 2.11788 0
1.88669 2.26325 0
0.923192 2.78099 0
0.933346 2.84896 0
0.959915 2.85857 0
0.956489 2.82186 0
0.994658 2.93618 0
1.01086 3 0
1.02201 2.95343 0
1.07861 3 0
1.04594 2.93123 0
1.10168 3 0
1.08345 2.94431 0
0.968613 2.91445 0
1.10322 2.95789 0
1.05579 3 0
0.949793 2.94805 0
0.966919 3 0
0.975571 2.95779 0
0.341609 2.30769 0
0.35109 2.38501 0
0.369769 2.43218 0
0.380967 2.45127 0
0.352343 2.26411 0
0.388826 2.22485 0
0.376206 2.23121 0
0.36978 2.29156 0
0.363985 2.3211 0
0.401681 2.29307 0
0.417935 2.30672 0
0.419493 2.26377 0
0.385491 2.30558 0
0.391532 2.35316 0
0.430561 2.29263 0
0.400685 2.32907 0
0.380403 2.38141 0
0.136146 2.34186 0
0.162296 2.24466 0
0.154106 2.29353 0
0.320648 2.18608 0
0.0656209 1.95986 0
0.0596531 1.96024 0
0.0527788 2.04905 0
0.0476909 1.99508 0
0.0504096 1.96594 0
0.0457018 1.96145 0
0.0535219 2.004 0
0.0387685 2.00928 0
0.0429246 1.99272 0
0.059014 2.03189 0
0.03861 1.96083 0
0.0441609 2.06147 0
0.0450069 2.02506 0
0.0597055 2.11646 0
0.0345551 1.96175 0
0.0576101 2.07477 0
0.0520016 2.09559 0
0.0487253 2.06845 0
0.0544529 2.13525 0
0.0517916 2.27255 0
0.062618 2.21272 0
0.0516757 2.20168 0
0.059615 2.16675 0
0.0516304 2.16473 0
0.0570559 2.20399 0
0.0540822 2.23675 0
0.060647 2.28572 0
0.0563717 2.26875 0
0.0589638 2.23762 0
0.0754199 1.96948 0
0.0895449 1.97514 0
0.0149465 2.12541 0
0.0151886 2.18527 0
0.0132755 2.16365 0
0.0229531 2.046 0
0.0183289 2.01196 0
0.0169172 1.97608 0
0.023577 1.95756 0
0.019878 1.95371 0
0.0213975 1.9922 0
0.0220473 1.91 0
0.0156649 2.00927 0
0.0167245 2.05076 0
0.0181369 2.09121 0
0.0196908 2.04635 0
0.0189909 1.91332 0
0.0282186 1.91271 0
0.0309916 1.94072 0
0.027233 1.95053 0
0.0249851 1.92389 0
0.0262322 2.00434 0
0.0222127 1.87009 0
0.0263461 1.85687 0
0.0281364 1.9802 0
0.0249192 1.88858 0
0.0302355 1.85185 0
0.0313015 1.88888 0
0.00953562 2.29229 0
0.338824 2.5416 0
0.369263 3 0
0.381985 2.95061 0
0.297699 2.95759 0
0.298928 2.90573 0
0.310954 2.6991 0
0.32314 2.68189 0
0.320191 2.64201 0
0.239474 2.78833 0
0.215332 3 0
0.21443 2.50971 0
0.223843 2.49446 0
0.538162 2.80359 0
0.549954 2.88632 0
0.566326 2.8641 0
0.596069 2.90349 0
0.591704 2.84584 0
0.578997 2.89569 0
0.61475 2.89481 0
0.598145 3 0
0.619436 2.95252 0
0.581177 3 0
0.589647 2.95276 0
0.604443 2.96215 0
0.605762 2.8616 0
1.59657 2.82124 0
1.62511 2.75755 0
1.58666 2.74848 0
1.62368 2.7002 0
1.79869 2.7715 0
1.79019 2.81355 0
1.96678 2.59479 0
1.93006 2.54281 0
1.95739 2.55616 0
1.97137 2.11501 0
1.06288 2.95828 0
0.346335 2.34626 0
0.336535 2.38148 0
0.34198 2.46022 0
0.329958 2.4354 0
0.342972 2.41799 0
0.355376 2.44219 0
0.355825 2.50724 0
0.370823 2.49071 0
0.360623 2.47427 0
0.367083 2.53474 0
0.353558 2.57154 0
0.381153 2.54549 0
0.349694 2.53741 0
0.33887 2.59668 0
0.326461 2.60446 0
0.389347 2.52113 0
0.343564 2.63501 0
0.395706 2.26147 0
0.14314 2.32259 0
0.144062 2.38195 0
0.150447 2.36941 0
0.131827 2.40428 0
0.136858 2.37819 0
0.161511 2.30064 0
0.0724369 2.07792 0
0.0648522 2.06433 0
0.0688229 2.14234 0
0.0702615 2.02995 0
0.0674128 2.10178 0
0.0634964 2.14189 0
0.0660562 2.17907 0
0.0713989 2.23198 0
0.077643 2.04168 0
0.0740738 2.00538 0
0.0665266 2.00491 0
0.0637221 2.03192 0
0.0837236 1.95114 0
0.0851258 2.00022 0
0.105464 2.03827 0
0.115105 2.00168 0
0.120035 1.97989 0
0.0919317 1.93892 0
0.0147094 2.25821 0
0.0233618 2.22234 0
0.0234359 2.01419 0
0.0318464 2.09197 0
0.376552 2.9098 0
0.23447 2.81967 0
0.243832 2.82153 0
0.225964 2.74118 0
0.224835 2.69249 0
0.233231 2.71356 0
0.22088 2.90744 0
0.218762 2.54832 0
1.94264 2.60813 0
1.96959 2.63738 0
2 2.72534 0
2 2.68085 0
1.9579 2.70304 0
1.91937 2.69836 0
1.97425 2.67393 0
1.87756 2.7689 0
1.85245 2.73751 0
1.8325 2.77262 0
1.88238 2.72251 0
1.93407 2.77915 0
1.90754 2.7519 0
1.93663 2.73479 0
2 2.7702 0
1.96901 2.74942 0
1.96603 2.80064 0
1.91733 2.89554 0
1.93447 2.83981 0
1.90273 2.80988 0
2 2.90698 0
1.86105 2.82916 0
1.95915 2.89036 0
2 2.86102 0
1.93799 3 0
2 2.95331 0
1.96887 3 0
1.95339 2.94704 0
1.96481 2.8457 0
1.97508 2.92289 0
1.93941 2.91481 0
2 2.59296 0
0.124958 2.35621 0
0.133671 2.44662 0
0.0655072 2.2546 0
0.0929476 2.28025 0
0.0955729 2.02021 0
0.104899 1.98115 0
0.121302 2.09923 0
0.132843 2.09032 0
0.138501 2.11084 0
0.013848 2.21999 0
0.0123936 2.24963 0
0.0129383 2.29425 0
0.0127507 2.33113 0
0.0213416 2.34303 0
0.0168896 2.31758 0
0.0152046 2.29257 0
0.01944 2.18895 0
0.0170901 2.22475 0
0.0201292 2.22848 0
0.0183353 2.27199 0
0.0197348 2.30776 0
0.025098 2.29281 0
0.0222043 2.26464 0
0.0306949 2.03624 0
0.229962 2.77841 0
0.198491 2.77647 0
0.227338 2.86532 0
1.85569 2.79059 0
1.83209 2.87345 0
1.83755 2.83762 0
1.80761 2.85303 0
1.87361 2.89227 0
1.85608 2.86576 0
0.129436 2.32656 0
0.134594 2.28215 0
0.139908 2.25312 0
0.126516 2.23398 0
0.128456 2.26706 0
0.120286 2.41286 0
0.0809476 2.27187 0
0.10776 2.32632 0
0.0932139 2.07765 0
0.082499 2.10321 0
0.0822956 2.0655 0
0.111416 1.97129 0
0.105482 1.94451 0
0.0970637 1.9761 0
0.101596 2.0106 0
0.108657 2.0086 0
0.124432 2.03987 0
0.131039 2.02311 0
0.128554 2.14403 0
0.0172825 2.3876 0
0.0173234 2.16961 0
0.0252087 2.13914 0
0.0212465 2.12082 0
0.0213023 2.08077 0
0.0258715 2.08673 0
0.0199861 2.15331 0
0.0238899 2.11025 0
0.0285225 2.11737 0
0.0371172 2.19479 0
0.0334062 2.1479 0
0.0267142 2.04565 0
0.0289067 2.07249 0
0.0277034 2.36729 0
0.028377 2.24363 0
0.025163 2.25293 0
0.0358466 2.05503 0
0.0343826 2.01654 0
0.0326018 2.06128 0
0.0372797 2.10746 0
0.0400351 2.04609 0
0.0405705 2.08353 0
0.0424445 2.13419 0
0.0455469 2.10148 0
0.0452728 2.18374 0
0.0349369 2.0849 0
0.0339667 2.1161 0
0.0379559 2.15 0
0.0409066 2.17784 0
0.0455118 2.15189 0
0.046594 2.23742 0
0.0411265 2.22664 0
0.0415887 2.33557 0
0.0353106 2.25231 0
0.0455548 2.29215 0
0.0375884 2.22732 0
0.0430883 2.26048 0
0.0516628 2.37093 0
0.0554098 2.32373 0
0.0471212 2.33953 0
0.0658385 2.40847 0
0.0437211 2.40577 0
0.0632306 2.34679 0
0.0470794 2.37924 0
0.0482291 2.42092 0
0.0569 2.43403 0
0.0522681 2.43858 0
0.0599509 2.32076 0
0.0576114 2.36818 0
0.0548038 2.39936 0
0.0620816 2.38336 0
0.21322 2.77738 0
1.82703 2.93717 0
1.81588 2.90259 0
1.80789 2.96297 0
1.8468 3 0
1.84776 2.90864 0
1.873 2.94606 0
1.90735 3 0
1.91209 2.94748 0
1.89661 2.85769 0
0.126486 2.42878 0
0.125522 2.39148 0
0.110432 2.48402 0
0.0746328 2.26724 0
0.11704 2.32639 0
0.112381 2.25259 0
0.112359 2.37652 0
0.112374 2.29382 0
0.118768 2.27318 0
0.102728 2.27307 0
0.119105 2.37585 0
0.0987376 2.38552 0
0.111136 2.42982 0
0.105139 2.36595 0
0.0980713 2.32733 0
0.104769 2.4083 0
0.0986102 2.42656 0
0.103339 2.46312 0
0.117715 2.45978 0
0.102806 2.30724 0
0.0856747 2.34362 0
0.0871303 2.41507 0
0.0931848 2.40534 0
0.09251 2.3593 0
0.0875249 2.37828 0
0.0760468 2.38488 0
0.0909078 2.31921 0
0.0866169 2.28918 0
0.0916153 2.04509 0
0.103021 2.09456 0
0.0989087 2.05485 0
0.0893398 2.11406 0
0.0873643 2.08138 0
0.0825897 2.18705 0
0.0873036 2.23357 0
0.0843414 2.1449 0
0.0784426 2.22648 0
0.0764415 2.13619 0
0.0907738 2.1775 0
0.0723553 2.113 0
0.0740853 2.18428 0
0.103225 2.1967 0
0.078478 2.16677 0
0.0697921 2.20028 0
0.0975025 2.17394 0
0.0957196 2.2241 0
0.105299 2.1452 0
0.0920513 2.2481 0
0.102076 2.23452 0
0.100944 2.12427 0
0.115764 2.18498 0
0.111886 2.10951 0
0.108993 2.17673 0
0.109437 2.21618 0
0.118 2.14099 0
0.114701 2.05854 0
0.120789 2.06676 0
0.118088 2.03055 0
0.108262 2.07134 0
0.127537 2.11089 0
0.130232 2.19039 0
0.137309 2.1779 0
0.123098 2.17295 0
0.0183947 2.35094 0
0.0231071 2.17703 0
0.0280738 2.18615 0
0.0279352 2.32283 0
0.0245171 2.33293 0
0.0281836 2.28034 0
0.0316248 2.25905 0
0.0366681 2.30566 0
0.0341755 2.28325 0
0.0330839 2.35301 0
0.040848 2.29534 0
0.0335942 2.31983 0
0.037284 2.34746 0
0.0404577 2.37604 0
0.0506217 2.31173 0
0.213917 2.72183 0
0.199153 2.70231 0
0.205917 2.74774 0
0.207448 2.6976 0
0.205557 2.85552 0
0.216255 2.86296 0
0.212157 2.82182 0
0.202821 2.81438 0
0.179821 2.84618 0
0.192454 2.85151 0
0.187023 2.79902 0
0.158203 3 0
0.197967 2.92355 0
0.194485 2.8143 0
0.188134 2.73729 0
0.171713 2.78083 0
0.185073 2.90481 0
0.198565 2.88178 0
0.196495 2.73885 0
0.187756 2.6808 0
0.178495 2.80518 0
0.18001 2.76049 0
0.17627 3 0
0.165818 2.91149 0
0.17522 2.59978 0
0.167133 2.68661 0
0.171719 2.73092 0
0.177376 2.6893 0
0.156855 2.74041 0
0.180944 2.64192 0
0.164704 2.75574 0
0.170897 2.64244 0
0.151696 2.57013 0
0.159307 2.52109 0
0.162628 2.59659 0
0.138461 2.5238 0
0.148521 2.49421 0
0.13814 2.48157 0
0.188859 2.95549 0
0.177978 2.94614 0
0.185669 3 0
0.175176 2.89897 0
0.167114 3 0
0.167649 2.85145 0
0.162624 2.95712 0
0.17051 2.96266 0
0.141113 3 0
0.14954 2.94681 0
0.16936 2.55449 0
0.15936 2.56038 0
0.149943 2.65802 0
0.146485 2.53588 0
0.155674 2.49022 0
0.16619 2.81104 0
0.153973 2.61552 0
0.159528 2.65533 0
0.155114 2.69521 0
1.84845 2.95968 0
0.0694588 2.36603 0
0.0751365 2.33451 0
0.0772527 2.29998 0
0.0678369 2.33003 0
0.0799735 2.35598 0
0.0823818 2.31362 0
0.0263905 2.21597 0
0.0323809 2.1921 0
0.0297041 2.15269 0
0.0330961 2.48006 0
0.0375519 2.43393 0
0.0356858 2.3911 0
0.2052 3 0
0.210231 2.94388 0
0.200232 2.96447 0
0.209559 2.89768 0
0.220787 2.95683 0
0.225708 3 0
0.129113 2.79184 0
0.140575 2.7337 0
0.148799 2.7251 0
0.14683 2.7889 0
0.149536 3 0
0.132932 2.91229 0
0.0410367 2.51338 0
0.154454 2.77927 0
0.137781 2.78087 0
0.135828 2.84677 0
0.139918 2.94713 0
0.14462 2.88815 0
0.132935 3 0
0.128936 2.95598 0
0.0957031 3 0
0.112703 2.87625 0
0.121993 2.90621 0
0.137637 2.88407 0
0.155127 2.8977 0
0.144791 2.83774 0
0.128048 2.8703 0
0.109863 3 0
0.15649 2.93569 0
0.161754 2.8774 0
0.113147 2.93948 0
0.120609 2.95782 0
0.11731 3 0
0.115928 2.90692 0
0.0995391 2.91157 0
0.104795 2.95492 0
0.106994 2.90844 0
0.103731 2.84919 0
0.0978218 2.95604 0
0.0812572 2.90203 0
0.0825195 3 0
0.0900339 2.91841 0
0.102661 3 0
0.114003 2.78719 0
0.0964341 2.86539 0
0.0868214 2.84659 0
0.0841503 2.94919 0
0.0755233 2.94983 0
0.0889893 3 0
0.11067 2.83002 0
0.119858 2.83948 0
0.103984 2.78369 0
0.0864126 2.88674 0
0.0762939 3 0
0.0650018 2.83327 0
0.0915231 2.96034 0
0.126657 2.83008 0
0.121375 2.79542 0
0.124142 2.71624 0
0.12472 2.758 0
0.131934 2.73365 0
0.136274 2.66777 0
0.130251 2.69303 0
0.141363 2.60793 0
0.140448 2.56519 0
0.126528 2.56188 0
0.133156 2.59113 0
0.120685 2.51423 0
0.133468 2.55215 0
0.130034 2.50858 0
0.101277 2.81595 0
0.0890786 2.68013 0
0.0488281 3 0
0.0718832 2.88184 0
0.10969 2.7046 0
0.0946363 2.74247 0
0.0758281 2.90896 0
0.059082 3 0
0.109274 2.75077 0
0.117044 2.74048 0
0.102111 2.72505 0
0.100635 2.64036 0
0.0961284 2.69448 0
0.103503 2.68113 0
0.100493 2.55011 0
0.112522 2.63431 0
0.10391 2.5088 0
0.111707 2.55781 0
0.109882 2.52146 0
0.0977548 2.77718 0
0.0670488 2.93726 0
0.119022 2.55541 0
0.115699 2.59456 0
0.0708013 2.96153 0
0.0426508 2.4599 0
0.0384158 2.47716 0
0.0454346 2.49603 0
0.0500394 2.65072 0
0.0465294 2.57574 0
0.0447063 2.53712 0
0.152986 2.85265 0
0.143639 2.68883 0
0.142597 2.64701 0
0.132374 2.63199 0
0.078297 2.84418 0
0.0829618 2.76697 0
0.0716502 2.8292 0
0.0766838 2.79301 0
0.0744525 2.71209 0
0.0773816 2.74966 0
0.0829367 2.71297 0
0.0675899 2.76281 0
0.0679867 2.80184 0
0.0827206 2.81198 0
0.089201 2.79114 0
0.0880274 2.73974 0
0.0801108 2.6438 0
0.0786948 2.68401 0
0.117561 2.67869 0
0.124193 2.67492 0
0.105275 2.59475 0
0.0652191 2.88613 0
0.0560799 2.862 0
0.058762 2.92983 0
0.0610597 2.86068 0
0.0645752 3 0
0.122864 2.59732 0
0.0656682 2.69522 0
0.0573348 2.77631 0
0.0583801 2.82082 0
0.0624946 2.79073 0
0.0536176 2.80602 0
0.0494206 2.7322 0
0.0502927 2.77437 0
0.0899199 2.60031 0
0.0974067 2.59599 0
0.0498845 2.91941 0
0.053833 3 0
0.0512983 2.96183 0
0.0625569 2.95961 0
0.0692959 2.72423 0
0.0708139 2.67908 0
0.0595557 2.62543 0
0.0617318 2.73771 0
0.0583231 2.68427 0
0.0626845 2.65988 0
0.0551027 2.64937 0
0.053484 2.58768 0
0.0517077 2.52599 0
0.0552106 2.48354 0
0.0526718 2.6931 0
0.054593 2.73614 0
0.0639506 2.47563 0
0.0593099 2.46582 0
0.0865643 2.63869 0
0.0934435 2.64385 0
0.0545172 2.9047 0
0.0493316 2.60897 0
0.0503787 2.56151 0
0.0604103 2.54236 0
0.0563289 2.52133 0
0.0765921 2.53479 0
0.0735799 2.45542 0
0.0586406 2.58278 0
0.0654424 2.59521 0
0.0655782 2.63152 0
0.0727469 2.58334 0
0.0754248 2.61962 0
0.0682318 2.53229 0
0.0749863 2.65714 0
0.0647079 2.55828 0
0.0725715 2.49984 0
0.0689658 2.47277 0
0.0637376 2.51391 0
0.0597082 2.5 0
0.78715 0.437006 0
0.774202 0.425671 0
0.28983 0.271068 0
0.406241 0.247495 0
0.200583 0.152829 0
0.159867 0.263274 0
0.939727 0.380123 0
0.953499 0.369965 0
0.164407 0.448533 0
0.343029 0.0407621 0
0.353464 0.0442594 0
0.341748 0.0360449 0
0.154671 0.68356 0
0.157244 0.665686 0
0.146512 0.677475 0
0.155767 0.70164 0
0.361749 0.54254 0
0.372959 0.552211 0
0.372483 0.523532 0
0.346342 0.532027 0
0.359708 0.508052 0
0.350565 0.549038 0
0.343585 0.511349 0
0.367046 0.496275 0
0.357547 0.525562 0
0.293091 0 0
0.294482 0.000240305 0
0.283005 0.00016883 0
0.269653 0 0
0.268002 0.000458472 0
0.25712 0.000661149 0
0.259959 0.000179191 0
0.273013 0.000145024 0
0.736596 0.0642329 0
0.745007 0.0708068 0
0.780365 0.0652612 0
0.764605 0.0697539 0
0.799903 0.0618439 0
0.782874 0.07657 0
0.804189 0.0725418 0
0.803252 0.0817423 0
0.788154 0.0706218 0
0.75271 0.0574387 0
0.762492 0.062966 0
0.779302 0.0567274 0
0.737654 0.0587987 0
0.765303 0.0544384 0
0.201945 0.0508548 0
0.598145 0 0
0.600234 0.000351064 0
0.615356 0 0
0.624069 0.000147022 0
0.581177 0 0
0.572795 0.000164765 0
0.588303 0.00015953 0
0.547974 0 0
0.466095 0.00667735 0
0.46038 0.00418473 0
0.444644 0.00701177 0
0.431898 0.00950247 0
0.444182 0.0110657 0
0.473505 0.00231133 0
0.455871 0.00780254 0
0.454531 0.00573595 0
0.433283 0.00751058 0
0.427899 0.012797 0
0.47147 0.00353095 0
0.439453 0 0
0.414468 0.0136234 0
0.426152 0.0166905 0
0.431457 0.000967979 0
0.411157 0.0014288 0
0.410645 0 0
0.394624 0.000918143 0
0.392895 0.000177981 0
0.454309 0.00234209 0
0.417338 0.0195749 0
0.435097 0.018964 0
0.399864 0.00158983 0
0.396606 0 0
0.437339 0.00208295 0
0.424184 0.00175421 0
0.428551 0.0031237 0
0.424062 0.00457286 0
0.411552 0.00543574 0
0.436552 0.00537759 0
0.48805 0.00302598 0
0.494646 0.00191794 0
0.415017 0.000376401 0
0.402605 0.000429929 0
0.419314 0.000902406 0
0.431573 0.000243596 0
0.469238 0 0
0.424927 0 0
0.484497 0 0
0.476832 0.000342149 0
0.489429 0.000454581 0
0.454223 0.000280603 0
0.469698 0.00102914 0
0.465938 0.000158767 0
0.442996 0.00015894 0
0.454224 0 0
0.450992 0.00103751 0
0.441768 0.000594112 0
2 0.703857 0
1.00486 1.17293 0
0.0672761 0.933015 0
1.95938 0.413641 0
2 0.40448 0
1.97001 0.396421 0
1.97254 0.428979 0
2 0.439636 0
0.0550774 0.287067 0
0.0592214 0.29358 0
0.0454511 0.278644 0
0.0490574 0.267529 0
0.0443126 0.264787 0
0.0502607 0.281498 0
0.0383952 0.276773 0
0.0335034 0.271859 0
0.0466593 0.297952 0
0.0482861 0.311527 0
0.0540433 0.306182 0
0.0389527 0.260955 0
0.0347267 0.285724 0
0.0415368 0.291003 0
0.0511662 0.295063 0
0.0353372 0.261727 0
0.0403459 0.303894 0
0.0579859 0.274379 0
1.69208 0.872535 0
1.66771 0.865749 0
1.85647 0.916776 0
1.82224 0.928524 0
1.83539 0.953009 0
1.82818 0.898422 0
1.83774 0.872564 0
1.79956 0.899372 0
1.7437 0.111172 0
1.29001 1.14928 0
1.26551 1.15047 0
1.27668 1.12174 0
1.25596 1.11974 0
1.31287 1.13684 0
1.29399 1.18131 0
1.31776 1.18015 0
1.79058 1.11708 0
1.83592 1.0838 0
1.81406 1.09972 0
1.84707 1.10973 0
1.8686 1.16867 0
1.85059 1.14143 0
1.83396 1.17094 0
1.822 1.20073 0
1.8614 1.20665 0
2 1.05762 0
1.81174 1.05694 0
1.88354 1.0461 0
1.86911 1.0103 0
1.84751 1.05167 0
2 1.00269 0
1.92232 0.960595 0
1.87924 0.951079 0
1.86653 1.07547 0
1.86252 1.03277 0
1.92693 1.01151 0
1.88213 0.981526 0
1.89812 1.00395 0
1.91964 0.986238 0
1.9607 0.990464 0
2 0.975769 0
1.85652 0.939473 0
1.96129 0.95644 0
2 0.84668 0
1.93197 0.89161 0
1.88816 0.869608 0
1.86229 0.864027 0
1.86776 0.890854 0
1.89934 0.915548 0
2 0.897217 0
1.93735 0.928031 0
1.91103 0.937891 0
1.92326 0.910896 0
1.93858 0.84179 0
1.90251 0.890923 0
1.96436 0.906634 0
2 0.871765 0
1.96731 0.85921 0
1.93788 0.866744 0
1.9601 0.88252 0
2 0.923035 0
1.97098 0.931742 0
1.89064 0.828217 0
1.89521 0.782803 0
1.85927 0.822994 0
1.87417 0.76639 0
1.8803 0.804581 0
1.84107 0.806692 0
1.90833 0.849628 0
1.92651 0.807552 0
1.86446 0.786654 0
1.91761 0.827946 0
2 0.797607 0
1.94735 0.76655 0
1.91068 0.748093 0
1.89227 0.72633 0
1.94594 0.715524 0
1.93357 0.694187 0
1.88547 0.707634 0
1.92134 0.727457 0
1.95016 0.740789 0
1.96742 0.696124 0
1.97184 0.755027 0
2 0.773621 0
2 0.726746 0
2 0.681335 0
1.97005 0.785555 0
1.97461 0.716538 0
1.97525 0.671088 0
1.94147 0.788316 0
1.96745 0.818079 0
1.97501 0.83853 0
1.94305 0.822186 0
1.91858 0.76955 0
1.91291 0.707751 0
0.934648 0.131146 0
0.322772 0.757876 0
0.334346 0.753951 0
0.311939 0.748776 0
0.000267459 0.836091 0
0.000130774 0.855234 0
0 0.871765 0
0.000200831 0.805734 0
0.000433981 0.790766 0
0 0.773621 0
0 0.82196 0
0.000905491 0.783518 0
0.00010749 0.823254 0
0.00067954 0.763266 0
0.000129208 0.785447 0
0.0467923 1.13302 0
0.0486959 1.15868 0
0.0427651 1.12991 0
0.051418 1.1294 0
0.00942099 0.686476 0
0.00823098 0.669221 0
0.00957459 0.65564 0
0 0.533936 0
0.000158628 0.553905 0
0.00056262 0.556195 0
0.000393206 0.528969 0
0.000264143 0.502547 0
8.28284e-05 0.569133 0
0.000733621 0.540046 0
0.000121207 0.535908 0
0.000533214 0.513367 0
0.000118884 0.491055 0
0 0.553894 0
0 0.514343 0
0.000102578 0.517649 0
0.0521548 0.0138664 0
0.247192 0 0
1.24877 1.7468 0
0.0014102 0.259522 0
0.0554342 0.000888769 0
1.91375 1.35906 0
2 1.35425 0
1.9589 1.38409 0
2 1.38593 0
1.95546 1.33506 0
1.9224 1.39833 0
1.90512 1.42298 0
1.88834 1.39095 0
1.87875 1.41728 0
1.94199 1.36056 0
1.97189 1.35838 0
2 1.32294 0
1.92362 1.32727 0
1.89208 1.32025 0
1.89082 1.5598 0
0.000698143 1.49743 0
0 1.48315 0
0.00027156 1.45257 0
0.000299538 1.42443 0
0.00102661 1.4539 0
0.000210589 1.49056 0
0 1.5163 0
0.00031561 1.54049 0
0.000372278 1.51306 0
0.000615438 1.46943 0
0.001986 1.49481 0
0.00107095 1.42384 0
0 1.61792 0
0.00201304 1.45656 0
0.00123795 1.4831 0
0.00132403 1.54781 0
0.00132203 1.51522 0
0 1.58368 0
0.00288568 1.42428 0
0.00246153 1.39811 0
0.00473659 0.483316 0
0.00367854 0.496376 0
0.00919274 0.0063451 0
1.65606 1.76726 0
1.66311 1.81632 0
1.64656 1.7947 0
1.70719 1.80081 0
1.71676 1.83565 0
1.72648 1.77031 0
1.74492 1.82328 0
1.75348 1.78022 0
1.68033 1.78689 0
1.68801 1.822 0
1.64926 1.73411 0
1.14738 2.15805 0
0.0011711 1.72932 0
0.00234346 1.7644 0
0.00334966 1.77286 0
0.00301409 1.7224 0
0.00200754 1.73252 0
0.000798918 1.80294 0
0.00165692 1.79765 0
0.00142838 1.76338 0
0 0.40448 0
0.000125859 0.398036 0
0.825865 2.51217 0
0.809995 2.48832 0
0.830796 2.46123 0
0.85988 2.50021 0
0.871571 2.46716 0
0.849883 2.46561 0
2 1.58368 0
0.768145 2.48938 0
0.756288 2.52283 0
0.773856 2.5288 0
0.890596 2.52618 0
0.902421 2.55348 0
0.902674 2.49808 0
0.866255 2.55896 0
0.882689 2.55646 0
0.872872 2.5248 0
0.845329 2.53797 0
0.826234 2.55704 0
0.832028 2.62615 0
0.814575 2.61574 0
0.847006 2.58771 0
0.870949 2.66369 0
0.896148 2.65258 0
0.869083 2.61096 0
0.888971 2.71429 0
0.85238 2.64013 0
0.844179 2.71626 0
0.853753 2.68087 0
0.866491 2.72105 0
0.853502 2.75834 0
0.820018 2.7686 0
0.88212 2.77797 0
0.902503 2.78158 0
0.835929 2.75122 0
0.819959 2.72346 0
0.886576 2.6201 0
0.907066 2.69091 0
0.803132 2.75019 0
0.832785 2.67242 0
0.803707 2.8006 0
0.861328 3 0
0.828616 2.8284 0
0.837348 2.79214 0
0.856502 2.90214 0
0.848199 2.85428 0
0.881867 2.85243 0
0.864786 2.83879 0
0.908068 2.89415 0
0.92485 2.88246 0
0.902832 3 0
0.92395 3 0
0.92348 2.94235 0
0.898295 2.94511 0
0.88517 2.90283 0
0.873638 2.95174 0
0.881958 3 0
0.820801 3 0
0.901289 2.85404 0
0.820565 2.90801 0
0.837986 2.89084 0
0.840942 3 0
0.841503 2.94491 0
0.821927 2.95385 0
0.798903 2.9345 0
0.795747 2.89095 0
0.786482 2.96178 0
0.856938 2.96199 0
0.815548 2.86327 0
1.31316 2.94591 0
1.37158 3 0
1.34343 2.92435 0
1.38267 2.93158 0
1.36393 2.91177 0
1.39758 3 0
1.41058 2.85431 0
1.38748 2.88257 0
1.38441 2.83182 0
1.40953 2.80065 0
1.43123 2.82617 0
1.47705 3 0
1.4538 2.91262 0
1.43631 2.87408 0
1.50102 2.94268 0
1.41389 2.91587 0
1.50403 3 0
1.48984 2.87885 0
1.41066 2.96087 0
1.43953 2.95696 0
1.52058 2.96437 0
1.45032 3 0
1.46713 2.95479 0
1.39028 2.78094 0
1.4804 2.91839 0
1.50887 2.9038 0
1.47382 2.83842 0
1.46026 2.87256 0
0.0033783 2.35279 0
0.00106286 2.36052 0
0.000965563 2.31143 0
0.0002971 2.35885 0
0.00197949 2.33291 0
0.000605522 2.33773 0
0.00320494 2.29271 0
0.00285633 2.32394 0
0.00717251 2.41395 0
0.000176386 2.42155 0
0.000164134 2.32075 0
0.00226697 2.26584 0
0.00173021 2.2966 0
0.00521721 2.31802 0
0.00599408 2.28422 0
0.00450944 2.27666 0
0.00950146 2.37636 0
0.000115079 2.38694 0
0 2.42157 0
0.000510491 2.51242 0
0.000588924 2.39643 0
0.000662164 2.45459 0
0.00145247 2.41243 0
0.000196117 2.47204 0
0.00120659 2.49186 0
0.00202913 2.64812 0
0.00133369 2.57283 0
0.0010345 2.53374 0
0.00233498 2.52724 0
0.00185979 2.49906 0
0.000887201 2.42335 0
0.00298279 2.4141 0
0.00183307 2.37434 0
0.00211781 2.42909 0
0.00522865 2.3771 0
0.0109981 2.35469 0
0.00860448 2.33654 0
0.0112963 2.47064 0
0.00270525 2.58973 0
0.00392312 2.47908 0
0.00271375 2.37998 0
0.00450163 2.34743 0
0.00390749 2.38822 0
0.00661793 2.34746 0
0.0114377 2.41622 0
0.00916706 2.41841 0
0.0142034 2.44551 0
0.0164953 2.42633 0
0.014231 2.40363 0
0.00205852 2.56253 0
0.00177916 2.60721 0
0.000524577 2.638 0
0.00101148 2.61246 0
0 2.54956 0
0.00029546 2.57469 0
0 2.50653 0
0.000160073 2.52798 0
0.00446921 2.65383 0
0.00296065 2.45413 0
0.00425352 2.5456 0
0.00763042 2.37736 0
0.000145051 2.61555 0
0 2.59296 0
0.00316286 2.63351 0
0.00447157 2.59922 0
0.00588508 2.62651 0
0.00758864 2.55028 0
0.00604699 2.57946 0
0.00783741 2.48095 0
0.00777612 2.59322 0
0.0159304 2.61118 0
0.0117047 2.56382 0
0.00944622 2.56803 0
0.01031 2.51882 0
0.0144763 2.51358 0
0.00957878 2.48548 0
0.0152741 2.47827 0
0.0122952 2.50477 0
0.00339024 2.51541 0
0.00309452 2.55382 0
0.00572132 2.45648 0
0.00490378 2.41899 0
0.00541381 2.5066 0
0.00604225 2.54126 0
0.00842056 2.51668 0
0.0146941 2.56397 0
0.0217562 2.54912 0
0.0178605 2.53552 0
0.0190001 2.58542 0
0.0206024 2.49732 0
0.0215134 2.70349 0
0.0244273 2.62342 0
0.0265841 2.50218 0
0.0225705 2.42176 0
0.0193967 2.41738 0
0.02371 2.37773 0
0.0206767 2.45534 0
0.0236096 2.47714 0
0.0206258 2.38129 0
0.0236008 2.51679 0
0.0268865 2.56621 0
0.028248 2.43549 0
0.0262424 2.40309 0
0.0327554 2.42989 0
0.0301091 2.3991 0
0.0192927 2.64802 0
0.0221089 2.59196 0
0.0250841 2.44346 0
0.00267117 2.48903 0
0.0280103 2.61 0
0.0308566 2.53139 0
0.0321465 2.58328 0
0.0390077 2.58315 0
0.0428051 2.63943 0
0.0299027 2.4947 0
0.0358191 2.52478 0
0.0355114 2.61767 0
0.0392563 2.62173 0
0.0389687 2.54521 0
0.0135608 2.719 0
0.0224273 2.66007 0
0.027612 2.70289 0
0.0275971 2.65609 0
0.0244875 2.69134 0
0.0455618 2.68866 0
0.0428824 2.59855 0
0.0421292 2.56338 0
0.0354982 2.56469 0
0.0172248 2.70154 0
0.0193352 2.68399 0
0.0162884 2.65718 0
0.011674 2.64315 0
0.0140311 2.63822 0
0.0125485 2.60351 0
0.0130748 2.6773 0
0.00917028 2.71395 0
0.0112859 2.70544 0
0.0162392 2.75909 0
0.0107288 2.82821 0
0.0114151 2.76719 0
0.0205116 2.76669 0
0.0248068 2.75091 0
0.00790759 2.78317 0
0.0138545 2.80871 0
0.0137183 2.76072 0
0.0192388 2.72942 0
0.0181712 2.77975 0
0.0221902 2.73862 0
0.0352883 2.8053 0
0.0420552 2.77109 0
0.036489 2.70386 0
0.0391135 2.66705 0
0.0346897 2.66234 0
0.0310134 2.68135 0
0.00978186 2.79188 0
0.0303601 2.76395 0
0.044587 2.73279 0
0.0408285 2.70779 0
0.02775 2.74103 0
0.00585153 2.72227 0
0.00641186 2.67434 0
0.0073912 2.70792 0
0.00655109 2.89024 0
0.0175781 3 0
0.015026 2.90698 0
0.0153911 2.8544 0
0.0123592 2.87507 0
0.00923652 2.88327 0
0.012207 3 0
0.00828182 2.83494 0
0.00808588 2.93863 0
0.012004 2.93705 0
0.0098877 3 0
0.0147705 3 0
0.0161404 2.95438 0
0.0239258 3 0
0.0213683 2.89576 0
0.0137752 2.96222 0
0.0185391 2.86456 0
0.0199658 2.95223 0
0.0226972 2.82856 0
0.0199438 2.83133 0
0.0109177 2.90306 0
0.0206299 3 0
0.0240928 2.94093 0
0.0231549 2.78691 0
0.0274846 2.81677 0
0.0274658 3 0
0.0258005 2.87594 0
0.0312633 2.80825 0
0.0337945 2.90333 0
0.0335168 2.85214 0
0.0293184 2.9398 0
0.0298722 2.88048 0
0.041691 2.87207 0
0.0378477 2.8447 0
0.0377123 2.88971 0
0.0395508 3 0
0.0420171 2.93823 0
0.0463017 2.95886 0
0.0422201 2.82149 0
0.0440674 3 0
0.0390313 2.79718 0
0.0377348 2.75032 0
0.033652 2.73761 0
0.0253259 2.84006 0
0.023058 2.86593 0
0.0335061 2.95506 0
0.0352783 3 0
0.0266643 2.96133 0
0.00996755 2.9552 0
0.0180372 2.91283 0
0.0265804 2.9161 0
0.0452366 2.90334 0
0.0491962 2.8673 0
0.0452587 2.85027 0
0.0524018 2.84254 0
0.0378141 2.95583 0
2 2.25604 0
1.97135 2.26002 0
1.97643 2.22768 0
0.247192 3 0
0.241747 2.93053 0
0.249473 2.90593 0
0.235088 2.89524 0
0.230841 2.93912 0
0.251197 2.95562 0
0.206272 2.62382 0
0.195798 2.54735 0
0.202634 2.66183 0
0.198491 2.59219 0
0.205734 2.55974 0
0.186488 2.58241 0
0.183594 2.52437 0
0.175914 2.534 0
0.193804 2.49201 0
0.17911 2.56757 0
0.185895 2.49069 0
0.203363 2.51373 0
0.208044 2.47305 0
0.211862 2.43729 0
0.187721 2.62005 0
0.262094 2.43259 0
0.26076 2.39646 0
0.54498 2.94977 0
0.547974 3 0
0.560311 2.95736 0
0.575032 2.96213 0
0.365441 2.38842 0
0.358974 2.35583 0
0.318572 2.53942 0
0.312731 2.50217 0
0.308688 2.56711 0
0.328387 2.56325 0
0.328971 2.49971 0
0.341253 2.5011 0
0.0154329 2.3544 0
0.118476 2.22502 0
0.0894664 2.52576 0
0.0931323 2.56194 0
0.0963441 2.51138 0
0.0716605 2.41457 0
0.0797469 2.4284 0
0.0819702 2.39237 0
0.0805096 2.48464 0
0.0828152 2.52551 0
0.0812436 2.58065 0
0.0868469 2.5632 0
0.355833 0.575479 0
0.36729 0.581275 0
0.344193 0.575669 0
1.93986 1.06409 0
1.90486 1.0798 0
1.93665 1.13928 0
1.91228 1.05329 0
1.93803 1.10134 0
1.90735 1.1091 0
1.88714 1.13822 0
2 1.11401 0
2 1.08563 0
1.97126 1.07155 0
1.91102 1.17189 0
1.91196 1.13271 0
1.96566 1.12115 0
1.96871 1.15468 0
1.97475 1.09682 0
2 1.2312 0
2 1.14276 0
1.96081 1.20136 0
1.97433 1.17936 0
1.9429 1.17277 0
2 1.20135 0
1.88803 1.19178 0
1.9418 1.24798 0
1.91424 1.24672 0
1.92792 1.21465 0
1.96817 1.23101 0
2 1.26141 0
1.96549 1.27664 0
1.9456 1.30276 0
1.9346 1.27583 0
1.97474 1.30743 0
1.87997 1.35553 0
0 1.45038 0
0.000124517 1.46659 0
0.00441664 1.52166 0
0.0049126 1.48091 0
0.00471068 1.57764 0
0.00638461 1.5106 0
0.00575474 1.5999 0
0.00627012 1.56752 0
0.00776653 1.52251 0
0.00565857 1.53829 0
0.00284485 1.55422 0
0.00217798 1.52754 0
0.00315624 1.50576 0
0.00373406 1.48201 0
0.00402218 1.55092 0
0.00170153 1.63745 0
0.0016703 1.68545 0
0.00280736 1.68322 0
0.00373687 1.64513 0
0.00421038 1.61127 0
0.00272328 1.61635 0
0.00328367 1.58586 0
0.0015562 1.59173 0
0.000443077 1.65986 0
0.000389106 1.60074 0
9.035e-05 1.60075 0
0.000110353 1.63813 0
0.000115693 1.56677 0
0 1.65253 0
0.000117596 1.67285 0
0 1.75854 0
0.0004495 1.70841 0
0.00257369 1.65089 0
0.00195254 1.56498 0
0.0010441 1.66074 0
0.000862448 1.62111 0
0.000938031 1.69473 0
0.000779256 1.5772 0
0.000694282 1.54767 0
0.00047597 1.75773 0
0.000853397 1.77373 0
0.00065363 1.73185 0
0.000118346 1.73552 0
0 1.72284 0
0.000167254 1.79974 0
0.00014938 1.76734 0
0.000438917 1.78693 0
0 1.79462 0
0.808216 2.5346 0
1.34583 3 0
1.33425 2.96321 0
0 2.81543 0
0.00972919 2.61425 0
0.0095246 2.66659 0
0.0029844 2.72625 0
0.00326835 2.68016 0
0.004291 2.71144 0
0.00446351 2.80648 0
0.0046844 2.75819 0
0.00626772 2.81621 0
0.00624207 2.76475 0
0.00195312 3 0
0.00681999 2.85211 0
0.0879972 2.47595 0
0.0907868 2.44349 0
0.0844575 2.44733 0
1.96585 1.03128 0
1.97496 1.00964 0
1.93633 1.03705 0
2 1.02997 0
0 2.72534 0
0.000958571 2.7246 0
0 2.68085 0
0.00026198 2.70304 0
0.000171724 2.6601 0
0.000207517 2.77019 0
0.000704601 2.68189 0
0.0014336 2.6855 0
0.00184589 2.72823 0
0.0010765 2.65162 0
0.00228784 2.69269 0
0.00128835 2.77349 0
0.00242722 2.77024 0
0.000607292 2.76438 0
0.00309679 2.80911 0
0.0027739 2.907 0
0.00351686 2.77147 0
0.00261333 2.8566 0
0.00438171 2.87381 0
0.00516739 2.84104 0
0.000117781 2.73327 0
0 2.7702 0
2 0.553894 0
1.97015 0.55006 0
0 1.26141 0
0.000131024 1.26557 0
8.69674e-05 1.24039 0
0 1.90503 0
0.000365096 1.8691 0
0.000707347 1.91291 0
0.00114189 1.87041 0
0.0015733 1.83632 0
0.000168916 1.90891 0
0.00125643 1.90133 0
0.00190358 1.87219 0
0.000727503 1.84042 0
0.00026633 1.83422 0
0 1.94257 0
0.000164216 1.95291 0
0 1.86786 0
0.000107609 1.87768 0
6.08632e-05 1.84767 0
0.00051335 2.86961 0
0.00138615 2.89007 0
0.000938595 2.82517 0
0.000327543 2.81909 0
0.000114443 2.8054 0
0.00096149 2.8628 0
0.000488281 3 0
0.00179466 2.94301 0
0.000721905 2.93789 0
0.00109863 3 0
0 2.90698 0
0.00118762 2.96135 0
0.000143605 2.95094 0
0.00039866 2.9628 0
0.000288116 2.91211 0
0 2.95331 0
0.00012207 3 0
0 2.86102 0
0.000153077 2.87459 0
0.00439453 3 0
0.00305176 3 0
0.0037159 2.9504 0
0.00262004 2.96173 0
0.00568482 2.95135 0
0.00598145 3 0
0.00704666 2.96681 0
0.00516218 2.91047 0
VECTORS displacementExact float
0 0 0
0 3 0
2 3 0
2 0 0
0.5 0.75 0
0.5 0 0
0 0.75 0
0.5 3 0
2 0.75 0
0.125 1.6875 0
1.125 0.1875 0
1.125 1.6875 0
0.125 0.75 0
0 1.6875 0
0.125 3 0
0.28125 2.29688 0
0.03125 2.29688 0
0.125 2.29688 0
0.28125 3 0
0.632813 1.98047 0
0.03125 1.6875 0
0.0703125 1.17188 0
0.03125 0.797607 0
0 0.1875 0
0 1.17188 0
0 0.421875 0
0.0175781 1.29199 0
0.0703125 0.292969 0
0.0138889 0.292969 0
0.0366753 0.498541 0
0 2.29688 0
0.03125 3 0
0.469238 2.37964 0
1.125 3 0
0.742676 1.2312 0
0.355957 1.48315 0
0.206633 1.1304 0
0.217951 1.49197 0
0.373429 1.04597 0
0.519735 1.28439 0
0.28125 0.682318 0
0.463789 0.1875 0
0.171411 0.436813 0
0.419554 0.427332 0
0.125 0 0
0.806978 0.445156 0
0.278672 0.262633 0
0.266488 0.0473983 0
0.602671 0.323407 0
1.125 0 0
0.758363 0.123244 0
0.872168 0.252708 0
1.03281 0.046875 0
0.527434 0.0481427 0
2 0.1875 0
1.53125 0 0
0.78125 0 0
1.51231 0.0707192 0
0.749147 0.0305801 0
0.28125 0 0
0.0863891 0.0712095 0
0.0211503 0.11963 0
0 0.046875 0
0.03125 0 0
0.0192428 0.0288643 0
1.53125 0.239593 0
1.2162 0.460148 0
2 0.421875 0
0.984521 0.814133 0
1.59847 0.574219 0
2 1.6875 0
1.48725 1.12487 0
1.65779 0.845126 0
2 1.17188 0
2 0.046875 0
0.151175 0.177438 0
0.153997 0.0244766 0
0.728346 0.705227 0
1.05507 1.21105 0
0.78125 3 0
0.945313 2.29688 0
0.827488 1.65253 0
1.53125 1.631 0
1.39444 2.31991 0
1.53125 3 0
2 2.29688 0
1.67859 2.04471 0
1.68764 2.53146 0
0.285461 1.8413 0
0.622466 0.191253 0
0.00929084 0.998019 0
0.0366448 1.01704 0
0.656876 0.0705297 0
2 0.949219 0
0.645865 1.5155 0
0.13348 1.33041 0
0 0.292969 0
0.0078125 1.5498 0
0.00981504 0.436854 0
0.0082609 0.189175 0
0.516739 0.998586 0
0.467978 0.300107 0
0.195313 0 0
0.585277 0.526351 0
0.796004 0.946886 0
0.176864 0.0837837 0
0.274655 0.133207 0
0.385499 0.0802521 0
1.00548 0.375836 0
0.982165 0.573538 0
0.945313 0 0
0.632813 0 0
0.863079 0.0677133 0
0 0.0117188 0
0.0366753 0.208161 0
0.00715482 0.0682122 0
0.0664999 0.014064 0
0.0405113 0.0647693 0
1.2996 0.824396 0
1.74089 1.07647 0
2 1.41797 0
2 2.63672 0
1.75055 1.74564 0
2 1.98047 0
1.75781 3 0
0.195313 2.0531 0
0.382077 2.07203 0
0.484995 1.72136 0
0.606977 0.0140023 0
0.0078125 0 0
1.13214 0.974214 0
1.1803 0.642646 0
0.0907731 0.452356 0
0.355957 2.63672 0
0.0665083 0.653342 0
0.632813 2.62418 0
0.808065 2.57906 0
0.268307 0.915558 0
0.297058 1.24043 0
0.372839 0.809654 0
0.28179 0.429819 0
0.182932 0.288293 0
1.68318 0.380247 0
2 0.292969 0
1.41962 0.368138 0
1.20585 0.304105 0
0.896727 1.37488 0
2 0.574219 0
1.29182 1.3837 0
0.95969 1.9175 0
1.16216 2.12799 0
1.13147 2.54361 0
1.37501 1.92519 0
1.32031 3 0
0.911616 0.0144697 0
0.0812792 0.156756 0
1.70403 1.37161 0
0.195313 2.63672 0
0.0078125 1.98047 0
1.6983 0.0184904 0
0.12607 1.00454 0
0.0703125 2.63672 0
0.0078125 2.63672 0
0.0703125 1.98047 0
0.0703125 1.48315 0
0.187277 0.616423 0
1.29681 0.0193493 0
1.32031 0 0
0.386582 0.014915 0
1.35979 0.145302 0
1.17074 0.0969504 0
1.70884 0.139811 0
0.00935925 0.636319 0
0.0169294 0.533112 0
1.36386 0.27114 0
1.84577 0.84668 0
1.78731 0.667146 0
0.0733059 0.872889 0
0.00439453 1.75854 0
0.00347222 0.347449 0
0.121734 0.578501 0
0 1.41797 0
0.0491032 0.118616 0
0.702672 2.29102 0
0.268676 1.0789 0
0.7667 1.44705 0
0.282261 1.42849 0
0.432588 0.923506 0
0.389352 0.601529 0
0.158203 0.00476069 0
0.237816 0.34261 0
0.360513 0.321528 0
0.362072 0.216081 0
0.386612 0.141169 0
0.982026 0.123226 0
1.2207 0.0042542 0
0.785684 0.00796991 0
0.00390064 0.0263672 0
0.0111706 0.00782185 0
0 0.105469 0
0.0425424 0.0295767 0
1.77246 0.237305 0
0.889434 1.13024 0
1.10988 0.535525 0
1.80246 0.495117 0
1.59071 0.991039 0
1.31307 1.02162 0
1.33643 1.19854 0
1.05564 1.44944 0
0.971752 1.64355 0
1.82487 1.23301 0
1.85998 2.46387 0
0.538134 0.238506 0
0.0380162 1.19964 0
0.53909 0.112849 0
0.00347222 0.255419 0
1.13491 0.380508 0
1.13742 0.792317 0
0.0366753 0.298789 0
1.37205 0.570487 0
1.82646 1.93642 0
1.64258 2.78997 0
1.43037 2.66648 0
0.12404 0.345219 0
0.632813 3 0
0.945313 3 0
0.211678 0.77857 0
0.224718 0.506317 0
0.216846 0.20262 0
1.8574 0.354492 0
1.04683 0.269266 0
0.964466 2.61568 0
0.0649071 0.215674 0
1.63107 1.20733 0
1.19709 0.047171 0
1.3305 0.076668 0
0.490766 0.0163852 0
1.42383 0.00562732 0
1.47615 0.0287226 0
0 0.574219 0
0.0844745 1.01948 0
0.00347222 1.29199 0
0.57397 2.23863 0
0.508318 1.99122 0
0.819343 2.32172 0
0.475739 0.533476 0
0.34785 0.491653 0
1.07412 0.0143135 0
0.00495268 0.121803 0
0.0319078 0.00797518 0
0.980291 0.986028 0
1.18954 1.13574 0
0.47065 0.0796443 0
0.642803 0.125395 0
0.0268613 0.392308 0
1.47906 0.722954 0
1.48603 0.474268 0
1.2873 2.52538 0
0.111696 0.242465 0
0.72526 2.76185 0
0.205929 0.133439 0
0.974183 0.194249 0
0.00383695 0.530573 0
1.4581 0.878722 0
1.2207 2.77624 0
0.121471 0.113866 0
0.720197 0.262695 0
0.71413 0.364286 0
0.784736 0.191129 0
0.303369 2.06479 0
0.204649 2.3358 0
1.2112 1.88735 0
1.31999 1.64703 0
0.0352783 1.45038 0
0.371435 2.347 0
0.457111 2.69229 0
0.269653 2.68085 0
0.629956 1.30487 0
0.150184 1.15576 0
0 0.949219 0
0.00634558 0.806957 0
0.379378 1.78929 0
0.453119 1.13932 0
0.382735 1.27744 0
0.189153 1.31179 0
0.52908 1.50432 0
0.842981 0.786166 0
0.19954 0.0441824 0
0.239388 0.011141 0
0.305854 0.0205935 0
0.871221 0.348758 0
1.53125 0.160072 0
1.54709 1.86727 0
1.75603 0.0670543 0
2 0.105469 0
0.621909 0.851311 0
0.645547 1.05863 0
0.697169 1.74671 0
0.587204 1.69998 0
0.786456 1.99924 0
0.0900367 1.32294 0
0.157407 1.51479 0
0.194061 1.75486 0
0.131138 0.0561801 0
0.305342 0.0833766 0
0.930752 0.464145 0
0.827141 0.587671 0
0.70689 0.529291 0
1.83 1.53605 0
0.12675 1.98047 0
0.064684 0.530452 0
0.382813 3 0
1.55548 0.321892 0
1.02623 2.112 0
1.30652 2.12692 0
0.0762939 1.72284 0
0.0329993 0.639197 0
1.27236 0.204015 0
0.160614 0.871186 0
0.285407 0.555256 0
0.0566158 0.391382 0
0.206573 0.963551 0
0.03125 1.98047 0
0.125 2.63672 0
0.0703125 3 0
0.0078125 2.29688 0
0.0703125 2.29688 0
0.03125 2.63672 0
0.602828 0.673569 0
1.75781 0 0
1.58088 2.28553 0
0.52665 0.412473 0
0.0703125 0 0
0.195313 3 0
0 1.98047 0
2 0.0117188 0
1.82578 0.00595319 0
0.0078125 3 0
0 2.63672 0
0.382813 0 0
1.49066 1.38252 0
0.300274 1.62727 0
0.00354746 1.12454 0
0.00209556 1.00155 0
0.0140576 1.13684 0
0.0204958 1.03014 0
0.0180188 0.889956 0
0.330205 2.21874 0
1.86756 0.74398 0
0.0854462 0.363815 0
0.245789 2.12796 0
0.23645 1.93635 0
0.568662 1.38485 0
0.0564022 1.32294 0
0.00249649 0.422046 0
0 1.83105 0
0.106307 1.14784 0
0.705078 3 0
0.881391 1.00029 0
0.314609 0.994998 0
0.324442 1.12154 0
0.362824 0.924133 0
0.44867 1.27674 0
0.438697 0.806139 0
0.502699 0.87083 0
0.435097 0.687195 0
0.228179 0.274546 0
1.04067 0.459075 0
0.236765 0.0869578 0
0.217704 0.417491 0
0.185211 0.360596 0
0.425867 0.0411932 0
0.866595 0.144688 0
0.70128 0.205001 0
1.64779 0.197835 0
0.875913 0.0029291 0
0.293916 0.00513287 0
0.330078 0 0
0 0.143555 0
0.0175781 0 0
0.063217 0.0473308 0
0.0517876 0.167124 0
0.0313879 0.156512 0
1.7392 0.30651 0
1.86361 0.282742 0
1.65054 0.259048 0
1.05993 1.07314 0
1.55203 0.399974 0
1.86799 0.427021 0
1.59356 1.32685 0
1.43578 1.75916 0
2 1.29199 0
0.187347 0.170866 0
0.202391 0.00401387 0
0.236328 0 0
0.109495 0.0114197 0
1.20089 2.34323 0
1.06844 2.33516 0
0.767787 2.17205 0
0.873989 2.12584 0
1.08272 1.92293 0
1.02244 1.78469 0
1.62233 1.73778 0
1.55972 2.61464 0
2 1.83105 0
0.161108 1.66358 0
0.153559 1.83919 0
0.60082 0.0931838 0
0.0507826 1.10231 0
1.84769 0.978113 0
1.87626 1.10403 0
0.109608 1.49459 0
0.011433 0.0974909 0
0 0.237305 0
0.580654 1.1683 0
0.618214 0.253543 0
0.113733 0.0804045 0
0.458835 0.124717 0
0.339905 0.0467734 0
0.0245668 0.251433 0
0.0905883 0.20321 0
0.0488281 0 0
1.85555 1.37983 0
1.82026 2.73038 0
2 1.5498 0
2 2.13574 0
0.630758 1.8223 0
0.697474 0.0137259 0
0.65021 0.0039855 0
0.556882 0.00316888 0
1.0503 0.900278 0
0.00278779 0.00959998 0
0.242588 1.30626 0
0.340858 0.400392 0
0.296662 0.338635 0
1.34752 0.469374 0
0.704807 1.35198 0
1.22674 1.72879 0
1.38919 1.31588 0
1.49146 2.0829 0
0.0143893 1.69756 0
0.0227206 1.83105 0
0.0204243 1.54325 0
1.87695 0 0
1.18394 0.0157228 0
1.32269 0.00314961 0
1.46801 0.112156 0
1.61018 0.102049 0
0 0.495117 0
1.41041 0.201893 0
1.31164 0.333968 0
0 0.354492 0
0.0116189 0.361141 0
0.0924636 0.538225 0
0.00916884 1.39657 0
0.198421 0.0207697 0
0.347009 0.108884 0
0.825768 0.0207489 0
1.54513 0.807264 0
1.63021 0.697104 0
0.535699 0.299117 0
0.0317412 1.31904 0
0.00204472 0.202464 0
1.48353 0.55723 0
0.166032 0.753124 0
0.179214 0.522778 0
0.238167 0.612125 0
1.04268 0.158417 0
0.948958 0.299186 0
0.0581825 0.975383 0
0.0479366 0.86523 0
0.0614724 0.763524 0
0.0907551 0.774979 0
0.106925 0.887494 0
0 1.29199 0
1.11148 0.00379038 0
0.0118504 0.145821 0
0.00196573 0.0882356 0
1.1671 1.30359 0
1.40038 0.79138 0
0.64976 2.80895 0
0.550172 2.77116 0
0.16098 0.123208 0
1.354 0.91696 0
1.33515 2.79023 0
0.793261 0.374028 0
0.343009 1.93088 0
0.665069 1.18329 0
0.393989 1.15591 0
0.2571 0.025626 0
0.799676 0.29843 0
0.540145 1.83326 0
0.857543 0.508614 0
1.66922 1.54734 0
1.86681 1.67896 0
1.17864 0.239378 0
0.166355 1.02859 0
0.328036 0.621765 0
0.333549 0.724846 0
0.285719 0.797279 0
0.227521 0.871699 0
0.00195313 1.90503 0
2 0.00292969 0
0.245678 1.70254 0
0.326534 1.75284 0
0.435515 0.0223566 0
0.89497 0.102348 0
0.987365 0.0789392 0
1.06657 0.101332 0
0.877691 0.194813 0
0.701416 0.155017 0
0.0202856 0.00300779 0
0.12428 0.00321588 0
0.0834849 0.00382218 0
0.090479 0.0297847 0
0.537964 0.0767564 0
1.71487 0.951815 0
0.0877317 1.58948 0
0.517429 1.11689 0
1.87695 3 0
2 2.81543 0
1.82419 2.16056 0
0.705078 0 0
1.23879 0.385797 0
0.00191516 0.155422 0
0.147175 0.65569 0
0.0318659 0.912543 0
0.0424449 0.719765 0
0.0983359 0.661945 0
0.544255 2.5175 0
0.101974 0.0493379 0
1.74172 2.33236 0
0.11433 0.161092 0
0.0488281 1.58368 0
0.413001 2.51603 0
0.225708 2.81543 0
0.00266049 0.703375 0
0.00186197 0.610931 0
0.0335066 0.0955271 0
0.432913 1.92441 0
0.645027 2.1572 0
0.850339 1.50301 0
0.159186 2.45913 0
0.129011 0.474614 0
0.466422 0.37154 0
0.675541 0.620807 0
0.0873168 0.110225 0
0.527176 0.48657 0
0.441347 0.00371699 0
0.00239213 0.0484207 0
0.911686 0.675992 0
1.20266 0.883181 0
0.646453 0.44026 0
0.993077 1.32786 0
0.317577 2.46368 0
0.0160939 0.735905 0
0.437105 1.54178 0
0.472342 1.41217 0
0.38161 1.62556 0
0.695428 0.93671 0
0.704682 0.815125 0
0.404506 0.266881 0
0.174334 0.22506 0
0.332167 0.265708 0
0.325233 0.165071 0
0.269571 0.18713 0
1.04791 0.685691 0
0.00962986 0.0414153 0
0.0203482 0.0627062 0
1.38991 1.49716 0
0.495387 2.18568 0
0.570204 2.06799 0
0.24691 2.47319 0
0.439453 3 0
0.626084 2.40658 0
1.06755 2.76389 0
0.973113 2.80854 0
0.709783 1.91352 0
0.789248 1.81468 0
0.864144 1.90993 0
0.70759 2.06989 0
0.331614 1.35037 0
0.518766 0.630462 0
0.141272 0.281664 0
0.957989 1.49007 0
1.85684 0.580546 0
0.891479 2.46864 0
0.99161 0.0251401 0
0.0601067 0.0829543 0
1.42383 0 0
0.0494404 1.82648 0
1.40067 0.0167331 0
0.551966 0.0260013 0
0.641263 0.0361122 0
1.3235 0.0429758 0
1.43157 0.050022 0
0.810635 1.32073 0
0.723929 1.58759 0
0.404353 0.183554 0
0 0.0263672 0
1.18471 1.50854 0
1.05647 1.58752 0
1.23214 0.734825 0
1.11293 0.0665101 0
1.23092 0.0720416 0
1.27841 0.111773 0
1.18664 0.142075 0
1.58524 0.00579842 0
1.5742 0.0183126 0
1.7038 0.00302247 0
0.409375 0.512376 0
1.11392 0.031378 0
0.0988795 0.300448 0
0.67356 0.309699 0
0.164796 2.21223 0
0.397985 2.79165 0
0.317505 2.81543 0
0 0.84668 0
0.590984 0.963342 0
0.74434 1.0745 0
0.815208 0.68527 0
0.102749 1.83422 0
0.571787 0.768104 0
0.900783 0.879405 0
1.49666 2.43613 0
0.0519527 0.00418095 0
0.00195313 0 0
0.592776 0.390599 0
0.407222 1.40553 0
0.778265 0.845524 0
0.42415 2.22305 0
0.900547 1.75474 0
0.897646 0.0378852 0
1.34802 0.680036 0
0.00208407 0.885626 0
0.0957031 2.46387 0
0.0957031 2.81543 0
0.00195313 2.46387 0
0.0957031 2.13574 0
0 1.5498 0
0.00195313 2.13574 0
0.0175781 2.46387 0
0.757206 0.0767601 0
1.2465 0.554067 0
0.0488281 2.46387 0
0.0175781 2.81543 0
0.00195313 2.81543 0
2 0.0732422 0
0.71327 2.50737 0
1.83589 0.175672 0
2 0.143555 0
1.85171 0.122167 0
1.87005 0.0839619 0
0.541295 0.166117 0
1.83207 0.0349371 0
2 0.0263672 0
1.87678 0.0172863 0
0.0488281 2.13574 0
0.0175781 2.13574 0
0.158203 2.81543 0
0.0488281 2.81543 0
0.356075 0.00383671 0
1.64879 0.474286 0
0.990274 0.00449361 0
0.85484 2.8054 0
1.62536 0.044091 0
0.759369 0.333155 0
0.753655 0.366283 0
0.735017 0.346941 0
0.733857 0.363844 0
0.725991 0.435646 0
0.738074 0.399668 0
0.741074 0.381079 0
0.715832 0.387267 0
0.769958 0.39417 0
0.759222 0.381222 0
0.773642 0.369006 0
0.793729 0.343509 0
0.766842 0.350755 0
0.788134 0.358551 0
0.751467 0.345239 0
0.776558 0.338086 0
0.795172 0.320452 0
0.714158 0.412316 0
0.652564 0.379425 0
0.722362 0.400105 0
0.684699 0.377478 0
0.702468 0.376422 0
0.720934 0.308873 0
0.833419 0.333392 0
0.82157 0.358545 0
0.765022 0.305459 0
0.733559 0.417905 0
0.765973 0.440217 0
0.757452 0.41318 0
0.746493 0.432974 0
0.790899 0.417807 0
0.775106 0.409572 0
0.685745 0.4396 0
0.694055 0.398512 0
0.669731 0.395385 0
0.693074 0.419389 0
0.668666 0.380283 0
0.669233 0.343986 0
0.673098 0.36196 0
0.693732 0.359386 0
0.639427 0.408317 0
0.705431 0.434851 0
0.706506 0.480906 0
0.700744 0.457708 0
0.742468 0.469313 0
0.749865 0.451502 0
0.665635 0.42135 0
0.651872 0.396187 0
0.666465 0.470599 0
0.721036 0.464945 0
0.715442 0.4489 0
0.679729 0.426152 0
0.686914 0.473421 0
0.678699 0.456618 0
0.671642 0.510829 0
0.665979 0.441431 0
0.689567 0.496514 0
0.655281 0.456086 0
0.606282 0.474659 0
0.636661 0.48332 0
0.649721 0.472425 0
0.65567 0.494614 0
0.690395 0.517339 0
0.665882 0.564824 0
0.684839 0.544991 0
0.712079 0.504763 0
0.626319 0.527839 0
0.672879 0.488342 0
0.777419 0.532417 0
0.728616 0.488101 0
0.636885 0.506839 0
0.742002 0.524416 0
0.617413 0.495226 0
0.652094 0.529935 0
0.723488 0.520182 0
0.736296 0.505714 0
0.764274 0.507107 0
0.591643 0.498077 0
0.655137 0.512271 0
0.603865 0.490046 0
0.735285 0.325808 0
0.752659 0.317932 0
0.742101 0.301478 0
0.70241 0.3318 0
0.708302 0.347842 0
0.720595 0.335762 0
0.715117 0.322129 0
0.697048 0.309385 0
0.762977 0.271553 0
0.720258 0.28532 0
0.685513 0.322847 0
0.66439 0.325971 0
0.68588 0.338185 0
0.6343 0.303833 0
0.632229 0.342053 0
0.652824 0.311294 0
0.650922 0.338163 0
0.635127 0.322737 0
0.646345 0.358675 0
0.757891 0.288466 0
0.726824 0.296869 0
0.684715 0.282789 0
0.655345 0.286973 0
0.648594 0.298619 0
0.618545 0.313741 0
0.604112 0.282895 0
0.598128 0.302671 0
0.618989 0.330584 0
0.595398 0.355906 0
0.613237 0.347951 0
0.597761 0.339221 0
0.615728 0.37458 0
0.631464 0.388685 0
0.563997 0.32188 0
0.609194 0.36158 0
0.595718 0.373167 0
0.62773 0.361207 0
0.582976 0.326819 0
0.547736 0.365316 0
0.590563 0.314647 0
0.572211 0.364887 0
0.56779 0.3431 0
0.583372 0.345872 0
0.658713 0.366623 0
0.778976 0.292641 0
0.740444 0.276615 0
0.685018 0.297687 0
0.7043 0.29462 0
0.671171 0.290368 0
0.616396 0.296065 0
0.630492 0.276266 0
0.618795 0.283812 0
0.612782 0.268536 0
0.575787 0.251765 0
0.596553 0.256604 0
0.567618 0.285238 0
0.577819 0.300499 0
0.612163 0.393428 0
0.596597 0.432112 0
0.599685 0.410618 0
0.637 0.373925 0
0.537651 0.336925 0
0.55974 0.35586 0
0.552047 0.34258 0
0.725011 0.273883 0
0.702753 0.27307 0
0.663225 0.300715 0
0.59933 0.220529 0
0.580633 0.269772 0
0.596695 0.270848 0
0.589538 0.290134 0
0.556501 0.301246 0
0.575676 0.313628 0
0.562597 0.4125 0
0.620274 0.424632 0
0.679517 0.238067 0
0.603557 0.238483 0
0.580443 0.281319 0
0.544062 0.316435 0
0.580726 0.405991 0
0.571569 0.386183 0
0.577307 0.426365 0
0.545284 0.449091 0
0.578996 0.458981 0
0.558403 0.43308 0
0.58342 0.442211 0
0.598003 0.455687 0
0.623862 0.454301 0
0.61566 0.409024 0
0.69612 0.253424 0
0.640881 0.228831 0
0.579757 0.232375 0
0.589474 0.244927 0
0.551037 0.328556 0
0.58142 0.375741 0
0.560085 0.375107 0
0.538978 0.389428 0
0.544471 0.419013 0
0.549254 0.402527 0
0.529717 0.434414 0
0.562592 0.451638 0
0.550759 0.476833 0
0.610283 0.442963 0
0.619048 0.227069 0
0.593743 0.230459 0
0.47332 0.432899 0
0.52385 0.45983 0
0.620815 0.240164 0
0.632744 0.209352 0
0.50124 0.427972 0
0.532224 0.448629 0
0.615231 0.213822 0
0.619337 0.202457 0
0.573292 0.190419 0
0.597525 0.193694 0
0.599092 0.20687 0
0.631076 0.220222 0
0.516435 0.42536 0
0.511275 0.444873 0
0.489669 0.449307 0
0.487502 0.432856 0
0.485382 0.397955 0
0.480346 0.415698 0
0.505764 0.40464 0
0.460121 0.398566 0
0.47276 0.403145 0
0.474258 0.386026 0
0.503195 0.357931 0
0.485941 0.368699 0
0.452194 0.482704 0
0.494316 0.41401 0
0.520904 0.39368 0
0.502653 0.382071 0
0.477382 0.333394 0
0.467524 0.460496 0
0.488755 0.383258 0
0.497397 0.394378 0
0.521684 0.370363 0
0.486672 0.349499 0
0.507871 0.327144 0
0.467108 0.350669 0
0.493373 0.334515 0
0.506564 0.342524 0
0.521298 0.335968 0
0.489963 0.310302 0
0.524377 0.317332 0
0.520033 0.352973 0
0.533229 0.360401 0
0.4762 0.448317 0
0.508682 0.370045 0
0.515196 0.381708 0
0.445206 0.324491 0
0.510634 0.29764 0
0.459854 0.333976 0
0.468079 0.317839 0
0.481168 0.320394 0
0.453192 0.308993 0
0.441189 0.273084 0
0.418992 0.300173 0
0.451323 0.289412 0
0.434869 0.308875 0
0.432806 0.359712 0
0.448539 0.349557 0
0.509739 0.31226 0
0.522694 0.304183 0
0.433112 0.289002 0
0.444039 0.299905 0
0.417641 0.333044 0
0.448411 0.36924 0
0.422016 0.273572 0
0.43318 0.340747 0
0.429989 0.323887 0
0.415996 0.316287 0
0.386424 0.301691 0
0.393366 0.327344 0
0.402717 0.305115 0
0.406253 0.325831 0
0.426904 0.392997 0
0.456075 0.382839 0
0.440442 0.384398 0
0.427438 0.375608 0
0.408379 0.358145 0
0.401273 0.3423 0
0.420283 0.363347 0
0.37315 0.351378 0
0.420858 0.347825 0
0.386023 0.342419 0
0.376474 0.326525 0
0.389037 0.365689 0
0.407478 0.285194 0
0.392712 0.313465 0
0.371993 0.309304 0
0.364715 0.272957 0
0.349641 0.295357 0
0.372316 0.289908 0
0.35874 0.306319 0
0.365379 0.337118 0
0.330209 0.343662 0
0.347034 0.336145 0
0.34122 0.314801 0
0.420295 0.286426 0
0.396476 0.292813 0
0.384821 0.273142 0
0.359574 0.286003 0
0.34759 0.272777 0
0.346794 0.368006 0
0.357255 0.353491 0
0.33527 0.328836 0
0.31102 0.305188 0
0.316078 0.327538 0
0.349482 0.323326 0
0.396905 0.277475 0
0.374657 0.278232 0
0.356371 0.244019 0
0.333628 0.285639 0
0.342092 0.35184 0
0.356223 0.259626 0
0.376798 0.251966 0
0.341629 0.251613 0
0.365036 0.25185 0
0.344494 0.284414 0
0.311008 0.277614 0
0.337026 0.300178 0
0.323063 0.296665 0
0.321867 0.282914 0
0.312183 0.291237 0
0.288992 0.287111 0
0.299553 0.296717 0
0.323016 0.313053 0
0.299986 0.282628 0
0.298396 0.25901 0
0.280356 0.315348 0
0.297277 0.317238 0
0.287806 0.302589 0
0.338088 0.225657 0
0.318023 0.244037 0
0.304589 0.328209 0
0.288005 0.32742 0
0.263746 0.344105 0
0.280631 0.348758 0
0.344116 0.237849 0
0.356026 0.229212 0
0.330151 0.237305 0
0.37109 0.236216 0
0.328497 0.252131 0
0.314938 0.260667 0
0.405116 0.23331 0
0.307374 0.250253 0
0.295347 0.212731 0
0.288356 0.235974 0
0.296079 0.245862 0
0.28371 0.249229 0
0.314528 0.221776 0
0.302432 0.2312 0
0.248939 0.225746 0
0.319801 0.232164 0
0.267597 0.234273 0
0.277643 0.238804 0
0.278689 0.219373 0
0.306051 0.266997 0
0.388314 0.239002 0
0.421248 0.250087 0
0.303728 0.219811 0
0.292739 0.224513 0
0.393154 0.254542 0
0.388149 0.214105 0
0.416505 0.261854 0
0.432023 0.26078 0
0.480573 0.238381 0
0.457827 0.252757 0
0.446152 0.260442 0
0.463989 0.272262 0
0.383654 0.261332 0
0.381607 0.226421 0
0.394968 0.224818 0
0.421837 0.207487 0
0.405188 0.212255 0
0.375054 0.215739 0
0.377987 0.191254 0
0.368126 0.202494 0
0.381831 0.20295 0
0.349425 0.180521 0
0.393571 0.19361 0
0.361955 0.189155 0
0.409951 0.196949 0
0.452706 0.277423 0
0.465449 0.286085 0
0.492201 0.276559 0
0.477369 0.277936 0
0.486431 0.292911 0
0.48264 0.258019 0
0.418238 0.222694 0
0.395467 0.204681 0
0.341069 0.201868 0
0.354389 0.205123 0
0.344759 0.214208 0
0.327984 0.212118 0
0.435038 0.186897 0
0.497465 0.29981 0
0.419634 0.236202 0
0.440232 0.241127 0
0.34913 0.19231 0
0.318538 0.188268 0
0.309949 0.203208 0
0.333863 0.188968 0
0.326972 0.223325 0
0.424386 0.195277 0
0.419948 0.182842 0
0.441327 0.153143 0
0.434134 0.169162 0
0.442617 0.219093 0
0.431756 0.22832 0
0.442583 0.202063 0
0.317129 0.211165 0
0.323598 0.199885 0
0.335169 0.175191 0
0.429542 0.216745 0
0.469719 0.210455 0
0.449171 0.191013 0
0.458278 0.201386 0
0.451223 0.175927 0
0.455375 0.21322 0
0.466592 0.226566 0
0.355051 0.152406 0
0.321891 0.176482 0
0.290931 0.163052 0
0.302017 0.17787 0
0.439116 0.177777 0
0.492868 0.159902 0
0.448671 0.163761 0
0.471426 0.167279 0
0.464805 0.24016 0
0.471334 0.250863 0
0.452002 0.231952 0
0.341708 0.161535 0
0.37037 0.168712 0
0.465203 0.17673 0
0.356071 0.164616 0
0.346583 0.170587 0
0.359899 0.174666 0
0.372037 0.180327 0
0.388239 0.180446 0
0.402693 0.159818 0
0.411274 0.171137 0
0.423093 0.173428 0
0.421014 0.159056 0
0.39637 0.170398 0
0.384268 0.159409 0
0.383173 0.170443 0
0.433156 0.15992 0
0.41057 0.142663 0
0.393753 0.150773 0
0.369344 0.15634 0
0.379482 0.149702 0
0.411287 0.152312 0
0.426481 0.146832 0
0.44476 0.137064 0
0.438407 0.144506 0
0.811033 0.332528 0
0.811115 0.346748 0
0.823561 0.311716 0
0.784291 0.307776 0
0.774083 0.321749 0
0.648227 0.42299 0
0.701301 0.585587 0
0.637258 0.558071 0
0.665941 0.543823 0
0.676166 0.528701 0
0.650229 0.54763 0
0.751068 0.489298 0
0.787418 0.476839 0
0.770367 0.461619 0
0.771089 0.48843 0
0.758965 0.474232 0
0.797656 0.506888 0
0.787425 0.493371 0
0.790664 0.457379 0
0.760291 0.525255 0
0.748948 0.575629 0
0.759795 0.551429 0
0.731314 0.55186 0
0.787761 0.580179 0
0.745587 0.559053 0
0.768973 0.570791 0
0.787743 0.554853 0
0.810246 0.567427 0
0.804713 0.533087 0
0.806567 0.588284 0
0.77608 0.639545 0
0.818019 0.632151 0
0.786923 0.610652 0
0.817384 0.608523 0
0.764103 0.597693 0
0.802762 0.62074 0
0.850083 0.550354 0
0.791257 0.522518 0
0.804571 0.550602 0
0.82718 0.55212 0
0.84003 0.569771 0
0.836629 0.526413 0
0.883398 0.616091 0
0.85751 0.596646 0
0.838334 0.606247 0
0.779902 0.595085 0
0.729718 0.608403 0
0.768289 0.61906 0
0.749193 0.612325 0
0.742124 0.593891 0
0.722079 0.586659 0
0.732154 0.655981 0
0.712555 0.564707 0
0.735997 0.631633 0
0.714613 0.545953 0
0.6923 0.565477 0
0.704982 0.629653 0
0.753994 0.647864 0
0.720723 0.624149 0
0.710131 0.60526 0
0.689834 0.604485 0
0.666395 0.593472 0
0.682663 0.583391 0
0.858746 0.530098 0
0.908296 0.561916 0
0.880112 0.550576 0
0.827676 0.496703 0
0.808328 0.485062 0
0.836235 0.464068 0
0.810744 0.464805 0
0.826038 0.478902 0
0.852308 0.483847 0
0.817532 0.515648 0
0.821854 0.535595 0
0.751646 0.682679 0
0.648229 0.57948 0
0.839543 0.509402 0
0.895733 0.48876 0
0.888131 0.51779 0
0.746603 0.664601 0
0.730493 0.680408 0
0.702369 0.665417 0
0.709821 0.690332 0
0.718617 0.66695 0
0.653315 0.701186 0
0.690816 0.750349 0
0.680429 0.689017 0
0.705526 0.722584 0
0.695264 0.682506 0
0.771861 0.666849 0
0.594102 0.602951 0
0.878796 0.450796 0
0.873001 0.49285 0
0.880247 0.472072 0
0.905212 0.467548 0
0.859349 0.462462 0
0.844789 0.425083 0
0.846221 0.445355 0
0.865456 0.434079 0
0.82654 0.4362 0
0.919586 0.414412 0
0.819568 0.410375 0
0.808786 0.426701 0
0.823292 0.45232 0
0.894699 0.428876 0
0.782306 0.709884 0
0.799408 0.658071 0
0.619032 0.585113 0
0.914271 0.445112 0
0.770819 0.690221 0
0.754465 0.717702 0
0.792819 0.687292 0
0.783699 0.655024 0
0.632615 0.575654 0
0.638343 0.62215 0
0.63665 0.598472 0
0.652987 0.608675 0
0.895735 0.444629 0
0.913404 0.429196 0
0.6059 0.517219 0
0.620446 0.511879 0
0.657933 0.259199 0
0.639641 0.249132 0
0.632509 0.261991 0
0.659214 0.24314 0
0.64556 0.239055 0
0.587391 0.477502 0
0.568944 0.47605 0
0.560856 0.507817 0
0.560278 0.490269 0
0.542663 0.499799 0
0.575042 0.498371 0
0.51298 0.52966 0
0.524586 0.510071 0
0.491082 0.492723 0
0.544019 0.542278 0
0.546348 0.520684 0
0.564505 0.53445 0
0.509682 0.495698 0
0.530025 0.529839 0
0.571717 0.519337 0
0.564398 0.577702 0
0.512551 0.475298 0
0.498176 0.514473 0
0.581976 0.555929 0
0.558774 0.555845 0
0.502454 0.460498 0
0.485944 0.470973 0
0.48003 0.510888 0
0.471329 0.488353 0
0.454692 0.514836 0
0.467854 0.518986 0
0.494638 0.538737 0
0.577569 0.540097 0
0.606294 0.546792 0
0.617383 0.563615 0
0.624256 0.546373 0
0.498571 0.478295 0
0.473712 0.473437 0
0.459417 0.497877 0
0.475022 0.59839 0
0.612296 0.531794 0
0.480273 0.565563 0
0.483131 0.548157 0
0.623043 0.472259 0
0.629852 0.438348 0
0.728487 0.230115 0
0.559729 0.23964 0
0.546929 0.26398 0
0.555802 0.212647 0
0.578242 0.213842 0
0.562769 0.270543 0
0.560762 0.257017 0
0.546402 0.250154 0
0.546231 0.282501 0
0.515326 0.257555 0
0.529616 0.250434 0
0.508966 0.232232 0
0.515649 0.2441 0
0.497316 0.244094 0
0.549891 0.226641 0
0.525659 0.212716 0
0.532484 0.22524 0
0.540634 0.215059 0
0.539502 0.190109 0
0.536127 0.202492 0
0.517941 0.222732 0
0.497647 0.206075 0
0.500935 0.219625 0
0.491995 0.184173 0
0.477224 0.183052 0
0.477047 0.197125 0
0.515803 0.198553 0
0.510932 0.211004 0
0.485208 0.215002 0
0.493329 0.230905 0
0.582853 0.201176 0
0.565172 0.201657 0
0.556253 0.19116 0
0.56329 0.174235 0
0.524222 0.282197 0
0.498858 0.258241 0
0.500931 0.194042 0
0.51749 0.178459 0
0.505883 0.184251 0
0.501994 0.171134 0
0.520147 0.163663 0
0.486398 0.169995 0
0.480497 0.225965 0
0.535338 0.272843 0
0.50742 0.282496 0
0.515537 0.270927 0
0.528948 0.171877 0
0.537619 0.138241 0
0.502505 0.269371 0
0.533904 0.152169 0
0.572743 0.149089 0
0.507276 0.14201 0
0.552429 0.14692 0
0.516079 0.152013 0
0.523125 0.142681 0
0.500857 0.151119 0
0.478186 0.138584 0
0.491934 0.142804 0
0.517999 0.124808 0
0.494464 0.127699 0
0.516026 0.134097 0
0.547964 0.156649 0
0.535722 0.4714 0
0.667298 0.212538 0
0.648939 0.216077 0
0.663229 0.227589 0
0.445396 0.439037 0
0.405043 0.384484 0
0.384799 0.28667 0
0.368065 0.379313 0
0.366216 0.364029 0
0.312358 0.350511 0
0.274241 0.331934 0
0.251056 0.306468 0
0.26846 0.294044 0
0.276987 0.302186 0
0.264847 0.314716 0
0.260612 0.302478 0
0.250264 0.275931 0
0.252615 0.290911 0
0.238678 0.286811 0
0.252125 0.328385 0
0.263547 0.329194 0
0.23922 0.271784 0
0.250155 0.250188 0
0.247188 0.262922 0
0.262702 0.264116 0
0.268128 0.249659 0
0.258908 0.242327 0
0.213281 0.313307 0
0.255813 0.316944 0
0.26236 0.279857 0
0.276222 0.279487 0
0.223723 0.295947 0
0.279708 0.290561 0
0.271024 0.26962 0
0.229592 0.28658 0
0.266232 0.38868 0
0.321796 0.270326 0
0.28145 0.200648 0
0.262676 0.217095 0
0.2589 0.227899 0
0.269968 0.223845 0
0.271779 0.208524 0
0.243084 0.195718 0
0.257712 0.200805 0
0.246898 0.21024 0
0.267879 0.198 0
0.254299 0.185024 0
0.231437 0.207424 0
0.265056 0.162404 0
0.22515 0.162424 0
0.23761 0.219735 0
0.237217 0.238699 0
0.235035 0.255283 0
0.263301 0.175269 0
0.279433 0.174289 0
0.244698 0.166189 0
0.255413 0.167621 0
0.203966 0.24009 0
0.282905 0.187048 0
0.296113 0.195309 0
0.290235 0.178261 0
0.277863 0.16203 0
0.285869 0.146419 0
0.285013 0.155454 0
0.240404 0.180439 0
0.220386 0.243628 0
0.221086 0.222969 0
0.228755 0.217522 0
0.290753 0.2037 0
0.307276 0.19193 0
0.249374 0.17585 0
0.233719 0.170376 0
0.217336 0.181035 0
0.228744 0.181604 0
0.223363 0.172646 0
0.205279 0.163719 0
0.213189 0.170637 0
0.22258 0.19184 0
0.200123 0.179996 0
0.232965 0.192149 0
0.229535 0.245554 0
0.227892 0.232615 0
0.307911 0.163135 0
0.299444 0.151945 0
0.299328 0.168532 0
0.311498 0.172612 0
0.325985 0.138708 0
0.31616 0.150293 0
0.338812 0.147597 0
0.302476 0.13137 0
0.317228 0.159166 0
0.356832 0.12914 0
0.368919 0.138702 0
0.365181 0.147446 0
0.352537 0.140378 0
0.339965 0.131482 0
0.327219 0.147976 0
0.297011 0.141059 0
0.310237 0.140201 0
0.28835 0.131788 0
0.28232 0.138416 0
0.268332 0.147039 0
0.252114 0.151666 0
0.294161 0.105708 0
0.294792 0.11887 0
0.336509 0.139296 0
0.345826 0.1203 0
0.320997 0.121258 0
0.315465 0.130512 0
0.331519 0.156847 0
0.327823 0.129094 0
0.333293 0.120733 0
0.418723 0.114676 0
0.806316 0.3104 0
0.873266 0.310836 0
0.83916 0.277941 0
0.801989 0.270678 0
0.795036 0.284127 0
0.818693 0.287479 0
0.782444 0.273029 0
0.783063 0.234112 0
0.775479 0.25314 0
0.8166 0.299973 0
0.82069 0.273732 0
0.839444 0.255404 0
0.854427 0.642277 0
0.856247 0.619272 0
0.837534 0.627392 0
0.886376 0.584417 0
0.877386 0.532564 0
0.902386 0.5379 0
0.949766 0.540045 0
0.925596 0.545335 0
0.943022 0.578351 0
0.928907 0.508511 0
0.941549 0.558278 0
0.961267 0.567017 0
0.919567 0.526173 0
0.685723 0.645591 0
0.657443 0.646612 0
0.671318 0.638502 0
0.674565 0.722315 0
0.857465 0.385863 0
0.867198 0.408939 0
0.799 0.395894 0
0.826559 0.385039 0
0.785046 0.387003 0
0.803528 0.40921 0
0.815835 0.39616 0
0.824891 0.658971 0
0.83732 0.645926 0
0.74483 0.701007 0
0.73127 0.742254 0
0.780693 0.776241 0
0.648911 0.272459 0
0.669146 0.27232 0
0.67751 0.258627 0
0.672703 0.247929 0
0.686271 0.269658 0
0.584615 0.580503 0
0.602327 0.576023 0
0.448473 0.556735 0
0.458726 0.53825 0
0.464636 0.558539 0
0.454839 0.58558 0
0.506345 0.590157 0
0.521887 0.561987 0
0.530259 0.547491 0
0.541836 0.574507 0
0.508539 0.5496 0
0.507294 0.569685 0
0.492713 0.578745 0
0.494716 0.559674 0
0.524923 0.586025 0
0.518049 0.607121 0
0.550458 0.617002 0
0.540492 0.597445 0
0.53309 0.617935 0
0.557356 0.597162 0
0.573755 0.618341 0
0.578187 0.598834 0
0.560246 0.670418 0
0.542672 0.647497 0
0.597038 0.638052 0
0.56132 0.638669 0
0.588993 0.62124 0
0.579062 0.640354 0
0.58952 0.658487 0
0.573669 0.659678 0
0.704471 0.236175 0
0.692773 0.242814 0
0.714951 0.248439 0
0.744996 0.250205 0
0.709552 0.219992 0
0.747358 0.263669 0
0.744704 0.203198 0
0.688054 0.216805 0
0.73071 0.21489 0
0.679318 0.226418 0
0.756791 0.22424 0
0.722557 0.201337 0
0.739838 0.17274 0
0.702348 0.180085 0
0.736542 0.188008 0
0.707514 0.192442 0
0.719465 0.183824 0
0.674644 0.191318 0
0.690662 0.195784 0
0.676719 0.202686 0
0.740761 0.223181 0
0.746938 0.236196 0
0.76162 0.244207 0
0.760127 0.191426 0
0.766384 0.233316 0
0.771791 0.173495 0
0.751517 0.181344 0
0.772137 0.183788 0
0.566596 0.223602 0
0.545968 0.178116 0
0.589877 0.175932 0
0.523953 0.188706 0
0.532834 0.181165 0
0.46154 0.135674 0
0.464285 0.151396 0
0.454514 0.144112 0
0.476316 0.127001 0
0.488035 0.10139 0
0.472089 0.112201 0
0.469453 0.120001 0
0.566421 0.161163 0
0.555099 0.166593 0
0.577372 0.168966 0
0.460425 0.443591 0
0.448937 0.460576 0
0.425872 0.455104 0
0.438217 0.451975 0
0.434722 0.475276 0
0.410275 0.479652 0
0.437807 0.500665 0
0.421753 0.471256 0
0.42306 0.492079 0
0.434897 0.531144 0
0.445898 0.539729 0
0.44182 0.516716 0
0.401017 0.370208 0
0.411116 0.406201 0
0.425445 0.410676 0
0.434738 0.425383 0
0.428202 0.43916 0
0.452279 0.41833 0
0.466312 0.41851 0
0.414849 0.392531 0
0.384172 0.405188 0
0.444409 0.402095 0
0.397682 0.399529 0
0.386183 0.385108 0
0.396992 0.427914 0
0.408087 0.421079 0
0.319621 0.340339 0
0.295828 0.364327 0
0.326345 0.368972 0
0.236784 0.31872 0
0.25051 0.347048 0
0.237768 0.384667 0
0.259387 0.366704 0
0.241115 0.363343 0
0.212226 0.362838 0
0.249131 0.377465 0
0.250504 0.361035 0
0.226481 0.357545 0
0.234751 0.354567 0
0.231923 0.371148 0
0.221912 0.39168 0
0.204198 0.276425 0
0.247492 0.237956 0
0.22286 0.259471 0
0.210529 0.254483 0
0.215923 0.273063 0
0.208751 0.266115 0
0.212156 0.289518 0
0.197121 0.296967 0
0.215639 0.301003 0
0.20353 0.28873 0
0.203789 0.217387 0
0.213253 0.232779 0
0.196875 0.169409 0
0.190693 0.14784 0
0.190838 0.159478 0
0.165976 0.153989 0
0.177569 0.160459 0
0.176913 0.144787 0
0.165669 0.1726 0
0.173565 0.152722 0
0.169301 0.163246 0
0.176435 0.173441 0
0.169768 0.198021 0
0.184852 0.190608 0
0.170435 0.184369 0
0.183152 0.180058 0
0.160068 0.183681 0
0.176437 0.191651 0
0.180848 0.208628 0
0.140136 0.222005 0
0.147934 0.200279 0
0.152095 0.189367 0
0.158779 0.201259 0
0.163124 0.192859 0
0.152547 0.217693 0
0.166376 0.213106 0
0.153007 0.207372 0
0.174109 0.214245 0
0.161792 0.230289 0
0.167093 0.22324 0
0.236899 0.1532 0
0.244953 0.157159 0
0.240815 0.120475 0
0.220462 0.144188 0
0.242714 0.136741 0
0.226659 0.152154 0
0.231946 0.141781 0
0.214542 0.155265 0
0.231995 0.129399 0
0.243761 0.146119 0
0.208645 0.144784 0
0.198761 0.141137 0
0.184475 0.120496 0
0.186826 0.134001 0
0.214565 0.108006 0
0.225892 0.116723 0
0.261587 0.153677 0
0.270414 0.112868 0
0.279862 0.121802 0
0.284782 0.112461 0
0.309066 0.111798 0
0.299072 0.112067 0
0.307374 0.121709 0
0.310881 0.0968393 0
0.305273 0.103896 0
0.436369 0.123239 0
0.424357 0.13339 0
0.436031 0.131282 0
0.421888 0.123809 0
0.394654 0.123072 0
0.407749 0.130384 0
0.375283 0.125392 0
0.408191 0.120844 0
0.394149 0.132759 0
0.367353 0.130756 0
0.379275 0.133787 0
0.362974 0.115363 0
0.356377 0.121355 0
0.382009 0.112769 0
0.400784 0.108621 0
0.373504 0.117706 0
0.848422 0.317222 0
0.857038 0.333958 0
0.844501 0.350873 0
0.884518 0.329898 0
0.852325 0.296197 0
0.840721 0.369565 0
0.868571 0.323642 0
0.93497 0.362626 0
0.912171 0.309742 0
0.836042 0.290574 0
0.839483 0.305523 0
0.86461 0.367142 0
0.898117 0.385684 0
0.877638 0.380592 0
0.882516 0.39716 0
0.896188 0.36178 0
0.886405 0.413453 0
0.892909 0.315804 0
0.892415 0.345214 0
0.915908 0.350554 0
0.953601 0.331492 0
0.912774 0.329895 0
0.93832 0.344925 0
0.973724 0.357668 0
0.933101 0.330358 0
0.944955 0.315585 0
0.953194 0.355489 0
0.931055 0.305437 0
0.916596 0.270657 0
0.913395 0.289817 0
0.890588 0.297707 0
0.938155 0.281925 0
0.871344 0.297046 0
0.882521 0.274523 0
0.930623 0.292997 0
0.992097 0.276802 0
0.895378 0.284517 0
0.965967 0.284086 0
0.996711 0.311933 0
0.970123 0.310073 0
0.958615 0.249753 0
0.988011 0.294478 0
0.980893 0.328047 0
0.942023 0.263903 0
0.968947 0.296871 0
1.03038 0.294601 0
0.970141 0.341784 0
1.03263 0.340936 0
1.00125 0.345266 0
0.953576 0.274096 0
0.913905 0.23961 0
1.00913 0.287474 0
1.01158 0.301549 0
1.02469 0.320283 0
1.02906 0.279271 0
0.921433 0.254674 0
0.936954 0.243227 0
0.896854 0.251327 0
0.967852 0.221272 0
0.933219 0.222337 0
0.95709 0.234567 0
0.928766 0.233087 0
1.00374 0.327076 0
0.885726 0.261716 0
0.806566 0.248616 0
0.858034 0.266665 0
0.860235 0.281719 0
0.849586 0.221891 0
0.875516 0.599252 0
0.889879 0.566189 0
0.864948 0.570352 0
0.915454 0.590092 0
0.924103 0.572988 0
0.902684 0.578137 0
0.89805 0.601405 0
0.917084 0.635799 0
0.91786 0.612676 0
0.901439 0.623632 0
0.971045 0.625994 0
0.942811 0.625046 0
0.941836 0.659684 0
0.957705 0.601535 0
0.935449 0.599373 0
0.966572 0.584815 0
0.956294 0.642649 0
0.99059 0.687525 0
0.986729 0.65451 0
0.934662 0.642027 0
0.906592 0.506412 0
0.628758 0.656581 0
0.660791 0.674253 0
0.678211 0.666258 0
0.645585 0.662838 0
0.669145 0.703266 0
0.628498 0.770927 0
0.68992 0.729497 0
0.692153 0.706578 0
0.842939 0.403021 0
0.812853 0.373108 0
0.737633 0.722706 0
0.71101 0.74717 0
0.703934 0.780175 0
0.774049 0.742433 0
0.596348 0.559803 0
0.469099 0.579355 0
0.42041 0.584454 0
0.450133 0.63754 0
0.511252 0.689543 0
0.614452 0.617932 0
0.615212 0.640751 0
0.60469 0.654421 0
0.622096 0.602502 0
0.730686 0.242489 0
0.784578 0.212087 0
0.772708 0.201437 0
0.765114 0.212798 0
0.74856 0.213567 0
0.648283 0.194663 0
0.654438 0.205146 0
0.829505 0.169434 0
0.757534 0.147881 0
0.575822 0.18001 0
0.607721 0.181915 0
0.619655 0.152298 0
0.598589 0.160792 0
0.637798 0.170726 0
0.604862 0.170875 0
0.621263 0.174674 0
0.623926 0.163196 0
0.582305 0.157785 0
0.596994 0.145059 0
0.477621 0.157014 0
0.461358 0.160737 0
0.501796 0.113273 0
0.486289 0.118 0
0.48872 0.109593 0
0.4567 0.0954253 0
0.425162 0.513888 0
0.361244 0.443872 0
0.408497 0.446226 0
0.384184 0.456418 0
0.394757 0.445249 0
0.398365 0.465501 0
0.378018 0.498481 0
0.385036 0.478301 0
0.36714 0.46855 0
0.395359 0.49754 0
0.373328 0.482856 0
0.359978 0.48432 0
0.346533 0.463017 0
0.410834 0.462416 0
0.407531 0.495765 0
0.301316 0.351655 0
0.279355 0.372791 0
0.323067 0.354907 0
0.310517 0.371112 0
0.32031 0.395287 0
0.319174 0.380327 0
0.332514 0.38536 0
0.345359 0.384501 0
0.35601 0.377609 0
0.242325 0.330106 0
0.239472 0.302752 0
0.229646 0.307873 0
0.223172 0.331854 0
0.270362 0.358753 0
0.233657 0.410645 0
0.220804 0.373849 0
0.19792 0.394439 0
0.2094 0.38467 0
0.198259 0.369301 0
0.208126 0.404798 0
0.206222 0.372088 0
0.192255 0.431886 0
0.216617 0.403044 0
0.205366 0.427877 0
0.197248 0.413991 0
0.178136 0.402053 0
0.18622 0.415095 0
0.187754 0.397045 0
0.17652 0.420478 0
0.179788 0.380038 0
0.181907 0.437742 0
0.175657 0.478695 0
0.176168 0.456461 0
0.203017 0.476026 0
0.190987 0.459305 0
0.189864 0.379539 0
0.153661 0.345171 0
0.220272 0.454188 0
0.200347 0.446883 0
0.199105 0.462152 0
0.209828 0.46054 0
0.216747 0.483659 0
0.212094 0.442098 0
0.18378 0.452493 0
0.157304 0.385492 0
0.161307 0.413839 0
0.16826 0.421993 0
0.168261 0.358033 0
0.16876 0.388428 0
0.176353 0.365018 0
0.163973 0.373325 0
0.158916 0.358935 0
0.162193 0.398011 0
0.193079 0.280993 0
0.178673 0.25568 0
0.1836 0.27092 0
0.195318 0.261497 0
0.161856 0.277396 0
0.201411 0.252042 0
0.188799 0.24056 0
0.186781 0.259306 0
0.172011 0.269794 0
0.164426 0.251072 0
0.171194 0.287795 0
0.170819 0.257899 0
0.1552 0.309452 0
0.17643 0.322746 0
0.177306 0.343562 0
0.161251 0.294779 0
0.176744 0.303866 0
0.165056 0.334504 0
0.196257 0.332407 0
0.151805 0.285107 0
0.16625 0.311521 0
0.188652 0.31376 0
0.172483 0.333598 0
0.18781 0.343275 0
0.198175 0.350479 0
0.209549 0.338044 0
0.151009 0.261147 0
0.144561 0.300839 0
0.159939 0.322035 0
0.185149 0.301237 0
0.214687 0.326696 0
0.204425 0.322247 0
0.204155 0.30722 0
0.206913 0.351406 0
0.218546 0.346454 0
0.147635 0.273337 0
0.151779 0.297853 0
0.122165 0.302582 0
0.144521 0.32569 0
0.133007 0.296481 0
0.147727 0.313158 0
0.139384 0.293036 0
0.213573 0.214322 0
0.182653 0.152233 0
0.164062 0.138048 0
0.194321 0.203648 0
0.145028 0.211806 0
0.12337 0.193383 0
0.132675 0.205991 0
0.148913 0.237212 0
0.256708 0.139072 0
0.266519 0.138279 0
0.261114 0.124458 0
0.270883 0.125432 0
0.251297 0.129907 0
0.196016 0.125337 0
0.195008 0.133539 0
0.209052 0.120044 0
0.203909 0.125887 0
0.184512 0.142173 0
0.238629 0.103047 0
0.327295 0.107275 0
0.319838 0.113135 0
0.449484 0.111964 0
0.393549 0.114962 0
0.383352 0.0958047 0
0.364318 0.101497 0
0.35842 0.108092 0
0.915092 0.372737 0
0.92318 0.392894 0
0.972371 0.409121 0
0.948722 0.431043 0
0.94493 0.406153 0
0.936006 0.446002 0
0.985225 0.465922 0
0.963294 0.450935 0
0.936762 0.419526 0
0.956942 0.417487 0
0.962882 0.382804 0
0.957301 0.476125 0
0.998181 0.43414 0
0.960337 0.397469 0
0.949198 0.46153 0
0.934357 0.486222 0
0.915186 0.490451 0
0.991031 0.511084 0
0.984488 0.447891 0
1.0116 0.456107 0
0.974821 0.430046 0
0.980185 0.489 0
1.02142 0.488646 0
0.955997 0.502056 0
1.0241 0.470642 0
1.00297 0.477522 0
1.00185 0.495444 0
0.946754 0.520053 0
0.971672 0.527067 0
0.979082 0.549644 0
1.0451 0.554518 0
1.01127 0.558162 0
0.993139 0.560146 0
0.972204 0.510295 0
0.903399 0.402601 0
0.995452 0.360981 0
0.982843 0.374999 0
1.02332 0.359943 0
0.992887 0.394689 0
1.06771 0.400696 0
0.996559 0.414094 0
1.03646 0.422061 0
1.02193 0.401221 0
1.01477 0.423164 0
1.02703 0.440345 0
1.07582 0.362319 0
1.04477 0.405103 0
1.04793 0.378566 0
1.01054 0.389598 0
1.04987 0.355851 0
1.08622 0.320088 0
1.0268 0.375445 0
1.05527 0.325646 0
1.03772 0.328856 0
1.05447 0.340745 0
1.06266 0.302903 0
1.05438 0.285904 0
1.04408 0.312017 0
1.06773 0.315437 0
1.11924 0.265522 0
1.08334 0.271719 0
1.0642 0.275094 0
1.08224 0.289567 0
1.08608 0.304535 0
1.14525 0.312029 0
1.11429 0.312151 0
1.10707 0.281148 0
1.11901 0.345278 0
1.10767 0.296727 0
1.14271 0.288355 0
1.10861 0.329012 0
1.08374 0.33995 0
1.13748 0.330294 0
1.12859 0.277711 0
1.17098 0.265886 0
1.14496 0.26579 0
1.15781 0.277463 0
1.17458 0.295397 0
1.1581 0.250897 0
1.07322 0.329272 0
1.06956 0.34928 0
1.16017 0.35553 0
1.18201 0.32837 0
1.12409 0.220667 0
1.14216 0.345476 0
1.13025 0.361961 0
1.16465 0.339556 0
1.10285 0.360556 0
1.0998 0.34728 0
1.09215 0.383561 0
1.15913 0.324281 0
1.17683 0.311797 0
1.14728 0.23337 0
1.18448 0.203417 0
1.1086 0.242117 0
1.15749 0.21524 0
1.13359 0.245796 0
1.11692 0.253217 0
1.08724 0.254101 0
1.12454 0.233111 0
1.14344 0.222744 0
1.16891 0.226928 0
1.099 0.263938 0
1.04396 0.21619 0
1.07172 0.232424 0
1.0982 0.227135 0
1.08676 0.241381 0
1.09393 0.203516 0
1.1035 0.214769 0
1.12766 0.203769 0
1.07351 0.215305 0
1.11094 0.196208 0
1.07885 0.175781 0
1.09924 0.184097 0
1.15568 0.19431 0
1.05942 0.223348 0
1.01917 0.242497 0
1.04499 0.23693 0
1.063 0.24801 0
0.988955 0.235497 0
1.01908 0.261076 0
1.06781 0.261308 0
0.972436 0.241548 0
0.985014 0.258264 0
1.13658 0.195115 0
1.02395 0.226776 0
1.04105 0.254658 0
1.01133 0.272875 0
0.964822 0.262524 0
1.00369 0.251673 0
1.00796 0.20586 0
1.00783 0.233131 0
0.974142 0.273002 0
1.02256 0.214581 0
0.949033 0.205883 0
0.891965 0.217732 0
0.909487 0.226044 0
0.88441 0.234802 0
0.871567 0.223373 0
0.872923 0.208718 0
0.85793 0.237931 0
0.828241 0.235272 0
0.854874 0.249458 0
0.844026 0.231895 0
0.789263 0.245399 0
0.793146 0.258488 0
0.819623 0.259402 0
0.825126 0.247383 0
0.947075 0.708925 0
0.966005 0.673632 0
0.968716 0.655618 0
0.94436 0.684094 0
0.929465 0.673346 0
0.923678 0.699134 0
0.865812 0.718495 0
0.89267 0.702253 0
0.968751 0.698274 0
0.980324 0.754508 0
0.968491 0.727511 0
0.849107 0.68516 0
1.00797 0.724398 0
0.988189 0.711399 0
0.832051 0.677483 0
0.988696 0.733843 0
1.01844 0.667402 0
0.640902 0.642346 0
0.647031 0.739428 0
0.664722 0.789285 0
0.7424 0.796187 0
0.770222 0.72324 0
0.752504 0.743427 0
0.740944 0.767656 0
0.724287 0.783268 0
0.723728 0.761539 0
0.724613 0.809606 0
0.725169 0.878418 0
0.748161 0.834992 0
0.719668 0.843735 0
0.739859 0.816797 0
0.759489 0.780428 0
0.774172 0.810221 0
0.763763 0.759606 0
0.67074 0.868277 0
0.736968 0.856888 0
0.692666 0.847422 0
0.705344 0.835627 0
0.707588 0.86522 0
0.704285 0.901524 0
0.815187 0.74852 0
0.437586 0.577015 0
0.430994 0.55443 0
0.435262 0.61057 0
0.41592 0.53732 0
0.431559 0.592985 0
0.386115 0.53836 0
0.414428 0.561356 0
0.400756 0.530784 0
0.388899 0.516927 0
0.39838 0.554294 0
0.401801 0.581281 0
0.377368 0.570685 0
0.388409 0.58151 0
0.385764 0.556779 0
0.458192 0.612329 0
0.447037 0.601232 0
0.446346 0.619709 0
0.521924 0.661359 0
0.801445 0.176318 0
0.756517 0.161863 0
0.75586 0.171233 0
0.792434 0.155575 0
0.730329 0.154193 0
0.772328 0.155133 0
0.781699 0.164275 0
0.746552 0.154559 0
0.638112 0.183418 0
0.66168 0.176773 0
0.604907 0.152549 0
0.620149 0.135401 0
0.574435 0.124369 0
0.55851 0.133698 0
0.564249 0.141759 0
0.55357 0.121553 0
0.571882 0.104558 0
0.535589 0.122995 0
0.567526 0.114466 0
0.554367 0.107509 0
0.553507 0.0905044 0
0.558687 0.0987595 0
0.5784 0.0937812 0
0.531201 0.0986612 0
0.540408 0.104772 0
0.544888 0.0963988 0
0.531548 0.087136 0
0.529421 0.130857 0
0.544571 0.130122 0
0.590435 0.101486 0
0.592649 0.114715 0
0.584392 0.108328 0
0.586781 0.0703222 0
0.545883 0.0834435 0
0.562909 0.0747014 0
0.503605 0.0774378 0
0.507771 0.0926209 0
0.588236 0.0820543 0
0.520891 0.0798955 0
0.508584 0.0846598 0
0.48847 0.083978 0
0.522134 0.0927359 0
0.589038 0.088906 0
0.472357 0.0895353 0
0.472119 0.0985804 0
0.459581 0.1045 0
0.487599 0.0924746 0
0.504615 0.121573 0
0.520306 0.113919 0
0.512108 0.103333 0
0.500899 0.0989652 0
0.52579 0.106242 0
0.423847 0.0952954 0
0.377083 0.428826 0
0.371845 0.452714 0
0.357687 0.459062 0
0.339268 0.431893 0
0.305117 0.481355 0
0.285575 0.361244 0
0.268696 0.373685 0
0.284164 0.40047 0
0.298209 0.387425 0
0.289837 0.377201 0
0.302284 0.418401 0
0.29573 0.403964 0
0.287952 0.415897 0
0.308411 0.402451 0
0.321 0.422451 0
0.309196 0.387144 0
0.232532 0.33099 0
0.222475 0.317501 0
0.228331 0.343546 0
0.231081 0.39569 0
0.251241 0.405161 0
0.246326 0.391883 0
0.18935 0.487518 0
0.228639 0.433655 0
0.226415 0.419239 0
0.219419 0.432792 0
0.248695 0.472894 0
0.245111 0.430334 0
0.224926 0.405354 0
0.235639 0.45734 0
0.236297 0.42514 0
0.228381 0.448623 0
0.169661 0.405765 0
0.19611 0.2287 0
0.193891 0.21615 0
0.185112 0.226328 0
0.186067 0.216067 0
0.177612 0.239804 0
0.169548 0.235237 0
0.185259 0.328129 0
0.152575 0.329843 0
0.138458 0.352669 0
0.147895 0.363066 0
0.145908 0.348526 0
0.128817 0.409624 0
0.154444 0.371306 0
0.136122 0.382436 0
0.146468 0.385408 0
0.151723 0.403742 0
0.140109 0.368287 0
0.129141 0.364688 0
0.139806 0.404711 0
0.131003 0.350069 0
0.136207 0.334764 0
0.135625 0.315032 0
0.106114 0.378816 0
0.124859 0.386695 0
0.133239 0.39687 0
0.137571 0.441391 0
0.128926 0.308313 0
0.121344 0.323855 0
0.116626 0.366163 0
0.129874 0.37809 0
0.135706 0.422018 0
0.147314 0.426883 0
0.12822 0.331634 0
0.109997 0.311337 0
0.12264 0.359272 0
0.110903 0.340716 0
0.145861 0.412322 0
0.155547 0.465589 0
0.153848 0.418658 0
0.156178 0.441583 0
0.11699 0.312413 0
0.112964 0.32552 0
0.11785 0.336978 0
0.115832 0.351153 0
0.107488 0.358883 0
0.16629 0.466617 0
0.146714 0.447352 0
0.139193 0.465682 0
0.0951606 0.336757 0
0.10344 0.327855 0
0.0962937 0.364944 0
0.159989 0.507172 0
0.131638 0.455698 0
0.125533 0.433799 0
0.147255 0.464951 0
0.143831 0.500082 0
0.151047 0.485005 0
0.142936 0.481743 0
0.151847 0.503118 0
0.143782 0.557637 0
0.152977 0.534129 0
0.102052 0.345381 0
0.0963089 0.35058 0
0.10286 0.312681 0
0.0940781 0.316856 0
0.102348 0.367177 0
0.166026 0.488695 0
0.158756 0.481106 0
0.170514 0.509084 0
0.164331 0.530702 0
0.180418 0.500454 0
0.0842647 0.291142 0
0.0810485 0.330714 0
0.158011 0.52257 0
0.0907999 0.300576 0
0.0833147 0.310917 0
0.0883564 0.328528 0
0.0854555 0.345235 0
0.090241 0.354479 0
0.0772955 0.299236 0
0.0701074 0.321447 0
0.0766767 0.317 0
0.0720948 0.307131 0
0.124179 0.266129 0
0.136632 0.260333 0
0.174599 0.131727 0
0.171402 0.139097 0
0.181505 0.127905 0
0.166585 0.129514 0
0.172107 0.118015 0
0.182043 0.101066 0
0.156534 0.0981947 0
0.179932 0.110947 0
0.196579 0.108834 0
0.168549 0.103587 0
0.187774 0.107215 0
0.172098 0.110258 0
0.192871 0.116835 0
0.13718 0.137212 0
0.186318 0.200776 0
0.205442 0.203562 0
0.210431 0.191474 0
0.195106 0.190886 0
0.136808 0.184929 0
0.143892 0.190224 0
0.137117 0.196332 0
0.130527 0.190956 0
0.126054 0.171373 0
0.125452 0.18241 0
0.110899 0.181934 0
0.118022 0.185087 0
0.116444 0.172787 0
0.118009 0.217593 0
0.113142 0.201006 0
0.154097 0.228763 0
0.157293 0.242216 0
0.253697 0.112137 0
0.251296 0.120742 0
0.218343 0.128951 0
0.224562 0.135798 0
0.214383 0.137119 0
0.225301 0.124399 0
0.216759 0.115775 0
0.235517 0.111961 0
0.244562 0.10923 0
0.226249 0.104875 0
0.230464 0.0953378 0
0.206266 0.0791231 0
0.220239 0.0852322 0
0.227964 0.0886209 0
0.336334 0.112521 0
0.44817 0.119979 0
0.433991 0.113424 0
0.43904 0.102118 0
0.423345 0.104965 0
0.409033 0.099802 0
0.406269 0.0861103 0
0.394929 0.100575 0
0.412027 0.0925291 0
0.396029 0.091958 0
0.382771 0.104117 0
0.384552 0.0878624 0
0.44016 0.0921383 0
0.454119 0.0849799 0
0.426006 0.0839257 0
0.439955 0.0844106 0
0.435988 0.0606716 0
0.434435 0.0721984 0
0.453196 0.0748586 0
0.412136 0.0744237 0
0.441433 0.077673 0
0.481647 0.0603779 0
0.447766 0.066694 0
0.414597 0.0809564 0
0.471123 0.0690503 0
0.458414 0.0569038 0
0.465244 0.0741931 0
0.448807 0.0607553 0
0.462667 0.0632728 0
1.02278 0.608422 0
0.992252 0.601338 0
0.974944 0.608222 0
1.02411 0.526524 0
1.01898 0.507609 0
1.06995 0.507213 0
1.04423 0.500342 0
1.04716 0.479206 0
1.05013 0.522499 0
1.12681 0.451564 0
1.0397 0.53743 0
1.07873 0.532582 0
1.08402 0.460483 0
1.06196 0.465184 0
1.07273 0.485092 0
1.06456 0.437632 0
1.11159 0.499585 0
1.04532 0.435541 0
1.06148 0.418727 0
1.08914 0.497643 0
1.09802 0.516974 0
1.10307 0.477386 0
1.10304 0.424232 0
1.08398 0.413516 0
1.083 0.429676 0
1.11046 0.401746 0
1.08898 0.575695 0
1.1417 0.479803 0
1.1065 0.459563 0
1.10757 0.441557 0
1.09004 0.398695 0
1.14892 0.420666 0
1.12684 0.429568 0
1.12858 0.412292 0
1.15248 0.398401 0
1.11395 0.385831 0
1.11543 0.371529 0
1.09189 0.552467 0
1.06823 0.551019 0
1.1217 0.484793 0
1.08779 0.444858 0
1.13075 0.395933 0
1.20161 0.413769 0
1.16744 0.377633 0
1.17369 0.411413 0
1.17963 0.44275 0
1.19091 0.392452 0
1.18545 0.426032 0
1.20817 0.439251 0
1.14969 0.368703 0
1.20823 0.359687 0
1.19062 0.345466 0
1.24035 0.33073 0
1.2108 0.331658 0
1.1705 0.391759 0
1.21722 0.397763 0
1.26502 0.424112 0
1.21254 0.378506 0
1.24541 0.406879 0
1.19017 0.371164 0
1.22668 0.346202 0
1.23775 0.365049 0
1.22439 0.316599 0
1.2792 0.303301 0
1.25429 0.313979 0
1.19961 0.31835 0
1.24231 0.44326 0
1.29933 0.373978 0
1.27584 0.331518 0
1.24177 0.287611 0
1.23087 0.301449 0
1.23903 0.424664 0
1.22386 0.412833 0
1.2774 0.493229 0
1.26663 0.374709 0
1.2842 0.399316 0
1.25854 0.348936 0
1.27676 0.317219 0
1.25576 0.299326 0
1.29009 0.456199 0
1.25182 0.471038 0
1.28343 0.384313 0
1.26079 0.393476 0
1.26705 0.408795 0
1.25786 0.362346 0
1.29073 0.349617 0
1.26934 0.443325 0
1.25573 0.455414 0
1.28237 0.363573 0
1.13008 0.300664 0
1.15407 0.29965 0
1.07052 0.378235 0
1.14908 0.204814 0
1.20543 0.171524 0
0.950029 0.216959 0
0.972839 0.207678 0
0.992001 0.217048 0
0.989429 0.201399 0
1.01797 0.179951 0
1.00788 0.192127 0
1.03735 0.198881 0
1.05767 0.205513 0
1.07124 0.190929 0
1.04874 0.179892 0
1.07503 0.200905 0
1.09058 0.193249 0
1.05839 0.16812 0
1.11211 0.145279 0
1.07822 0.153014 0
1.11463 0.164776 0
1.06248 0.158764 0
1.10041 0.173078 0
1.091 0.162468 0
1.10659 0.155058 0
1.03322 0.169841 0
0.978899 0.152531 0
1.00041 0.165225 0
1.02068 0.160694 0
1.02124 0.137029 0
1.02671 0.148656 0
1.05682 0.139599 0
1.00067 0.145096 0
1.03783 0.141429 0
1.0031 0.155005 0
1.03336 0.187687 0
0.995977 0.133136 0
0.957482 0.136969 0
0.978553 0.141466 0
0.975146 0.131962 0
0.924953 0.175865 0
0.916849 0.206099 0
0.91804 0.216595 0
0.894153 0.203934 0
0.909839 0.18976 0
0.932649 0.195177 0
0.953285 0.194465 0
0.817587 0.214778 0
0.840844 0.197601 0
0.859978 0.199885 0
0.846821 0.209354 0
0.805568 0.233435 0
0.818481 0.225853 0
0.79355 0.223248 0
0.911797 0.776579 0
0.922831 0.738291 0
0.929918 0.718747 0
0.907465 0.72038 0
0.946359 0.737015 0
0.935749 0.763877 0
0.941139 0.811616 0
0.957743 0.75826 0
0.951889 0.785662 0
0.930141 0.789993 0
0.962969 0.807201 0
0.89703 0.825834 0
0.980601 0.78419 0
0.917503 0.812708 0
0.921779 0.850146 0
0.9299 0.829738 0
0.965689 0.861401 0
0.954125 0.835837 0
0.943043 0.858757 0
0.976823 0.838493 0
0.94869 0.92674 0
1.00977 0.874418 0
0.951624 0.891749 0
0.989093 0.861278 0
0.984113 0.899585 0
1.01617 0.833945 0
0.99605 0.832399 0
1.00678 0.852821 0
0.926508 0.882737 0
0.969894 0.883655 0
0.965156 0.910959 0
0.975748 0.947227 0
0.909702 0.925202 0
0.934002 0.907209 0
0.911896 0.900225 0
0.870788 0.693573 0
0.867589 0.665831 0
0.892828 0.651924 0
0.847913 0.663727 0
0.888248 0.677069 0
0.873789 0.645911 0
0.912108 0.655412 0
0.870927 0.628251 0
0.998936 0.669697 0
1.01806 0.696526 0
1.02965 0.682034 0
0.65747 0.722169 0
0.66795 0.750206 0
0.650677 0.767369 0
0.679256 0.771463 0
0.6855 0.799591 0
0.665602 0.828612 0
0.687485 0.823761 0
0.671117 0.808587 0
0.76536 0.8298 0
0.813562 0.820948 0
0.744901 0.941156 0
0.759543 0.895363 0
0.744067 0.880303 0
0.732859 0.910768 0
0.763446 0.8668 0
0.750629 0.917195 0
0.770533 0.939233 0
0.7198 0.898567 0
0.715223 0.92706 0
0.760305 1.00686 0
0.789402 0.906305 0
0.786856 0.874721 0
0.758889 0.970868 0
0.785649 0.928501 0
0.776244 0.892073 0
0.842698 0.883127 0
0.80329 0.850096 0
0.717764 0.987191 0
0.711517 0.957311 0
0.731973 0.964856 0
0.728037 0.941995 0
0.739409 0.994693 0
0.720839 1.03695 0
0.742294 1.02688 0
0.725133 1.01116 0
0.787024 0.986694 0
0.813791 0.886968 0
0.832489 0.848563 0
0.735801 1.05124 0
0.768457 1.04829 0
0.780091 0.961958 0
0.770175 0.987972 0
0.80299 0.870983 0
0.817524 0.840426 0
0.758388 1.02985 0
0.689643 0.880483 0
0.667243 0.913553 0
0.68546 0.906429 0
0.672694 0.891342 0
0.641773 0.88482 0
0.795873 0.73233 0
0.805538 0.708619 0
0.832132 0.708495 0
0.790817 0.755391 0
0.818843 0.725676 0
0.844634 0.742998 0
0.85068 0.705901 0
0.410934 0.617914 0
0.409886 0.597515 0
0.528563 0.644261 0
0.537731 0.691019 0
0.808666 0.164204 0
0.832805 0.150556 0
0.825094 0.15955 0
0.731408 0.135041 0
0.716826 0.166488 0
0.73292 0.163703 0
0.716057 0.157547 0
0.694628 0.167413 0
0.724351 0.174704 0
0.664951 0.154871 0
0.641921 0.154737 0
0.682062 0.177465 0
0.674171 0.165782 0
0.683047 0.156232 0
0.654657 0.164858 0
0.687347 0.131826 0
0.689884 0.14403 0
0.653639 0.139791 0
0.633684 0.143865 0
0.637 0.134279 0
0.71345 0.143545 0
0.653487 0.148698 0
0.670756 0.144306 0
0.73086 0.144458 0
0.709688 0.131573 0
0.728635 0.119587 0
0.723895 0.127485 0
0.659683 0.187113 0
0.612678 0.143652 0
0.596611 0.130452 0
0.617129 0.120465 0
0.619658 0.104723 0
0.606087 0.100512 0
0.55953 0.0575235 0
0.62557 0.0800408 0
0.578426 0.0762949 0
0.566601 0.0835203 0
0.386739 0.419932 0
0.361871 0.407621 0
0.352681 0.397041 0
0.348124 0.444942 0
0.326925 0.47918 0
0.277083 0.388186 0
0.30859 0.44884 0
0.333242 0.415359 0
0.267203 0.414766 0
0.184251 0.472016 0
0.203876 0.515981 0
0.191346 0.511929 0
0.226793 0.471973 0
0.237565 0.476228 0
0.230137 0.489851 0
0.247978 0.451114 0
0.269536 0.460035 0
0.259814 0.435831 0
0.257784 0.461081 0
0.256759 0.419496 0
0.270501 0.431164 0
0.113073 0.40966 0
0.114899 0.387468 0
0.119685 0.378282 0
0.111971 0.37523 0
0.108076 0.395909 0
0.0998482 0.424863 0
0.105521 0.412943 0
0.0946994 0.395549 0
0.0990542 0.382119 0
0.111427 0.444251 0
0.0989922 0.408158 0
0.11041 0.426279 0
0.120536 0.457721 0
0.117578 0.433036 0
0.120049 0.401073 0
0.1218 0.418111 0
0.140344 0.528452 0
0.176775 0.571247 0
0.194443 0.552413 0
0.160583 0.565854 0
0.196166 0.530946 0
0.186264 0.538576 0
0.174947 0.546035 0
0.184936 0.55937 0
0.187646 0.587251 0
0.159444 0.546507 0
0.152351 0.558523 0
0.167153 0.553972 0
0.147191 0.605302 0
0.147633 0.580307 0
0.172091 0.530182 0
0.211742 0.603184 0
0.13436 0.580488 0
0.158193 0.593869 0
0.19845 0.602409 0
0.140904 0.57374 0
0.167602 0.58356 0
0.169798 0.623149 0
0.165952 0.604013 0
0.156683 0.626146 0
0.177217 0.603426 0
0.15497 0.577709 0
0.205428 0.574006 0
0.210208 0.544018 0
0.154311 0.609047 0
0.179774 0.587038 0
0.196764 0.582561 0
0.205191 0.591619 0
0.131204 0.278592 0
0.136988 0.272143 0
0.130855 0.266641 0
0.12148 0.283739 0
0.126401 0.29249 0
0.109938 0.26809 0
0.113674 0.294173 0
0.117143 0.271912 0
0.117229 0.25523 0
0.106193 0.29775 0
0.108339 0.282865 0
0.0945508 0.269275 0
0.0910024 0.283789 0
0.102174 0.272537 0
0.103454 0.253346 0
0.101444 0.286788 0
0.096463 0.280498 0
0.123509 0.2364 0
0.127884 0.250769 0
0.110204 0.255049 0
0.099038 0.225682 0
0.118219 0.243545 0
0.1156 0.230446 0
0.107971 0.219145 0
0.137618 0.241561 0
0.103727 0.237913 0
0.112572 0.211623 0
0.100082 0.207663 0
0.143918 0.251828 0
0.143443 0.263564 0
0.151165 0.249173 0
0.142185 0.232742 0
0.13041 0.239408 0
0.108894 0.230659 0
0.102246 0.217084 0
0.205661 0.111672 0
0.173346 0.0936491 0
0.161332 0.0848834 0
0.164865 0.0960136 0
0.169265 0.0870611 0
0.157989 0.110488 0
0.164304 0.115529 0
0.150412 0.133628 0
0.123764 0.207048 0
0.127338 0.221566 0
0.133729 0.216854 0
0.261724 0.116435 0
0.263455 0.0919541 0
0.252433 0.0994422 0
0.277619 0.099875 0
0.25 0.0892419 0
0.241404 0.094624 0
0.264825 0.101366 0
0.277301 0.107335 0
0.266041 0.0678755 0
0.262255 0.108615 0
0.247782 0.0747246 0
0.245282 0.0820953 0
0.26107 0.0807012 0
0.20455 0.0941021 0
0.193211 0.0977452 0
0.204004 0.102752 0
0.21688 0.0971761 0
0.194171 0.0856283 0
0.184421 0.0910842 0
0.212739 0.0900793 0
0.196984 0.0917709 0
0.399802 0.0787725 0
0.420275 0.0658469 0
0.422551 0.0715953 0
0.432506 0.0662264 0
0.411234 0.0522958 0
0.386652 0.0628981 0
0.389779 0.0713792 0
0.420501 0.0582058 0
0.435748 0.0500233 0
0.402716 0.0594246 0
0.424167 0.0526585 0
0.418578 0.0465921 0
0.37806 0.034827 0
0.39142 0.0440768 0
0.404016 0.0469158 0
0.406513 0.0390532 0
0.388638 0.0526817 0
0.404218 0.067208 0
0.423865 0.0306831 0
0.391104 0.0379189 0
0.402505 0.0315067 0
0.390141 0.0331027 0
0.385913 0.0231572 0
0.391336 0.0277571 0
0.410384 0.0229839 0
0.40508 0.0269525 0
0.391533 0.0578452 0
0.419474 0.0358751 0
0.485831 0.0744095 0
0.502242 0.0660762 0
0.516884 0.0712894 0
0.52642 0.0594808 0
0.516933 0.0645384 0
0.537111 0.0672161 0
0.48613 0.0670621 0
0.49779 0.0717764 0
0.529795 0.0720467 0
0.548742 0.0717072 0
0.56403 0.0657351 0
0.543549 0.0604276 0
0.543932 0.0524461 0
0.572701 0.0703614 0
0.529428 0.0536962 0
0.501319 0.0523165 0
0.506016 0.0589458 0
0.514874 0.054282 0
0.49284 0.0568655 0
0.586281 0.0404367 0
0.568218 0.0476887 0
0.558606 0.0518426 0
0.547315 0.0442051 0
0.565151 0.0406029 0
0.516895 0.0337077 0
0.574962 0.0316092 0
0.527785 0.0401275 0
0.575361 0.0365151 0
0.534109 0.0440795 0
0.54326 0.0332209 0
0.558401 0.0355767 0
0.55753 0.0304713 0
0.544086 0.0385642 0
0.498184 0.0413626 0
0.530372 0.0354229 0
0.513987 0.0439688 0
0.511568 0.0385444 0
0.501 0.0466288 0
0.4709 0.0460348 0
0.477037 0.0528663 0
0.486029 0.0449252 0
0.462814 0.050979 0
0.448793 0.0523611 0
1.01247 0.637009 0
1.03126 0.580231 0
1.02904 0.56327 0
1.00594 0.580832 0
1.06235 0.603424 0
1.05982 0.576844 0
1.04131 0.597969 0
1.00062 0.536685 0
1.15583 0.518887 0
1.13909 0.501439 0
1.12356 0.517825 0
1.1563 0.458475 0
1.14839 0.439838 0
1.1652 0.430455 0
1.13785 0.464407 0
1.18488 0.484135 0
1.16155 0.492201 0
1.16561 0.47455 0
1.18867 0.462982 0
1.12018 0.469768 0
1.18097 0.358124 0
1.20446 0.280712 0
1.18117 0.278341 0
1.21526 0.292074 0
1.36281 0.405561 0
1.31283 0.425966 0
1.29031 0.416735 0
1.29366 0.437982 0
1.32412 0.45031 0
1.31384 0.473864 0
1.36987 0.438588 0
1.28775 0.475296 0
1.34275 0.521071 0
1.35016 0.450756 0
1.34203 0.430448 0
1.36346 0.422197 0
1.4413 0.41687 0
1.40114 0.413164 0
1.33309 0.410443 0
1.30875 0.404419 0
1.33629 0.494434 0
1.33866 0.382785 0
1.33262 0.479582 0
1.30663 0.495207 0
1.28768 0.531339 0
1.29002 0.510899 0
1.31402 0.522812 0
1.32001 0.563586 0
1.32198 0.507103 0
1.33037 0.541797 0
1.30495 0.546614 0
1.34754 0.559278 0
1.27614 0.553312 0
1.38027 0.537373 0
1.35496 0.537939 0
1.36876 0.552697 0
1.34399 0.39722 0
1.26397 0.625622 0
1.39497 0.49459 0
1.26259 0.588038 0
1.3655 0.487512 0
1.26185 0.568566 0
1.29224 0.577485 0
1.35703 0.505261 0
1.39264 0.463852 0
1.37281 0.454862 0
1.28937 0.605994 0
1.38546 0.479424 0
1.26682 0.60659 0
1.21292 0.605757 0
1.23957 0.613244 0
1.2339 0.58931 0
1.21583 0.637421 0
1.18442 0.56138 0
1.24099 0.635281 0
1.20499 0.580383 0
1.2335 0.683921 0
1.23079 0.658582 0
1.19625 0.67435 0
1.27953 0.667104 0
1.21683 0.672533 0
1.26263 0.648808 0
1.25403 0.670241 0
1.27045 0.710007 0
1.26965 0.687473 0
1.3102 0.697528 0
1.29243 0.684141 0
1.31766 0.656935 0
1.29282 0.638452 0
1.36877 0.469781 0
1.22661 0.568191 0
1.15742 0.600356 0
1.29655 0.656365 0
1.284 0.622663 0
1.1856 0.598412 0
1.16972 0.580106 0
1.17325 0.619416 0
1.14492 0.552374 0
1.1111 0.646158 0
1.19549 0.626438 0
1.16278 0.562557 0
1.17183 0.539111 0
1.13294 0.535519 0
1.11826 0.557679 0
1.1451 0.63878 0
1.15089 0.619326 0
1.11755 0.599784 0
1.2117 0.53706 0
1.22542 0.550477 0
1.2475 0.518174 0
1.27014 0.519764 0
1.25686 0.536148 0
1.23407 0.533116 0
1.19218 0.54465 0
1.18991 0.515043 0
1.21884 0.513103 0
1.17985 0.500246 0
1.23937 0.493764 0
1.25854 0.502839 0
1.25814 0.486327 0
1.22797 0.476723 0
1.2049 0.475463 0
1.20605 0.495421 0
1.1865 0.18583 0
0.987026 0.179388 0
0.990069 0.189086 0
1.0028 0.174468 0
0.970802 0.166622 0
0.984599 0.160873 0
0.937738 0.154258 0
0.959014 0.179742 0
0.958877 0.157245 0
0.960501 0.146896 0
0.942176 0.166588 0
1.08531 0.14047 0
1.12416 0.116642 0
1.07422 0.12024 0
1.11079 0.130027 0
1.07247 0.130883 0
1.09178 0.132403 0
1.04074 0.124557 0
1.05276 0.131166 0
1.01139 0.122112 0
1.02363 0.128542 0
1.03287 0.108956 0
1.02883 0.117306 0
1.05291 0.114846 0
1.07477 0.11031 0
1.05223 0.106825 0
1.0977 0.115426 0
1.09323 0.12368 0
0.99346 0.1076 0
1.00978 0.113185 0
0.824408 0.18468 0
0.817824 0.175994 0
0.80458 0.188171 0
0.799502 0.201515 0
0.819428 0.197191 0
0.855778 0.181141 0
0.838385 0.1782 0
0.888752 0.173489 0
0.905789 0.178987 0
0.888021 0.184775 0
0.775184 0.222685 0
0.899175 0.852382 0
0.865812 0.842748 0
0.883796 0.840682 0
1.01683 0.914139 0
1.0435 0.860136 0
0.944008 0.972495 0
0.675911 0.846425 0
0.638227 0.80994 0
0.647385 0.790092 0
0.79673 0.798784 0
0.792101 0.82485 0
0.819822 0.793151 0
0.827025 0.76928 0
0.804713 0.774756 0
0.834288 0.984213 0
0.812927 0.920761 0
0.821746 0.95329 0
0.829784 0.904482 0
0.867733 0.924287 0
0.888804 0.909752 0
0.850758 0.907852 0
0.837689 0.932031 0
0.870496 0.88328 0
0.805677 0.972526 0
0.88627 0.88947 0
0.856606 0.864892 0
0.826982 0.870636 0
0.839628 0.817534 0
0.848067 0.837097 0
0.868788 0.805944 0
0.851812 0.803375 0
0.78275 1.02023 0
0.828253 1.08768 0
0.800739 1.0598 0
0.786127 1.04495 0
0.649439 0.852989 0
0.655327 0.873549 0
0.648305 0.829068 0
0.631376 0.831537 0
0.595153 0.81093 0
0.611543 0.82682 0
0.614593 0.795461 0
0.635248 0.863786 0
0.623084 0.812991 0
0.629781 0.791984 0
0.600051 0.760112 0
0.597686 0.785332 0
0.586752 0.770462 0
0.612565 0.773541 0
0.878921 0.757034 0
0.899875 0.745106 0
0.886266 0.726177 0
0.426913 0.642652 0
0.543566 0.66979 0
0.52466 0.681372 0
0.5234 0.726477 0
0.524541 0.703772 0
0.567266 0.718147 0
0.581521 0.740804 0
0.57831 0.690154 0
0.60958 0.716652 0
0.56033 0.695008 0
0.587028 0.714423 0
0.595285 0.694105 0
0.598809 0.73581 0
0.620428 0.742648 0
0.634386 0.751599 0
0.631996 0.717105 0
0.630815 0.686471 0
0.613227 0.69269 0
0.618797 0.672658 0
0.639039 0.701215 0
0.6464 0.683002 0
0.664828 0.128711 0
0.673449 0.13574 0
0.687356 0.107783 0
0.660849 0.113747 0
0.697971 0.119504 0
0.656635 0.121567 0
0.713337 0.10904 0
0.679302 0.116576 0
0.699536 0.112044 0
0.713249 0.116936 0
0.705537 0.0847142 0
0.678712 0.124748 0
0.702747 0.0969329 0
0.70117 0.104213 0
0.58931 0.122872 0
0.579226 0.13495 0
0.611324 0.128284 0
0.609331 0.112058 0
0.636396 0.113241 0
0.631539 0.120435 0
0.607628 0.0843032 0
0.626676 0.0924833 0
0.607065 0.0743298 0
0.621365 0.0862372 0
0.643397 0.101256 0
0.592987 0.0759437 0
0.630182 0.0689778 0
0.629279 0.0993393 0
0.633385 0.10621 0
0.648964 0.108495 0
0.667462 0.10093 0
0.621634 0.0739437 0
0.671688 0.108184 0
0.685137 0.0992011 0
0.373401 0.413357 0
0.372409 0.395731 0
0.363177 0.425603 0
0.349598 0.418197 0
0.339367 0.477974 0
0.310417 0.431298 0
0.325202 0.44571 0
0.332347 0.46161 0
0.328804 0.431937 0
0.318244 0.463155 0
0.261168 0.402086 0
0.21323 0.503897 0
0.203547 0.495794 0
0.213581 0.524285 0
0.195397 0.498035 0
0.0905468 0.378535 0
0.0735346 0.404965 0
0.0808663 0.387232 0
0.0849629 0.377837 0
0.101878 0.395072 0
0.125759 0.448775 0
0.105242 0.495211 0
0.145842 0.54041 0
0.147581 0.519413 0
0.130371 0.506217 0
0.131621 0.550153 0
0.126745 0.633681 0
0.146716 0.630243 0
0.136159 0.616389 0
0.164833 0.666912 0
0.203264 0.555975 0
0.0938413 0.215483 0
0.0787199 0.222146 0
0.0857103 0.215315 0
0.0877833 0.241819 0
0.0916029 0.229169 0
0.095927 0.245078 0
0.0845428 0.22929 0
0.090572 0.255948 0
0.0753954 0.260834 0
0.0837554 0.270183 0
0.0788895 0.243454 0
0.0972584 0.257497 0
0.0762577 0.279729 0
0.0815789 0.256408 0
0.0667974 0.241628 0
0.0814293 0.280881 0
0.0786255 0.269523 0
0.0725682 0.247523 0
0.0740113 0.23285 0
0.0717085 0.218298 0
0.067397 0.227884 0
0.0773256 0.193511 0
0.0767513 0.207829 0
0.0831666 0.201549 0
0.0688551 0.19929 0
0.0884832 0.177607 0
0.0716719 0.207757 0
0.0838637 0.187957 0
0.091132 0.189776 0
0.0792519 0.17287 0
0.0995469 0.177358 0
0.0787534 0.183198 0
0.0939608 0.180907 0
0.104602 0.193631 0
0.106556 0.204567 0
0.110603 0.191779 0
0.104575 0.183294 0
0.0973505 0.19584 0
0.161087 0.103804 0
0.138693 0.106517 0
0.158228 0.131605 0
0.148645 0.119627 0
0.147343 0.154851 0
0.292725 0.0925565 0
0.224624 0.0679153 0
0.232308 0.0766159 0
0.23803 0.0682848 0
0.219654 0.0759663 0
0.251755 0.0657116 0
0.232606 0.0485079 0
0.257042 0.0714936 0
0.262781 0.057154 0
0.231913 0.0583208 0
0.260424 0.0628309 0
0.231534 0.0640596 0
0.242253 0.0614249 0
0.188028 0.0687996 0
0.365595 0.0468044 0
0.594844 0.0563288 0
0.576735 0.0538893 0
0.580016 0.0612936 0
0.592892 0.0479008 0
0.605647 0.0645012 0
0.580688 0.0449812 0
0.6374 0.0507356 0
0.616163 0.0415167 0
0.591321 0.0647336 0
0.613834 0.0514283 0
0.600413 0.043025 0
0.612186 0.0579982 0
0.624459 0.0465907 0
0.646234 0.0432981 0
0.632325 0.0403599 0
0.694824 0.0539593 0
0.696327 0.0363994 0
0.666817 0.0502266 0
0.668396 0.0380793 0
0.651687 0.0482343 0
0.665663 0.0439181 0
0.653126 0.039029 0
0.528816 0.0276828 0
0.449005 0.0423618 0
0.440682 0.035135 0
0.488743 0.0500616 0
1.00406 0.618141 0
1.04622 0.632065 0
1.2421 0.249515 0
1.42586 0.392965 0
1.31412 0.387657 0
1.38097 0.380245 0
1.33034 0.356792 0
1.31284 0.347908 0
1.42675 0.561343 0
1.39798 0.555499 0
1.38368 0.515007 0
1.4227 0.52862 0
1.40994 0.510957 0
1.39947 0.527648 0
1.41681 0.545421 0
1.45806 0.503405 0
1.42876 0.489937 0
1.43539 0.51222 0
1.46062 0.533749 0
1.45696 0.481543 0
1.45582 0.447871 0
1.46449 0.464424 0
1.42834 0.463995 0
1.42008 0.438251 0
1.39495 0.444612 0
1.38928 0.42795 0
1.41064 0.477022 0
1.43414 0.449521 0
1.20591 0.70852 0
1.20043 0.653336 0
1.31155 0.760123 0
1.32284 0.678343 0
1.37624 0.626505 0
1.33195 0.62132 0
1.34146 0.590177 0
1.31638 0.636559 0
1.31656 0.584273 0
1.14072 0.693247 0
1.11299 0.578475 0
1.1412 0.578635 0
1.13746 0.596277 0
1.12326 0.623796 0
1.09103 0.617507 0
1.17577 0.19425 0
1.22825 0.195722 0
1.15966 0.167932 0
1.14172 0.153829 0
0.939382 0.184138 0
1.1544 0.129371 0
0.829338 0.206317 0
0.860896 0.162723 0
1.02828 0.890661 0
1.00383 0.8964 0
0.993946 0.926722 0
1.02448 0.968571 0
1.01413 0.942428 0
0.99938 0.966626 0
1.04811 0.939602 0
1.11515 0.865789 0
1.07068 0.795681 0
0.964609 0.968867 0
0.857693 0.960361 0
0.839774 0.955512 0
0.892826 0.796399 0
0.892085 0.773708 0
0.870856 0.780466 0
0.858219 0.761129 0
0.865722 0.740508 0
0.812209 1.01252 0
0.796002 1.0061 0
0.776431 1.10034 0
0.782927 1.07306 0
0.763538 1.07529 0
0.802613 1.09802 0
0.812351 1.07777 0
0.832361 1.04481 0
0.793026 1.18464 0
0.791155 1.13934 0
0.790121 1.11464 0
0.823608 1.13412 0
0.818678 1.10931 0
0.655003 0.809147 0
0.424163 0.622575 0
0.440506 0.660722 0
0.472384 0.689995 0
0.461221 0.663481 0
0.449759 0.67951 0
0.490975 0.654984 0
0.477092 0.667322 0
0.491606 0.686076 0
0.472958 0.635764 0
0.494805 0.62005 0
0.508113 0.619305 0
0.504126 0.641262 0
0.492467 0.599339 0
0.485032 0.720771 0
0.502923 0.66996 0
0.471374 0.616653 0
0.461206 0.629514 0
0.499668 0.707945 0
0.498152 0.72885 0
0.483197 0.701219 0
0.748031 0.0955127 0
0.740624 0.10762 0
0.727749 0.111932 0
0.583061 0.143131 0
0.641477 0.0754125 0
0.669242 0.0847128 0
0.67299 0.0927497 0
0.645506 0.0854513 0
0.658743 0.0781186 0
0.687269 0.0872074 0
0.68873 0.0730074 0
0.671775 0.0736979 0
0.677385 0.0624923 0
0.682755 0.0798556 0
0.643516 0.0931589 0
0.0709309 0.358803 0
0.078363 0.354441 0
0.0731847 0.339448 0
0.0759045 0.372657 0
0.0668108 0.384007 0
0.0748639 0.388728 0
0.0705311 0.373504 0
0.0781311 0.341326 0
0.0848145 0.420206 0
0.0923471 0.418791 0
0.088935 0.434528 0
0.0955353 0.439137 0
0.101022 0.465918 0
0.103259 0.443068 0
0.117234 0.487804 0
0.137684 0.511216 0
0.134837 0.489045 0
0.128237 0.56798 0
0.138509 0.545361 0
0.131226 0.527916 0
0.118483 0.519963 0
0.119307 0.549146 0
0.125333 0.518301 0
0.122997 0.500065 0
0.125514 0.539632 0
0.136659 0.64536 0
0.139993 0.630365 0
0.123716 0.690349 0
0.137267 0.6834 0
0.127941 0.662856 0
0.139974 0.663896 0
0.112685 0.652924 0
0.130072 0.681769 0
0.132254 0.718414 0
0.120799 0.650264 0
0.11754 0.673008 0
0.106926 0.680426 0
0.139456 0.596919 0
0.127477 0.600933 0
0.113106 0.611235 0
0.115941 0.632164 0
0.120994 0.614631 0
0.117958 0.595912 0
0.103205 0.572539 0
0.112299 0.575025 0
0.129501 0.617586 0
0.107019 0.594005 0
0.0880366 0.609877 0
0.10196 0.626726 0
0.0967533 0.595895 0
0.108595 0.634874 0
0.106501 0.612992 0
0.103051 0.647089 0
0.117535 0.56547 0
0.108607 0.547741 0
0.107057 0.661376 0
0.163885 0.642591 0
0.155228 0.647608 0
0.0554776 0.194252 0
0.085237 0.166618 0
0.0978242 0.145709 0
0.0900777 0.153916 0
0.0989019 0.161116 0
0.0933738 0.168839 0
0.0857706 0.131574 0
0.095668 0.15376 0
0.0902085 0.141458 0
0.0818136 0.143105 0
0.0850119 0.150223 0
0.066507 0.122302 0
0.0664689 0.148147 0
0.0752451 0.129986 0
0.0743233 0.149056 0
0.0802085 0.13425 0
0.0707057 0.1388 0
0.0760358 0.140241 0
0.0696578 0.12965 0
0.0697438 0.165452 0
0.0751463 0.159992 0
0.0700965 0.155386 0
0.106826 0.16916 0
0.148795 0.105263 0
0.144407 0.112279 0
0.133036 0.119526 0
0.155661 0.117756 0
0.142226 0.127717 0
0.140428 0.11936 0
0.145208 0.143271 0
0.155652 0.146415 0
0.162846 0.146257 0
0.288111 0.0993195 0
0.303717 0.0907776 0
0.283268 0.0785076 0
0.278038 0.0888798 0
0.272273 0.094189 0
0.288216 0.0853161 0
0.272544 0.0817841 0
0.273385 0.0738751 0
0.264328 0.0750201 0
0.302403 0.0563451 0
0.28545 0.0635527 0
0.276774 0.0674945 0
0.274094 0.0601995 0
0.286423 0.0546295 0
0.273103 0.0531108 0
0.292957 0.0592424 0
0.304209 0.0698746 0
0.302498 0.0362384 0
0.298252 0.0457348 0
0.282102 0.0463533 0
0.295966 0.0513377 0
0.289084 0.039816 0
0.299524 0.0407713 0
0.318962 0.0443213 0
0.31032 0.0500506 0
0.282185 0.0287326 0
0.33102 0.0613653 0
0.326287 0.051141 0
0.289527 0.0336173 0
0.356732 0.0713557 0
0.363716 0.0831363 0
0.328995 0.0461705 0
0.339116 0.0305177 0
0.331023 0.0376085 0
0.341226 0.0546685 0
0.304527 0.0278774 0
0.266503 0.0361463 0
0.373067 0.0736851 0
0.330789 0.0558837 0
0.316596 0.0587549 0
0.348395 0.0628705 0
0.352613 0.0501991 0
0.368837 0.0562895 0
0.363202 0.0517271 0
0.354155 0.0566497 0
0.293507 0.029286 0
0.289862 0.0230428 0
0.272819 0.0415839 0
0.278841 0.0365078 0
0.273298 0.0319636 0
0.26977 0.0268245 0
0.259815 0.0309704 0
0.279289 0.0245893 0
0.271402 0.0137625 0
0.278115 0.0185795 0
0.266484 0.021588 0
0.36292 0.0766204 0
0.373873 0.0800776 0
0.317412 0.053578 0
0.306336 0.0628026 0
0.296046 0.0653838 0
0.292063 0.0726804 0
0.319653 0.0676917 0
0.301474 0.0765813 0
0.317211 0.0769009 0
0.364081 0.0638787 0
0.223903 0.0312937 0
0.243994 0.0384982 0
0.265482 0.0172445 0
0.254074 0.013391 0
0.262395 0.0145756 0
0.337329 0.0714293 0
0.321663 0.087581 0
0.374926 0.0613281 0
0.241458 0.0296927 0
0.254363 0.0357307 0
0.250016 0.0317432 0
0.255513 0.0425809 0
0.263671 0.0403406 0
0.346929 0.0686377 0
0.330101 0.0670648 0
0.243438 0.0449709 0
0.244698 0.0529214 0
0.23558 0.053382 0
0.251607 0.0579126 0
0.254432 0.0489151 0
0.213207 0.052829 0
0.22424 0.0532991 0
0.217852 0.0604562 0
0.200189 0.0603862 0
0.208919 0.06853 0
0.208948 0.0581788 0
0.211475 0.0742482 0
0.216516 0.0660142 0
0.194738 0.0761846 0
0.202513 0.0730513 0
0.183487 0.0766125 0
0.163594 0.0650671 0
0.185601 0.0835211 0
0.170257 0.0740874 0
0.178395 0.0701419 0
0.379691 0.0476607 0
0.377014 0.0410311 0
0.354698 0.0372794 0
0.367387 0.0376067 0
0.646989 0.0602415 0
0.653454 0.0542724 0
0.663318 0.0590968 0
0.671217 0.0236405 0
0.542395 0.028994 0
0.530294 0.0174914 0
0.492572 0.0255145 0
0.43641 0.044514 0
0.44364 0.0281695 0
0.990465 0.633951 0
1.02793 0.62604 0
1.03157 0.649086 0
1.06102 0.658191 0
1.04215 0.66611 0
1.0938 0.689744 0
1.07242 0.635357 0
1.06106 0.621024 0
1.0869 0.655882 0
1.09298 0.636629 0
1.0757 0.67548 0
1.1073 0.669528 0
1.11726 0.689942 0
1.10502 0.744597 0
1.12466 0.719937 0
1.09614 0.717563 0
1.1422 0.753728 0
1.0691 0.705691 0
1.12562 0.740693 0
1.16144 0.72271 0
1.03997 0.720626 0
1.14367 0.712713 0
1.05009 0.704461 0
1.02298 0.714185 0
1.23165 0.268196 0
1.42267 0.407822 0
1.4892 0.389897 0
1.38723 0.397532 0
1.40641 0.382103 0
1.32264 0.371256 0
1.35759 0.366622 0
1.3889 0.359783 0
1.44583 0.307301 0
1.4244 0.335772 0
1.41318 0.351284 0
1.45447 0.555036 0
1.52837 0.51559 0
1.44363 0.433265 0
1.49452 0.423791 0
1.46683 0.423504 0
1.49257 0.448232 0
1.48104 0.407363 0
1.51684 0.405648 0
1.45759 0.393399 0
1.47435 0.438232 0
1.54946 0.437863 0
1.46574 0.36469 0
1.44462 0.350278 0
1.44218 0.378501 0
1.45862 0.407722 0
1.54073 0.418428 0
1.52074 0.432665 0
1.47004 0.379833 0
1.49851 0.33459 0
1.47511 0.346795 0
1.52086 0.363362 0
1.49353 0.369465 0
1.46412 0.325833 0
1.50217 0.350852 0
1.53922 0.342619 0
1.52243 0.384343 0
1.43781 0.322064 0
1.38312 0.304177 0
1.40384 0.319713 0
1.3846 0.337853 0
1.44814 0.336217 0
1.41481 0.30245 0
1.40378 0.332315 0
1.37344 0.320954 0
1.33067 0.303155 0
1.30488 0.311936 0
1.34779 0.336821 0
1.35651 0.308234 0
1.29574 0.324286 0
1.3621 0.289511 0
1.33513 0.32051 0
1.36603 0.350273 0
1.45304 0.260272 0
1.39971 0.281332 0
1.37752 0.28068 0
1.39735 0.294005 0
1.23316 0.709153 0
1.25139 0.722587 0
1.26608 0.76261 0
1.27663 0.736678 0
1.253 0.744326 0
1.28836 0.755704 0
1.28803 0.790568 0
1.29603 0.718867 0
1.35203 0.727757 0
1.32456 0.719779 0
1.30955 0.737504 0
1.33467 0.746955 0
1.3454 0.703999 0
1.34879 0.792392 0
1.37426 0.76039 0
1.41366 0.701631 0
1.33491 0.77133 0
1.35693 0.747449 0
1.3796 0.709018 0
1.3181 0.795623 0
1.40552 0.736843 0
1.38774 0.674732 0
1.30557 0.779288 0
1.40003 0.717437 0
1.39317 0.693459 0
1.35236 0.649304 0
1.338 0.663309 0
1.36579 0.666203 0
1.38807 0.649372 0
1.446 0.615475 0
1.46503 0.586116 0
1.41239 0.627162 0
1.4464 0.573139 0
1.41118 0.592649 0
1.40725 0.57334 0
1.35304 0.629612 0
1.36052 0.607098 0
1.38838 0.605891 0
1.36478 0.588344 0
1.45131 0.663416 0
1.41763 0.662272 0
1.42285 0.609534 0
1.43987 0.593305 0
1.43902 0.639929 0
1.43344 0.683105 0
1.41057 0.680724 0
1.44691 0.710591 0
1.40947 0.645164 0
1.44663 0.74837 0
1.47781 0.688697 0
1.45623 0.682045 0
1.45636 0.729412 0
1.42988 0.72815 0
1.46861 0.70598 0
1.31485 0.605327 0
1.16266 0.669215 0
1.09422 0.596248 0
1.20304 0.195018 0
1.21702 0.183379 0
1.28507 0.162111 0
1.24675 0.169901 0
1.22664 0.174114 0
1.14953 0.180593 0
1.17155 0.177275 0
1.13563 0.170777 0
1.17348 0.154809 0
1.15912 0.144303 0
1.16963 0.136017 0
1.21811 0.120015 0
1.19737 0.129661 0
1.13537 0.143725 0
1.1568 0.159175 0
1.18411 0.165147 0
1.21551 0.154032 0
1.22772 0.163179 0
1.255 0.150068 0
1.19461 0.156652 0
1.17642 0.114511 0
1.21955 0.139875 0
1.19439 0.120374 0
1.17235 0.123451 0
1.1506 0.117294 0
1.15641 0.106301 0
1.20502 0.146221 0
1.23277 0.147654 0
1.2224 0.129714 0
1.25454 0.122522 0
1.11579 0.0921149 0
1.09855 0.10206 0
1.11305 0.108781 0
1.13528 0.109157 0
1.13701 0.0987082 0
1.08414 0.0918223 0
1.11698 0.0992705 0
1.10091 0.0789529 0
1.03396 0.0864054 0
1.03489 0.0973642 0
1.10032 0.0864602 0
1.05724 0.0920502 0
1.06996 0.0818449 0
0.998386 0.0922134 0
1.01431 0.102568 0
1.05311 0.0852747 0
1.07606 0.0696763 0
1.0194 0.0919731 0
1.00952 0.0834006 0
1.03471 0.0722665 0
1.0096 0.0745386 0
1.02749 0.0791364 0
1.00944 0.0590429 0
0.980531 0.0665958 0
1.01624 0.0665583 0
0.990633 0.0722277 0
1.0494 0.0617856 0
0.998277 0.0639786 0
1.02852 0.0614379 0
1.04038 0.0541347 0
1.08172 0.0760998 0
1.05762 0.0747729 0
1.05529 0.0680151 0
1.09014 0.0535928 0
1.016 0.0520268 0
0.977031 0.0387504 0
1.00151 0.0441353 0
1.04579 0.0794702 0
1.06541 0.0559132 0
1.07316 0.0624411 0
1.06732 0.0465931 0
1.0919 0.065373 0
1.05657 0.0510019 0
1.13213 0.125671 0
1.12951 0.134683 0
1.14826 0.137213 0
0.868646 0.172667 0
0.891466 0.155899 0
1.03719 0.918952 0
1.07656 0.999518 0
1.07834 0.873433 0
1.0484 0.823312 0
0.854255 0.93838 0
0.857694 0.99215 0
0.840855 1.01472 0
0.868844 1.04642 0
0.865091 1.01844 0
0.850711 1.03705 0
0.851197 1.07209 0
0.852377 1.11608 0
0.881679 1.08676 0
0.844771 1.09434 0
0.868723 1.0703 0
0.888191 0.953809 0
0.892367 0.931735 0
0.817292 0.989921 0
0.813256 1.0392 0
0.798209 1.02896 0
0.74188 1.15438 0
0.809089 1.16034 0
0.846498 1.23844 0
0.845278 1.18093 0
0.829309 1.16233 0
0.81963 1.2038 0
0.85017 1.14857 0
0.877877 1.17403 0
0.868552 1.1346 0
0.860592 1.16869 0
0.870529 1.10816 0
0.421544 0.604323 0
0.486855 0.636111 0
0.452208 0.729903 0
0.44725 0.704907 0
0.463257 0.710991 0
0.459442 0.692271 0
0.724477 0.091614 0
0.709464 0.0909553 0
0.7211 0.100432 0
0.743709 0.0851343 0
0.73685 0.100541 0
0.725179 0.074389 0
0.724598 0.0833303 0
0.739868 0.078151 0
0.746076 0.116191 0
0.707539 0.0638125 0
0.0802426 0.405835 0
0.0874107 0.40154 0
0.0895073 0.494697 0
0.12178 0.474533 0
0.111722 0.467897 0
0.106577 0.457295 0
0.110523 0.484711 0
0.112366 0.505326 0
0.104319 0.522371 0
0.111469 0.52868 0
0.0971651 0.506782 0
0.100381 0.542858 0
0.0974298 0.525619 0
0.0981776 0.485504 0
0.0939056 0.469673 0
0.0902203 0.516671 0
0.0761788 0.509534 0
0.0817992 0.536266 0
0.0833626 0.50744 0
0.08717 0.531201 0
0.0791997 0.470634 0
0.0800937 0.520467 0
0.0727264 0.534623 0
0.0791935 0.490997 0
0.0863885 0.469197 0
0.0797099 0.44299 0
0.0824543 0.457181 0
0.0765538 0.423814 0
0.0694513 0.514679 0
0.0690057 0.480732 0
0.0716935 0.497215 0
0.0745363 0.480749 0
0.071752 0.454999 0
0.0661658 0.590183 0
0.0740024 0.439089 0
0.060653 0.43053 0
0.0668804 0.439078 0
0.0674744 0.559271 0
0.0698756 0.421334 0
0.0668113 0.403566 0
0.06207 0.393726 0
0.064437 0.4186 0
0.0583717 0.410989 0
0.0599396 0.463951 0
0.0682173 0.542221 0
0.0404243 0.418714 0
0.0656154 0.458113 0
0.061467 0.447361 0
0.0488103 0.409639 0
0.0508219 0.444986 0
0.0559357 0.450592 0
0.053551 0.404892 0
0.0526423 0.425088 0
0.121671 0.72037 0
0.127165 0.731293 0
0.12665 0.707588 0
0.106528 0.75271 0
0.115456 0.743172 0
0.11078 0.711937 0
0.116107 0.695442 0
0.115504 0.724028 0
0.144658 0.765087 0
0.136199 0.746266 0
0.151566 0.716415 0
0.14183 0.7236 0
0.148783 0.741286 0
0.155601 0.764871 0
0.158427 0.735449 0
0.174643 0.708551 0
0.162611 0.706927 0
0.144555 0.699097 0
0.137296 0.703632 0
0.150219 0.820084 0
0.168143 0.727967 0
0.168986 0.6886 0
0.18989 0.66838 0
0.177432 0.651032 0
0.180259 0.684168 0
0.167797 0.803301 0
0.150144 0.790143 0
0.204538 0.641512 0
0.198814 0.724749 0
0.183457 0.743429 0
0.176724 0.729434 0
0.187058 0.712118 0
0.18198 0.666006 0
0.173336 0.670302 0
0.163913 0.778752 0
0.15859 0.799309 0
0.178074 0.777444 0
0.1708 0.769215 0
0.204824 0.619411 0
0.195525 0.629861 0
0.186092 0.639184 0
0.195822 0.65128 0
0.207356 0.685414 0
0.204185 0.663829 0
0.178865 0.625678 0
0.228269 0.658836 0
0.215703 0.653473 0
0.216703 0.627044 0
0.190454 0.731193 0
0.195892 0.767534 0
0.189263 0.690358 0
0.197822 0.680575 0
0.197206 0.702621 0
0.219722 0.679478 0
0.22493 0.605616 0
0.217306 0.720866 0
0.207439 0.709985 0
0.215899 0.699284 0
0.238389 0.55525 0
0.224863 0.542396 0
0.245466 0.517371 0
0.245117 0.494454 0
0.235763 0.507029 0
0.22987 0.524131 0
0.21944 0.57872 0
0.234734 0.58329 0
0.271135 0.504659 0
0.26437 0.482664 0
0.213524 0.562567 0
0.22643 0.588642 0
0.257188 0.505293 0
0.254375 0.487237 0
0.262454 0.544538 0
0.264397 0.522879 0
0.253815 0.531013 0
0.275823 0.536999 0
0.24311 0.536885 0
0.250954 0.554902 0
0.298237 0.519787 0
0.288515 0.534101 0
0.28474 0.511155 0
0.275853 0.519721 0
0.295772 0.497752 0
0.28701 0.4708 0
0.294683 0.481513 0
0.298818 0.462296 0
0.294589 0.440692 0
0.275518 0.476437 0
0.282448 0.450666 0
0.280444 0.493409 0
0.273133 0.44574 0
0.0931977 0.567632 0
0.0865508 0.55479 0
0.0955751 0.552223 0
0.0768711 0.564232 0
0.0855473 0.582481 0
0.0810533 0.553333 0
0.0906508 0.592529 0
0.0762252 0.606353 0
0.0822315 0.600431 0
0.0793503 0.582481 0
0.0724018 0.582047 0
0.0948696 0.61828 0
0.0961213 0.6403 0
0.0814123 0.668161 0
0.0894819 0.659227 0
0.0886225 0.634355 0
0.0811522 0.626089 0
0.0903345 0.715905 0
0.0728152 0.633808 0
0.0832165 0.646812 0
0.0767761 0.651753 0
0.0876713 0.687662 0
0.0693822 0.611939 0
0.09699 0.693018 0
0.093427 0.675464 0
0.100072 0.725347 0
0.100911 0.678845 0
0.0958959 0.711817 0
0.0616186 0.201441 0
0.063941 0.181413 0
0.0710775 0.184766 0
0.064662 0.19229 0
0.0683486 0.175511 0
0.10647 0.152019 0
0.104766 0.160564 0
0.120006 0.13961 0
0.114613 0.148865 0
0.124806 0.155392 0
0.107334 0.133466 0
0.120991 0.14817 0
0.129935 0.145039 0
0.109039 0.14279 0
0.135875 0.157605 0
0.0964456 0.127962 0
0.137706 0.147428 0
0.129606 0.162653 0
0.137493 0.17092 0
0.091514 0.132835 0
0.131836 0.177346 0
0.143143 0.17842 0
0.146369 0.166773 0
0.156531 0.166119 0
0.157768 0.156 0
0.129754 0.109609 0
0.12882 0.0899567 0
0.120982 0.100004 0
0.13167 0.0994102 0
0.123632 0.106711 0
0.143495 0.0917914 0
0.135817 0.0928204 0
0.142992 0.0996711 0
0.368718 0.0920295 0
0.344238 0.0920844 0
0.356358 0.0895387 0
0.344815 0.0809471 0
0.330901 0.0788332 0
0.325986 0.0729319 0
0.334512 0.0864909 0
0.316307 0.0379934 0
0.309872 0.0417348 0
0.312906 0.032279 0
0.323337 0.0261534 0
0.314818 0.0283709 0
0.325759 0.0311342 0
0.300809 0.024003 0
0.312949 0.0238482 0
0.292746 0.0183112 0
0.317156 0.0108223 0
0.332691 0.0171501 0
0.320388 0.0197082 0
0.284677 0.0148994 0
0.307761 0.0150017 0
0.335393 0.02217 0
0.284401 0.00915657 0
0.3027 0.0175658 0
0.320245 0.0159356 0
0.324918 0.0226689 0
0.335665 0.0262601 0
0.36114 0.0260137 0
0.348381 0.0272458 0
0.362007 0.0317019 0
0.376082 0.0268876 0
0.280861 0.0118652 0
0.296277 0.0121772 0
0.356655 0.0185411 0
0.351106 0.0225563 0
0.349808 0.0328313 0
0.373544 0.0308368 0
0.295655 0.0150883 0
0.307358 0.0121301 0
0.303293 0.00804961 0
0.34362 0.0191321 0
0.245351 0.0193029 0
0.25657 0.0195952 0
0.25162 0.0164897 0
0.237416 0.015281 0
0.244416 0.0133657 0
0.210139 0.0120071 0
0.222409 0.0215636 0
0.22491 0.0125963 0
0.232748 0.01912 0
0.226351 0.0159951 0
0.234529 0.0244397 0
0.233478 0.0129354 0
0.223568 0.0261917 0
0.209566 0.0243715 0
0.231702 0.0285862 0
0.245579 0.0253363 0
0.32575 0.0970146 0
0.338257 0.101261 0
0.351183 0.100592 0
0.234388 0.0344627 0
0.218823 0.0406869 0
0.231616 0.0407118 0
0.224495 0.0362483 0
0.219412 0.0470689 0
0.210049 0.0440738 0
0.227037 0.0447111 0
0.197383 0.0669313 0
0.157016 0.0742149 0
0.644697 0.0663344 0
0.630476 0.0569325 0
0.623485 0.0627857 0
0.677222 0.0551606 0
0.677128 0.0305291 0
0.535768 0.0223528 0
0.511095 0.0212661 0
0.521855 0.0239946 0
0.509402 0.0280863 0
0.524368 0.0203983 0
0.505468 0.024472 0
0.4895 0.0331709 0
0.502845 0.0347707 0
0.474625 0.0383606 0
0.496099 0.0293984 0
0.488489 0.0377977 0
0.466105 0.0307847 0
0.480197 0.0285088 0
0.468028 0.0209981 0
0.477873 0.0241366 0
0.490453 0.0207134 0
0.478691 0.018437 0
0.457856 0.00983651 0
0.471541 0.0134485 0
0.463083 0.0414818 0
0.475908 0.0337876 0
0.429802 0.0263723 0
0.435991 0.0312754 0
1.11841 0.770197 0
1.08804 0.770111 0
1.1042 0.802636 0
1.07004 0.740122 0
1.11847 0.78967 0
1.08909 0.790048 0
1.08646 0.75037 0
1.07772 0.722578 0
1.05896 0.76779 0
1.0454 0.745755 0
1.01987 0.778495 0
1.00871 0.752477 0
1.03767 0.76642 0
1.04216 0.794799 0
1.00195 0.796013 0
0.999084 0.772854 0
1.02509 0.737893 0
1.02804 0.813399 0
1.19459 0.779735 0
1.23039 0.772373 0
1.17707 0.697228 0
1.18458 0.71848 0
1.17885 0.750454 0
1.15974 0.687725 0
1.1596 0.742787 0
1.16386 0.777002 0
1.20771 0.754194 0
1.20445 0.731264 0
1.14426 0.773463 0
1.22535 0.279821 0
1.20554 0.253268 0
1.19591 0.266496 0
1.18162 0.252589 0
1.49044 0.517074 0
1.46784 0.518084 0
1.48764 0.537026 0
1.50766 0.494442 0
1.48057 0.492823 0
1.57041 0.479888 0
1.52927 0.46765 0
1.52904 0.449552 0
1.54192 0.493385 0
1.50974 0.477617 0
1.54717 0.47777 0
1.56294 0.457969 0
1.60704 0.462752 0
1.58344 0.466312 0
1.52585 0.326749 0
1.51864 0.283195 0
1.53004 0.304196 0
1.48768 0.306108 0
1.50198 0.319106 0
1.46721 0.312575 0
1.57933 0.368052 0
1.5483 0.373046 0
1.57042 0.385347 0
1.55726 0.356275 0
1.61486 0.41825 0
1.60628 0.338032 0
1.58658 0.404695 0
1.57225 0.338795 0
1.57226 0.423056 0
1.63107 0.387478 0
1.60108 0.381488 0
1.60932 0.396588 0
1.62972 0.360475 0
1.60527 0.366175 0
1.58912 0.35219 0
1.40311 0.254206 0
1.37431 0.785033 0
1.37863 0.733 0
1.40416 0.763962 0
1.43698 0.781576 0
1.42297 0.751063 0
1.5331 0.593489 0
1.50001 0.771633 0
1.55218 0.703813 0
1.30511 0.621211 0
1.18127 0.661334 0
1.16137 0.650237 0
1.13477 0.663345 0
1.11949 0.177407 0
1.26021 0.160574 0
1.30491 0.14048 0
1.24186 0.1096 0
1.25263 0.135952 0
1.24252 0.128906 0
1.27648 0.142275 0
1.27834 0.152219 0
1.28569 0.128734 0
1.26501 0.129401 0
1.34375 0.122579 0
1.27716 0.120399 0
1.31053 0.120246 0
1.31195 0.130342 0
1.33479 0.138201 0
1.33962 0.0982034 0
1.36443 0.132378 0
1.33351 0.129792 0
1.33295 0.110236 0
1.44682 0.143384 0
1.40262 0.113496 0
1.32917 0.117376 0
1.30351 0.102007 0
1.40248 0.140974 0
1.37646 0.120875 0
1.36971 0.106297 0
1.3071 0.110935 0
1.32452 0.10337 0
1.37879 0.139679 0
1.39448 0.129812 0
1.42822 0.132275 0
1.34826 0.104909 0
1.35656 0.114264 0
1.3803 0.113056 0
1.42507 0.140789 0
1.47531 0.128885 0
1.41579 0.122636 0
1.44759 0.12303 0
1.45347 0.133969 0
1.47052 0.120436 0
1.54938 0.119255 0
1.50906 0.114841 0
1.43506 0.112405 0
1.44969 0.086343 0
1.45063 0.0994223 0
1.45113 0.106911 0
1.41571 0.102249 0
1.39377 0.10575 0
1.42693 0.0929275 0
1.39461 0.0759523 0
1.41767 0.0830469 0
1.45225 0.0694696 0
1.37444 0.088482 0
1.37998 0.097408 0
1.40353 0.0953326 0
1.35903 0.0940402 0
1.34454 0.0851618 0
1.42554 0.0742164 0
1.39255 0.083252 0
1.36612 0.0788948 0
1.29835 0.0868818 0
1.45256 0.0776966 0
1.496 0.0832197 0
1.48116 0.0734443 0
1.47098 0.0825202 0
1.48019 0.0929587 0
1.41295 0.0612727 0
1.36424 0.0648277 0
1.37306 0.0716058 0
1.39879 0.0679618 0
1.34624 0.0703822 0
1.31061 0.0571127 0
1.33396 0.0625015 0
1.32036 0.0834592 0
1.32006 0.0920134 0
1.50214 0.0766427 0
1.56661 0.0849657 0
1.53923 0.0777103 0
1.45766 0.092716 0
1.47969 0.102702 0
1.49068 0.109655 0
1.53486 0.0988131 0
1.51644 0.105748 0
1.54819 0.108338 0
1.50605 0.0970714 0
1.52658 0.0883576 0
1.42732 0.0670303 0
1.36335 0.051201 0
1.29324 0.0686566 0
1.29682 0.0774756 0
1.31955 0.0696517 0
1.3091 0.0635349 0
1.61382 0.0643988 0
1.53214 0.113932 0
1.58712 0.113274 0
1.57286 0.0991731 0
1.50327 0.0898654 0
1.55183 0.0919908 0
1.54384 0.0840049 0
1.51948 0.0816566 0
1.33862 0.0550798 0
1.3632 0.057816 0
1.33803 0.0483621 0
1.38634 0.0610481 0
1.30561 0.0492024 0
1.40064 0.0534235 0
1.26428 0.0740642 0
1.5601 0.0648887 0
1.56433 0.113545 0
1.58768 0.105325 0
1.59967 0.0907835 0
1.2545 0.0373253 0
1.24849 0.0554294 0
1.27672 0.0604074 0
1.42387 0.055662 0
1.23658 0.0898333 0
1.5404 0.0701215 0
1.57731 0.0742666 0
1.59423 0.0972361 0
1.69851 0.0887331 0
1.28585 0.0417849 0
1.28658 0.0539189 0
1.24717 0.0640718 0
1.24258 0.0804171 0
1.5616 0.0787405 0
1.59696 0.0814284 0
1.64747 0.0849063 0
1.61115 0.0730522 0
1.62 0.0855381 0
1.63642 0.0947139 0
1.30334 0.0443575 0
1.20312 0.0591764 0
1.2498 0.0698145 0
1.26658 0.0868315 0
1.67146 0.0698146 0
1.675 0.115739 0
1.66784 0.0921408 0
1.66193 0.103873 0
1.22028 0.0648766 0
1.22711 0.0584911 0
1.22425 0.0505966 0
1.16723 0.0727956 0
1.19052 0.0670026 0
1.27058 0.0666593 0
1.26115 0.0987698 0
1.27539 0.0801506 0
1.63931 0.0691851 0
1.63743 0.0770618 0
1.63611 0.102554 0
1.71904 0.104338 0
1.6935 0.0980879 0
1.20235 0.0529288 0
1.14556 0.0531921 0
1.17368 0.0515177 0
1.25648 0.0467128 0
1.28093 0.0479434 0
1.22542 0.0420435 0
1.19857 0.0823677 0
1.25523 0.0922722 0
1.28231 0.0936266 0
1.69008 0.107397 0
1.15772 0.0624888 0
1.15381 0.0392249 0
1.24412 0.0505102 0
1.21637 0.0461551 0
1.22157 0.083878 0
1.20355 0.0936361 0
1.19194 0.0746145 0
1.21391 0.0768871 0
1.30205 0.0951652 0
1.17048 0.0669028 0
1.16325 0.0566118 0
1.17071 0.044508 0
1.20917 0.070388 0
1.19234 0.0368201 0
1.1408 0.0456284 0
1.17507 0.0396451 0
1.1178 0.0390903 0
1.11737 0.0504 0
1.1356 0.0410564 0
1.11368 0.0581445 0
1.09444 0.0465373 0
1.11608 0.0445624 0
1.09321 0.0593101 0
1.13301 0.0624048 0
1.13819 0.0709958 0
1.11645 0.0735054 0
1.13938 0.0826378 0
1.13851 0.0905002 0
1.1496 0.0765944 0
1.16885 0.0839198 0
1.18634 0.0886295 0
1.03483 0.0329705 0
0.95458 0.0519794 0
0.977407 0.0574678 0
0.995681 0.0541735 0
0.871972 0.154265 0
0.852456 0.151896 0
0.843195 0.16018 0
0.880061 0.164146 0
0.908905 0.165378 0
0.926055 0.161651 0
0.908893 0.133848 0
1.05439 0.974474 0
1.04108 0.959466 0
1.03193 1.02528 0
1.01015 1.00019 0
1.09287 0.953733 0
1.05108 1.00476 0
1.0584 1.03812 0
1.06895 0.952628 0
1.08014 0.9743 0
1.10601 0.992246 0
1.0822 0.915801 0
1.0312 0.993455 0
1.11091 0.967716 0
1.1344 0.917138 0
1.11542 0.938046 0
1.14116 0.945851 0
1.1083 0.908962 0
1.09632 0.931491 0
1.22175 0.993956 0
1.17693 0.920245 0
1.12722 0.890181 0
1.09118 0.893261 0
1.17785 0.976508 0
1.15509 0.926457 0
1.16581 0.951672 0
1.162 0.854588 0
1.15492 0.97422 0
1.16 1.05696 0
1.16326 1.0147 0
1.13992 0.86713 0
1.15872 0.893197 0
1.13494 0.829438 0
1.10759 1.05243 0
1.17587 0.815659 0
1.1327 1.00939 0
1.18207 0.895552 0
1.18172 0.869645 0
1.21487 0.83828 0
1.18617 0.84158 0
1.20257 0.858785 0
1.09601 1.02251 0
1.08108 1.05413 0
1.17781 0.793699 0
1.14994 0.996787 0
1.14506 1.03401 0
1.12255 1.03276 0
1.13314 1.06276 0
1.15382 1.10704 0
1.14975 1.08062 0
1.0753 1.024 0
1.05741 0.877852 0
1.03531 0.83991 0
1.06765 0.845097 0
1.09325 0.850093 0
1.11459 0.841095 0
1.08461 0.822514 0
1.10418 0.823319 0
1.06629 0.815703 0
0.959815 1.08416 0
0.992968 1.0495 0
1.0088 1.02858 0
0.983447 1.0185 0
0.955549 1.00615 0
0.963144 1.04613 0
0.917936 1.00653 0
0.976639 1.06726 0
1.0091 1.14388 0
0.988016 1.10863 0
0.966165 1.02397 0
0.936585 0.99635 0
0.922878 1.0594 0
0.944843 1.06263 0
0.936507 1.03027 0
0.871453 0.946221 0
0.875151 0.97457 0
0.916508 0.960204 0
0.935554 0.947813 0
0.899004 0.980344 0
0.927578 0.927811 0
0.768649 1.16402 0
0.786545 1.25623 0
0.839641 1.2098 0
0.867461 1.21148 0
0.894192 1.28712 0
0.874309 1.25389 0
0.863143 1.23525 0
0.472441 0.758726 0
0.468 0.734591 0
0.693383 0.0600562 0
0.707457 0.0711614 0
0.70156 0.0776745 0
0.76126 0.0496193 0
0.0845824 0.485277 0
0.0769211 0.456301 0
0.056158 0.434837 0
0.206627 0.749543 0
0.209217 0.729866 0
0.197535 0.746059 0
0.204244 0.768695 0
0.221092 0.752797 0
0.213426 0.759933 0
0.186279 0.765825 0
0.194678 0.849191 0
0.199772 0.808688 0
0.190307 0.792259 0
0.188964 0.822216 0
0.180454 0.80451 0
0.174493 0.846489 0
0.180119 0.827992 0
0.18436 0.852354 0
0.192207 0.911439 0
0.190774 0.879316 0
0.174459 0.900765 0
0.177402 0.87343 0
0.169023 0.86545 0
0.161905 0.835048 0
0.209216 0.889891 0
0.183908 0.897703 0
0.157368 0.819131 0
0.199171 0.892928 0
0.20502 0.926352 0
0.20302 0.866799 0
0.215311 0.862764 0
0.206157 0.835841 0
0.227816 0.816626 0
0.212411 0.808901 0
0.224316 0.843838 0
0.218935 0.825094 0
0.22191 0.79234 0
0.214176 0.842168 0
0.227683 0.563526 0
0.253323 0.59016 0
0.262366 0.57008 0
0.283206 0.618362 0
0.272826 0.558145 0
0.276433 0.588722 0
0.280195 0.571287 0
0.30712 0.586623 0
0.294372 0.57443 0
0.30514 0.548487 0
0.294699 0.547847 0
0.264774 0.590616 0
0.294211 0.600471 0
0.305031 0.567553 0
0.340422 0.558516 0
0.322016 0.55824 0
0.286812 0.58724 0
0.304704 0.640554 0
0.307869 0.613555 0
0.295829 0.623296 0
0.28595 0.650339 0
0.316092 0.630489 0
0.322552 0.678127 0
0.316088 0.65544 0
0.301626 0.682839 0
0.335452 0.652584 0
0.311536 0.673735 0
0.325152 0.642908 0
0.320508 0.598966 0
0.342258 0.593875 0
0.318584 0.578156 0
0.330368 0.585776 0
0.332586 0.604239 0
0.0976612 0.57859 0
0.103821 0.702067 0
0.0930944 0.744927 0
0.0988001 0.766412 0
0.100482 0.746102 0
0.0997406 0.828356 0
0.0970676 0.797488 0
0.0829666 0.826342 0
0.11185 0.798939 0
0.0887764 0.804546 0
0.118124 0.773724 0
0.105859 0.779754 0
0.111474 0.767568 0
0.104256 0.806668 0
0.0910921 0.83515 0
0.129545 0.822801 0
0.0944856 0.817097 0
0.0840966 0.869639 0
0.0974538 0.86667 0
0.139449 0.805265 0
0.121583 0.803023 0
0.085764 0.846971 0
0.0780925 0.849561 0
0.0905956 0.864496 0
0.0912987 0.942778 0
0.0892392 0.903443 0
0.0961942 0.845548 0
0.142707 0.785762 0
0.130719 0.780644 0
0.114858 0.84612 0
0.110014 0.824693 0
0.105634 0.852837 0
0.117372 0.823083 0
0.0702607 0.803536 0
0.13698 0.76817 0
0.124735 0.770496 0
0.128554 0.801177 0
0.103076 0.871556 0
0.0982162 0.900534 0
0.111348 0.867788 0
0.126904 0.924543 0
0.117602 0.900281 0
0.075693 0.821955 0
0.0793268 0.782248 0
0.0673069 0.841348 0
0.0756911 0.799397 0
0.0727662 0.841633 0
0.0933046 0.885587 0
0.094076 0.91998 0
0.10871 0.959817 0
0.103026 0.930824 0
0.0824718 0.802513 0
0.0851393 0.782815 0
0.081733 0.742049 0
0.0858877 0.759501 0
0.0989666 0.963729 0
0.112377 0.928455 0
0.104133 0.908054 0
0.0874861 0.735206 0
0.0815437 0.710233 0
0.0973607 0.940865 0
0.0897124 0.983509 0
0.105983 1.03909 0
0.120263 0.958391 0
0.119477 0.924204 0
0.111037 0.905548 0
0.081661 0.689029 0
0.069241 0.698675 0
0.0756214 0.699157 0
0.0749417 0.674839 0
0.0722187 0.733356 0
0.0716204 0.658776 0
0.0675658 0.676091 0
0.076474 0.719835 0
0.0522788 0.675548 0
0.0596326 0.697514 0
0.0643933 0.691892 0
0.0641102 0.724953 0
0.0930435 0.964605 0
0.104816 0.997842 0
0.114321 0.949702 0
0.104164 0.975071 0
0.106774 0.730203 0
0.123729 0.126676 0
0.129027 0.13451 0
0.126284 0.119239 0
0.113539 0.122591 0
0.134542 0.128269 0
0.114741 0.132256 0
0.119512 0.120992 0
0.109545 0.107382 0
0.104208 0.121801 0
0.114244 0.113771 0
0.09599 0.114845 0
0.089678 0.121663 0
0.103031 0.112192 0
0.0968271 0.0904438 0
0.0969649 0.102311 0
0.0806224 0.119162 0
0.105521 0.09614 0
0.087393 0.0964547 0
0.0929227 0.108017 0
0.0855254 0.11709 0
0.0997379 0.0962372 0
0.0932681 0.0963494 0
0.121071 0.163956 0
0.100403 0.136161 0
0.118639 0.0893831 0
0.123472 0.093671 0
0.110211 0.0884881 0
0.102269 0.0795833 0
0.113396 0.0966297 0
0.107776 0.0823271 0
0.258898 0.00707746 0
0.267321 0.00990945 0
0.273506 0.00702349 0
0.253618 0.00985706 0
0.285443 0.00668532 0
0.265472 0.00163226 0
0.265825 0.0039749 0
0.277726 0.00480286 0
0.277374 0.00264902 0
0.266017 0.00567063 0
0.267536 0.00267108 0
0.286904 0.0036166 0
0.320972 0.00180053 0
0.305054 0.00297028 0
0.284776 0.000690869 0
0.291103 0.00183005 0
0.277195 0.00139538 0
0.294927 0.00284192 0
0.305176 0 0
0.305696 0.000665078 0
0.295234 0.000955176 0
0.305079 0.00161094 0
0.3289 0.00566685 0
0.295092 0.0096109 0
0.223792 0.00633072 0
0.211085 0.017502 0
0.188236 0.0315078 0
0.163625 0.0781241 0
0.163525 0.0710819 0
0.145909 0.0628466 0
0.14963 0.0824202 0
0.136785 0.0804594 0
0.152333 0.0904173 0
0.156299 0.0803345 0
0.145146 0.0726694 0
0.142555 0.0847149 0
0.159493 0.0913208 0
0.15051 0.0763433 0
0.152011 0.0680165 0
0.133355 0.0669973 0
0.140738 0.0674078 0
0.137566 0.0607008 0
0.680538 0.0348879 0
0.712717 0.0275315 0
0.648552 0.0283234 0
0.510548 0.0165637 0
0.501634 0.018901 0
0.530269 0.00829145 0
0.525086 0.0124676 0
0.522261 0.0151129 0
0.501469 0.012103 0
0.500945 0.0146849 0
0.451836 0.0319951 0
0.454651 0.0369833 0
0.45274 0.0236335 0
0.457266 0.0274451 0
0.442047 0.0150414 0
0.44804 0.0190431 0
0.458502 0.0158571 0
0.457104 0.0126728 0
1.25543 0.792135 0
1.22383 0.805271 0
1.19891 0.806632 0
1.27284 0.814147 0
1.2641 0.875536 0
1.23385 0.864377 0
1.27573 0.845596 0
1.21462 0.786332 0
1.24472 0.828631 0
1.25446 0.854388 0
1.31647 0.878829 0
1.24378 0.808485 0
1.29068 0.868692 0
1.31294 0.849908 0
1.33696 0.824444 0
1.37746 0.823125 0
1.31822 0.81555 0
1.35675 0.81296 0
1.14317 0.731929 0
1.22554 0.256783 0
1.21703 0.23159 0
1.19304 0.228661 0
1.21214 0.213711 0
1.18383 0.21631 0
1.612 0.493652 0
1.57666 0.50708 0
1.564 0.494423 0
1.60014 0.288587 0
1.50745 0.296262 0
1.47472 0.280285 0
1.43923 0.286876 0
1.46404 0.294864 0
1.48615 0.291135 0
1.45085 0.274108 0
1.42409 0.265924 0
1.39862 0.267497 0
1.64468 0.442639 0
1.58934 0.44278 0
1.61691 0.445704 0
1.63473 0.458978 0
1.59548 0.427666 0
1.65285 0.37347 0
1.69404 0.338504 0
1.68033 0.358385 0
1.65256 0.340979 0
1.67439 0.345641 0
1.43316 0.832131 0
1.50044 0.581327 0
1.48042 0.573872 0
1.48963 0.614396 0
1.46842 0.632461 0
1.52126 0.654928 0
1.49851 0.637909 0
1.47802 0.654524 0
1.53534 0.624794 0
1.51151 0.621973 0
1.53879 0.553589 0
1.51037 0.549859 0
1.5206 0.568183 0
1.52859 0.535136 0
1.56793 0.534349 0
1.50846 0.600378 0
1.47844 0.750695 0
1.46063 0.76923 0
1.47041 0.808895 0
1.45847 0.790344 0
1.43735 0.806801 0
1.51224 0.704841 0
1.51712 0.739337 0
1.49457 0.737026 0
1.2381 0.117358 0
1.25832 0.114593 0
1.20633 0.107297 0
1.18148 0.105184 0
1.51771 0.129367 0
1.60423 0.142743 0
1.58723 0.0672619 0
1.31345 0.0298707 0
1.23157 0.0997179 0
1.21113 0.100193 0
1.262 0.106458 0
1.26328 0.0418056 0
1.1805 0.0608953 0
1.18544 0.0556758 0
1.20157 0.0416709 0
1.22361 0.0349588 0
1.23529 0.03829 0
1.25775 0.0262564 0
1.19231 0.0251134 0
1.2475 0.0314527 0
1.20072 0.0306866 0
1.2817 0.0328451 0
1.22582 0.0269922 0
1.15671 0.0299849 0
1.16636 0.0346054 0
1.17842 0.030806 0
1.27695 0.0373184 0
1.31011 0.0363926 0
1.28684 0.0273366 0
1.26711 0.0297869 0
1.22139 0.0308121 0
1.2351 0.0181576 0
1.31422 0.0239257 0
1.27729 0.0226842 0
1.26632 0.0181127 0
1.25007 0.0217493 0
1.22143 0.0220986 0
1.20641 0.0182568 0
1.17798 0.0203755 0
1.19953 0.0215589 0
1.38109 0.0270787 0
1.34795 0.0177887 0
1.30183 0.00939075 0
1.12747 0.0164253 0
1.16307 0.0246481 0
1.34505 0.0269385 0
1.32411 0.0198632 0
1.34923 0.0221484 0
1.37673 0.0197281 0
1.29122 0.0138593 0
1.3135 0.0161145 0
1.31919 0.0122416 0
1.15623 0.0172536 0
1.13135 0.0260581 0
1.32472 0.0268587 0
1.35958 0.0358169 0
1.35495 0.0423484 0
1.37203 0.0233618 0
1.41591 0.0227089 0
1.28546 0.0166571 0
1.33686 0.0145986 0
1.37103 0.0144161 0
1.36178 0.00729325 0
1.13483 0.0302046 0
1.143 0.0346921 0
1.14142 0.0212443 0
1.07736 0.0232062 0
1.36255 0.0306432 0
1.33679 0.0326683 0
1.33525 0.0379461 0
1.39862 0.0433617 0
1.40014 0.0200434 0
1.41205 0.0104379 0
1.33438 0.00905812 0
1.12347 0.0349484 0
1.10188 0.0261008 0
1.40884 0.0481662 0
1.38371 0.0478428 0
1.37832 0.0396573 0
1.42332 0.0334129 0
1.3924 0.0322955 0
1.40472 0.0375996 0
1.44554 0.040912 0
1.42379 0.0436789 0
1.42786 0.0378241 0
1.45871 0.0343619 0
1.39737 0.0131691 0
1.37873 0.0100679 0
1.32926 0.00571321 0
1.10545 0.0203019 0
1.07054 0.0304315 0
1.08056 0.0382071 0
1.08072 0.042931 0
1.4131 0.0279361 0
1.53346 0.0440866 0
1.44462 0.0292424 0
1.45673 0.0228217 0
1.45885 0.0263475 0
1.39838 0.00745455 0
1.35675 0.00942222 0
1.34348 0.0117019 0
1.34091 0.00717624 0
1.31627 0.00748683 0
1.26841 0.00568327 0
1.28978 0.00705759 0
1.29678 0.00447199 0
1.24942 0.0102782 0
1.27463 0.00925485 0
1.21742 0.0130396 0
1.25409 0.0076279 0
1.26971 0.012088 0
1.20455 0.0152412 0
1.24159 0.005526 0
1.20321 0.00798869 0
1.22901 0.00847917 0
1.21834 0.00619879 0
1.21245 0.0102829 0
1.17263 0.0107849 0
1.19332 0.0123654 0
1.11645 0.0233578 0
1.08165 0.0269679 0
1.50771 0.0355887 0
1.365 0.0119138 0
1.31724 0.00444744 0
1.2207 0 0
1.25971 0.00237903 0
1.24474 0.00363631 0
1.25043 0.0147735 0
1.27093 0.0146687 0
1.2297 0.0152677 0
1.14705 0.0130538 0
1.48439 0.0331862 0
1.48017 0.0399028 0
1.27245 0.00375386 0
1.29325 0.00219538 0
1.16882 0.0135035 0
1.13246 0.00760018 0
1.10826 0.0115921 0
1.46758 0.0474711 0
1.50811 0.0412181 0
1.50402 0.0491041 0
1.33395 0.000779051 0
1.27002 0 0
1.1476 0.00986538 0
1.1682 0.00668521 0
1.1252 0.00987026 0
1.1648 0.00868031 0
1.19125 0.0049628 0
1.1252 0.0133642 0
1.10085 0.0152339 0
1.46455 0.042918 0
1.48907 0.0447322 0
1.4767 0.0586451 0
1.45253 0.0546935 0
1.44145 0.0609056 0
1.5456 0.0540641 0
1.52347 0.0614521 0
1.31945 0.00168238 0
1.27195 0.000616606 0
1.29692 0.00101125 0
1.29837 0.000188855 0
1.18832 0.00667147 0
1.18593 0.00106355 0
1.21973 0.00188882 0
1.15342 0.00348014 0
1.48197 0.0524793 0
1.5034 0.0566796 0
1.4774 0.0658676 0
1.49889 0.06268 0
1.52956 0.0495291 0
1.54692 0.0598088 0
1.58699 0.0563862 0
1.27454 0.00145323 0
1.2445 0.00109781 0
1.31289 0.000534799 0
1.29504 0 0
1.27513 0.0001518 0
1.24524 0 0
1.23294 0.000271813 0
1.19842 0.00298584 0
1.16842 0.00473109 0
1.14256 0.00532904 0
1.13269 0.00385793 0
1.12953 0.000962733 0
1.13654 0.00215174 0
1.11794 0.00569589 0
1.16496 0.00193256 0
1.0518 0.00615949 0
1.08413 0.00537652 0
1.09736 0.00813757 0
1.17236 0 0
1.25129 0.000491613 0
1.19811 0.0018121 0
1.17541 0.0030795 0
1.1579 0.000779387 0
1.10006 0.00628215 0
1.07278 0.00750342 0
1.03924 0.010737 0
1.07886 0.0106201 0
1.05172 0.00849417 0
1.01448 0.00726805 0
1.03119 0.00851713 0
1.19846 0.000216478 0
1.25397 0.000112755 0
1.13882 0.000223631 0
1.05921 0.012016 0
1.02592 0.0180859 0
1.03806 0.0143788 0
1.21648 0.00011223 0
1.17708 0.000413035 0
1.14856 0 0
0.985231 0.0127416 0
1.01028 0.0109004 0
1.05632 0.0180974 0
1.00903 0.0146849 0
1.05608 0.0151877 0
1.04099 0.023784 0
1.05877 0.0264874 0
1.03732 0.028174 0
1.01673 0.0252317 0
1.02385 0.0216133 0
1.00358 0.031224 0
0.9794 0.0185494 0
1.00292 0.0194375 0
0.989512 0.0156809 0
1.09661 0.071542 0
1.15991 0.0904845 0
1.02515 0.0395451 0
1.01938 0.0437663 0
1.04938 0.0418094 0
1.01569 0.0350788 0
0.994024 0.03559 0
0.96254 0.0304604 0
0.974941 0.0340012 0
1.00547 0.0393461 0
0.973467 0.0460405 0
0.977307 0.0515449 0
0.936436 0.0410787 0
0.953807 0.0368874 0
0.957505 0.0421871 0
0.92444 0.0338132 0
0.943041 0.046669 0
0.90412 0.0572423 0
0.927315 0.0530152 0
0.944236 0.0326052 0
0.930306 0.0224681 0
0.942297 0.0270001 0
0.89899 0.0471157 0
0.920688 0.045426 0
0.916102 0.0401245 0
0.936827 0.0660158 0
0.966012 0.0252271 0
0.978494 0.0221515 0
0.953826 0.0201131 0
0.910617 0.0274612 0
0.908786 0.0517397 0
0.959036 0.0626004 0
0.93946 0.0588229 0
0.919993 0.0617036 0
0.892907 0.0663312 0
0.957014 0.01491 0
0.930637 0.0175841 0
0.925905 0.0257839 0
0.962848 0.0175388 0
0.93449 0.013938 0
0.914253 0.00681831 0
0.918804 0.0103225 0
0.891794 0.143071 0
0.913679 0.149557 0
0.933787 0.141866 0
1.06137 0.920724 0
1.20224 1.03988 0
1.19291 1.00639 0
1.15195 0.811894 0
1.16116 0.832042 0
0.945408 1.18359 0
0.90884 1.21318 0
0.888248 1.20154 0
0.891328 1.23317 0
1.02608 1.09867 0
1.02352 1.06098 0
1.0035 1.08204 0
1.03923 1.0782 0
1.03999 1.04744 0
0.895388 1.05488 0
0.911251 1.03424 0
0.898511 1.01382 0
0.882718 1.02863 0
0.912021 1.09961 0
0.935936 1.0928 0
0.930835 1.13961 0
0.926909 1.11481 0
0.908238 1.1688 0
0.95446 1.12018 0
0.90744 1.07464 0
0.952907 1.15244 0
0.98383 1.18328 0
0.975895 1.13815 0
0.964486 1.17476 0
0.993394 1.1314 0
0.969327 1.10522 0
0.785233 1.1625 0
0.769725 1.1312 0
0.753232 1.10634 0
0.752015 1.13263 0
0.750073 1.19229 0
0.753618 1.16937 0
0.76948 1.22231 0
0.754469 1.21541 0
0.769057 1.19299 0
0.797413 1.22177 0
0.817605 1.25783 0
0.826258 1.23131 0
0.802231 1.24652 0
0.847234 1.29816 0
0.484745 0.744255 0
0.729232 0.0543595 0
0.250686 0.718662 0
0.233615 0.703652 0
0.247339 0.776047 0
0.235321 0.790988 0
0.230541 0.681267 0
0.255386 0.658831 0
0.241638 0.664657 0
0.258635 0.623551 0
0.235016 0.758946 0
0.251213 0.687838 0
0.240565 0.687254 0
0.237296 0.638809 0
0.226588 0.771895 0
0.247279 0.746624 0
0.230185 0.73153 0
0.266928 0.704296 0
0.227655 0.627271 0
0.246993 0.626578 0
0.251662 0.609191 0
0.25382 0.639968 0
0.269409 0.761064 0
0.240747 0.728119 0
0.225783 0.714013 0
0.263473 0.679048 0
0.271929 0.688038 0
0.270283 0.652362 0
0.257056 0.703602 0
0.223181 0.643352 0
0.24534 0.647669 0
0.257135 0.761174 0
0.263179 0.733682 0
0.278509 0.663589 0
0.277505 0.636293 0
0.270524 0.616762 0
0.266844 0.634352 0
0.169929 0.826102 0
0.152366 0.850468 0
0.144112 0.902708 0
0.15073 0.879913 0
0.137786 0.85844 0
0.159073 0.921672 0
0.145463 0.862207 0
0.142908 0.836237 0
0.157738 0.895709 0
0.135343 0.836812 0
0.125586 0.856977 0
0.151565 0.911706 0
0.146206 0.979263 0
0.150867 0.946684 0
0.165725 0.905445 0
0.137552 0.947408 0
0.161928 0.981229 0
0.172986 0.946872 0
0.171403 0.923082 0
0.182553 0.929417 0
0.144186 0.956831 0
0.154093 0.970592 0
0.161726 0.950695 0
0.187709 0.981292 0
0.182194 0.957441 0
0.173516 0.980866 0
0.194469 0.9523 0
0.167745 1.00169 0
0.181263 1.02167 0
0.202036 0.945946 0
0.190508 0.932894 0
0.231376 0.937734 0
0.243133 0.594628 0
0.245915 0.573828 0
0.331379 0.521289 0
0.297592 0.660195 0
0.291394 0.67643 0
0.34452 0.689049 0
0.348199 0.625856 0
0.331098 0.568023 0
0.0792031 0.904322 0
0.0594987 0.80892 0
0.0595763 0.896244 0
0.0756392 0.757805 0
0.0683008 0.757706 0
0.0718885 0.778585 0
0.0654455 0.784769 0
0.0601041 0.785738 0
0.0495063 0.760692 0
0.0524665 0.793337 0
0.0552608 0.767945 0
0.0648138 0.807937 0
0.0572926 0.737299 0
0.0675091 0.738419 0
0.0618414 0.742963 0
0.0593663 0.71825 0
0.0509217 0.712232 0
0.0687997 0.718436 0
0.0969706 0.993032 0
0.0913612 1.01208 0
0.0998188 1.02068 0
0.114876 1.01456 0
0.0732317 0.118921 0
0.0658454 0.100678 0
0.0679571 0.111091 0
0.0765235 0.101391 0
0.0575655 0.11053 0
0.0709955 0.103886 0
0.075344 0.110178 0
0.081226 0.107203 0
0.0627137 0.107875 0
0.0615935 0.117119 0
0.0553074 0.121521 0
0.0493377 0.142091 0
0.0508439 0.130025 0
0.0580741 0.13993 0
0.0641477 0.136219 0
0.0594501 0.129147 0
0.0551578 0.132886 0
0.103435 0.10379 0
0.0877447 0.0833055 0
0.109052 0.063499 0
0.311212 0.00526225 0
0.31831 0.00764252 0
0.218997 0.00925595 0
0.229442 0.00991709 0
0.208631 0.00665352 0
0.241254 0.00704661 0
0.21652 0.00730997 0
0.208356 0.00915319 0
0.178167 0.0121115 0
0.193796 0.0112875 0
0.202288 0.0108653 0
0.200117 0.0148889 0
0.244394 0.00908097 0
0.208699 0.01466 0
0.217989 0.014556 0
0.187506 0.0147429 0
0.202317 0.0178243 0
0.18614 0.0121315 0
0.182423 0.00619992 0
0.182215 0.00901349 0
0.169868 0.0190281 0
0.16781 0.00747343 0
0.176865 0.0158337 0
0.18351 0.020853 0
0.183908 0.0175169 0
0.176046 0.00751214 0
0.207613 0.0207058 0
0.219952 0.0182847 0
0.196616 0.0264932 0
0.20158 0.023773 0
0.190971 0.0231738 0
0.205484 0.0340012 0
0.214434 0.0360557 0
0.204601 0.0392788 0
0.194856 0.0361318 0
0.166785 0.0441721 0
0.179428 0.0549247 0
0.179326 0.0386422 0
0.146835 0.0476309 0
0.181403 0.0623891 0
0.186181 0.0358519 0
0.188839 0.0419165 0
0.140187 0.0531703 0
0.190809 0.0619698 0
0.171303 0.0597935 0
0.178422 0.0458534 0
0.189985 0.0498736 0
0.193448 0.0556668 0
0.171822 0.0660221 0
0.168437 0.0517674 0
0.197791 0.030999 0
0.207474 0.0289824 0
0.216527 0.028778 0
0.150965 0.055132 0
0.17371 0.0419404 0
0.163245 0.0327796 0
0.1701 0.0365937 0
0.175139 0.0301222 0
0.181119 0.0256229 0
0.174698 0.022447 0
0.163935 0.0229082 0
0.18214 0.0501373 0
0.157797 0.0488274 0
0.144486 0.0573883 0
0.155568 0.0612052 0
0.160248 0.0551866 0
0.188414 0.0274537 0
0.161587 0.0275879 0
0.124997 0.0788936 0
0.11971 0.0827464 0
0.697335 0.0309183 0
0.691776 0.0255702 0
0.714618 0.019589 0
0.689716 0.020076 0
0.70771 0.0233215 0
0.70079 0.0170698 0
0.651223 0.0150715 0
0.666855 0.0185474 0
0.681581 0.0159347 0
0.635729 0.0210392 0
0.654369 0.0216161 0
0.646968 0.0183143 0
0.628171 0.0156052 0
0.643137 0.024444 0
0.606723 0.026713 0
0.623779 0.0245717 0
0.602916 0.019845 0
0.625266 0.0308528 0
0.620494 0.0359715 0
0.597394 0.0338593 0
0.609791 0.022994 0
0.634754 0.00866869 0
0.612994 0.0170297 0
0.56657 0.0178246 0
0.640228 0.0317733 0
0.633537 0.027482 0
0.609261 0.0308903 0
0.590645 0.0290661 0
0.573047 0.0258037 0
0.590726 0.0239349 0
0.575861 0.0213518 0
0.557169 0.021505 0
0.586022 0.0176085 0
0.548249 0.017832 0
0.557313 0.0115395 0
0.540594 0.0143165 0
0.575244 0.0137666 0
0.637399 0.0120432 0
0.5575 0.0147664 0
0.590877 0.0144933 0
0.590519 0.00698704 0
0.58817 0.0104048 0
0.669929 0.0101144 0
0.679768 0.0126313 0
0.662088 0.0126353 0
0.61704 0.0106547 0
0.569002 0.0083048 0
0.572642 0.0109682 0
0.651046 0.0100057 0
0.661407 0.0066324 0
0.621178 0.0131122 0
0.613551 0.00725536 0
0.602236 0.0114013 0
0.582351 0.00850581 0
0.571299 0.00515215 0
0.54946 0.00859311 0
0.53842 0.0106646 0
0.557822 0.00647814 0
0.632811 0.00565559 0
0.600945 0.00878528 0
0.576795 0.00671938 0
0.645109 0.00696064 0
0.564453 0 0
0.605185 0.00145493 0
0.604441 0.00386892 0
0.603003 0.00564814 0
0.617832 0.00485034 0
0.588024 0.00456816 0
0.588383 0.0024855 0
0.603595 0.00251489 0
0.631485 0.00214817 0
0.619856 0.00317084 0
0.575932 0.000627996 0
0.633814 0.00392985 0
0.587585 0.00127452 0
0.566932 0.00167316 0
0.531738 0 0
0.572573 0.00283344 0
0.527456 0.00111233 0
0.545789 0.00172454 0
0.548559 0.000352591 0
0.520718 0.00390464 0
0.555858 0.000953229 0
0.541216 0.000861425 0
0.528198 0.00027386 0
0.537783 0.00312167 0
0.522975 0.00227873 0
0.537333 0.00547021 0
0.488198 0.00103422 0
0.507481 0.00133702 0
0.515747 0 0
0.519261 0.00612478 0
0.480067 0.00457807 0
0.509796 0.00882079 0
0.500868 0.00477319 0
0.551575 0.00469789 0
0.502631 0.000340428 0
0.513759 0.0110409 0
0.48304 0.00868656 0
0.504612 0.00279776 0
0.504596 0.00667449 0
0.515318 0.000649111 0
0.512227 0.0134561 0
0.496159 0.00966633 0
0.48379 0.0114837 0
0.471699 0.0101351 0
0.665088 0.0274461 0
1.35852 0.862929 0
1.33398 0.861999 0
1.34369 0.889368 0
1.20136 0.240731 0
1.24911 0.219995 0
1.62234 0.477162 0
1.69629 0.540717 0
1.56903 0.301631 0
1.50199 0.259232 0
1.42213 0.278299 0
1.65445 0.355673 0
1.66583 0.302931 0
1.62807 0.345766 0
1.40685 0.818476 0
1.39841 0.856275 0
1.4118 0.839102 0
1.42923 0.864713 0
1.40094 0.903922 0
1.3728 0.894182 0
1.39357 0.880244 0
1.43119 0.895124 0
1.41523 0.880745 0
1.44877 1.00933 0
1.43204 0.952583 0
1.42338 0.923748 0
1.3863 0.942548 0
1.47337 0.924755 0
1.40999 0.943375 0
1.39631 0.996174 0
1.41115 0.971744 0
1.38012 0.918046 0
1.44847 0.914888 0
1.42384 0.996768 0
1.44823 0.978396 0
1.51792 0.992571 0
1.46182 0.951863 0
1.4813 0.993217 0
1.50394 0.953088 0
1.48304 0.944572 0
1.49199 1.05765 0
1.49926 0.976728 0
1.47728 1.02679 0
1.51289 1.02809 0
1.49982 1.00804 0
1.57694 1.09768 0
1.55463 1.01578 0
1.53801 1.06901 0
1.53088 1.01244 0
1.53907 1.03994 0
1.58362 1.05143 0
1.56316 1.0383 0
1.58875 1.02119 0
1.6638 1.04904 0
1.62322 1.04238 0
1.51718 1.05368 0
1.46736 0.605463 0
1.49932 0.67159 0
1.58677 0.656884 0
1.57784 0.6072 0
1.55473 0.517832 0
1.57181 0.558688 0
1.55002 0.574487 0
1.55932 0.592944 0
1.53128 0.681418 0
1.56503 0.678039 0
1.5911 0.701632 0
1.55397 0.653142 0
1.60676 0.677971 0
1.57547 0.749998 0
1.57445 0.632645 0
1.6917 0.632126 0
1.5733 0.723393 0
1.54365 0.727769 0
1.61817 0.734145 0
1.59825 0.721355 0
1.55825 0.618444 0
1.65388 0.660283 0
1.63407 0.675401 0
1.62091 0.649484 0
1.65135 0.629537 0
1.6089 0.622428 0
1.59911 0.640039 0
1.62819 0.632411 0
1.60808 0.597548 0
1.65795 0.573645 0
1.62819 0.580233 0
1.64201 0.604047 0
1.67371 0.611195 0
1.75689 0.587151 0
1.66399 0.592681 0
1.71017 0.590294 0
1.70369 0.611688 0
1.74694 0.637718 0
1.72027 0.629137 0
1.74652 0.611617 0
1.80487 0.624097 0
1.73435 0.595544 0
1.7729 0.624372 0
1.7747 0.646574 0
1.78845 0.600427 0
1.82874 0.600935 0
1.80299 0.558209 0
2 0.65918 0
1.78632 0.577561 0
1.81994 0.578193 0
1.90953 0.635366 0
1.87435 0.611726 0
1.85508 0.59887 0
1.84221 0.625738 0
1.82129 0.650974 0
1.87395 0.636798 0
1.89593 0.690175 0
1.89369 0.661316 0
1.7991 0.64198 0
1.83505 0.694801 0
1.85611 0.660621 0
1.94701 0.673522 0
1.81767 0.674532 0
1.84481 0.643964 0
1.91704 0.67475 0
1.93035 0.653245 0
1.96573 0.65202 0
2 0.615967 0
2 0.63739 0
1.49696 0.123184 0
1.49504 0.145479 0
1.47648 0.138492 0
1.50092 0.136259 0
1.54139 0.143257 0
1.58503 0.128325 0
1.12461 0.0194708 0
1.09093 0.0332728 0
1.05814 0.0352919 0
1.51684 0.0215463 0
1.43682 0.0181245 0
1.43191 0.0136636 0
1.42162 0.0160487 0
1.48782 0.014866 0
1.46584 0.00884383 0
1.4581 0.015388 0
1.47708 0.0189927 0
1.46915 0.0119944 0
1.44277 0.0106373 0
1.4384 0.00777491 0
1.45571 0.019612 0
1.48767 0.0232765 0
1.50469 0.0178644 0
1.53933 0.017873 0
1.4176 0.00835448 0
1.56247 0.0110187 0
1.51388 0.00985351 0
1.48803 0.0101328 0
1.55935 0.0146357 0
1.53347 0.0124734 0
1.5064 0.0125882 0
1.522 0.0152831 0
1.23844 0.0124628 0
1.4454 0.0458505 0
1.63394 0.0541715 0
1.64359 0.0613087 0
1.71016 0.0527479 0
1.67254 0.0553082 0
1.67388 0.0623583 0
1.71259 0.0667983 0
1.67696 0.0443797 0
1.65645 0.0493643 0
1.68531 0.0498835 0
1.57542 0.0468991 0
1.0332 0 0
1.21291 0.000795684 0
1.19641 0 0
1.16066 0.000125579 0
1.08123 0.018897 0
1.05818 0.021616 0
0.983578 0.0292804 0
0.827576 0.0431219 0
0.862241 0.0538145 0
0.885399 0.0528503 0
0.876769 0.0600949 0
0.901722 0.0323034 0
0.863789 0.0260699 0
0.886218 0.0280414 0
0.889217 0.0200783 0
0.861269 0.0347875 0
0.896396 0.0240259 0
0.882192 0.034293 0
0.868864 0.0303681 0
0.910321 0.0208511 0
0.877089 0.023082 0
0.856385 0.0177526 0
0.903082 0.0174689 0
0.878772 0.0138484 0
0.884223 0.0834452 0
0.955352 0.00976881 0
0.949999 0.0122424 0
0.984631 0.00884735 0
0.972963 0.0107361 0
1.00297 0.00884748 0
0.962397 0.00616982 0
0.967138 0.00806637 0
1.17767 1.03737 0
0.893917 1.1056 0
0.923754 1.19049 0
0.930999 1.16588 0
0.90946 1.13953 0
0.891656 1.15616 0
0.760575 1.26035 0
0.722936 1.29031 0
0.776724 1.30821 0
0.73866 1.26565 0
0.748519 1.30762 0
0.751374 1.28182 0
0.774843 1.27893 0
0.79777 1.28898 0
0.818948 1.29036 0
0.854818 1.2679 0
0.836186 1.26221 0
0.87071 1.2941 0
0.86296 1.34943 0
0.887476 1.3282 0
0.860719 1.31966 0
0.835627 1.3356 0
0.881709 1.35614 0
0.93953 1.32494 0
0.831246 1.30939 0
0.805963 1.39909 0
0.912999 1.31553 0
0.815161 1.36066 0
0.905495 1.34544 0
0.936057 1.26173 0
0.913579 1.24733 0
0.940408 1.22227 0
0.966281 1.21165 0
0.896479 1.25958 0
0.916723 1.28031 0
0.936745 1.29326 0
0.966718 1.30383 0
0.788724 1.34746 0
0.843184 1.39962 0
0.871816 1.39793 0
1.01028 1.23756 0
0.798305 1.3723 0
0.764556 1.38897 0
0.784696 1.39868 0
0.778641 1.37128 0
0.75653 1.34798 0
0.77041 1.41737 0
0.792771 1.31997 0
0.844249 1.36603 0
0.82453 1.38833 0
0.858634 1.44875 0
0.991005 1.21562 0
0.974883 1.25724 0
1.02195 1.19254 0
0.977026 1.23203 0
1.00971 1.21197 0
1.0324 1.22382 0
1.0442 1.29776 0
1.05588 1.25544 0
0.772469 1.33577 0
0.730149 1.33959 0
0.857915 1.41855 0
0.954552 1.24548 0
0.744684 1.33185 0
0.732201 1.31259 0
0.711735 1.31925 0
0.676504 1.26136 0
0.697678 1.28393 0
0.712154 1.2399 0
0.721637 1.26266 0
0.727266 1.40283 0
0.746961 1.42458 0
0.666759 1.32646 0
0.68913 1.32405 0
0.694704 1.2528 0
0.691659 1.20431 0
0.681009 1.23048 0
0.674945 1.20502 0
0.637191 1.23483 0
0.658828 1.23012 0
0.72345 1.201 0
0.743359 1.37754 0
0.721638 1.37012 0
0.707448 1.49277 0
0.678544 1.29495 0
0.652821 1.28239 0
0.645517 1.20057 0
0.738208 1.20788 0
0.734355 1.17921 0
0.739381 1.47993 0
0.663593 1.30076 0
0.649605 1.25406 0
0.630562 1.26867 0
0.597238 1.23022 0
0.6167 1.24168 0
0.634586 1.12848 0
0.749323 1.45459 0
0.725158 1.44491 0
0.615866 1.19021 0
0.596563 1.29052 0
0.614745 1.28591 0
0.645532 1.16198 0
0.684911 1.41763 0
0.704322 1.39645 0
0.721857 1.47509 0
0.610784 1.21608 0
0.59532 1.19264 0
0.628934 1.20902 0
0.632061 1.18031 0
0.60225 1.26038 0
0.704268 1.43404 0
0.683323 1.46708 0
0.689893 1.44283 0
0.711628 0.0571036 0
0.288437 0.728847 0
0.292302 0.702883 0
0.279563 0.709814 0
0.310582 0.72679 0
0.31403 0.700191 0
0.275794 0.733985 0
0.299224 0.720654 0
0.321757 0.717602 0
0.33166 0.699767 0
0.303354 0.70227 0
0.123411 0.835026 0
0.119141 0.873641 0
0.128395 0.889998 0
0.123836 0.905421 0
0.134986 0.910522 0
0.141161 0.925426 0
0.137602 0.884926 0
0.131471 0.869512 0
0.128768 0.952979 0
0.125683 0.977541 0
0.117557 0.986281 0
0.135666 0.98937 0
0.111243 0.994233 0
0.134122 0.967082 0
0.141279 1.07248 0
0.135751 1.03256 0
0.132757 1.01091 0
0.143294 1.01068 0
0.153855 1.00449 0
0.144994 1.04232 0
0.158178 1.07746 0
0.149844 1.06642 0
0.148165 1.11072 0
0.157439 1.04502 0
0.158985 1.02175 0
0.180487 0.996176 0
0.203808 1.02604 0
0.219021 0.916938 0
0.33125 0.542469 0
0.316812 0.531611 0
0.317177 0.502929 0
0.306601 0.498113 0
0.306079 0.531244 0
0.321394 0.517307 0
0.334933 0.674419 0
0.387296 0.67805 0
0.337357 0.633206 0
0.356483 0.65874 0
0.364527 0.600424 0
0.376991 0.592766 0
0.0842762 0.927905 0
0.0710673 0.956387 0
0.0846222 0.959322 0
0.0766635 0.934752 0
0.0822155 0.989069 0
0.0776044 0.965774 0
0.0704051 0.908116 0
0.0749481 0.915035 0
0.0840842 0.892503 0
0.0787716 0.880274 0
0.0654024 0.874389 0
0.0691696 0.86091 0
0.0584499 0.848702 0
0.0650092 0.899671 0
0.0611602 0.936344 0
0.0694284 0.886683 0
0.0631776 0.854202 0
0.0623288 0.829755 0
0.0411955 0.79843 0
0.0543956 0.69583 0
0.0455469 0.689121 0
0.0516571 0.737185 0
0.0470251 0.727379 0
0.108475 1.01711 0
0.0949805 0.0820011 0
0.0959683 0.0713013 0
0.090514 0.0766312 0
0.0733031 0.0792918 0
0.0794482 0.089418 0
0.0713064 0.0921703 0
0.0759958 0.0944187 0
0.0744556 0.0861998 0
0.0643138 0.0906407 0
0.0683441 0.0842979 0
0.0579223 0.0978324 0
0.0622241 0.0965658 0
0.0591706 0.0902943 0
0.046202 0.0826616 0
0.0529094 0.0846715 0
0.0541794 0.0637619 0
0.0478135 0.0986644 0
0.050748 0.0734913 0
0.0487688 0.0899784 0
0.05267 0.0956564 0
0.0520411 0.105832 0
0.0499601 0.0798155 0
0.0557404 0.0772918 0
0.064768 0.0697772 0
0.0550676 0.0703398 0
0.0599132 0.0729227 0
0.0646763 0.0776709 0
0.054959 0.0902001 0
0.0463555 0.108872 0
0.0529979 0.113982 0
0.0401479 0.100331 0
0.0434546 0.0926799 0
0.0380654 0.0908549 0
0.0357023 0.127049 0
0.0440732 0.102267 0
0.0414258 0.0848403 0
0.0422496 0.0743087 0
0.042782 0.132158 0
0.0461321 0.0673504 0
0.0307966 0.0747667 0
0.0357283 0.0803806 0
0.0469309 0.134365 0
0.0426281 0.119028 0
0.0409704 0.109696 0
0.037707 0.117391 0
0.0287249 0.113561 0
0.03285 0.118108 0
0.0349055 0.106758 0
0.0271927 0.135392 0
0.030888 0.128532 0
0.0504363 0.067142 0
0.0394285 0.0789434 0
0.0364693 0.0709476 0
0.034283 0.0876085 0
0.0459117 0.125215 0
0.0397396 0.125663 0
0.0364003 0.0998734 0
0.0302893 0.103303 0
0.0267713 0.123678 0
0.0317876 0.142099 0
0.0299258 0.0530318 0
0.0340323 0.0750743 0
0.0232095 0.102839 0
0.0266727 0.0885112 0
0.0304143 0.0901114 0
0.0312845 0.082328 0
0.024562 0.114547 0
0.023063 0.130526 0
0.0275153 0.148391 0
0.0392723 0.15065 0
0.0437971 0.144212 0
0.0449382 0.160286 0
0.0471814 0.151132 0
0.0429097 0.152679 0
0.0335949 0.134279 0
0.0360509 0.143015 0
0.0385558 0.134969 0
0.0351661 0.153095 0
0.0363984 0.179474 0
0.034737 0.166364 0
0.0401618 0.14239 0
0.0342483 0.060525 0
0.0266003 0.105884 0
0.0274462 0.0970214 0
0.0165439 0.134046 0
0.0199896 0.19315 0
0.0401943 0.168734 0
0.0379853 0.160106 0
0.0367307 0.0648239 0
0.0194947 0.129048 0
0.0271698 0.181232 0
0.045031 0.190045 0
0.0315344 0.176712 0
0.0263578 0.164307 0
0.0457203 0.174836 0
0.0312374 0.196119 0
0.0285067 0.17187 0
0.0281968 0.157039 0
0.0412365 0.181206 0
0.0381225 0.193431 0
0.0507119 0.183782 0
0.0476984 0.166786 0
0.0333226 0.186549 0
0.0312097 0.16606 0
0.0347715 0.198621 0
0.0424039 0.204585 0
0.0570247 0.179652 0
0.0496374 0.174816 0
0.0493073 0.203947 0
0.041721 0.194797 0
0.0429732 0.251433 0
0.0597799 0.188721 0
0.0613104 0.165482 0
0.0647853 0.157702 0
0.0581789 0.153173 0
0.0525765 0.15121 0
0.053708 0.142463 0
0.050986 0.194128 0
0.0457272 0.199698 0
0.0558256 0.217337 0
0.0597615 0.232981 0
0.041151 0.227556 0
0.0607718 0.174634 0
0.0615381 0.146376 0
0.0563121 0.162821 0
0.0601312 0.212122 0
0.0401899 0.215242 0
0.0461162 0.218007 0
0.0469932 0.23623 0
0.0508326 0.215587 0
0.0525138 0.230394 0
0.044826 0.227642 0
0.0543158 0.263571 0
0.0552693 0.246011 0
0.0491782 0.252537 0
0.0617405 0.257275 0
0.0683325 0.260472 0
0.0510222 0.241542 0
0.0601995 0.245248 0
0.0573721 0.255682 0
0.0634254 0.278682 0
0.0697242 0.276978 0
0.0643424 0.266988 0
0.10842 0.0725017 0
0.118196 0.0716068 0
0.102507 0.0675108 0
0.100795 0.0581051 0
0.11288 0.0681961 0
0.121558 0.0617177 0
0.126349 0.0711647 0
0.133411 0.0739203 0
0.109771 0.0545125 0
0.0817351 0.0514461 0
0.104038 0.0539137 0
0.106439 0.0587267 0
0.114627 0.059254 0
0.12078 0.0504804 0
0.0918508 0.0525951 0
0.131403 0.0472027 0
0.111554 0.0458276 0
0.0977718 0.0532439 0
0.139005 0.0475454 0
0.143191 0.0349181 0
0.143036 0.0412693 0
0.152143 0.0310626 0
0.107861 0.0496839 0
0.155258 0.0407841 0
0.161688 0.0375228 0
0.130355 0.0379003 0
0.152974 0.0451996 0
0.151487 0.0360065 0
0.137609 0.0379733 0
0.302768 0.0043239 0
0.302243 0.00613199 0
0.321873 0.00356498 0
0.338772 0.00367194 0
0.314866 0.0026493 0
0.349643 0.000884476 0
0.330716 0.00255107 0
0.345755 0.0020949 0
0.334428 0.00117312 0
0.355957 0 0
0.320986 0.000660722 0
0.337773 0.000266897 0
0.317505 0 0
0.31131 0.000162557 0
0.352303 0.000217842 0
0.376787 0.000732288 0
0.369263 0 0
0.362711 0.000598236 0
0.376007 0.000161183 0
0.366313 0.0019779 0
0.363835 0.000122692 0
0.342896 0 0
0.32529 0.000162819 0
0.355643 0.00158578 0
0.215078 0.00442789 0
0.213802 0.000816887 0
0.211096 0.00228093 0
0.209595 0.00341723 0
0.250111 0.00459269 0
0.232455 0.00340536 0
0.224909 0.00446336 0
0.23518 0.00519146 0
0.221817 0.00275394 0
0.231586 0.0076148 0
0.195379 0.00622018 0
0.196466 0.00860525 0
0.202603 0.00551734 0
0.188747 0.0075703 0
0.171296 0.0045305 0
0.138766 0.0120157 0
0.170265 0.0262041 0
0.130323 0.0831678 0
0.619961 0.0201247 0
0.65943 0.0330292 0
0.718239 0.00259526 0
0.628149 0.000533891 0
0.514789 0.000147878 0
0.488407 0.00637002 0
1.35765 0.838367 0
1.24522 0.206268 0
1.22752 0.221593 0
1.24436 0.234439 0
1.31151 0.244884 0
1.27568 0.243335 0
1.66152 0.510523 0
1.62734 0.540665 0
1.6197 0.560364 0
1.59663 0.545164 0
1.60554 0.521043 0
1.58287 0.522304 0
1.63531 0.520556 0
1.66164 0.536417 0
1.63699 0.501622 0
1.59896 0.50616 0
1.64839 0.554308 0
1.67811 0.557665 0
1.68663 0.577601 0
1.72076 0.562798 0
1.75752 0.561235 0
1.55092 0.309414 0
1.59315 0.317861 0
1.57206 0.313643 0
1.63311 0.321254 0
1.59643 0.303033 0
1.63092 0.298084 0
1.61136 0.325545 0
1.61841 0.309926 0
1.64393 0.309241 0
1.67159 0.322362 0
1.65867 0.280516 0
1.70959 0.319545 0
1.65165 0.32842 0
1.6281 0.282315 0
1.64093 0.270945 0
1.58732 0.253594 0
1.61762 0.259487 0
1.6322 0.227569 0
1.59084 0.271078 0
1.63317 0.244114 0
1.65245 0.292441 0
1.77481 0.346353 0
1.70318 0.299988 0
1.61532 0.271649 0
1.54648 0.264407 0
1.56739 0.283722 0
1.70104 0.236095 0
1.59878 0.236204 0
1.73595 0.337082 0
1.68724 0.311033 0
1.74495 0.269596 0
1.57128 0.263154 0
1.55654 0.24904 0
1.56353 0.232001 0
1.54726 0.293146 0
1.66923 0.244293 0
1.60871 0.247202 0
1.71426 0.331917 0
1.71685 0.354713 0
1.73827 0.321635 0
1.73218 0.287375 0
1.57688 0.242041 0
1.50685 0.197835 0
1.69818 0.262708 0
1.66922 0.227156 0
1.70229 0.368357 0
1.7664 0.414137 0
1.72862 0.393556 0
1.70912 0.383052 0
1.74663 0.352443 0
1.74277 0.373443 0
1.79818 0.291061 0
1.78499 0.314798 0
1.5278 0.217113 0
1.67581 0.256218 0
1.69634 0.281183 0
1.6511 0.235535 0
1.72555 0.203031 0
1.6499 0.213451 0
1.76787 0.390937 0
1.76389 0.294226 0
1.76448 0.30706 0
1.77541 0.277911 0
1.53916 0.227884 0
1.7205 0.275298 0
1.67812 0.271409 0
1.68171 0.292198 0
1.70405 0.217939 0
1.59009 0.207065 0
1.56191 0.216018 0
1.75013 0.402083 0
1.70412 0.429051 0
1.73387 0.419664 0
1.6924 0.405173 0
1.75102 0.462624 0
1.76012 0.438213 0
1.82308 0.40366 0
1.78389 0.368916 0
1.82165 0.270282 0
1.77997 0.257112 0
1.73729 0.228073 0
1.68559 0.20271 0
1.67699 0.215393 0
1.60217 0.220915 0
1.62012 0.209762 0
1.55166 0.196335 0
1.72658 0.44617 0
1.80949 0.458045 0
1.79142 0.40298 0
1.80845 0.384276 0
1.76068 0.363782 0
1.76544 0.377412 0
1.80155 0.278386 0
1.83061 0.286622 0
1.86343 0.317669 0
1.85474 0.29994 0
1.71389 0.227301 0
1.78456 0.21078 0
1.73289 0.21524 0
1.76186 0.219862 0
1.7554 0.206255 0
1.78864 0.187822 0
1.7785 0.198895 0
1.70529 0.207903 0
1.70704 0.17035 0
1.66312 0.20521 0
1.57898 0.223585 0
1.5434 0.207447 0
1.68442 0.453301 0
1.77878 0.453661 0
1.78004 0.476565 0
1.8043 0.429954 0
1.86053 0.383059 0
1.82185 0.363786 0
1.82446 0.313001 0
1.82028 0.29925 0
1.92753 0.300518 0
1.70623 0.187262 0
1.74717 0.187913 0
1.70291 0.44384 0
1.71366 0.469155 0
1.74199 0.510474 0
1.80988 0.476694 0
2 0.495117 0
1.87416 0.466796 0
1.84001 0.467074 0
1.85776 0.500493 0
1.85662 0.447492 0
1.85737 0.481873 0
1.83154 0.491357 0
1.7788 0.427556 0
1.83482 0.389256 0
1.86137 0.405025 0
1.84834 0.368985 0
1.79789 0.355308 0
1.80947 0.333528 0
1.89081 0.304897 0
1.70577 0.197187 0
1.67415 0.189918 0
1.68512 0.178543 0
1.65346 0.157178 0
1.67595 0.166199 0
1.70391 0.154671 0
1.62534 0.176354 0
1.67882 0.156576 0
1.64604 0.185247 0
1.64671 0.168272 0
1.60831 0.191533 0
1.60964 0.159035 0
1.76752 0.165012 0
1.7275 0.178863 0
1.75793 0.176357 0
1.737 0.167436 0
1.68158 0.474415 0
1.66499 0.490698 0
1.70689 0.495728 0
1.73587 0.537167 0
1.76865 0.496998 0
1.78333 0.527767 0
1.76739 0.514044 0
1.83649 0.432145 0
1.8227 0.418924 0
1.81806 0.44313 0
2 0.354492 0
1.93787 0.393046 0
1.80591 0.321031 0
1.82865 0.346966 0
1.85697 0.335675 0
1.92804 0.344574 0
1.89016 0.344811 0
1.9011 0.286889 0
1.62382 0.199386 0
1.71258 0.520997 0
1.68379 0.522853 0
1.71753 0.546875 0
1.74 0.483832 0
1.76366 0.541973 0
1.84806 0.41763 0
1.8967 0.393536 0
1.91876 0.322195 0
1.89247 0.367549 0
2 0.237305 0
1.91825 0.420188 0
1.91289 0.310254 0
1.90883 0.334866 0
1.88242 0.328707 0
1.88553 0.380876 0
1.9093 0.355576 0
1.929 0.372868 0
2 0.264404 0
1.90356 0.243009 0
1.91764 0.404125 0
1.88979 0.412462 0
1.90156 0.444867 0
2 0.387451 0
1.95198 0.277162 0
1.89247 0.264379 0
1.87805 0.440276 0
1.96531 0.378756 0
1.93039 0.286538 0
1.96283 0.295062 0
1.92103 0.271795 0
1.92173 0.256046 0
1.95116 0.239139 0
1.929 0.24505 0
1.88645 0.276383 0
2 0.370789 0
1.95704 0.358312 0
2 0.322998 0
1.96784 0.337096 0
2 0.3078 0
1.97617 0.349481 0
2 0.338562 0
1.95943 0.316191 0
1.9411 0.33139 0
1.97569 0.325352 0
1.4986 0.27328 0
1.52331 0.27007 0
1.5431 0.278739 0
1.47782 0.26476 0
1.33866 0.970799 0
1.55336 0.958371 0
1.56527 1.07222 0
1.61078 1.07891 0
1.63962 1.06814 0
1.64905 1.13754 0
1.63647 1.10364 0
1.60566 1.05677 0
1.60564 1.11018 0
1.56245 1.17414 0
1.57747 1.13719 0
1.69154 1.10221 0
1.66907 1.07977 0
1.70429 1.06776 0
1.53364 1.11797 0
1.54965 1.09515 0
1.55875 1.11946 0
1.54459 1.14783 0
1.51328 1.14338 0
1.44567 1.22363 0
1.47351 1.17733 0
1.48824 1.15336 0
1.60501 1.17128 0
1.66414 1.11245 0
1.71753 1.09187 0
1.74009 1.18455 0
1.76114 1.13002 0
1.74414 1.10554 0
1.73831 1.01127 0
1.58297 1.16143 0
1.6068 1.14054 0
1.72977 1.04397 0
1.627 1.12653 0
1.69427 1.01829 0
1.70314 1.04216 0
1.5403 0.768017 0
1.62326 0.792452 0
1.72505 0.737001 0
1.66998 0.643985 0
1.7142 0.682629 0
1.72056 0.655827 0
1.68686 0.666642 0
1.66551 0.689948 0
1.75223 0.666658 0
1.69742 0.649927 0
1.65705 0.722545 0
1.76872 0.708414 0
1.80024 0.697327 0
1.77484 0.686797 0
1.74344 0.692819 0
1.80791 0.742682 0
1.7159 0.710016 0
1.82038 0.71818 0
1.79128 0.72335 0
1.83781 0.737651 0
1.75951 0.734691 0
1.86187 0.715111 0
1.74259 0.716856 0
1.75051 0.815956 0
1.74624 0.774148 0
1.74398 0.75236 0
1.779 0.760916 0
1.65133 0.704503 0
1.69243 0.697111 0
1.69086 0.729827 0
1.86533 0.692245 0
1.77816 0.792853 0
1.83718 0.785165 0
1.84545 0.761288 0
1.67831 0.712968 0
1.6615 0.764246 0
1.87439 0.67417 0
1.7524 0.794634 0
1.69926 0.794588 0
1.70947 0.764724 0
1.7976 0.831719 0
1.8106 0.768953 0
1.66851 0.742588 0
1.64084 0.748054 0
1.60934 0.763723 0
1.72233 0.783794 0
1.68524 0.775093 0
1.66076 0.800713 0
1.77796 0.815556 0
1.81071 0.804518 0
1.63521 0.77144 0
1.59871 0.745732 0
1.57663 0.784853 0
1.63447 0.82153 0
1.68582 0.824087 0
1.82767 0.825764 0
1.58657 0.767071 0
1.59365 0.817102 0
1.72024 0.88327 0
1.71756 0.81744 0
1.71014 0.850301 0
1.6152 0.810851 0
1.68398 0.846776 0
1.75818 0.856813 0
1.7324 0.862724 0
1.73555 0.837527 0
1.93594 0.5917 0
1.52004 0.150094 0
1.55148 0.131175 0
1.57248 0.140044 0
1.56623 0.154216 0
1.54318 0.152161 0
1.56805 0.175171 0
1.55689 0.164668 0
1.58593 0.165851 0
1.59647 0.176576 0
1.63753 0.128303 0
1.66339 0.141099 0
1.43642 0.0213455 0
1.61284 0.0579938 0
1.70248 0.0772432 0
1.66975 0.0783857 0
1.67583 0.0851991 0
1.73504 0.0593528 0
1.7032 0.0596282 0
1.73446 0.0647934 0
1.8218 0.0524758 0
1.76531 0.0484717 0
1.78163 0.0579433 0
1.74123 0.0526366 0
1.75971 0.0610681 0
1.56943 0.0522388 0
1.60552 0.0500994 0
1.57375 0.0337108 0
1.05099 0.00148358 0
0.871021 0.0426587 0
0.871483 0.048393 0
0.849538 0.0456187 0
0.852287 0.0397839 0
0.876571 0.0171766 0
0.897187 0.0116837 0
0.85551 0.00745158 0
0.872481 0.0100556 0
0.893872 0.00847247 0
0.832677 0.0120939 0
0.887564 0.00526253 0
0.856269 0.0125422 0
0.84669 0.00985588 0
0.842184 0.0150429 0
0.862951 0.0150307 0
0.819812 0.00694351 0
0.837892 0.0181451 0
0.848475 0.0222223 0
0.826133 0.00934541 0
0.824358 0.029724 0
0.846278 0.0307346 0
0.837168 0.00756 0
0.844603 0.00414746 0
0.805457 0.00879841 0
0.831258 0.0250796 0
0.830687 0.0358876 0
0.77899 0.015826 0
0.809487 0.015931 0
0.787568 0.0116634 0
0.824824 0.0145342 0
0.809971 0.0118649 0
0.864273 0.0206641 0
0.846625 0.0268063 0
0.787275 0.0352626 0
0.739496 0.010187 0
0.726686 0.0144738 0
0.794355 0.0142675 0
0.809213 0.0338643 0
0.80375 0.0404284 0
0.76116 0.0124908 0
0.819567 0.0391282 0
0.775978 0.0423965 0
0.800794 0.0524968 0
0.828796 0.0514301 0
0.775871 0.0132683 0
0.771219 0.00987602 0
0.742767 0.0129698 0
0.749818 0.0185815 0
0.75448 0.0153287 0
0.735148 0.0234495 0
0.788075 0.0395102 0
0.808979 0.0464078 0
0.788172 0.0473484 0
0.880741 0.0741428 0
0.917147 0.077015 0
0.915667 0.0690865 0
0.900247 0.0733594 0
0.935112 0.00814991 0
0.992676 0.00655471 0
0.941679 0.00162546 0
0.965555 1.34772 0
0.934652 1.38262 0
0.91635 1.37037 0
0.932627 1.35281 0
0.975179 1.32618 0
0.957136 1.3252 0
1.00419 1.40901 0
0.990714 1.37036 0
0.964044 1.39188 0
1.03645 1.3616 0
0.97323 1.37033 0
0.951957 1.36877 0
0.942088 1.43792 0
0.911227 1.41956 0
0.984245 1.39929 0
0.983273 1.45218 0
1.01206 1.3513 0
1.01862 1.38293 0
1.03047 1.32719 0
1.03298 1.42064 0
0.946362 1.40772 0
0.964985 1.42939 0
0.957601 1.45855 0
0.892004 1.40617 0
0.88938 1.45451 0
0.877231 1.42861 0
1.01186 1.44949 0
1.06925 1.39502 0
0.996774 1.43372 0
1.03364 1.45236 0
1.01793 1.52926 0
1.04774 1.50031 0
1.02042 1.48818 0
1.05469 1.41821 0
1.04747 1.38852 0
0.989166 1.50457 0
1.00007 1.47652 0
1.00724 1.50703 0
0.992571 1.28795 0
1.01798 1.29529 0
1.0325 1.26767 0
1.00886 1.26758 0
1.01163 1.32071 0
1.05531 1.1502 0
1.05515 1.1111 0
1.09643 1.102 0
1.12523 1.09964 0
1.09524 1.07484 0
1.03368 1.1307 0
1.03223 1.16284 0
1.04316 1.18719 0
1.07408 1.09525 0
1.07909 1.13041 0
1.11594 1.07703 0
1.08804 1.18065 0
1.06558 1.18509 0
1.0761 1.15752 0
1.13014 1.15649 0
1.10285 1.14834 0
1.13531 1.1269 0
1.11265 1.12291 0
1.16031 1.1489 0
1.16954 1.12505 0
1.19576 1.08726 0
1.17309 1.07969 0
1.18971 1.06174 0
1.15714 1.22548 0
1.15075 1.18637 0
1.11852 1.19488 0
1.19936 1.19436 0
1.13272 1.17959 0
1.11303 1.17024 0
1.09085 1.23104 0
1.07963 1.20663 0
1.13781 1.21 0
1.18271 1.16775 0
1.17424 1.19675 0
0.955469 1.27663 0
0.697304 1.1316 0
0.709745 1.16657 0
0.724504 1.11942 0
0.713109 1.07874 0
0.665714 1.12299 0
0.685728 1.16467 0
0.707076 1.19315 0
0.713614 1.14026 0
0.735855 1.0983 0
0.650742 1.13585 0
0.666045 1.15296 0
0.680298 1.13752 0
0.726344 1.22669 0
0.644062 1.43812 0
0.679086 1.52931 0
0.123267 1.04985 0
0.176352 1.07551 0
0.126443 1.13031 0
0.163172 1.12614 0
0.192661 1.01193 0
0.191238 1.05825 0
0.202398 0.993649 0
0.195451 1.03583 0
0.227261 1.00217 0
0.196271 0.975897 0
0.215088 0.988999 0
0.216722 1.02343 0
0.225577 0.968165 0
0.211623 1.07623 0
0.203407 1.05609 0
0.213047 1.04887 0
0.239332 1.07276 0
0.225141 1.06744 0
0.198399 1.09524 0
0.220749 0.943632 0
0.221887 1.11234 0
0.234035 1.03628 0
0.197607 1.07219 0
0.215898 0.96451 0
0.230913 1.09367 0
0.251611 1.1915 0
0.238579 1.14594 0
0.231937 1.12259 0
0.220631 1.16499 0
0.247415 1.10965 0
0.228505 1.14825 0
0.234306 1.19194 0
0.219733 1.08776 0
0.211393 1.1048 0
0.225753 1.02563 0
0.23283 1.05819 0
0.255084 1.03699 0
0.221631 1.04604 0
0.244391 1.04703 0
0.253814 1.07518 0
0.249469 0.977533 0
0.244158 1.01074 0
0.246189 1.08697 0
0.260115 1.10381 0
0.256588 1.14772 0
0.254926 1.12386 0
0.261986 1.05754 0
0.28787 1.02682 0
0.276044 1.04821 0
0.237932 0.964091 0
0.251089 0.933381 0
0.246847 0.954606 0
0.257356 1.00418 0
0.235091 1.01333 0
0.296357 1.0968 0
0.278627 1.12145 0
0.266774 1.1307 0
0.270554 1.10443 0
0.282562 1.08592 0
0.280339 1.18733 0
0.276262 1.15467 0
0.265601 1.18109 0
0.300219 1.15406 0
0.288065 1.14261 0
0.290422 1.17146 0
0.297823 1.12542 0
0.292263 1.20657 0
0.31127 1.1339 0
0.324792 1.2025 0
0.312315 1.09656 0
0.323796 1.16168 0
0.267071 1.02496 0
0.269333 0.963753 0
0.258308 0.954517 0
0.269696 0.99443 0
0.260688 0.979501 0
0.266796 0.939727 0
0.277564 1.01406 0
0.292949 0.976451 0
0.281453 0.987125 0
0.286457 0.933654 0
0.283192 0.959843 0
0.293782 1.06041 0
0.256986 1.17177 0
0.266423 1.25956 0
0.30846 1.21144 0
0.301886 1.18462 0
0.311424 1.16602 0
0.339619 1.05656 0
0.35835 1.17758 0
0.283829 1.06251 0
0.304224 1.07501 0
0.321139 1.06062 0
0.305565 1.0298 0
0.262222 1.22028 0
0.280251 1.23634 0
0.314995 1.19051 0
0.339934 1.17994 0
0.325917 1.09001 0
0.296327 1.03836 0
0.246745 1.25333 0
0.27157 1.20508 0
0.282485 1.21173 0
0.27023 1.23542 0
0.329579 1.1813 0
0.349693 1.25391 0
0.347816 1.1293 0
0.337148 1.10855 0
0.355627 1.08628 0
0.337239 1.08214 0
0.348163 1.10464 0
0.256965 1.24542 0
0.248986 1.22211 0
0.349945 1.21307 0
0.322361 1.2679 0
0.334908 1.14243 0
0.348557 1.15815 0
0.349353 1.18951 0
0.337177 1.20872 0
0.328185 1.23596 0
0.314618 1.2406 0
0.336099 1.26321 0
0.340209 1.23599 0
0.331557 1.30573 0
0.370405 1.23407 0
0.35807 1.23367 0
0.36439 1.20562 0
0.386145 1.20038 0
0.210848 0.910847 0
0.231692 0.903642 0
0.222341 0.893148 0
0.240582 0.921105 0
0.331161 0.499528 0
0.316153 0.485455 0
0.403969 0.652356 0
0.346891 0.645959 0
0.36635 0.691797 0
0.352245 0.606327 0
0.367627 0.63181 0
0.377694 0.615319 0
0.385364 0.643014 0
0.398126 0.630595 0
0.371854 0.656041 0
0.365077 0.672102 0
0.382843 0.66091 0
0.0534534 0.825552 0
0.0552432 0.807778 0
0.0469743 0.813699 0
0.0527814 0.852606 0
0.0482973 0.838851 0
0.0530648 0.885624 0
0.0387511 0.848408 0
0.0436226 0.850318 0
0.0414562 0.825465 0
0.040511 0.900833 0
0.036013 0.813453 0
0.0433329 0.877839 0
0.0384879 0.875698 0
0.0472714 0.909727 0
0.0301496 0.859098 0
0.0357692 0.898614 0
0.0345454 0.860648 0
0.0319225 0.884362 0
0.0351475 0.836743 0
0.0245143 0.892203 0
0.027936 0.881098 0
0.0469515 0.785466 0
0.0419565 0.75704 0
0.0455109 0.766229 0
0.0575103 0.873105 0
0.0541842 0.921902 0
0.0486035 0.887755 0
0.055503 0.902219 0
0.0643565 0.964224 0
0.069854 1.02321 0
0.0768844 1.01308 0
0.0723466 0.98783 0
0.0635946 1.00082 0
0.0683751 1.00134 0
0.0523421 1.03438 0
0.061254 1.0476 0
0.0568828 1.00912 0
0.0644288 1.02653 0
0.0570784 1.03417 0
0.0547403 1.07031 0
0.0621594 1.12103 0
0.056877 1.10181 0
0.0631872 1.08353 0
0.0593086 1.06956 0
0.0750515 1.11076 0
0.0916685 1.08867 0
0.0974303 1.05782 0
0.0897008 1.04517 0
0.0681415 1.0575 0
0.0681334 1.10607 0
0.067704 1.13998 0
0.0723387 1.08166 0
0.0745969 1.14463 0
0.0818163 1.07976 0
0.075643 1.04855 0
0.0891661 1.21879 0
0.0852283 1.13069 0
0.0803283 1.18737 0
0.0792917 1.12897 0
0.081851 1.1572 0
0.0825655 1.10634 0
0.0758166 1.17084 0
0.088552 1.18024 0
0.103164 1.10023 0
0.0950846 1.03554 0
0.0921627 1.06563 0
0.0825503 1.04891 0
0.0864356 1.06622 0
0.0769148 1.07131 0
0.085084 1.20067 0
0.0727715 1.27462 0
0.080227 1.24292 0
0.100466 1.19581 0
0.0979549 1.08402 0
0.104895 1.06967 0
0.116269 1.09547 0
0.113817 1.05872 0
0.109419 1.08962 0
0.111148 1.12125 0
0.117317 1.15869 0
0.118787 1.123 0
0.0937344 1.19789 0
0.117312 1.03749 0
0.119783 1.07262 0
0.130313 1.07859 0
0.124407 1.10042 0
0.134922 1.05812 0
0.137212 1.10703 0
0.14304 1.09491 0
0.141832 1.13692 0
0.134075 1.13219 0
0.0498302 0.692439 0
0.0441078 0.632671 0
0.0359695 0.684046 0
0.0809583 0.0780679 0
0.0824889 0.0841202 0
0.0424391 0.0455573 0
0.0455067 0.0555282 0
0.0495899 0.0598748 0
0.0561207 0.0533007 0
0.0537112 0.0579892 0
0.0442173 0.0614684 0
0.0277343 0.0637714 0
0.0324369 0.0674107 0
0.0203034 0.151789 0
0.0207973 0.139853 0
0.0177024 0.144463 0
0.023622 0.147068 0
0.0145933 0.14279 0
0.0231673 0.158306 0
0.0184024 0.171674 0
0.0225995 0.172857 0
0.0201612 0.162552 0
0.015526 0.15866 0
0.0176692 0.153702 0
0.0136929 0.151854 0
0.00976551 0.166357 0
0.0126004 0.164252 0
0.024293 0.13839 0
0.0202519 0.18115 0
0.023577 0.188115 0
0.0247141 0.218492 0
0.0270493 0.194366 0
0.0231199 0.203508 0
0.0285349 0.209275 0
0.0324823 0.209046 0
0.034938 0.225669 0
0.0108258 0.156015 0
0.00699999 0.141293 0
0.00915642 0.146309 0
0.0117062 0.182558 0
0.0151113 0.171216 0
0.0128878 0.174045 0
0.0163718 0.185902 0
0.0259918 0.203737 0
0.0292865 0.22722 0
0.00686131 0.15829 0
0.00873354 0.157269 0
0.0275803 0.218793 0
0.00753217 0.149827 0
0.0541892 0.205755 0
0.0427198 0.238916 0
0.0603857 0.306562 0
0.0660916 0.309574 0
0.128802 0.0619657 0
0.123737 0.0558356 0
0.0923199 0.0403386 0
0.0856911 0.0605087 0
0.0757576 0.0664447 0
0.0765104 0.0732789 0
0.070685 0.0706635 0
0.12113 0.0422111 0
0.128435 0.0233984 0
0.139943 0.0271808 0
0.144466 0.0305323 0
0.397731 0.0056124 0
0.189551 0.00104372 0
0.25003 0.00631881 0
0.165076 0.00563478 0
0.151258 0.00861879 0
0.158668 0.00722715 0
0.160413 0.0133182 0
0.167449 0.0154876 0
0.162243 0.00996906 0
0.15562 0.0181922 0
0.168752 0.0120193 0
0.173651 0.00980676 0
0.157237 0.0213468 0
0.675727 0.00103978 0
0.685435 0.00384827 0
0.621783 0.00125428 0
1.27004 0.264587 0
1.27353 0.283151 0
1.25326 0.274922 0
1.3047 0.290415 0
1.33307 0.286263 0
1.30955 0.267831 0
1.3149 0.279542 0
1.33642 0.270223 0
1.35253 0.249306 0
1.32661 0.256631 0
1.35117 0.261158 0
1.37746 0.258597 0
1.28798 0.27281 0
1.29687 0.222738 0
1.52794 0.253497 0
1.76748 0.329271 0
1.71786 0.407455 0
1.66183 0.395982 0
1.63602 0.405278 0
1.64417 0.423409 0
1.67243 0.432682 0
1.66921 0.41524 0
1.74089 0.249923 0
1.74706 0.238603 0
1.83151 0.24279 0
1.66011 0.176744 0
1.5804 0.195116 0
1.57973 0.184409 0
1.62901 0.149753 0
1.63238 0.138776 0
1.61119 0.132054 0
1.61268 0.120501 0
1.62138 0.110945 0
1.6494 0.111813 0
1.65214 0.120599 0
1.68422 0.128712 0
1.74304 0.122314 0
1.71498 0.115263 0
1.68529 0.137178 0
1.71687 0.128914 0
1.69556 0.12091 0
1.74858 0.148955 0
1.74787 0.158493 0
1.75176 0.135163 0
1.73388 0.141518 0
1.81952 0.143906 0
1.79701 0.124996 0
1.7818 0.142859 0
1.7683 0.127103 0
1.78779 0.133626 0
1.7769 0.153924 0
1.80897 0.163623 0
1.80228 0.175944 0
1.86388 0.156976 0
1.806 0.153046 0
1.83358 0.157334 0
1.84952 0.166124 0
1.91512 0.185402 0
1.89525 0.16947 0
1.83478 0.530812 0
1.83176 0.510942 0
1.8099 0.522348 0
1.83447 0.326596 0
1.93795 0.47857 0
1.8983 0.488169 0
1.90821 0.468063 0
2 0.533936 0
1.94018 0.518382 0
1.92772 0.498522 0
1.89391 0.518403 0
1.96421 0.500977 0
2 0.514343 0
1.9713 0.524094 0
1.9407 0.554501 0
1.94887 0.536239 0
1.912 0.539152 0
1.8719 0.540115 0
1.84147 0.55629 0
1.89933 0.568583 0
1.86243 0.520472 0
1.82089 0.545489 0
1.91535 0.555587 0
1.87125 0.560378 0
2 0.457764 0
1.85642 0.266099 0
1.87111 0.250781 0
1.83267 0.256812 0
1.80604 0.250195 0
1.96275 0.256354 0
1.97272 0.26828 0
2 0.278503 0
2 0.250671 0
1.97515 0.283695 0
1.97484 0.245396 0
2 0.21167 0
1.97444 0.306035 0
1.35686 0.946844 0
1.37002 0.976862 0
1.34811 1.00867 0
1.37215 1.00259 0
1.38224 1.10457 0
1.37096 1.05367 0
1.36514 1.02781 0
1.3365 1.04886 0
1.41651 1.04471 0
1.39113 1.03481 0
1.42732 1.02178 0
1.44999 1.04763 0
1.33401 1.02591 0
1.2702 1.09152 0
1.34954 1.08607 0
1.42942 1.09427 0
1.29876 1.06171 0
1.35221 1.06355 0
1.43157 1.06682 0
1.39945 1.07452 0
1.46457 1.0835 0
1.31474 1.04534 0
1.37559 1.07923 0
1.40576 1.09953 0
1.40584 1.16857 0
1.42458 1.13376 0
1.45538 1.14682 0
1.46925 1.06017 0
1.49644 1.09153 0
1.52299 1.09245 0
1.39327 1.13669 0
1.4587 1.11472 0
1.43215 1.16223 0
1.42502 1.19655 0
1.36608 1.16904 0
1.43738 1.11542 0
1.45159 1.19447 0
1.39418 1.25032 0
1.3858 1.1593 0
1.36004 1.13218 0
1.41642 1.22841 0
1.38217 1.2084 0
1.36012 1.10752 0
1.33108 1.15721 0
1.40176 1.19431 0
1.52725 0.967168 0
1.54894 0.986975 0
1.57115 0.975522 0
1.63433 0.921944 0
1.6069 0.953063 0
1.66739 0.888354 0
1.53601 0.891485 0
1.58618 1.21487 0
1.63969 1.17208 0
1.68657 1.20323 0
1.67766 1.16422 0
1.71696 1.14171 0
1.65805 1.19567 0
1.70774 1.17749 0
1.71111 0.986532 0
1.66227 0.964413 0
1.69099 0.967071 0
1.67364 0.993587 0
1.63194 0.991401 0
1.66461 1.02045 0
1.5503 0.748261 0
1.51886 0.7595 0
1.52239 0.789439 0
1.495 0.796387 0
1.5521 0.786636 0
1.57073 0.806677 0
1.55917 0.850513 0
1.55849 0.827098 0
1.50964 0.839924 0
1.53584 0.839304 0
1.52344 0.865233 0
1.51736 0.814761 0
1.48902 0.865285 0
1.49225 0.821938 0
1.60904 0.861493 0
1.46157 0.847718 0
1.48507 0.895699 0
1.50978 0.88658 0
1.50915 0.919717 0
1.53154 0.938561 0
1.62997 0.845471 0
1.6047 0.838233 0
1.63886 0.873521 0
1.60996 0.895513 0
1.64206 0.89799 0
1.5718 0.918975 0
1.55525 0.935485 0
1.57926 0.948768 0
1.48513 0.843124 0
1.45598 0.826259 0
1.46325 0.89917 0
1.57778 0.879121 0
1.60274 0.923803 0
1.58387 0.856511 0
1.55265 0.873303 0
1.5859 0.900363 0
1.58074 0.835118 0
1.78667 0.921523 0
1.80554 0.875379 0
1.91061 0.609837 0
1.94973 0.62335 0
1.90526 0.588992 0
1.97297 0.633461 0
1.59174 0.151491 0
1.52633 0.180972 0
1.53482 0.170599 0
1.69543 0.0711861 0
1.76579 0.0845298 0
1.73359 0.0735224 0
1.73099 0.0826767 0
1.76841 0.0752704 0
1.73403 0.0935955 0
1.81727 0.0807907 0
1.78226 0.105631 0
1.77165 0.115888 0
1.7889 0.0802501 0
1.75122 0.101865 0
1.77987 0.0944211 0
1.80099 0.0879672 0
1.8378 0.0889343 0
1.75754 0.0910642 0
1.81805 0.0992894 0
1.79442 0.0997089 0
1.82032 0.112374 0
1.7946 0.112408 0
1.79131 0.0517329 0
1.81193 0.04295 0
1.79013 0.0461841 0
1.73898 0.0319554 0
1.7587 0.0394286 0
1.72499 0.0445025 0
1.56287 0.0400903 0
1.59491 0.0414869 0
1.54103 0.0352047 0
1.52999 0.039283 0
1.54665 0.0271062 0
1.51218 0.0291065 0
1.50918 0.0251025 0
1.55277 0.0312104 0
1.55399 0.0220623 0
1.53399 0.0239572 0
1.61249 0.0254565 0
1.58093 0.0278295 0
1.63034 0.0338892 0
1.61915 0.0386704 0
1.65165 0.040064 0
1.60185 0.0344634 0
1.69457 0.0357378 0
1.61332 0.029992 0
1.67736 0.0393349 0
1.7049 0.0405935 0
1.6631 0.0339407 0
1.72405 0.0364135 0
1.65062 0.0274999 0
1.58628 0.0225135 0
1.73502 0.0403139 0
1.05999 0.00341502 0
0.890055 0.0424602 0
0.876298 0.0071007 0
0.864699 0.00508818 0
0.793609 0.0211001 0
0.791169 0.0277464 0
0.8104 0.0238285 0
0.795216 0.0315773 0
0.808841 0.0276952 0
0.714933 0.0109086 0
0.692939 0.00963585 0
0.712663 0.013345 0
0.72028 0.00605491 0
0.75465 0.00605207 0
0.767593 0.00753821 0
0.749859 0.00815129 0
0.737368 0.00659011 0
0.739309 0.0038832 0
0.724093 0.00842873 0
0.705432 0.00760298 0
0.700692 0.00523449 0
0.716052 0.00416098 0
0.680924 0.00591873 0
0.701694 0.00318261 0
0.699988 0.00142302 0
0.667947 0.0044808 0
0.67505 0.00786014 0
0.668966 0.0024239 0
0.791717 0.00231467 0
0.781466 0.00462715 0
0.742676 0 0
0.668457 0 0
0.687274 0.00227857 0
0.651649 0.00130394 0
0.753282 0.00111684 0
0.760779 0.00399568 0
0.775958 0.00307472 0
0.772718 0.00162702 0
0.751151 0.00240581 0
0.861328 0 0
0.775246 0.000399649 0
0.73347 0.00159615 0
0.732 0.000371114 0
0.694731 0.000334823 0
0.648779 0.00245564 0
0.658984 0.000316098 0
0.690265 0.000843636 0
0.662015 0.000810852 0
0.761538 0.0364042 0
0.771309 0.0312214 0
0.763298 0.0247001 0
0.728566 0.0373514 0
0.716952 0.0326538 0
0.734269 0.0329347 0
0.750876 0.0427377 0
0.774661 0.027376 0
0.745428 0.0380946 0
0.739996 0.0483707 0
0.73099 0.0429807 0
0.710903 0.0407941 0
0.688459 0.0428272 0
0.713265 0.0482427 0
0.695238 0.0480179 0
0.819737 0.0652616 0
0.846781 0.0508693 0
0.840427 0.0592605 0
0.818267 0.0577248 0
0.841207 0.0666106 0
0.818622 0.0903231 0
0.82468 0.077319 0
0.827886 0.0708611 0
0.858098 0.061524 0
0.854338 0.0801528 0
0.849677 0.0729846 0
0.871181 0.0792941 0
0.731172 0.0178188 0
0.732353 0.0279539 0
0.960129 0.00332965 0
0.912521 0.00303832 0
0.87163 1.48252 0
0.899235 1.59684 0
0.913093 1.52016 0
0.89549 1.49227 0
0.8795 1.54577 0
0.923842 1.47564 0
0.893392 1.52344 0
0.905588 1.558 0
0.905784 1.468 0
0.941639 1.59405 0
0.920048 1.5849 0
0.937977 1.54656 0
0.86952 1.51594 0
0.976392 1.56322 0
0.936255 1.50829 0
0.95488 1.56731 0
0.966618 1.60337 0
0.962757 1.52906 0
1.01211 1.60979 0
0.988621 1.6172 0
0.996288 1.58254 0
1.02281 1.57057 0
0.997131 1.54642 0
1.03471 1.60113 0
1.03753 1.69314 0
1.03016 1.64725 0
1.00031 1.6625 0
1.04531 1.54317 0
0.981401 1.53059 0
1.07831 1.65304 0
1.01189 1.63915 0
0.96224 1.74476 0
1.01952 1.67571 0
0.995698 1.72086 0
1.04144 1.5706 0
1.11445 1.53023 0
1.05347 1.66253 0
1.06052 1.62532 0
0.976993 1.68731 0
1.08065 1.54868 0
1.0954 1.60123 0
1.07457 1.60247 0
1.04224 1.62639 0
0.925445 1.68061 0
0.923793 1.63225 0
0.97542 1.71988 0
0.950249 1.70026 0
1.06197 1.55906 0
1.06449 1.52388 0
0.946127 1.65438 0
0.950527 1.6228 0
0.926288 1.73009 0
0.960016 1.67443 0
0.901315 1.70643 0
0.934292 1.80511 0
0.945202 1.7305 0
0.935445 1.76584 0
0.915327 1.78377 0
0.87183 1.82389 0
0.905749 1.84425 0
0.890764 1.79497 0
0.91626 1.81659 0
0.899908 1.65862 0
0.851905 1.72822 0
0.890057 1.82711 0
0.878422 1.86966 0
0.904476 1.62744 0
0.872979 1.75834 0
0.871551 1.68486 0
0.869839 1.62697 0
0.910755 1.93506 0
0.885528 1.72979 0
0.840997 1.78926 0
0.889475 1.68336 0
0.88929 1.91048 0
0.853396 1.76247 0
0.86042 1.79508 0
0.912254 1.8887 0
0.896531 1.87205 0
0.933641 1.91405 0
0.949102 1.85945 0
0.927589 1.84936 0
0.934198 1.88055 0
0.976892 1.48063 0
1.06908 1.23271 0
1.0957 1.29935 0
1.12573 1.26147 0
1.13742 1.23778 0
1.11395 1.23518 0
1.15479 1.26855 0
1.20703 1.25949 0
1.18888 1.2293 0
1.18183 1.27389 0
1.17138 1.24799 0
0.682122 1.04335 0
0.699517 1.01566 0
0.68457 0.977196 0
0.701706 0.977743 0
0.70169 1.04476 0
0.676542 1.00944 0
0.636982 0.969266 0
0.660604 1.03337 0
0.659905 0.98195 0
0.631874 1.01559 0
0.669448 0.948791 0
0.659475 1.00752 0
0.643962 1.03293 0
0.684898 0.954004 0
0.67943 0.929646 0
0.645941 0.934045 0
0.652747 0.957949 0
0.660359 0.932136 0
0.707238 1.10646 0
0.687408 1.08137 0
0.681622 1.10858 0
0.663166 1.08398 0
0.647533 1.10404 0
0.699648 1.06756 0
0.674465 1.06562 0
0.660481 1.0566 0
0.666282 1.44043 0
0.657693 1.38274 0
0.653983 1.47584 0
0.66773 1.40871 0
0.682116 1.37226 0
0.664382 1.50578 0
0.681 1.49799 0
0.696986 1.37388 0
0.689677 1.34979 0
0.66696 1.3568 0
0.64317 1.34207 0
0.64703 1.31186 0
0.604957 1.35909 0
0.611428 1.32293 0
0.623866 1.35019 0
0.621279 1.40345 0
0.617386 1.37585 0
0.637282 1.38117 0
0.637069 1.41092 0
0.174778 1.04517 0
0.165982 1.05932 0
0.182419 1.0571 0
0.156788 1.10579 0
0.154908 1.13273 0
0.186761 1.08975 0
0.176297 1.1173 0
0.211437 0.94325 0
0.216649 1.13766 0
0.242818 1.1732 0
0.210286 1.24833 0
0.328646 1.0224 0
0.301045 1.00078 0
0.310179 1.05309 0
0.317386 1.03194 0
0.372682 1.12549 0
0.360621 1.14212 0
0.360597 1.11352 0
0.375732 1.16443 0
0.382902 1.14177 0
0.408596 1.08058 0
0.389699 1.10044 0
0.373023 1.08748 0
0.386341 1.17506 0
0.379032 1.10665 0
0.386196 1.06717 0
0.364591 1.06626 0
0.396408 1.08003 0
0.406651 0.991196 0
0.392585 1.02487 0
0.402824 1.04997 0
0.407956 1.02116 0
0.451867 0.999132 0
0.428579 1.00274 0
0.416414 1.00466 0
0.385091 1.04329 0
0.360355 1.32774 0
0.388112 1.23939 0
0.380148 1.22148 0
0.37819 1.25333 0
0.363911 1.28114 0
0.415051 1.27855 0
0.34755 1.29344 0
0.374406 1.30936 0
0.415882 1.21309 0
0.402736 1.18791 0
0.398804 1.26755 0
0.343286 1.32787 0
0.357794 1.30254 0
0.380921 1.37447 0
0.400678 1.22041 0
0.411316 1.24537 0
0.431392 1.25263 0
0.426909 1.16075 0
0.399375 1.32587 0
0.373515 1.34393 0
0.38776 1.34546 0
0.397126 1.37584 0
0.417006 1.18288 0
0.410556 1.15051 0
0.403548 1.29633 0
0.38826 1.30628 0
0.425144 1.11351 0
0.400102 1.12526 0
0.413103 1.12437 0
0.413628 0.637934 0
0.410339 0.689276 0
0.422908 0.730331 0
0.437396 0.723255 0
0.437264 0.764167 0
0.433337 0.743537 0
0.35404 0.721153 0
0.0415001 0.961647 0
0.0376704 0.932878 0
0.0484167 0.989883 0
0.0430513 0.93095 0
0.034358 0.973139 0
0.0518914 1.00797 0
0.0531512 0.981942 0
0.0543191 0.951983 0
0.0475451 0.95494 0
0.0374325 0.957558 0
0.0450307 0.974606 0
0.0404873 0.993952 0
0.036585 0.992596 0
0.0437405 1.03851 0
0.0477509 1.02337 0
0.0436354 1.01209 0
0.0479203 1.06747 0
0.0514404 1.05644 0
0.0353124 1.1093 0
0.0426718 1.10362 0
0.0465907 1.09239 0
0.0423943 1.07032 0
0.0386013 1.04724 0
0.0385744 1.08821 0
0.0402615 1.02517 0
0.0286648 1.05773 0
0.0333805 1.07379 0
0.0367627 1.06758 0
0.0338812 1.04233 0
0.0303251 0.827797 0
0.0204987 0.798946 0
0.0256128 0.806082 0
0.023742 0.84773 0
0.0250725 0.868945 0
0.0209553 0.870186 0
0.0286506 0.809997 0
0.0264932 0.830944 0
0.0190687 0.834841 0
0.0211126 0.896438 0
0.0175535 0.961042 0
0.0238668 0.945766 0
0.0185677 0.925553 0
0.0232852 0.918161 0
0.0275613 0.927133 0
0.0272996 0.90379 0
0.0175968 0.860909 0
0.0118708 0.820029 0
0.0113093 0.883138 0
0.0150784 0.834534 0
0.0145529 0.879038 0
0.0209772 0.849134 0
0.0204132 0.948335 0
0.0209963 0.988774 0
0.0285049 0.966493 0
0.0130672 0.931178 0
0.0170413 0.809807 0
0.0122552 0.851936 0
0.0150962 0.856929 0
0.0313613 0.942784 0
0.0341201 0.929409 0
0.026779 0.948249 0
0.0158082 0.938018 0
0.0150881 0.908453 0
0.0124881 0.905716 0
0.0066527 0.930049 0
0.00959648 0.926775 0
0.0171638 0.771881 0
0.0142456 0.810859 0
0.0109873 0.764457 0
0.0120379 0.790999 0
0.00843146 0.840867 0
0.0180786 0.790946 0
0.0146782 0.78554 0
0.00876705 0.789455 0
0.0104519 0.837996 0
0.0095002 0.813946 0
0.00966726 0.863226 0
0.00593556 0.879012 0
0.0085126 0.89454 0
0.00752307 0.864443 0
0.00594412 0.839221 0
0.00770498 0.820217 0
0.0103136 0.904374 0
0.00797863 0.916185 0
0.00215162 0.810517 0
0.00399496 0.817073 0
0.00526043 0.820718 0
0.0704476 1.22338 0
0.0746116 1.20072 0
0.0757665 1.22689 0
0.0820743 1.29098 0
0.10976 1.18478 0
0.111225 1.16143 0
0.10383 1.17266 0
0.0952752 1.14369 0
0.0965052 1.11357 0
0.0966512 1.17176 0
0.101015 1.13223 0
0.0901637 1.11459 0
0.111456 1.28218 0
0.126383 1.22856 0
0.135443 1.18552 0
0.136773 1.15804 0
0.108091 1.23373 0
0.119409 1.19797 0
0.106272 1.20762 0
0.117093 1.23305 0
0.127613 1.19741 0
0.113081 1.21013 0
0.112645 1.25443 0
0.0466714 0.659564 0
0.0398417 0.657742 0
0.0430382 0.671658 0
0.0432861 0.650369 0
0.0404301 0.695568 0
0.0327293 0.734826 0
0.0369131 0.717566 0
0.0319673 0.704461 0
0.0372815 0.744873 0
0.0331312 0.766856 0
0.0408011 0.7378 0
0.0351954 0.701725 0
0.030032 0.670208 0
0.0236702 0.727417 0
0.0272598 0.770762 0
0.0351718 0.788686 0
0.0379399 0.769225 0
0.0323661 0.684676 0
0.0281833 0.723175 0
0.0302809 0.777854 0
0.0298331 0.752118 0
0.0259687 0.746985 0
0.0212069 0.756882 0
0.0273773 0.69425 0
0.0186623 0.639157 0
0.0255587 0.711057 0
0.0211115 0.678486 0
0.0238592 0.691175 0
0.0250454 0.660179 0
0.0269337 0.675171 0
0.0363032 0.050583 0
0.0397137 0.0565787 0
0.0421262 0.0514049 0
0.0361104 0.0558513 0
0.0616061 0.060281 0
0.0590882 0.0660829 0
0.0690446 0.0616041 0
0.0648796 0.064077 0
0.0760331 0.0575047 0
0.066156 0.0542039 0
0.0799378 0.0620445 0
0.0611182 0.052541 0
0.0709025 0.0562178 0
0.0527298 0.0401663 0
0.0304268 0.0592633 0
0.00939863 0.178358 0
0.00750525 0.170494 0
0.00386803 0.171328 0
0.00552062 0.167554 0
0.00407628 0.149907 0
0.00567269 0.149957 0
0.0053589 0.185987 0
0.00429141 0.160624 0
0.0061815 0.176957 0
0.00302357 0.156623 0
0.0318801 0.219921 0
0.0251783 0.234708 0
0.0133187 0.23227 0
0.0188292 0.229087 0
0.0221259 0.227661 0
0.0200657 0.213871 0
0.0208298 0.243481 0
0.0164109 0.203591 0
0.0163426 0.245366 0
0.019354 0.274596 0
0.0174945 0.194603 0
0.0167812 0.2176 0
0.0159308 0.229767 0
0.0184194 0.239779 0
0.0211097 0.259733 0
0.0174874 0.260521 0
0.0114033 0.263237 0
0.0155405 0.276225 0
0.0142149 0.257674 0
0.0125368 0.278122 0
0.00639561 0.287505 0
0.00907349 0.27867 0
0.0137343 0.244834 0
0.0327444 0.253913 0
0.0375258 0.246091 0
0.0289887 0.243459 0
0.0334555 0.239271 0
0.0641533 0.294187 0
0.0949323 0.0463454 0
0.102814 0.0406242 0
0.0866123 0.0454722 0
0.0869291 0.0503703 0
0.0806691 0.0359748 0
0.0854966 0.0397362 0
0.0895503 0.0350474 0
0.0768309 0.0436104 0
0.0710108 0.0483682 0
0.0994371 0.0332429 0
0.0812299 0.0463557 0
0.0758186 0.0514831 0
0.0911648 0.0653731 0
0.0918996 0.0588309 0
0.0973041 0.0634617 0
0.117726 0.0461745 0
0.124703 0.0463435 0
0.116311 0.0308405 0
0.128633 0.0302497 0
0.135439 0.0329655 0
0.392917 0.00235896 0
0.197756 0.00215105 0
0.20498 0.00131727 0
0.215332 0 0
0.202 0.000296165 0
0.182465 0.00271861 0
0.18912 0.0019774 0
0.188912 0.0042851 0
0.179901 0.00415884 0
0.195028 0.00330192 0
0.148641 0.0143009 0
0.155364 0.0152747 0
0.15293 0.0114358 0
0.145294 0.0103833 0
0.136316 0.00593875 0
0.142552 0.00770348 0
0.149821 0.00599644 0
0.136529 0.0177617 0
0.140724 0.014941 0
0.145884 0.0182589 0
0.140102 0.022059 0
0.133302 0.0207672 0
0.120592 0.0160034 0
0.128 0.017661 0
0.131812 0.0142268 0
0.12606 0.00916737 0
0.131064 0.0112344 0
0.136744 0.00938462 0
0.121955 0.012186 0
0.134999 0.0245116 0
0.145994 0.0246015 0
0.131682 0.00761409 0
0.126758 0.00530498 0
0.116679 0.00936398 0
0.114931 0.0136346 0
0.0983075 0.0190817 0
0.109813 0.0186533 0
0.120885 0.00702007 0
0.101469 0.00516647 0
0.110308 0.00663525 0
0.109835 0.00886474 0
1.26297 0.253065 0
1.29183 0.255352 0
1.27389 0.216781 0
1.27527 0.229858 0
1.29684 0.234988 0
1.33972 0.227452 0
1.75566 0.259081 0
1.7651 0.24799 0
1.7251 0.260491 0
1.70718 0.249403 0
1.66052 0.132147 0
1.91496 0.213422 0
1.87319 0.182981 0
1.8962 0.178913 0
1.8696 0.172826 0
1.83415 0.19473 0
1.80877 0.202417 0
1.81955 0.184864 0
1.82617 0.221522 0
1.80965 0.213109 0
1.79386 0.225872 0
1.80032 0.237841 0
1.82231 0.232347 0
1.86755 0.230641 0
1.8883 0.199142 0
1.87918 0.240271 0
1.89206 0.18937 0
2 0.164795 0
1.92904 0.147477 0
1.79216 0.510265 0
1.88425 0.502487 0
1.9538 0.442525 0
1.9369 0.458972 0
1.96885 0.46811 0
1.97449 0.452536 0
1.9635 0.484245 0
2 0.476257 0
2 0.224304 0
1.95793 0.217941 0
1.38944 0.965216 0
1.32401 0.995016 0
1.27462 0.944855 0
1.30396 0.964535 0
1.29029 0.908083 0
1.32384 0.934988 0
1.28138 0.888185 0
1.25118 0.912845 0
1.3214 0.906522 0
1.26664 0.992636 0
1.29505 0.997177 0
1.27596 1.03063 0
1.3231 0.956432 0
1.2989 0.938779 0
1.24243 0.888472 0
1.27983 0.970352 0
1.40549 1.01712 0
1.31063 1.10818 0
1.33539 1.11972 0
1.32331 1.07566 0
1.36043 1.19592 0
1.35219 1.24387 0
1.34521 1.17583 0
1.26712 1.18938 0
1.60664 1.19833 0
1.51935 1.23146 0
1.51413 1.18719 0
1.53661 1.17389 0
1.5492 1.20999 0
1.52648 1.20785 0
1.56931 1.19773 0
1.61694 1.26811 0
1.68658 1.13401 0
1.74403 1.15461 0
1.80008 1.17717 0
1.77527 1.15772 0
1.82211 1.12495 0
1.80343 1.14783 0
1.79074 1.08594 0
1.76418 1.08869 0
1.78046 1.03829 0
1.76474 1.06114 0
1.75389 1.03216 0
1.63658 0.949684 0
1.6114 0.976854 0
1.6167 1.01499 0
1.63978 1.02416 0
1.76035 0.892876 0
1.78765 0.855213 0
1.77897 0.876622 0
1.81688 0.852337 0
1.96926 0.602051 0
2 0.59491 0
1.96512 0.578503 0
1.52826 0.191841 0
1.55222 0.184589 0
1.45313 0.175697 0
1.49271 0.170419 0
1.42195 0.160038 0
1.50192 0.159148 0
1.46788 0.154605 0
1.44198 0.153404 0
1.4473 0.164383 0
1.47216 0.164522 0
1.83238 0.0659839 0
1.80249 0.0714593 0
1.83341 0.0737279 0
1.84555 0.0801703 0
1.80121 0.0637634 0
1.82457 0.059132 0
1.78162 0.0677463 0
1.91885 0.0574066 0
1.87006 0.0548673 0
1.89052 0.0693657 0
1.86502 0.0739359 0
1.84394 0.0553592 0
1.82306 0.121229 0
1.8229 0.132352 0
1.86806 0.139623 0
1.84139 0.138739 0
1.84788 0.148417 0
1.79417 0.0366284 0
1.78395 0.0411483 0
1.81702 0.0384415 0
1.79549 0.0250425 0
1.7667 0.034172 0
1.79545 0.0305627 0
1.76373 0.0277281 0
1.75316 0.0198603 0
1.71698 0.0248696 0
1.68964 0.0291839 0
1.76787 0.0233764 0
1.74091 0.0231204 0
1.7245 0.0199227 0
1.73664 0.0276448 0
1.71129 0.031966 0
1.67883 0.0234143 0
1.66715 0.0300858 0
1.702 0.0218756 0
1.64196 0.0219366 0
1.61212 0.0186341 0
1.60287 0.0132076 0
1.5786 0.0129503 0
1.66714 0.0193346 0
1.6689 0.0112957 0
1.67617 0.0150709 0
1.6174 0.021907 0
1.59428 0.0161391 0
1.74039 0.011639 0
1.72476 0.015307 0
1.63981 0.0138701 0
1.76567 0.0150899 0
1.79845 0.0188726 0
1.70419 0.0120378 0
1.6529 0.0165298 0
1.74582 0.0168677 0
1.79569 0.0100044 0
1.77382 0.017957 0
1.71609 0.00677795 0
1.70056 0.0146879 0
1.63615 0.0187413 0
1.77118 0.0118389 0
1.80758 0.0140512 0
1.71948 0.00939187 0
1.75899 0.00810702 0
1.68546 0.00832957 0
1.68063 0.00511988 0
1.63237 0.00768304 0
1.69291 0.00654021 0
1.62564 0.0106719 0
1.6494 0.00950514 0
1.59778 0.00853218 0
1.56557 0.00792093 0
1.54107 0.00919946 0
1.06513 0.00487189 0
1.08593 0.00336591 0
1.10484 0.00184876 0
1.07234 0.00209618 0
1.11861 0.00260282 0
1.07861 0 0
1.08006 0.000534118 0
1.06981 0.00113488 0
1.10421 0.000785384 0
1.10168 0 0
1.08927 0.00127657 0
1.09012 0.000128166 0
1.11396 0.000220419 0
1.02186 0.00290685 0
0.809123 0.0192362 0
0.771536 0.0198357 0
0.799254 0.00595464 0
0.818785 0.00434768 0
0.832845 0.00551569 0
0.828421 0.00165776 0
0.830234 0.00296792 0
0.852835 0.00244804 0
0.811808 0.00236649 0
0.876262 0.000684961 0
0.803215 0.000808324 0
0.869764 0.00160903 0
0.789221 0.00129621 0
0.894881 0.00184772 0
0.848564 0.000795986 0
0.917966 0.0016378 0
0.902832 0 0
0.929453 0.000386263 0
0.929641 0.00098535 0
0.845229 0.00154689 0
0.860321 0.000230251 0
0.881958 0 0
0.820801 0 0
0.880263 0.000174058 0
0.902649 0.000523073 0
0.834978 0.000194611 0
0.891557 0.001009 0
0.92395 0 0
0.898228 0.000130425 0
0.840942 0 0
0.812131 0.000203272 0
0.800903 0 0
0.793613 0.000296589 0
0.828036 0.000725127 0
0.761841 0 0
0.75352 0.000327005 0
0.723755 0 0
0.717736 0.000909419 0
0.713337 0.000284915 0
0.686646 0 0
0.676716 0.000358293 0
0.650513 0 0
0.644677 0.000600241 0
0.641632 0.000130554 0
0.75106 0.0220519 0
0.835481 0.084678 0
0.852857 0.100043 0
0.856901 0.0898614 0
0.837924 0.0937607 0
0.806977 0.113158 0
0.774584 0.10747 0
0.757557 0.109843 0
0.826931 0.104602 0
0.875369 0.0962354 0
0.899323 0.0917953 0
0.874481 0.0891641 0
0.799031 0.100614 0
0.847831 0.123577 0
0.945113 0.100193 0
0.905907 0.0838564 0
0.92813 0.0908734 0
0.810485 0.105852 0
0.830797 0.115372 0
0.875478 0.130161 0
0.915109 0.0981994 0
0.962853 0.0883503 0
0.856961 0.111777 0
0.873807 0.105497 0
0.882501 0.117398 0
0.877675 0.138289 0
0.946942 0.0926248 0
0.843886 0.106548 0
0.864256 0.119504 0
0.895333 0.125595 0
0.935634 0.118183 0
0.954137 0.125625 0
0.916348 0.109587 0
0.917592 0.12428 0
0.903461 0.116855 0
0.892031 0.110252 0
0.938303 0.108813 0
0.965606 0.107604 0
0.957028 0.116112 0
0.979475 0.0989655 0
0.979397 0.0917284 0
0.979489 0.114224 0
0.97084 0.00458601 0
0.935799 0.00479055 0
0.893766 0.00361266 0
0.910374 0.00475067 0
0.922465 1.44484 0
0.989871 1.7737 0
1.10412 1.56508 0
1.15401 1.61114 0
1.13871 1.5658 0
1.11004 1.64417 0
1.09191 1.63078 0
1.09809 1.68085 0
1.06936 1.70768 0
1.07888 1.68218 0
1.13936 1.64902 0
1.1245 1.60635 0
1.17604 1.70423 0
1.12122 1.57836 0
1.15205 1.68457 0
1.18113 1.64925 0
1.16013 1.65555 0
0.845433 1.68454 0
0.858557 1.65682 0
0.874824 1.58616 0
0.84717 1.55654 0
0.864598 1.562 0
0.850192 1.59899 0
0.868837 1.71607 0
1.00075 1.86365 0
1.07 1.28653 0
1.08115 1.25913 0
1.06735 1.33575 0
1.06232 1.36559 0
1.04981 1.32348 0
1.07755 1.3119 0
0.643488 0.994632 0
0.649469 0.908262 0
0.615394 0.936728 0
0.6298 0.915854 0
0.615766 0.88591 0
0.583835 0.860631 0
0.602226 0.851657 0
0.588207 0.834979 0
0.597926 0.878115 0
0.5669 0.807894 0
0.581243 0.793919 0
0.565913 0.914779 0
0.601083 0.910904 0
0.580591 0.816215 0
0.578999 0.890684 0
0.628885 0.89462 0
0.615778 0.907958 0
0.597386 0.937559 0
0.583662 0.919162 0
0.571641 0.947419 0
0.54227 0.861174 0
0.534525 0.946075 0
0.560197 1.02013 0
0.557766 0.883823 0
0.553053 0.937862 0
0.537714 0.90682 0
0.550199 0.980038 0
0.541262 0.927424 0
0.546464 0.957921 0
0.562809 0.851836 0
0.552356 0.905257 0
0.542646 0.8845 0
0.523038 0.873561 0
0.572196 0.982849 0
0.570445 0.871465 0
0.546476 0.825923 0
0.561926 0.965451 0
0.560415 0.996472 0
0.598418 1.01397 0
0.550255 0.845085 0
0.515248 0.826718 0
0.588815 0.990653 0
0.579176 1.01748 0
0.613087 0.982226 0
0.573385 1.09177 0
0.627597 0.991885 0
0.615125 1.01005 0
0.611517 1.06349 0
0.627696 1.04832 0
0.608966 1.03585 0
0.571427 1.05326 0
0.624946 1.09392 0
0.59171 1.05408 0
0.632322 1.07192 0
0.513881 0.852131 0
0.529988 0.841391 0
0.53618 1.06478 0
0.598758 1.10142 0
0.581265 1.07117 0
0.555464 1.07487 0
0.610686 1.08739 0
0.614418 1.12256 0
0.617637 1.15598 0
0.593947 1.13795 0
0.555108 1.04666 0
0.536066 1.02176 0
0.539591 1.10498 0
0.632036 1.15223 0
0.583542 1.11484 0
0.560084 1.12672 0
0.541449 1.04312 0
0.558837 1.10036 0
0.167931 1.0962 0
0.176073 1.21698 0
0.190558 1.13627 0
0.191524 1.11082 0
0.219424 1.21045 0
0.329736 1.04599 0
0.353455 1.01102 0
0.3594 1.03811 0
0.346644 1.03386 0
0.352101 1.06016 0
0.290035 1.00228 0
0.374584 1.19094 0
0.377882 0.97348 0
0.427509 1.04987 0
0.415067 1.0421 0
0.438458 0.964045 0
0.431847 1.29006 0
0.418998 1.3231 0
0.416201 1.3662 0
0.45219 1.34995 0
0.409638 1.34206 0
0.439007 1.41694 0
0.445755 1.31408 0
0.433175 1.3494 0
0.423796 1.39967 0
0.437414 1.38242 0
0.45495 1.39596 0
0.432293 1.31886 0
0.448625 1.37421 0
0.458712 1.20807 0
0.436978 1.19973 0
0.436865 1.13539 0
0.41866 0.665823 0
0.422497 0.684449 0
0.419653 0.707273 0
0.430222 0.670309 0
0.431899 0.705783 0
0.400674 0.673463 0
0.388417 0.733855 0
0.405197 0.724635 0
0.391997 0.70545 0
0.406177 0.776954 0
0.420197 0.761368 0
0.405749 0.750563 0
0.422171 0.791824 0
0.403822 0.705351 0
0.379499 0.696355 0
0.434668 0.785317 0
0.456975 0.785119 0
0.400309 0.827556 0
0.407885 0.80366 0
0.389441 0.793566 0
0.422365 0.833004 0
0.419182 0.812325 0
0.369626 0.764406 0
0.386393 0.818871 0
0.36884 0.866264 0
0.374497 0.838594 0
0.391671 0.866315 0
0.38957 0.84223 0
0.380175 0.858335 0
0.37622 0.785745 0
0.387865 0.763473 0
0.378421 0.748064 0
0.364118 0.740047 0
0.370153 0.716385 0
0.342962 0.769176 0
0.35579 0.759959 0
0.34117 0.830612 0
0.344494 0.742474 0
0.355779 0.794099 0
0.357129 0.842082 0
0.382035 0.716722 0
0.352746 0.818275 0
0.338986 0.888077 0
0.352718 0.871858 0
0.339325 0.858996 0
0.309287 0.837089 0
0.325417 0.841118 0
0.352519 0.901632 0
0.332666 0.946653 0
0.367585 0.895635 0
0.339606 0.918801 0
0.390507 0.925428 0
0.376638 0.916927 0
0.373148 0.945333 0
0.387967 0.895416 0
0.352758 0.963443 0
0.411 0.903998 0
0.377667 0.882331 0
0.361273 0.947226 0
0.348742 0.937885 0
0.39853 0.907619 0
0.326491 0.797989 0
0.340562 0.803164 0
0.314468 0.884794 0
0.327058 0.872925 0
0.318594 0.818716 0
0.330485 0.819684 0
0.305825 0.784255 0
0.300509 0.752897 0
0.305508 0.810988 0
0.314956 0.797442 0
0.296718 0.797147 0
0.291119 0.772352 0
0.284198 0.751785 0
0.278942 0.776345 0
0.262851 0.800619 0
0.274134 0.797977 0
0.271383 0.855797 0
0.269854 0.826005 0
0.263272 0.778634 0
0.2497 0.873261 0
0.242363 0.894133 0
0.240723 0.840431 0
0.255638 0.901804 0
0.238521 0.869415 0
0.232154 0.834469 0
0.316062 0.8589 0
0.321747 0.917659 0
0.327806 0.896824 0
0.247906 0.809444 0
0.28813 0.836716 0
0.298266 0.867402 0
0.298648 0.829124 0
0.25712 0.844109 0
0.266992 0.884701 0
0.302861 0.915727 0
0.31374 0.95409 0
0.305396 0.974749 0
0.299778 0.945882 0
0.253714 0.792164 0
0.237766 0.81319 0
0.277904 0.839105 0
0.284348 0.864932 0
0.280164 0.816727 0
0.290095 0.895872 0
0.257252 0.820512 0
0.248419 0.852163 0
0.259842 0.866929 0
0.312471 0.906479 0
0.322221 0.940135 0
0.301497 0.891004 0
0.278685 0.887688 0
0.292754 0.916712 0
0.279647 0.912913 0
0.354942 0.699941 0
0.343011 0.710661 0
0.0496393 0.931803 0
0.0224786 0.821723 0
0.0270656 0.852192 0
0.0161896 1.00508 0
0.0260339 1.01376 0
0.0311769 1.00535 0
0.0280106 0.992123 0
0.0243866 0.989255 0
0.022725 1.01168 0
0.0227046 0.968426 0
0.0291631 1.02952 0
0.00826835 0.961271 0
0.00611359 0.733638 0
0.00364913 0.858881 0
0.0783036 1.26942 0
0.0713921 1.37024 0
0.0927204 1.26978 0
0.0977001 1.23481 0
0.0918677 1.24282 0
0.102041 1.27121 0
0.0970776 1.30226 0
0.102898 1.24618 0
0.105093 1.39435 0
0.0989916 1.35151 0
0.0957614 1.32858 0
0.0891524 1.15232 0
0.127623 1.16347 0
0.12195 1.17542 0
0.0382182 0.630251 0
0.0364012 0.647832 0
0.04241 0.561199 0
0.032322 0.583973 0
0.0417328 0.597154 0
0.0340322 0.610806 0
0.0413696 0.617023 0
0.0368403 0.591179 0
0.0377684 0.609387 0
0.0401138 0.578267 0
0.0254565 0.611558 0
0.0296163 0.620839 0
0.0306849 0.601687 0
0.0262119 0.63594 0
0.0221817 0.627949 0
0.0281883 0.652578 0
0.018988 0.580753 0
0.0216101 0.651352 0
0.0214825 0.601384 0
0.0256965 0.573306 0
0.0285741 0.585008 0
0.0169756 0.609092 0
0.0223077 0.580255 0
0.024846 0.592117 0
0.0221309 0.544196 0
0.0205496 0.562397 0
0.0234828 0.560374 0
0.0305605 0.533812 0
0.0273746 0.550816 0
0.0356223 0.553549 0
0.0302353 0.565414 0
0.0190936 0.545509 0
0.0354805 0.572786 0
0.0194232 0.619386 0
0.0189058 0.598108 0
0.0235345 0.782119 0
0.0239626 0.761948 0
0.0196736 0.730346 0
0.0205432 0.704402 0
0.0182774 0.750526 0
0.0342636 0.0370638 0
0.0566026 0.0457866 0
0.0492447 0.0475509 0
0.0525024 0.044709 0
0.00314757 0.188037 0
0.00588795 0.222226 0
0.0135683 0.194762 0
0.0139413 0.18423 0
0.0105972 0.1959 0
0.00799698 0.208342 0
0.0123093 0.21292 0
0.0142162 0.220483 0
0.00880303 0.198977 0
0.0101005 0.208758 0
0.0139987 0.205459 0
0.00635599 0.260367 0
0.00943948 0.311801 0
0.0377354 0.233918 0
0.112303 0.0381604 0
0.108599 0.0417226 0
0.120555 0.0359464 0
0.122569 0.0319175 0
0.121595 0.0266129 0
0.118779 0.0211278 0
0.105735 0.0357086 0
0.125132 0.0204852 0
0.116087 0.0181811 0
0.109152 0.0250464 0
0.1149 0.0268754 0
0.106202 0.029975 0
0.0983097 0.0253071 0
0.100108 0.0290626 0
0.112251 0.0218171 0
0.0668131 0.0351212 0
0.0600087 0.0387856 0
0.0678392 0.0417845 0
0.060512 0.0433831 0
0.0558616 0.0254344 0
0.0734059 0.0376011 0
0.0644832 0.0387598 0
0.0550027 0.0325178 0
0.055826 0.0368278 0
0.0609558 0.0330869 0
0.0583659 0.0291425 0
0.0680077 0.0224493 0
0.0621978 0.0249012 0
0.0660198 0.0293164 0
0.0608907 0.0184867 0
0.0585436 0.0219013 0
0.0436704 0.014588 0
0.0515324 0.0173142 0
0.0558745 0.018823 0
0.057379 0.0131661 0
0.0632826 0.02139 0
0.0674774 0.0179964 0
0.0820763 0.0194423 0
0.0743108 0.0198216 0
0.0748373 0.0301586 0
0.0773062 0.0136779 0
0.072001 0.0155351 0
0.0700543 0.0317981 0
0.0761232 0.0340395 0
0.0787561 0.0246156 0
0.0777818 0.0169245 0
0.0732988 0.0234832 0
0.08245 0.0294567 0
0.0876481 0.0238542 0
0.0846501 0.0331388 0
0.0828145 0.0225852 0
0.0924114 0.0260278 0
0.0935121 0.0218746 0
0.0898642 0.0172262 0
0.0838897 0.0149903 0
0.0946779 0.0109053 0
0.102213 0.00996293 0
0.0904225 0.013571 0
0.0959046 0.0074713 0
0.101195 0.0142407 0
0.0835849 0.00947521 0
0.0952789 0.0155423 0
0.0823141 0.0120924 0
0.0884822 0.0109412 0
0.0876335 0.0202764 0
0.10316 0.00736743 0
0.0919346 0.00478919 0
0.0962736 0.00572423 0
0.0957031 0 0
0.0848133 0.00633077 0
0.099174 0.00127832 0
0.0670048 0.00588907 0
0.0892359 0.00809668 0
0.0911252 0.00237177 0
0.0757943 0.00541034 0
0.0889161 0.00352576 0
0.0975522 0.00336328 0
0.110459 0.00287182 0
0.0968368 0.00215743 0
0.1041 0.00212738 0
0.104294 0.00358798 0
0.110537 0.00455976 0
0.115716 0.000632188 0
0.118559 0.00485768 0
0.111201 0.00146038 0
0.117841 0.00221184 0
0.109863 0 0
0.116359 0.00342801 0
0.10591 0.000525572 0
0.0809234 0.00515256 0
0.0787922 0.00752763 0
0.07626 0.0102885 0
0.0715816 0.00792796 0
0.071483 0.0122257 0
0.105242 0.00119327 0
0.111457 0.000184724 0
0.11731 0 0
0.121124 0.000182345 0
0.13013 0.00112031 0
0.123346 0.000703295 0
0.125113 0.00189599 0
0.144485 0.0024875 0
0.134431 0.002339 0
0.158203 0 0
0.14957 0.00390155 0
0.141113 0 0
0.140169 0.00400781 0
0.132241 0.000214385 0
0.143025 0.00544546 0
0.0967599 0.00032862 0
0.0626461 0.00932721 0
0.0663783 0.0111825 0
0.131878 0.00379015 0
0.102661 0 0
0.0825195 0 0
0.0905447 0.000955228 0
0.0664209 0.00786735 0
0.102436 0.000153903 0
0.0889893 0 0
0.0857239 0.000266109 0
0.0910674 0.000380152 0
0.0762939 0.000230184 0
0.0810681 0.000117689 0
0.0976189 0.0377292 0
0.380345 0.00168814 0
0.376979 0.00393388 0
0.212581 0.000198934 0
0.228597 0.000364704 0
0.225708 0 0
0.23285 0.00147112 0
0.2052 0 0
0.17627 0 0
0.198 0.00080323 0
0.149433 0.0212991 0
1.33469 0.240039 0
1.92192 0.228849 0
1.94808 0.228055 0
1.97587 0.230759 0
1.89342 0.223032 0
1.92508 0.199175 0
1.94086 0.208622 0
1.96477 0.195583 0
2 0.199402 0
1.95898 0.177004 0
1.97304 0.185684 0
2 0.175964 0
1.86288 0.193533 0
1.85235 0.209034 0
1.86731 0.218789 0
1.90114 0.156194 0
1.93444 0.164828 0
1.89683 0.14493 0
1.93059 0.121733 0
1.90092 0.131146 0
1.92924 0.175537 0
1.96708 0.165506 0
2 0.153992 0
1.95237 0.155257 0
1.96336 0.143513 0
1.97533 0.151199 0
2 0.123779 0
1.93556 0.135361 0
2 0.133484 0
1.96597 0.128586 0
1.89076 0.118702 0
1.87075 0.129679 0
1.97559 0.136145 0
1.92772 0.0999844 0
1.86108 0.109666 0
1.91845 0.110713 0
1.83652 0.10547 0
1.84349 0.114928 0
1.86766 0.116622 0
1.87589 0.0966647 0
1.96237 0.11243 0
1.88968 0.110049 0
1.86285 0.0905379 0
1.95765 0.120506 0
1.94259 0.106666 0
1.92662 0.436282 0
1.2719 0.921509 0
1.23435 0.952099 0
1.25441 0.96858 0
1.24402 0.990417 0
1.2712 1.06063 0
1.23918 1.03883 0
1.2533 1.01591 0
1.2941 1.0882 0
1.36936 1.28053 0
1.39781 1.28354 0
1.45242 1.3215 0
1.43642 1.26903 0
1.42119 1.30995 0
1.41682 1.25485 0
1.37225 1.25467 0
1.30281 1.3006 0
1.44207 1.29609 0
1.49348 1.28353 0
1.46498 1.2754 0
1.47386 1.30385 0
1.48167 1.34307 0
1.4868 1.24516 0
1.45449 1.24977 0
1.47885 1.21132 0
1.49191 1.19128 0
1.41938 1.28466 0
1.3434 1.3269 0
1.33367 1.27994 0
1.53839 1.34653 0
1.36431 1.31004 0
1.3516 1.26813 0
1.3096 1.2377 0
1.32588 1.30715 0
1.30678 1.34377 0
1.50941 1.35547 0
1.51551 1.31516 0
1.32963 1.25223 0
1.3073 1.26913 0
1.26056 1.24827 0
1.28616 1.25101 0
1.28649 1.21564 0
1.31132 1.20702 0
1.26169 1.2183 0
1.23319 1.19538 0
1.55642 1.30297 0
1.49256 1.31944 0
1.2434 1.13885 0
1.21567 1.22158 0
1.23915 1.23203 0
1.53842 1.31989 0
1.56284 1.25511 0
1.52856 1.27773 0
1.24722 1.16922 0
1.21543 1.15924 0
1.56577 1.22895 0
1.55167 1.27761 0
1.50973 1.25799 0
1.21683 1.12496 0
1.24104 1.1032 0
1.19809 1.11234 0
1.21646 1.1828 0
1.17886 1.10309 0
1.61199 1.23434 0
1.59107 1.25517 0
1.59172 1.29079 0
1.73094 0.918061 0
1.7372 0.89779 0
1.69637 0.907662 0
1.66593 0.917368 0
1.66036 0.940497 0
1.75649 0.947867 0
1.75888 0.917492 0
1.70759 0.928927 0
1.7344 0.939319 0
1.73809 0.971392 0
1.79073 0.987614 0
1.76851 1.00711 0
1.76698 0.972292 0
1.79948 0.953754 0
1.77946 0.941824 0
1.81754 0.975304 0
1.82752 1.02066 0
1.8303 0.996452 0
1.79767 1.01469 0
1.48217 0.18555 0
1.47538 0.176396 0
1.44531 0.192971 0
1.50217 0.179746 0
1.45937 0.185108 0
1.47427 0.199561 0
1.49413 0.212576 0
1.51542 0.207783 0
1.44524 0.218662 0
1.50203 0.229165 0
1.46722 0.211457 0
1.44214 0.205614 0
1.47195 0.225788 0
1.43884 0.239493 0
1.47904 0.243961 0
1.45008 0.229548 0
1.4295 0.252247 0
1.5062 0.245147 0
1.91475 0.0401191 0
1.86414 0.0419467 0
1.85023 0.0481967 0
1.83853 0.0435175 0
1.88842 0.0613391 0
1.86351 0.065645 0
1.84285 0.0222491 0
1.83107 0.0277404 0
1.82089 0.0242214 0
1.82014 0.0312758 0
1.90543 0.0279673 0
1.86828 0.0262987 0
1.85668 0.0311463 0
1.86279 0.0362978 0
1.88697 0.0388956 0
1.90923 0.0337872 0
1.88188 0.0329658 0
1.89812 0.0219744 0
2 0.0358887 0
1.95472 0.0300661 0
1.87047 0.0224333 0
1.92722 0.0304947 0
1.94524 0.0360551 0
1.95582 0.0439915 0
1.97229 0.0338927 0
2 0.0411987 0
2 0.0309448 0
1.94015 0.0403507 0
1.85901 0.0103369 0
1.79216 0.00697583 0
1.77964 0.00231662 0
1.75802 0.00461105 0
1.76819 0.00622228 0
1.79594 0.00436789 0
1.77523 0.00354082 0
1.74122 0.00258466 0
1.72806 0.00408735 0
1.75249 0.000656833 0
1.75698 0.00153704 0
1.64258 0 0
1.71338 0.00122532 0
1.71899 0.00212375 0
1.62603 0.00181138 0
1.66087 0.006827 0
1.63759 0.00406384 0
1.63946 0.00576455 0
1.61215 0.00500826 0
1.58065 0.00273068 0
1.59049 0.00407783 0
1.60875 0.00285359 0
1.5101 0.00396299 0
1.4958 0.00661468 0
1.54991 0.00437575 0
1.46141 0.00530695 0
1.53946 0.00649584 0
1.56143 0.00582273 0
1.52801 0.00496155 0
1.61059 0.00679712 0
1.0427 0.00255384 0
0.987214 0.00115239 0
1.03767 0.00433034 0
1.01391 0.00456397 0
1.03096 0.00603225 0
0.799325 0.00374326 0
0.916716 0.000120144 0
0.792529 0.108125 0
0.784254 0.120089 0
0.768466 0.116302 0
0.778187 0.135464 0
0.77551 0.145153 0
0.773955 0.126957 0
0.813804 0.131092 0
0.793851 0.128791 0
0.800099 0.141998 0
0.811863 0.150918 0
0.807535 0.122206 0
0.821683 0.141055 0
0.844772 0.140419 0
0.828023 0.124503 0
0.83946 0.131573 0
0.816447 0.097987 0
0.782925 0.0868161 0
0.763607 0.0843449 0
0.953032 0.0763208 0
0.960765 0.0695158 0
0.943754 0.00637659 0
0.937431 0.00298763 0
1.00956 1.75204 0
1.04073 1.7431 0
1.01924 1.71735 0
0.962757 1.79369 0
0.972274 1.76886 0
0.9528 1.76943 0
0.951938 1.82405 0
0.975158 1.84741 0
0.966605 1.88178 0
0.996415 1.81802 0
0.98085 1.80073 0
1.00456 1.79124 0
1.1794 1.56546 0
1.14891 1.51683 0
1.20897 1.6826 0
0.796785 1.52122 0
0.810284 1.58542 0
0.831429 1.58114 0
0.822027 1.53786 0
0.823072 1.6156 0
0.803955 1.55289 0
0.7623 1.56224 0
0.782333 1.54886 0
0.767577 1.50147 0
0.781984 1.59959 0
0.779992 1.52044 0
0.797722 1.6439 0
0.791626 1.57432 0
0.804952 1.61515 0
0.839648 1.5282 0
0.81993 1.48453 0
0.804174 1.72652 0
0.813474 1.51189 0
0.828002 1.71562 0
0.831961 1.75365 0
0.813198 1.79035 0
0.810713 1.68435 0
0.822249 1.87272 0
0.813068 1.75627 0
0.785455 1.76396 0
0.850004 1.86515 0
0.847464 1.82625 0
0.810626 1.83393 0
0.828106 1.81681 0
0.796485 1.78691 0
0.763901 1.69421 0
0.738106 1.80201 0
0.839102 1.90635 0
0.864944 1.85136 0
0.780957 1.72239 0
0.786211 1.68079 0
0.752409 1.74891 0
0.763853 1.72553 0
0.764385 1.79513 0
0.804187 1.9354 0
0.846882 2.01999 0
0.766754 1.64279 0
0.779877 1.79114 0
0.767929 1.76332 0
0.749815 1.77976 0
0.757803 1.89028 0
0.818908 1.90971 0
0.790095 1.88046 0
0.879705 1.98028 0
0.84933 1.96124 0
0.826007 1.95199 0
0.807458 1.97969 0
0.834043 1.98843 0
0.812459 2.05215 0
0.826634 2.02442 0
0.803843 2.01733 0
0.782057 1.65256 0
0.767991 1.84413 0
0.805273 1.86471 0
0.890967 1.94816 0
0.870049 1.94633 0
0.850666 1.92957 0
0.752966 1.82303 0
0.727128 1.86052 0
0.773029 1.87533 0
0.7771 1.92688 0
0.785746 1.8476 0
0.7922 1.91237 0
0.740963 1.96139 0
0.788136 1.9598 0
0.764417 1.96622 0
0.805037 1.8946 0
0.756839 1.92948 0
0.734317 1.90767 0
0.748361 2.04619 0
0.741843 1.8775 0
0.720754 1.88993 0
0.723829 1.9412 0
0.686905 1.98964 0
0.717183 2.0034 0
0.702545 1.95674 0
0.725588 1.9744 0
0.738005 2.00874 0
0.725191 2.04441 0
0.759804 2.00875 0
0.662264 1.9045 0
0.688441 1.85183 0
0.702424 1.87787 0
0.682487 1.89298 0
0.678171 1.94228 0
0.702723 1.98939 0
0.694951 2.03211 0
0.653799 1.95335 0
0.693558 1.92637 0
0.657576 2.03884 0
0.668923 1.9768 0
0.672662 2.01551 0
0.678111 2.08536 0
0.673186 2.05107 0
0.691364 2.06556 0
0.844014 1.63207 0
1.10303 1.26988 0
0.630978 0.945629 0
0.507601 0.920266 0
0.511696 0.893657 0
0.522304 0.912087 0
0.530914 0.977145 0
0.513128 0.955335 0
0.530472 1.00031 0
0.52138 0.935692 0
0.476285 0.952836 0
0.494759 0.94456 0
0.480579 0.901947 0
0.496372 0.901433 0
0.488683 0.922149 0
0.491477 0.988237 0
0.500213 0.967837 0
0.561506 0.829032 0
0.54213 0.780866 0
0.607046 0.958485 0
0.601013 1.16467 0
0.512728 1.04334 0
0.524569 1.08823 0
0.521602 1.06326 0
0.575107 1.1403 0
0.172701 1.16653 0
0.161125 1.16385 0
0.167247 1.14783 0
0.151463 1.22367 0
0.16616 1.19733 0
0.153703 1.18883 0
0.164132 1.24492 0
0.144512 1.18151 0
0.141087 1.21653 0
0.13327 1.21644 0
0.136071 1.27272 0
0.132707 1.24578 0
0.123078 1.27175 0
0.158791 1.21088 0
0.168231 1.22246 0
0.144516 1.25156 0
0.122213 1.24716 0
0.149328 1.31065 0
0.154429 1.25762 0
0.148228 1.27953 0
0.164565 1.29922 0
0.161566 1.27218 0
0.156241 1.29473 0
0.22484 1.18864 0
0.202706 1.18382 0
0.209937 1.16142 0
0.212431 1.18939 0
0.205539 1.21684 0
0.190518 1.21076 0
0.19836 1.20466 0
0.228058 1.25645 0
0.236819 1.23167 0
0.226925 1.22839 0
0.390339 0.993315 0
0.397292 0.959133 0
0.407162 0.933976 0
0.37364 1.0089 0
0.384957 0.953314 0
0.419095 0.923224 0
0.420531 0.956456 0
0.363531 0.98528 0
0.431298 0.945659 0
0.409147 0.967512 0
0.427239 0.977842 0
0.424828 1.08124 0
0.447728 1.09384 0
0.438864 1.06954 0
0.434823 1.09694 0
0.446159 1.11835 0
0.468454 1.04877 0
0.445414 1.03409 0
0.454959 1.06623 0
0.479463 1.10477 0
0.462454 1.10972 0
0.500378 1.08414 0
0.469895 1.07931 0
0.48517 1.0785 0
0.440624 1.01149 0
0.460175 1.02374 0
0.480284 1.01875 0
0.471306 0.986829 0
0.485269 1.04773 0
0.497852 1.02494 0
0.511046 1.01986 0
0.481663 0.973286 0
0.45755 0.962404 0
0.469209 1.0086 0
0.461077 0.922926 0
0.447247 0.939133 0
0.448332 0.977484 0
0.464607 0.944015 0
0.448383 1.23898 0
0.446789 1.21434 0
0.450535 1.17514 0
0.439792 1.16041 0
0.481951 1.16539 0
0.473278 1.13596 0
0.46556 1.16358 0
0.472898 1.19207 0
0.48311 1.25963 0
0.473918 1.22799 0
0.469946 1.30297 0
0.46361 1.25731 0
0.461175 1.28325 0
0.508168 1.21088 0
0.491177 1.19593 0
0.459392 1.32369 0
0.476025 1.36105 0
0.491197 1.22951 0
0.503215 1.26098 0
0.509758 1.16239 0
0.467655 1.38443 0
0.492409 1.3006 0
0.523179 1.2421 0
0.503914 1.18593 0
0.505393 1.28869 0
0.519213 1.3714 0
0.515778 1.32745 0
0.492845 1.27549 0
0.509431 1.23716 0
0.557804 1.27375 0
0.579472 1.26333 0
0.537429 1.18973 0
0.520598 1.18596 0
0.527316 1.213 0
0.531573 1.14926 0
0.545691 1.23762 0
0.535944 1.26742 0
0.564615 1.241 0
0.580597 1.23354 0
0.567275 1.20066 0
0.55815 1.16507 0
0.542887 1.3184 0
0.533516 1.29568 0
0.582125 1.20652 0
0.547251 1.14396 0
0.552735 1.1909 0
0.428939 1.22369 0
0.454666 0.757243 0
0.486343 0.803457 0
0.49277 0.837864 0
0.409168 0.856203 0
0.410798 0.835992 0
0.403845 0.880711 0
0.433634 0.875533 0
0.425832 0.898737 0
0.4188 0.875686 0
0.426117 0.855617 0
0.449719 0.843317 0
0.331779 0.984427 0
0.0189718 1.00775 0
0.0310758 0.981614 0
0.00812534 0.938981 0
0.00459028 0.977338 0
0.0115444 0.967561 0
0.0143976 0.964809 0
0.0131728 0.994268 0
0.016175 0.981053 0
0.0111041 0.990148 0
0.012472 1.06521 0
0.0115498 1.02788 0
0.014744 1.03809 0
0.0174576 1.03128 0
0.0192376 1.0946 0
0.0190847 1.06089 0
0.00652555 1.06694 0
0.0135137 1.01777 0
0.0156547 1.07112 0
0.0237139 1.07603 0
0.00924303 1.05599 0
0.0135084 1.10003 0
0.0209665 1.077 0
0.0284731 1.10746 0
0.0110086 1.04976 0
0.00846315 1.12921 0
0.0164009 1.11381 0
0.0221862 1.19785 0
0.018428 1.1602 0
0.0165748 1.14047 0
0.0318542 1.09805 0
0.0111701 1.12335 0
0.00935806 1.09329 0
0.0113232 1.098 0
0.0105414 1.07392 0
0.00809935 1.07522 0
0.00801104 0.756756 0
0.00345298 0.764862 0
0.00504723 0.858958 0
0.00282166 0.834927 0
0.00102706 0.846962 0
0.00236354 0.859505 0
0.00174326 0.833606 0
0.00146422 0.867255 0
0 0.897217 0
0.000572899 0.914937 0
0.00111502 0.894622 0
0.000268198 0.873969 0
0.000743088 0.869565 0
0.00194981 0.944325 0
0.000542593 0.891232 0
0.000147585 0.904728 0
0.00128141 0.922866 0
0 0.923035 0
0.000184048 0.938252 0
0.00234448 0.915232 0
0.000796852 0.959377 0
0.00367873 0.9415 0
0.00364878 0.893628 0
0.000772297 0.936098 0
0.00344987 0.917459 0
0.00490562 0.924846 0
0.00544823 0.952134 0
0.00602508 0.905159 0
0.00646266 0.978115 0
0.00541841 1.02223 0
0.00545654 0.997166 0
0.00360269 1.00704 0
0.00723319 1.01037 0
0.0069047 1.03855 0
0.00898254 1.02676 0
0.00241038 1.06471 0
0.00378047 1.04384 0
0.00264365 1.02764 0
0.00399656 1.08424 0
0.00522064 1.04944 0
0.00338364 1.06509 0
0.0745597 1.32297 0
0.0857257 1.26278 0
0.0884689 1.29308 0
0.0856653 1.39782 0
0.112902 1.34252 0
0.0542536 0.567428 0
0.0117045 0.570645 0
0.0153597 0.561009 0
0.0136153 0.637298 0
0.0147464 0.684192 0
0.0178914 0.688061 0
0.0183573 0.663454 0
0.0158415 0.709047 0
0.0159703 0.649506 0
0.0103532 0.712964 0
0.0182369 0.713885 0
0.015986 0.628443 0
0.0130674 0.724357 0
0.0125509 0.699761 0
0.0112859 0.665881 0
0.0125842 0.680583 0
0.0135802 0.658783 0
0.0108 0.738318 0
0.0134967 0.751275 0
0.0129865 0.771467 0
0.0157233 0.755635 0
0.0405495 0.527472 0
0.0320547 0.549956 0
0.0318218 0.0445569 0
0.0370638 0.0430692 0
0.0389272 0.0471795 0
0.0418043 0.0371313 0
0.0405226 0.0414155 0
0.0468334 0.0412485 0
0.0488095 0.0347056 0
0.049881 0.0283304 0
0.0455833 0.0370993 0
0.0540017 0.0287313 0
0.0499126 0.0224059 0
0.0464987 0.0309751 0
0.0456252 0.0188171 0
0.0454533 0.0252629 0
0.0475288 0.0159094 0
0.0310108 0.0206989 0
0.0377138 0.0234278 0
0.0411587 0.0255966 0
0.0417222 0.021251 0
0.00410406 0.181521 0
0.00193281 0.173671 0
0.00234576 0.16437 0
0.00442256 0.204713 0
0.00647027 0.197759 0
0.00590603 0.209484 0
0.0071229 0.273699 0
0.00871042 0.260702 0
0.0100815 0.241756 0
0.0102713 0.224958 0
0.010217 0.253516 0
0.00752866 0.245487 0
0.0113309 0.233718 0
0.0121834 0.223352 0
0.00510061 0.244449 0
0.00482014 0.257223 0
0.00379814 0.279637 0
0.0051867 0.27196 0
0.00394872 0.266932 0
0.00632894 0.235042 0
0.00832154 0.232279 0
0.00841099 0.22001 0
0.00271876 0.228149 0
0.00353155 0.24019 0
0.00464609 0.231231 0
0.00430185 0.217912 0
0.00305622 0.210318 0
0.00330454 0.1991 0
0.00842419 0.295453 0
0.0109668 0.292454 0
0.104339 0.0215724 0
0.0614177 0.0151212 0
0.0707609 0.0271351 0
0.103743 0.0171663 0
0.108099 0.0145786 0
0.163032 0.00151351 0
0.154604 0.00234732 0
0.164263 0.0030241 0
0.14915 0.000541028 0
0.154418 0.00118993 0
0.162578 0.000356567 0
0.145647 0.00129935 0
0.13958 0.000582411 0
0.143938 0.000160599 0
0.149536 0 0
0.137724 0.0013449 0
0.153839 0.00013962 0
0.173287 0.00293268 0
0.132935 0 0
0.0582973 0.00610951 0
0.0762939 0 0
0.0611966 0.00109218 0
0.366664 0.00319612 0
0.36526 0.00903898 0
0.391149 0.00390219 0
0.258301 0 0
0.221552 0.000120017 0
0.223922 0.000972429 0
0.218711 0.00169218 0
0.246126 0.00237927 0
0.189733 0.000231518 0
0.185669 0 0
0.1763 0.000551076 0
0.176393 0.00153284 0
0.169711 0.000985793 0
0.184247 0.000559168 0
1.97182 0.207117 0
1.8874 0.210565 0
1.90962 0.0889955 0
2 0.114441 0
1.89879 0.101898 0
1.25259 0.937117 0
1.21515 0.91903 0
1.19783 0.948634 0
1.19616 0.926763 0
1.20281 0.97559 0
1.2168 0.940782 0
1.22024 1.0212 0
1.22127 1.06748 0
1.21846 1.09459 0
1.24632 1.06604 0
1.56513 1.33408 0
1.59231 1.45477 0
1.59119 1.39005 0
1.58481 1.3579 0
1.53746 1.25118 0
1.68639 0.943205 0
1.40664 0.180549 0
1.42644 0.172163 0
1.43182 0.183119 0
1.41447 0.190859 0
1.39515 0.225513 0
1.42222 0.228388 0
1.41784 0.214781 0
1.40328 0.239349 0
1.37192 0.236411 0
1.38423 0.246739 0
1.36666 0.222 0
1.3873 0.211257 0
1.33097 0.198131 0
1.37124 0.19165 0
1.3427 0.212015 0
1.38677 0.199991 0
1.36106 0.202995 0
1.31249 0.209798 0
1.32004 0.220842 0
1.29916 0.195706 0
1.32236 0.175908 0
1.2663 0.185442 0
1.24175 0.183265 0
1.25232 0.194908 0
1.31824 0.187545 0
1.34541 0.187397 0
1.29342 0.17971 0
1.27789 0.193977 0
1.36699 0.168367 0
1.36594 0.179934 0
1.39736 0.167956 0
1.34601 0.173749 0
1.33845 0.157972 0
1.30894 0.153758 0
1.38652 0.176334 0
1.39078 0.153883 0
1.30248 0.169555 0
1.27102 0.173748 0
1.33623 0.147933 0
1.41458 0.15003 0
1.31833 0.162517 0
1.45609 0.247982 0
1.90366 0.0484949 0
1.87709 0.0466397 0
1.83607 0.0172328 0
1.82286 0.020023 0
1.85618 0.0193012 0
1.8567 0.0139038 0
1.83149 0.0118885 0
1.8291 0.00866365 0
2 0.0183105 0
1.95323 0.0222219 0
1.93416 0.025811 0
2 0.0593262 0
1.97091 0.0391098 0
1.69971 0 0
1.67025 0.00167562 0
1.53668 0.00193579 0
1.47286 0.00688097 0
1.48649 0.00475237 0
1.4521 0.00123534 0
1.46333 0.00287082 0
1.51796 0.00756972 0
0.966277 0.00181412 0
0.98254 0.00282985 0
0.960462 0.00053324 0
1.00195 0.00322922 0
1.00678 0.0018003 0
1.02866 0.00160088 0
1.03627 0.000409087 0
1.01089 0.000684169 0
0.98877 0 0
1.01086 0 0
0.999786 0.000171148 0
1.02074 0.000129837 0
0.976187 0.000151562 0
0.966919 0 0
0.956015 0.000115244 0
0.987145 0.000487041 0
0.754627 0.134944 0
0.745975 0.141978 0
0.798657 0.0920035 0
0.776232 0.096678 0
0.967887 0.0811856 0
0.934412 0.0729554 0
0.942433 0.08387 0
1.08152 1.81996 0
1.05041 1.71624 0
1.15903 1.57954 0
1.16011 1.54603 0
1.18319 1.60696 0
1.25897 1.57213 0
1.2184 1.57938 0
1.19685 1.58329 0
1.13424 1.53718 0
1.15404 1.40758 0
1.18783 1.67845 0
1.20053 1.71968 0
1.16044 1.80909 0
1.20344 1.78722 0
1.14408 1.74814 0
1.20899 1.75263 0
1.17604 1.75917 0
1.15513 1.71819 0
1.10565 1.73851 0
1.10899 1.70739 0
1.15665 1.77575 0
1.11996 1.80266 0
1.18069 1.79295 0
1.18638 1.84697 0
1.26447 1.66848 0
0.791131 1.47303 0
0.790526 1.43499 0
0.809205 1.45315 0
0.826099 1.42625 0
0.744326 1.5263 0
0.725313 1.51105 0
0.704322 1.53924 0
0.726946 1.54922 0
0.742532 1.57268 0
0.743125 1.62028 0
0.695272 1.51361 0
0.683415 1.60489 0
0.762013 1.60744 0
0.745215 1.66473 0
0.687972 1.56555 0
0.656682 1.57003 0
0.703005 1.59208 0
0.672732 1.57993 0
0.661955 1.53834 0
0.705608 1.6646 0
0.711909 1.56623 0
0.715784 1.62671 0
0.740716 1.70893 0
0.69633 1.63217 0
0.647917 1.69028 0
0.676026 1.67383 0
0.677949 1.63849 0
0.725281 1.65918 0
0.724485 1.75153 0
0.738047 1.73754 0
0.840435 1.47018 0
0.841241 1.44135 0
0.860512 1.99232 0
0.881071 2.05359 0
0.875706 2.01707 0
0.65073 2.09731 0
0.704502 2.17899 0
0.550618 0.801893 0
0.561977 0.785991 0
0.530169 0.805721 0
0.518034 0.773868 0
0.528936 0.785551 0
0.51271 0.799593 0
0.500691 0.816071 0
0.180587 1.14612 0
0.183288 1.1815 0
0.17557 1.19081 0
0.18287 1.20568 0
0.178473 1.26983 0
0.184503 1.24024 0
0.169853 1.26609 0
0.190289 1.27347 0
0.198156 1.24579 0
0.204975 1.29709 0
0.203686 1.26864 0
0.196051 1.29446 0
0.129364 1.29785 0
0.119379 1.31034 0
0.117663 1.28549 0
0.112041 1.31223 0
0.10529 1.33101 0
0.105649 1.36252 0
0.123523 1.35164 0
0.126162 1.32416 0
0.105239 1.29933 0
0.118741 1.33539 0
0.199377 1.15364 0
0.190647 1.16434 0
0.497388 1.12003 0
0.487553 1.14011 0
0.508212 1.13651 0
0.499481 1.0569 0
0.48179 1.32798 0
0.497847 1.35827 0
0.530716 1.12423 0
0.53122 1.34517 0
0.542844 1.3895 0
0.532709 1.37157 0
0.473799 0.785178 0
0.465304 0.817954 0
0.491288 0.775375 0
0.504743 0.781624 0
0.481517 0.866985 0
0.491194 0.881465 0
0.492794 0.858103 0
0.475437 0.840475 0
0.478236 0.819867 0
0.462362 0.838757 0
0.459793 0.882791 0
0.472913 0.883776 0
0.436917 0.830665 0
0.324402 0.964642 0
0.324679 1.00123 0
0.339937 1.00696 0
0.348158 0.987392 0
0.3404 0.96628 0
0.0111176 0.943445 0
0.0247918 1.0445 0
0.0218596 1.05259 0
0.027056 1.08212 0
0.0232762 1.11891 0
0.0197878 1.12977 0
0.0226669 1.15869 0
0.0205638 1.17635 0
0.0151798 1.22328 0
0.0183749 1.20668 0
0.0295978 1.18465 0
0.0268258 1.14293 0
0.0107243 1.18625 0
0.0152374 1.18296 0
0.0184103 1.24939 0
0.0254976 1.18106 0
0.0316588 1.13615 0
0.0117145 1.15544 0
0.00919957 1.16018 0
0.0128511 1.17877 0
0.00563313 1.16113 0
0.00729795 1.15207 0
0.00577825 1.11578 0
0.00739563 1.1022 0
0.00735367 1.20221 0
0.0087625 1.18586 0
0.0175986 1.18324 0
0.0209 1.22774 0
0.0268544 1.23193 0
0.0272186 1.20445 0
0.0238644 1.221 0
0.0296316 1.15787 0
0.0343714 1.17157 0
0.0414181 1.15342 0
0.0362116 1.14123 0
0.0391638 1.12079 0
0.0383422 1.17194 0
0.0092331 0.770374 0
0.00665337 0.778886 0
0.00619081 0.756498 0
0.00453922 0.74609 0
0.00488843 0.773725 0
0.00436077 0.714069 0
0.0028196 0.734862 0
0.00367808 0.790888 0
0.00499377 0.795993 0
0.0070128 0.692794 0
0.00383686 0.730863 0
0 0.65918 0
0.00130851 0.766656 0
0.0059259 0.710753 0
0.00795773 0.719491 0
0.0042898 0.670788 0
0.00490746 0.692038 0
0.00353873 0.688656 0
0.00196251 0.654971 0
0.00229462 0.67898 0
0.00304187 0.661499 0
0.0005163 0.68103 0
0.00506864 0.618639 0
0.00289436 0.631761 0
0.00123777 0.673493 0
0.000601028 0.634665 0
0.00114264 0.710232 0
0.000679503 0.658017 0
0.00174047 0.696148 0
0.000962067 0.691199 0
0.00120036 0.64388 0
0 0.615967 0
0.000171138 0.662885 0
0.00113251 0.622212 0
0.00064396 0.576658 0
0.000422969 0.605078 0
0.00223897 0.757118 0
0.00160243 0.73416 0
0.00209448 0.783501 0
0.00336848 0.603211 0
0.00186363 0.631454 0
0 0.63739 0
0.000143599 0.626633 0
0.00267655 0.615105 0
0.00378899 0.620507 0
0.00457564 0.644153 0
0.00609295 0.569614 0
0.00208384 0.572824 0
8.213e-05 0.645038 0
0.00346896 0.645764 0
0.00648503 0.661849 0
0.00500315 0.591934 0
0.00235569 0.592687 0
0.00353804 0.576436 0
0.00131396 0.588236 0
0.00594011 0.679371 0
0.00636594 0.63681 0
0.00780637 0.648322 0
0.00779625 0.604126 0
0.00659078 0.617593 0
0.00294706 0.552123 0
0.00661433 0.588675 0
0.00900172 0.580244 0
0.00449366 0.556896 0
0.000980979 0.510818 0
0.0113129 0.606678 0
0.0137364 0.614771 0
0.0134608 0.59009 0
0.013771 0.572991 0
0.00130659 0.543134 0
0.00952894 0.598042 0
0.00195416 0.554342 0
0.00115936 0.563324 0
0.00229942 0.529631 0
0.00143962 0.524867 0
0.00158176 0.973587 0
0.00289505 0.973533 0
0.00277466 0.951866 0
0.00261201 1.09813 0
0 1.05762 0
0.0009904 1.16279 0
0.000569352 1.09163 0
0.00193167 1.13571 0
0.00142892 1.08617 0
0.000985948 1.03731 0
0.00166555 1.02483 0
0.000868713 1.00036 0
0.0010594 1.1177 0
0.000866942 1.0659 0
0.00153467 1.05534 0
0.000239019 1.04511 0
0 1.00269 0
0.00177773 1.11 0
0 1.11401 0
0.00122525 1.14062 0
0.000478597 1.02148 0
0.000211473 0.986746 0
0 1.02997 0
0.000106955 1.01628 0
0.000256209 1.13173 0
0 0.975769 0
0.000536219 1.11581 0
9.29335e-05 0.962859 0
0.0651657 1.30727 0
0.0821165 1.32937 0
0.0773548 1.35453 0
0.0775311 1.3955 0
0.0841742 1.36301 0
0.091444 1.35757 0
0.0964758 1.38905 0
0.0683239 1.4254 0
0.0808998 1.45555 0
0.0906855 1.38481 0
0.0989836 1.45179 0
0.0919729 1.426 0
0.0717942 1.40091 0
0.0750048 1.43409 0
0.0706347 1.45271 0
0.0812638 1.42227 0
0.0863073 1.44036 0
0.0999545 1.41832 0
0.110325 1.44165 0
0.0610403 0.571401 0
0.061996 0.549736 0
0.051996 0.519051 0
0.0578163 0.530038 0
0.0512217 0.482079 0
0.0547847 0.4686 0
0.0591814 0.496975 0
0.0652852 0.498501 0
0.0583438 0.479982 0
0.0635829 0.477146 0
0.0618675 0.513648 0
0.0524244 0.543468 0
0.0565017 0.512281 0
0.0525862 0.500098 0
0.044427 0.499427 0
0.0483786 0.507717 0
0.0464723 0.532 0
0.0569003 0.551209 0
0.0482296 0.561642 0
0.0439913 0.517151 0
0.0429256 0.542644 0
0.0451966 0.580231 0
0.048079 0.607591 0
0.0580994 0.620914 0
0.0632664 0.610044 0
0.0577347 0.594262 0
0.0631435 0.633417 0
0.0568613 0.651134 0
0.060387 0.671918 0
0.0679052 0.629486 0
0.0534107 0.608505 0
0.0509144 0.586793 0
0.0515329 0.652864 0
0.053166 0.631021 0
0.0485757 0.636625 0
0.0121932 0.534971 0
0.00924393 0.549934 0
0.00649777 0.53987 0
0.00989191 0.565547 0
0.00497886 0.539831 0
0.0113666 0.644604 0
0.0353441 0.52941 0
0.0376685 0.515378 0
0.0320907 0.510147 0
0.0250691 0.511301 0
0.028275 0.45047 0
0.0266615 0.530077 0
0.0284922 0.514086 0
0.0289477 0.481705 0
0.032706 0.489998 0
0.0385085 0.457742 0
0.0364432 0.476937 0
0.0405338 0.486847 0
0.033054 0.458171 0
0.0405187 0.503752 0
0.0455135 0.477063 0
0.0319456 0.473728 0
0.0356334 0.434809 0
0.0492804 0.463605 0
0.044188 0.447462 0
0.0469477 0.429146 0
0.0445958 0.41516 0
0.0409043 0.354262 0
0.0437908 0.383247 0
0.0453201 0.398661 0
0.0501892 0.383808 0
0.0427405 0.432056 0
0.0415567 0.469671 0
0.0356938 0.449323 0
0.0316335 0.440504 0
0.0316578 0.410974 0
0.0327271 0.425629 0
0.0574819 0.351041 0
0.0602348 0.371596 0
0.0654463 0.36498 0
0.0619594 0.330394 0
0.0658652 0.345695 0
0.0470872 0.36262 0
0.0538948 0.367517 0
0.0685026 0.334146 0
0.0612341 0.343475 0
0.0469902 0.375924 0
0.0326847 0.0496558 0
0.0253429 0.0359341 0
0.0379677 0.03275 0
0.0310733 0.0286951 0
0.0338335 0.032076 0
0.0364313 0.027937 0
0.0294377 0.0339875 0
0.0332789 0.0244972 0
0.0285739 0.0399972 0
0.0217091 0.047754 0
0.0317528 0.0399497 0
0.0244199 0.0423896 0
0.0197161 0.0372757 0
0.0259006 0.0492323 0
0.0282518 0.0452228 0
0.0210927 0.0421253 0
0.0225698 0.0379306 0
0.0147622 0.0448669 0
0.0223655 0.0319697 0
0.0180912 0.0460914 0
0.0263338 0.0293729 0
0.0229681 0.0556571 0
0.0168587 0.0403027 0
0.0164483 0.033388 0
0.0154879 0.0563494 0
0.0282179 0.0245609 0
0.0239229 0.0625709 0
0.0222166 0.0764785 0
0.0251854 0.0705044 0
0.0264593 0.0553842 0
0.0190064 0.0330036 0
0.0108181 0.0196657 0
0.0190252 0.0550915 0
0.0159819 0.0501773 0
0.0228374 0.0242981 0
0.0219341 0.0279258 0
0.0217926 0.0690784 0
0.0139852 0.0752884 0
0.0179077 0.0739601 0
0.026159 0.0791632 0
0.0284463 0.0699571 0
0.0142117 0.0252306 0
0.0254098 0.0258283 0
0.0162078 0.0284771 0
0.00179279 0.187902 0
0.000451708 0.17802 0
0.000618471 0.199514 0
0.00110683 0.179497 0
0.000846321 0.163147 0
0.000687152 0.188014 0
0.000171299 0.188829 0
0.00126179 0.19703 0
0 0.21167 0
0.000136265 0.203631 0
0 0.199402 0
0.000221288 0.224304 0
0.000441248 0.212309 0
0.00120152 0.21213 0
9.29064e-05 0.214566 0
0 0.224304 0
0.00288251 0.177448 0
0.167114 0 0
0.171661 0.000138074 0
0.0483923 0.0087414 0
0.0479101 0.0120569 0
0.0532333 0.0105659 0
0.0581029 0.0104498 0
0.0554266 0.00810858 0
0.0675258 0.000377064 0
0.0600854 0.00310757 0
0.365918 0.00592826 0
0.347038 0.00624592 0
0.382371 0.0075089 0
0.384234 0.00542795 0
0.355895 0.00531938 0
0.338913 0.00515112 0
0.336152 0.00945078 0
0.331366 0.0129356 0
0.347529 0.0145186 0
0.357206 0.00734784 0
0.371509 0.00743984 0
0.38065 0.0109902 0
0.329552 0.00763079 0
0.327458 0.0106948 0
0.320737 0.0131791 0
0.36688 0.0142189 0
0.342715 0.0117446 0
0.352142 0.009715 0
0.36139 0.0115521 0
0.414044 0.0107061 0
0.357455 0.0156266 0
0.37742 0.0133552 0
0.344698 0.00813107 0
0.397377 0.0118603 0
0.409114 0.0165822 0
0.400658 0.00845312 0
0.399132 0.0146634 0
0.423916 0.00642342 0
0.415041 0.00339619 0
0.402326 0.00322195 0
0.389301 0.00930557 0
0.41447 0.00811805 0
0.247192 0.000362203 0
0.236979 0.0023515 0
0.242198 0.00361935 0
0.255929 0.00311526 0
2 0.088623 0
1.90475 0.0785913 0
1.95414 0.0822814 0
1.92616 0.0831305 0
1.94234 0.0699555 0
1.91805 0.0646904 0
1.9158 0.0722821 0
1.22119 0.896243 0
1.31836 0.232135 0
1.36451 0.155964 0
1.89706 0.0538669 0
1.94046 0.0508186 0
1.95929 0.0582121 0
1.94578 0.0635924 0
2 0.0661011 0
1.97313 0.0696259 0
1.9588 0.0754029 0
1.97468 0.0632927 0
1.97081 0.0492154 0
2 0.0529175 0
1.96855 0.0259408 0
2 0.0221558 0
1.92703 0.0168719 0
1.90274 0.0123367 0
1.87655 0.012172 0
1.71766 0.000273865 0
1.72859 0.000699018 0
1.74555 0.000153458 0
1.72864 0 0
1.67102 0.000298981 0
1.69389 0.00013928 0
1.67102 0 0
1.69393 0.000634931 0
1.64955 0.00259449 0
1.66385 0.00380095 0
1.53254 0.00320768 0
1.49448 0.00149252 0
1.50969 0.00246087 0
1.41583 0.00259885 0
1.38196 0.00426938 0
1.36159 0.00205224 0
1.34188 0.0015365 0
1.38078 0.00605626 0
1.3558 0.00503 0
1.36118 0.003395 0
1.44005 0.00392395 0
1.05579 0 0
1.06703 0.000140958 0
0.763049 0.0916497 0
0.760911 0.101455 0
1.05467 1.78985 0
1.21556 1.63093 0
1.19551 1.62937 0
1.23289 1.5153 0
1.20457 1.54094 0
1.22844 1.54838 0
1.20897 1.50795 0
1.23502 1.42777 0
1.22769 1.47094 0
1.30059 1.47829 0
1.19146 1.43724 0
1.19636 1.47413 0
1.15793 1.46446 0
1.17541 1.48165 0
1.26476 1.45924 0
1.21458 1.44423 0
1.24401 1.45306 0
1.25038 1.48877 0
1.26373 1.52846 0
1.24885 1.5477 0
1.32074 1.56204 0
1.27692 1.4966 0
1.29649 1.5318 0
1.27872 1.5537 0
1.29095 1.60684 0
1.33499 1.50975 0
1.31929 1.53173 0
1.12242 1.76533 0
1.13542 1.88972 0
1.22174 1.8344 0
1.24453 1.7833 0
1.23827 1.68921 0
1.27204 1.73169 0
1.23987 1.64972 0
1.26465 1.62675 0
1.26037 1.70184 0
1.29008 1.64775 0
1.29388 1.69491 0
1.27014 1.59768 0
1.34872 1.79137 0
1.31431 1.75053 0
1.29585 1.7286 0
0.77366 1.47383 0
0.76197 1.53093 0
0.751002 1.50007 0
0.758114 1.47638 0
0.6691 1.72917 0
0.693591 1.70248 0
0.677855 1.7039 0
0.712182 1.7195 0
0.71749 1.68826 0
0.708376 1.79945 0
0.707439 1.83906 0
0.722709 1.82054 0
0.737462 1.83523 0
0.668535 2.13677 0
0.665534 2.10416 0
0.653697 2.12988 0
0.670252 2.22359 0
0.693686 2.12874 0
0.662679 2.18062 0
0.683492 2.1873 0
0.694794 2.23729 0
0.679966 2.1168 0
0.726665 2.12671 0
0.725852 2.08536 0
0.682419 2.15287 0
0.710285 2.14271 0
0.711239 2.10576 0
0.624362 2.05128 0
0.533256 0.753038 0
0.516603 0.748905 0
0.553129 0.756461 0
0.565032 0.740714 0
0.545406 0.725388 0
0.547827 0.705366 0
0.116105 1.38833 0
0.111683 1.36887 0
0.140636 1.42988 0
0.487817 1.39078 0
0.498979 1.46147 0
0.504695 1.38976 0
0.496696 1.42364 0
0.481358 1.44685 0
0.524783 1.43552 0
0.525839 1.40193 0
0.511842 1.41771 0
0.456706 1.45335 0
0.475861 1.53229 0
0.468345 1.43945 0
0.452129 1.42504 0
0.483383 1.4907 0
0.462612 1.49679 0
0.503685 1.53181 0
0.471527 1.47099 0
0.439128 1.48861 0
0.421215 1.4527 0
0.427017 1.42717 0
0.438266 1.45256 0
0.456326 1.53803 0
0.499823 1.49689 0
0.489632 1.52041 0
0.513903 1.50826 0
0.519382 1.4717 0
0.451669 1.48024 0
0.445782 1.51658 0
0.450563 1.64485 0
0.511407 1.44705 0
0.469605 1.59555 0
0.467587 1.56123 0
0.448157 1.58449 0
0.48983 1.57211 0
0.447294 1.55667 0
0.510518 1.35148 0
0.500105 1.32739 0
0.554061 1.35374 0
0.555315 1.37964 0
0.579781 1.33802 0
0.568702 1.35668 0
0.595957 1.33368 0
0.576588 1.30045 0
0.561397 1.3212 0
0.552978 1.29911 0
0.452726 0.807045 0
0.446593 0.90406 0
0.446441 0.881042 0
0.0148223 1.26374 0
0.0109412 1.23862 0
0.00925205 1.21652 0
0.00648861 1.26512 0
0.00741315 1.23527 0
0.00895796 1.26598 0
0.0119806 1.33042 0
0.0132417 1.24143 0
0.0126429 1.21025 0
0.0117332 1.27614 0
0.0141718 1.30181 0
0.00759125 1.32485 0
0.00968576 1.30274 0
0.0076217 1.29186 0
0.00534633 1.29948 0
0.0116994 1.30326 0
0.00352839 1.39519 0
0.00394977 1.34296 0
0.00418847 1.31502 0
0.00563865 1.335 0
0.00516184 1.37477 0
0.00392034 1.36976 0
0.00598416 1.44502 0
0.00503469 1.4121 0
0.00704647 1.41225 0
0.00723527 1.37418 0
0.00689763 1.34837 0
0.00959938 1.35546 0
0.0099926 1.32909 0
0.0047818 1.13742 0
0.00315336 1.17679 0
0.00419486 1.16187 0
0.00477859 1.20469 0
0.00604763 1.21931 0
0.00546844 1.08838 0
0.00446027 1.10755 0
0.0234469 1.28117 0
0.0241151 1.25115 0
0.0211284 1.26127 0
0.0088264 0.737843 0
0 0.703857 0
0 0.681335 0
0.000129922 0.692551 0
0.000153576 0.726746 0
0.000673948 0.734554 0
0.00109425 0.747639 0
0.000154689 0.58448 0
0 0.59491 0
9.10465e-05 0.605392 0
0.000935175 0.603893 0
0.0162003 0.588462 0
0.000124141 1.07813 0
0.000390733 1.06695 0
0 1.08563 0
0.000575466 0.980629 0
0 1.14276 0
0.0705789 1.30174 0
0.0684427 1.33799 0
0.0619764 1.33818 0
0.0528761 1.41141 0
0.056102 1.36901 0
0.10544 1.46676 0
0.0129614 0.553609 0
0.0145015 0.539288 0
0.0078285 0.56399 0
0.00890485 0.515083 0
0.0392875 0.441239 0
0.0255219 0.422046 0
0.0289167 0.42808 0
0.0341388 0.376879 0
0.0509242 0.323914 0
0.0429118 0.367865 0
0.0381235 0.368446 0
0.0154545 0.0658574 0
0.0166153 0.0903823 0
0.018135 0.0222841 0
0.00062601 0.139232 0
0 0.164795 0
0 0.175964 0
0.000126311 0.170334 0
7.76718e-05 0.179823 0
0.000429487 0.168112 0
0.000286368 0.152519 0
8.89205e-05 0.159871 0
0 0.153992 0
0.000692541 0.261636 0
0.00193774 0.270411 0
0.00169515 0.246866 0
0.00262733 0.247359 0
0.00205988 0.217218 0
0.00118682 0.230063 0
0.000649858 0.223348 0
0.000457751 0.242255 0
0.00191468 0.235 0
0.00100535 0.241896 0
0.0510482 0.00638356 0
0.0399792 0.00448689 0
0.0445748 0.00622873 0
0.0456675 0.00378079 0
0.0382213 0.0075776 0
0.0479059 0.00513156 0
0.0504921 0.00136181 0
0.0406844 0.00613697 0
0.0418278 0.0105164 0
0.049526 0.00264603 0
0.0547296 0.00278034 0
0.0582898 0.0019078 0
0.0396991 0.00128141 0
0.0440856 0.00208804 0
0.043981 0.00837781 0
0.0355495 0.0109835 0
0.0392121 0.00264645 0
0.0287971 0.0016176 0
0.0321695 0.00395205 0
0.034177 0.00176423 0
0.0361748 0.00370258 0
0.0347882 0.00575673 0
0.0384256 0.0096584 0
0.0390452 0.0132294 0
0.0332135 0.0154505 0
0.0395363 0.0171814 0
0.0395508 0 0
0.0319744 0.000465792 0
0.0311765 0.00252369 0
0.0256164 0.00344439 0
0.0367093 0.0153301 0
0.0352849 0.0191749 0
0.0316397 0.00112608 0
0.0357533 0.000816243 0
0.0403822 0.000319295 0
0.0352783 0 0
0.0356665 0.000203305 0
0.0440674 0 0
0.0713126 0.00013381 0
0.059082 0 0
0.071921 0.00213725 0
0.0568585 0.0043251 0
0.0623321 0.00469537 0
0.0683638 0.0036656 0
0.0709885 0.00492254 0
0.0652847 0.00219321 0
0.0683556 0.00115743 0
0.0755859 0.00100875 0
0.0797029 0.00216449 0
0.0828932 0.000965135 0
0.0756689 0.00343252 0
0.0855282 0.00183005 0
0.374476 0.0183891 0
0.370801 0.0225133 0
0.390015 0.0188327 0
0.397942 0.0217075 0
0.23779 0.000169494 0
0.238132 0.000705451 0
0.248711 0.00115711 0
1.94454 0.0912986 0
1.97098 0.0882716 0
2 0.0968628 0
1.9699 0.10112 0
2 0.0807495 0
1.9334 0.076895 0
1.90267 0.0184986 0
1.96302 0.0178089 0
1.97641 0.0205777 0
2 0.0148315 0
1.95441 0.0128392 0
1.94882 0.0154232 0
1.91827 0.00515346 0
1.62517 0.000418834 0
1.67913 0.00271759 0
1.4715 0.00178142 0
1.52531 0.000495525 0
1.488 0.00316329 0
1.44058 0.00221443 0
1.40814 0.00409944 0
1.38748 0.00259723 0
1.40167 0.000611794 0
1.42044 0.00130903 0
1.36783 0.000766893 0
1.39424 0.00142891 0
1.37158 0 0
1.34583 0 0
1.33332 0.00017353 0
1.38084 0.000203299 0
1.39758 0 0
1.35718 0.000126653 0
1.41068 0.000141106 0
1.47705 0 0
1.44913 0.00023192 0
1.42775 0.000538116 0
1.05711 0.000542284 0
1.0394 1.77267 0
1.03516 1.84143 0
1.01414 1.83669 0
1.083 1.77136 0
1.06461 1.74664 0
1.10344 1.78114 0
1.08418 1.73218 0
1.16744 1.43442 0
1.12327 1.48042 0
1.29444 1.43088 0
1.32226 1.60428 0
1.41346 1.6345 0
1.36552 1.6299 0
1.3404 1.62747 0
1.35577 1.58088 0
1.34652 1.54453 0
1.38564 1.54754 0
1.36379 1.51413 0
1.33492 1.58222 0
1.2978 1.57467 0
1.15631 1.85549 0
1.13864 1.82803 0
1.14031 1.79585 0
1.17333 1.91367 0
1.17444 1.87765 0
1.20092 1.8209 0
1.20639 1.85618 0
1.29295 1.89533 0
1.22456 1.80037 0
1.24118 1.60342 0
0.637535 1.75472 0
0.674173 1.79282 0
0.723544 1.78431 0
0.642129 2.06127 0
0.640331 2.0191 0
0.655686 2.00142 0
0.622924 2.11535 0
0.634948 2.09255 0
0.111085 1.41056 0
0.134166 1.38283 0
0.125839 1.47217 0
0.120954 1.42988 0
0.558722 1.45109 0
0.558544 1.41487 0
0.539234 1.46419 0
0.541391 1.42426 0
0.414806 1.51042 0
0.414024 1.60316 0
0.45655 1.61299 0
0.494426 1.64704 0
0.473021 1.64305 0
0.484795 1.61425 0
0.482423 1.67922 0
0.456993 1.70896 0
0.471789 1.70409 0
0.462313 1.67234 0
0.58664 1.37179 0
0.588934 1.43236 0
0.582538 1.40263 0
0.60174 1.40506 0
0.572239 1.43267 0
0.000868056 1.33653 0
0.00198386 1.36525 0
0.00288395 1.14865 0
0.00192204 1.16943 0
0.000990655 1.24809 0
0.00213482 1.2182 0
0.00233817 1.19253 0
0.00332728 1.21164 0
0.00300515 1.2519 0
0.00449743 1.23958 0
0.00577988 1.24353 0
0.00186364 1.24894 0
0.00136132 1.29307 0
0.00458253 1.2712 0
0.00594653 1.18767 0
0.00725889 1.17625 0
0 0.726746 0
0.000453156 0.708383 0
0 0.797607 0
0.000114518 1.1065 0
0.0431175 1.3426 0
0.0606304 1.40763 0
0.0608964 1.46461 0
0.0657827 1.38779 0
0.06519 1.35964 0
0.0608814 1.37777 0
0.00823096 0.533105 0
0.0101436 0.529258 0
0.0278734 0.408786 0
0.0311643 0.391464 0
0.0367434 0.398681 0
0.0409189 0.395776 0
0.0381988 0.383951 0
0.0460416 0.339887 0
0.055883 0.333476 0
0.0581584 0.31994 0
0.0514913 0.346596 0
0.0181513 0.0670959 0
0.0175488 0.0605906 0
0.0107177 0.0609028 0
0.0119952 0.0516101 0
0.0157411 0.0716331 0
0.0162047 0.0813681 0
0.0125737 0.0859105 0
0.0198403 0.0846522 0
0.0147326 0.0864324 0
0.0196903 0.0782853 0
0.0201062 0.0952358 0
0.0233297 0.0846057 0
0.0235169 0.0932501 0
0.0157758 0.107772 0
0.0162909 0.120508 0
0.0120782 0.127973 0
0.0126867 0.136908 0
0.0171656 0.0993104 0
0.0142202 0.096244 0
0.0195419 0.108112 0
0.00909268 0.13229 0
0.0145613 0.127602 0
0.0129359 0.115463 0
0.0175555 0.113409 0
0.0222088 0.10996 0
0.010399 0.139083 0
0.00670674 0.12876 0
0.0150007 0.114504 0
0.0129222 0.10548 0
0.00461726 0.13565 0
0.00881663 0.115248 0
0.010794 0.110455 0
0.00533284 0.129156 0
0.00825988 0.12386 0
0.0103164 0.121829 0
0.00663603 0.116789 0
0.00714142 0.0988797 0
0.00743518 0.108005 0
0.00924054 0.102137 0
0.00441603 0.105616 0
0.00516809 0.112992 0
0.00589782 0.104397 0
0.014533 0.0192042 0
0.000986456 0.150282 0
0.000156152 0.141316 0
6.51782e-05 0.149184 0
0 0.123779 0
0 0.133484 0
0.000257603 0.126912 0
9.09759e-05 0.13308 0
0.000125158 0.236737 0
0 0.264404 0
0.000121566 0.25369 0
0 0.250671 0
0.000189846 0.272408 0
0.000405877 0.253277 0
0 0.278503 0
0.000866413 0.284786 0
0.000565331 0.273994 0
0.0296119 0.0116851 0
0.0239258 0 0
0.0235896 0.00164947 0
0.0450458 0.000811557 0
0.0464172 0.000187996 0
0.053833 0.000231105 0
0.0607045 0.000265601 0
0.0645752 0 0
0.255411 0.0018829 0
1.898 0.00818259 0
1.86186 0.00699815 0
1.8893 0.00594365 0
1.87089 0.00151618 0
1.88783 0.00328009 0
1.83892 0.00313601 0
1.86086 0.00463307 0
1.8222 0.00426238 0
1.80882 0.00276698 0
2 0.0065918 0
1.64638 0.0009814 0
1.64611 0.000159241 0
1.58643 0 0
1.58907 0.00101391 0
1.51892 0.00120262 0
1.50403 0 0
1.49051 0.00028456 0
1.51761 0.000108799 0
1.47051 0.000123524 0
1.45032 0 0
1.03721 1.80797 0
1.034 1.92099 0
1.05778 1.82823 0
1.05685 1.88189 0
1.14409 1.48741 0
1.13253 1.43889 0
1.11261 1.38387 0
1.10072 1.34252 0
1.08676 1.37073 0
1.09379 1.44474 0
1.07645 1.42468 0
1.09874 1.4115 0
1.11237 1.43275 0
1.12999 1.40617 0
1.14105 1.34506 0
1.13494 1.37526 0
1.12045 1.35374 0
1.12251 1.31465 0
1.11906 1.2874 0
1.14556 1.31507 0
1.09126 1.49531 0
1.28628 1.45694 0
1.34481 1.4443 0
1.35227 1.47991 0
1.32648 1.4696 0
1.31947 1.43778 0
1.34109 1.38503 0
1.33623 1.41518 0
1.31617 1.39436 0
1.32284 1.36565 0
1.26516 1.40974 0
1.28514 1.40792 0
1.23938 1.3314 0
1.20838 1.30581 0
1.18782 1.2996 0
1.18727 1.36193 0
1.19294 1.33066 0
1.16093 1.36841 0
1.21582 1.35413 0
1.16485 1.33594 0
1.27362 1.4345 0
1.26015 1.36603 0
1.21896 1.32812 0
1.20783 1.39753 0
1.1808 1.40271 0
1.28313 1.35412 0
1.23786 1.36025 0
1.24139 1.39416 0
1.39063 1.59482 0
1.37654 1.57317 0
1.36988 1.60206 0
1.38968 1.62692 0
1.38325 1.71096 0
1.39447 1.66978 0
1.36003 1.67592 0
1.42321 1.70734 0
1.3755 1.65559 0
1.34665 1.72431 0
1.32037 1.70877 0
1.34059 1.69338 0
1.31356 1.67783 0
1.40256 1.69712 0
1.42252 1.66973 0
1.48405 1.68651 0
1.46024 1.63327 0
1.45164 1.68755 0
1.4369 1.6436 0
1.3624 1.70474 0
1.4425 1.56147 0
1.43366 1.60158 0
1.44818 1.72495 0
1.50632 1.78407 0
1.47269 1.76214 0
1.46736 1.66339 0
1.49895 1.64657 0
1.4121 1.56682 0
1.42256 1.52059 0
1.41141 1.6053 0
1.44927 1.87281 0
1.50493 1.73107 0
1.49631 1.57607 0
1.47198 1.8214 0
1.47664 1.72445 0
1.495 1.75796 0
1.52883 1.68536 0
1.46546 1.59138 0
1.50666 1.61058 0
1.48262 1.79187 0
1.45282 1.79122 0
1.40031 1.81886 0
1.44152 1.831 0
1.42377 1.79539 0
1.41509 1.86272 0
1.39818 1.75766 0
1.52058 1.65739 0
1.48163 1.61612 0
1.41963 1.83286 0
1.37239 1.8643 0
1.42281 1.93018 0
1.39341 1.8502 0
1.42816 1.89419 0
1.3981 1.89791 0
1.10813 1.85502 0
1.25236 1.87709 0
0.650243 1.72721 0
0.657566 1.76655 0
0.642983 1.79209 0
0.658192 1.84379 0
0.646203 1.82324 0
0.668684 1.87161 0
0.691884 1.78177 0
0.68013 1.7559 0
0.687572 1.81613 0
0.598207 2.0803 0
0.609821 2.2017 0
0.638705 2.22662 0
0.654153 2.21286 0
0.130651 1.35713 0
0.125016 1.38793 0
0.130764 1.42044 0
0.126872 1.4439 0
0.151837 1.37666 0
0.116591 1.46977 0
0.42923 1.51331 0
0.425412 1.48272 0
0.429657 1.581 0
0.420238 1.54778 0
0.389113 1.55222 0
0.404271 1.53973 0
0.401209 1.57834 0
0.413483 1.57303 0
0.386453 1.58937 0
0.39822 1.61935 0
0.358796 1.55791 0
0.368767 1.59449 0
0.431064 1.62906 0
0.442864 1.61362 0
0.39493 1.70775 0
0.3739 1.55836 0
0.377884 1.50135 0
0.366463 1.52568 0
0.379889 1.53142 0
0.396441 1.49867 0
0.36625 1.49657 0
0.37633 1.43679 0
0.374073 1.46932 0
0.389994 1.41235 0
0.390831 1.45925 0
0.334833 1.6289 0
0.433396 1.68823 0
0.447815 1.68106 0
0.392243 1.66224 0
0.408873 1.476 0
0.406611 1.44073 0
0.37677 1.4047 0
0.357213 1.37949 0
0.368721 1.37037 0
0.34485 1.362 0
0.326908 1.43529 0
0.355473 1.35236 0
0.342116 1.408 0
0.38672 1.48447 0
0.350003 1.60085 0
0.437823 1.65725 0
0.358569 1.69762 0
0.412282 1.67792 0
0.423633 1.65795 0
0.410131 1.64134 0
0.395503 1.43521 0
0.358688 1.58518 0
0.376999 1.69128 0
0.362284 1.64473 0
0.400674 1.68225 0
0.379191 1.65821 0
0.370046 1.74131 0
0.366713 1.67413 0
0.370127 1.62345 0
0.368571 1.71146 0
0.382429 1.7247 0
0.526329 1.59925 0
0.505418 1.60766 0
0.512808 1.56863 0
0.523423 1.53911 0
0.500872 1.55856 0
0.00242349 1.32445 0
0.00282741 1.35061 0
0.0022962 1.29377 0
0.00159576 1.33835 0
0.000588831 1.4056 0
0.00096746 1.20506 0
0.000341384 1.28496 0
0.00028214 0.771101 0
0.00074905 0.805716 0
0.00106265 0.824585 0
0.00139955 0.797903 0
0.000287276 0.747709 0
0.0499631 1.34436 0
0.0565096 1.396 0
0.0630935 1.4356 0
0.0570322 1.43665 0
0.0460412 1.48409 0
0.0506012 1.45246 0
0.0427059 1.41018 0
0.0542171 1.5063 0
0.0449127 1.44568 0
0.0507234 1.48405 0
0.0556753 1.47393 0
0.0476399 1.41648 0
0.0494706 1.38111 0
0.0463751 1.3608 0
0.0398792 1.44011 0
0.0392402 1.48897 0
0.0418598 1.46609 0
0.0361463 0.415837 0
0.0446382 0.352175 0
0.0429872 0.314412 0
0.0123643 0.0677791 0
0.0133563 0.0609652 0
0.00958591 0.068426 0
0.00823049 0.0823823 0
0.0089176 0.0918423 0
0.00828301 0.0744764 0
0.0106643 0.0785928 0
0.0108546 0.0902933 0
0.0119281 0.0737252 0
0.00989773 0.0845099 0
0.0118495 0.0448227 0
0.0125663 0.0363825 0
0.0114799 0.040182 0
0.0143022 0.0397651 0
0.0131292 0.0304267 0
0.0105653 0.0257127 0
0.0123829 0.0269399 0
0.00749026 0.0519005 0
0.0095842 0.0484779 0
0.00941001 0.055064 0
0.00739237 0.059796 0
0.00438028 0.0552965 0
0.00889893 0.0627748 0
0.00598809 0.055565 0
0.00506952 0.0638078 0
0.00455324 0.0791202 0
0.00637528 0.0781901 0
0.00525756 0.0715882 0
0.00566525 0.0890576 0
0.00491147 0.096919 0
0.00292972 0.0976695 0
0.00715501 0.0914301 0
0.00204682 0.12542 0
0.00164301 0.138587 0
0.00270915 0.144442 0
0.00104139 0.128934 0
0.00161276 0.14722 0
0.00371623 0.141475 0
0.00318918 0.130699 0
0.000984662 0.107239 0
0.000558367 0.131208 0
0.00244866 0.136219 0
0.00124905 0.117735 0
0.00259816 0.111721 0
0.00373224 0.116145 0
0.00296134 0.122292 0
0.000451836 0.115529 0
0.00199666 0.117456 0
0 0.0732422 0
0 0.114441 0
0.000121201 0.109909 0
0.0127364 0.0219079 0
0.0156099 0.0222642 0
0.0122386 0.0131375 0
0.000232453 0.29217 0
7.87514e-05 0.282912 0
0 0.322998 0
0.00109449 0.325298 0
0 0.3078 0
0.000747765 0.30535 0
0.000198734 0.315353 0
0.000578696 0.294199 0
0.0024722 0.304721 0
0.000328528 0.303963 0
0.000155267 0.338562 0
0.000578617 0.318605 0
0.001475 0.296782 0
0.00157102 0.312233 0
0.00244992 0.286928 0
0.00235078 0.330469 0
8.18982e-05 0.32627 0
0.00157388 0.28255 0
0.0328037 0.0126512 0
0.0322467 0.0101819 0
0.0238051 0.00769033 0
0.0226126 0.0155255 0
0.0257992 0.0194529 0
0.0274658 0 0
0.0256653 0.000422355 0
0.0230705 0.0027348 0
0.0261633 0.00220968 0
0.0174259 0.000835326 0
0.053833 0 0
0.0498157 0.000549411 0
1.93135 0.00987324 0
1.96958 0.00957273 0
1.92777 0.00727654 0
1.96078 0.00538733 0
2 0.00897217 0
1.95703 0.00742695 0
2 0.00457764 0
1.94396 0.00246799 0
1.94134 0.00397426 0
1.97218 0.00367427 0
1.91712 0.00306807 0
1.91305 0.0013361 0
1.8941 0.00206042 0
2 0.000732422 0
1.88681 0.000394827 0
1.95566 0.000943212 0
1.89007 0.000977943 0
1.93794 0.00150435 0
1.86403 0.00259432 0
1.55872 0 0
1.57254 0.000263102 0
1.5983 0.000386072 0
1.54542 0.000149994 0
1.55551 0.000924465 0
1.56276 0.00183085 0
1.61438 0 0
1.61445 0.000999378 0
1.47592 0.000813014 0
1.02451 1.88059 0
1.05822 1.92184 0
1.04488 2.01712 0
1.0455 1.96681 0
0.99559 1.97539 0
1.00064 1.91952 0
0.980214 1.90934 0
0.974972 1.95113 0
0.947423 2.06149 0
0.916115 2.01277 0
0.89549 2.00521 0
0.966884 2.01041 0
0.909583 1.97459 0
0.977375 1.98335 0
0.940841 1.97809 0
0.954542 1.95179 0
1.08485 1.99328 0
1.02157 1.99105 0
0.929253 1.94874 0
1.06208 1.99249 0
1.07387 1.95876 0
1.01499 1.95181 0
1.0149 2.05212 0
1.02561 2.02386 0
1.1401 1.28834 0
1.09377 1.52514 0
1.11052 1.50224 0
1.10331 1.47101 0
1.07591 1.46823 0
1.24071 1.28586 0
1.33903 1.7582 0
1.36846 1.76062 0
1.37625 1.79822 0
1.35814 1.82921 0
1.31074 1.83181 0
1.33543 1.87149 0
1.33406 1.81997 0
1.32163 1.78654 0
1.28264 1.7924 0
1.28576 1.75888 0
1.30302 1.80256 0
1.39951 1.52388 0
1.43854 1.43755 0
1.4211 1.37473 0
1.45618 1.37219 0
1.42969 1.34216 0
1.40028 1.3489 0
1.36937 1.34668 0
1.4595 1.34619 0
1.44001 1.40179 0
1.47308 1.42167 0
1.34646 1.35606 0
1.46976 1.39431 0
1.4751 1.492 0
1.53285 1.43443 0
1.53283 1.38989 0
1.56189 1.38069 0
1.56761 1.42237 0
1.4643 1.45704 0
1.43493 1.48009 0
1.50158 1.45977 0
1.50456 1.41647 0
1.54608 1.41207 0
1.59576 1.42213 0
1.66852 1.44897 0
1.64285 1.39682 0
1.62971 1.44349 0
1.61607 1.4018 0
1.62534 1.3552 0
1.40412 1.45451 0
1.37907 1.41022 0
1.37386 1.45347 0
1.40971 1.40958 0
1.39385 1.38155 0
1.36724 1.38088 0
1.41335 1.49285 0
1.45022 1.51059 0
1.47951 1.53616 0
1.54836 1.50238 0
1.62404 1.50816 0
1.65129 1.42555 0
1.68771 1.41088 0
1.41737 1.43394 0
1.45645 1.53836 0
1.53091 1.47137 0
1.51088 1.51047 0
1.56247 1.46834 0
1.58607 1.50349 0
1.64568 1.47789 0
1.67147 1.37869 0
1.675 1.30458 0
1.64756 1.36879 0
1.67042 1.34122 0
1.64013 1.31798 0
1.61858 1.29845 0
1.64853 1.28127 0
1.66257 1.23926 0
1.63746 1.23352 0
1.75405 1.47866 0
1.4977 1.48732 0
1.48919 1.51218 0
1.50623 1.544 0
1.54201 1.57676 0
1.51899 1.58495 0
1.55398 1.44355 0
1.60707 1.48222 0
1.65557 1.51328 0
1.70708 1.50579 0
1.68228 1.5193 0
1.68225 1.48215 0
1.71729 1.46275 0
1.61782 1.32924 0
1.67963 1.26935 0
1.76275 1.2997 0
1.71815 1.29305 0
1.69434 1.28947 0
1.70312 1.32733 0
1.59934 1.57131 0
1.56636 1.54204 0
1.72926 1.48945 0
1.75872 1.57002 0
1.7552 1.52408 0
1.7571 1.40848 0
1.69599 1.44138 0
1.72702 1.42629 0
1.75457 1.4433 0
1.72951 1.39163 0
1.81913 1.46213 0
1.76691 1.35396 0
1.78461 1.46149 0
1.73367 1.3558 0
1.75382 1.37935 0
1.80121 1.50311 0
1.80254 1.41502 0
1.78711 1.38267 0
1.74897 1.32806 0
1.77782 1.42778 0
1.80213 1.44213 0
1.82127 1.38413 0
1.83047 1.31188 0
1.83468 1.34901 0
1.8005 1.34931 0
1.78045 1.32534 0
1.79877 1.29181 0
1.60251 1.53444 0
1.63351 1.55688 0
1.53601 1.53643 0
1.57072 1.57684 0
1.55627 1.60985 0
1.72079 1.55064 0
1.83652 1.4967 0
1.77352 1.50066 0
1.78887 1.54375 0
1.7261 1.31793 0
1.8324 1.27179 0
1.77001 1.24282 0
1.64034 1.64725 0
1.7443 1.54825 0
1.91473 1.53292 0
1.88481 1.44502 0
1.81539 1.62001 0
1.91361 1.29589 0
1.77602 1.27242 0
1.79974 1.25183 0
1.74106 1.26452 0
1.62759 1.60279 0
1.87182 1.5242 0
1.85401 1.46346 0
1.86542 1.49279 0
1.85242 1.42129 0
1.82818 1.41097 0
1.79292 1.58586 0
1.86993 1.2937 0
1.73489 1.22429 0
1.71419 1.20509 0
1.69823 1.23782 0
1.59231 1.61519 0
1.67759 1.60644 0
1.83089 1.5796 0
1.84565 1.29248 0
1.86065 1.32693 0
1.76521 1.2081 0
1.79541 1.2193 0
1.77472 1.18367 0
1.71251 1.26355 0
1.56941 1.66301 0
1.55409 1.63973 0
1.61549 1.63288 0
1.61057 1.68577 0
1.65661 1.58013 0
1.65186 1.61731 0
1.81206 1.55823 0
1.86536 1.62102 0
1.85698 1.55706 0
1.85816 1.58938 0
1.91038 1.59097 0
1.56238 1.7549 0
1.49803 1.87831 0
1.50655 1.69904 0
1.41735 1.73853 0
1.12917 1.85774 0
1.10268 1.82242 0
1.08131 1.86336 0
1.07504 1.89347 0
1.10751 1.90054 0
1.11026 1.9558 0
1.1261 1.92584 0
1.14962 1.92003 0
1.1725 2.02005 0
1.16678 1.96638 0
1.13785 1.96787 0
1.10107 1.92909 0
1.15288 1.99771 0
1.11804 2.01886 0
1.12012 1.98524 0
1.23003 1.86697 0
0.635662 1.88111 0
0.63295 1.9303 0
0.648329 1.92144 0
0.5832 1.89269 0
0.609745 1.89947 0
0.624647 1.90322 0
0.609865 1.95501 0
0.624219 1.9552 0
0.614809 2.08219 0
0.623579 2.16405 0
0.598637 2.14135 0
0.626254 2.20138 0
0.608573 2.16708 0
0.142262 1.35484 0
0.143109 1.38985 0
0.150702 1.34339 0
0.165778 1.35345 0
0.157701 1.35704 0
0.159135 1.32506 0
0.141543 1.32332 0
0.136771 1.30098 0
0.32596 1.39134 0
0.331897 1.41247 0
0.336819 1.3825 0
0.295301 1.34127 0
0.304511 1.41636 0
0.312768 1.35682 0
0.317017 1.41456 0
0.31015 1.38785 0
0.293856 1.38369 0
0.322772 1.36558 0
0.301961 1.36413 0
0.265482 1.35535 0
0.292714 1.41486 0
0.2809 1.35913 0
0.279652 1.30261 0
0.271905 1.39501 0
0.28328 1.39659 0
0.284503 1.33006 0
0.272334 1.32848 0
0.266247 1.29573 0
0.254948 1.27944 0
0.238341 1.41424 0
0.258445 1.45684 0
0.254081 1.39358 0
0.268623 1.43188 0
0.262778 1.40813 0
0.343073 1.45216 0
0.320831 1.53343 0
0.35933 1.44213 0
0.336735 1.5015 0
0.350268 1.52291 0
0.34935 1.42908 0
0.34455 1.48061 0
0.33087 1.46913 0
0.310579 1.46659 0
0.294081 1.45934 0
0.323178 1.49824 0
0.320815 1.45846 0
0.275737 1.48514 0
0.276161 1.45412 0
0.336163 1.543 0
0.303371 1.44492 0
0.298956 1.51842 0
0.311219 1.51067 0
0.32439 1.58443 0
0.313371 1.43968 0
0.300884 1.48603 0
0.288151 1.49049 0
0.326817 1.55671 0
0.348351 1.63769 0
0.353369 1.66761 0
0.33783 1.70523 0
0.338596 1.66618 0
0.317111 1.66225 0
0.328012 1.65398 0
0.318958 1.62184 0
0.310084 1.63915 0
0.349807 1.80019 0
0.0010006 1.3738 0
0.00180624 1.41937 0
0.00335502 1.45569 0
0.00449079 1.44044 0
0.00158501 1.39101 0
0.00136334 1.22613 0
0.000268165 1.18291 0
0.000808974 1.27576 0
0.000705305 1.30629 0
0 1.35425 0
0.000151383 1.32585 0
0.000272294 1.36763 0
0.000401424 1.34209 0
8.56365e-05 1.35084 0
0.00013278 1.40166 0
0 1.38593 0
0.0541759 1.34539 0
0.0292697 1.52137 0
0.0432922 1.53922 0
0.048554 1.52198 0
0.0473569 1.55296 0
0.0544427 1.55389 0
0.0462159 0.324785 0
0.0401694 0.332924 0
0.0323516 0.344981 0
0.034347 0.359752 0
0.0368302 0.345082 0
0.0278879 0.364632 0
0.0288519 0.379468 0
0.0312696 0.367669 0
0.0376735 0.316551 0
0.0345782 0.329592 0
0.0237494 0.314587 0
0.0285666 0.326216 0
0.00675445 0.0220107 0
0.00909237 0.0327984 0
0.0111679 0.0327021 0
0.00371142 0.0881962 0
0.00276556 0.0794426 0
0.00319383 0.0686932 0
0.00399163 0.0732645 0
0.00277108 0.0909311 0
0.000724355 0.073924 0
0 0.088623 0
0.00015462 0.0968628 0
0.0035665 0.0613782 0
0.00287812 0.0548903 0
0.000741514 0.0572027 0
0.0015966 0.0542043 0
0.00200056 0.0627162 0
0.00148845 0.0791843 0
0.000627249 0.0424553 0
0.00131671 0.0595776 0
0.000714535 0.0652932 0
0.00210238 0.072567 0
0.000552116 0.0862417 0
0.000843552 0.0494267 0
0 0.0593262 0
0.000187285 0.0696579 0
0.00138181 0.0679278 0
0.00083732 0.0804615 0
0.00145394 0.0441411 0
0.000213399 0.0478594 0
0.000137267 0.0796373 0
0 0.0661011 0
0.00333539 0.0368421 0
0 0.0529175 0
0.0001767 0.0557181 0
0.000320198 0.0750233 0
0 0.0807495 0
0.000141728 0.0880432 0
0.00135264 0.0334604 0
0.00250569 0.0417996 0
0.00428599 0.0458011 0
0.00213579 0.0365184 0
0.00359996 0.0415434 0
0.00624457 0.0383402 0
0.00345109 0.0499252 0
0.00575833 0.048928 0
0.00278469 0.0307692 0
0.00129196 0.0386604 0
0.00749609 0.0447513 0
0.00563475 0.0432884 0
0.000423363 0.0520588 0
0.000110472 0.0625251 0
0.000396713 0.0610209 0
0.00159575 0.0983408 0
0.00110385 0.0910657 0
0.000531828 0.0944113 0
0.000430964 0.103271 0
0.00177813 0.106639 0
0.000914152 0.0995451 0
0.00320094 0.105145 0
9.35732e-05 0.11907 0
0.012453 0.0166625 0
0 0.338562 0
0.000777059 0.382573 0
0.00484224 0.319341 0
0.00683337 0.310681 0
0.0050693 0.301093 0
0.00743633 0.34451 0
0.00486768 0.287665 0
0.00358166 0.296345 0
0.00357768 0.311582 0
0.00797299 0.326374 0
0.00604736 0.331998 0
0.00440987 0.33488 0
0.0053267 0.353822 0
0.0103367 0.340115 0
0.00344772 0.385024 0
0.00784306 0.376345 0
0.00993173 0.325728 0
0.0156307 0.326116 0
0.0126416 0.313927 0
0.0123416 0.301456 0
0.00392746 0.366043 0
0.00697345 0.360867 0
0.00556554 0.376866 0
0.00914808 0.361658 0
0.012749 0.331631 0
0.0153839 0.351178 0
0.0146698 0.338257 0
0.0155905 0.307946 0
0.0018625 0.364328 0
0.00674648 0.410993 0
0.00898938 0.348544 0
0.0192717 0.316733 0
0.0176862 0.291779 0
0.00277228 0.371711 0
0.00185164 0.391538 0
0.00669654 0.39194 0
0.00470084 0.401927 0
0.019116 0.339634 0
0.0180617 0.304773 0
0.0225894 0.291819 0
0.0046365 0.387333 0
0.0031208 0.404195 0
0.00465971 0.43274 0
0.00399912 0.417065 0
0.00537204 0.418726 0
0.00697714 0.437479 0
0.0180073 0.327874 0
0.0217293 0.328512 0
0.0234166 0.351061 0
0.0250511 0.328527 0
0.0200649 0.286524 0
0.0212213 0.305086 0
0.0252716 0.272667 0
0.00314304 0.47873 0
0.00214968 0.500779 0
0.00829587 0.42303 0
0.0131501 0.401196 0
0.00964037 0.397127 0
0.0104136 0.378349 0
0.00837819 0.407887 0
0.0115055 0.391108 0
0.0149096 0.376933 0
0.0125422 0.37495 0
0.00843789 0.474331 0
0.0238044 0.262533 0
0.00527421 0.463059 0
0.00305778 0.513721 0
0.00562066 0.502108 0
0.00508134 0.520257 0
0.0068628 0.51791 0
0.00838061 0.453341 0
0.00660585 0.45387 0
0.0276287 0.00882241 0
0.0283775 0.00572255 0
0.0239557 0.0113501 0
0.0286717 0.00401912 0
0.0172055 0.00960835 0
0.0264745 0.014226 0
0.0298318 0.0144917 0
0.0198278 0.0123809 0
0.0210867 0.00950182 0
0.0191364 0.00588255 0
0.02095 0.00732977 0
0.0230151 0.00512138 0
0.0158557 0.0133728 0
0.014714 0.0159848 0
0.0184915 0.0166356 0
0.0253926 0.00610025 0
0.0204704 0.00442588 0
0.0141222 0.0105046 0
0.0116399 0.010324 0
0.00644196 0.0103359 0
0.00884922 0.00964491 0
0.0212839 0.019644 0
0.00825711 0.0149134 0
0.0101609 0.016261 0
0.00832036 0.0189249 0
0.00875428 0.0229761 0
0.00716036 0.0279678 0
0.00787627 0.0119721 0
0.00989575 0.0128478 0
0.00900352 0.0283853 0
0.00552107 0.0254585 0
0.00506987 0.0319509 0
0.00693634 0.0331062 0
0.00388609 0.030333 0
0.0260887 0.00108038 0
0.0288339 0.000169869 0
0.0198986 0.00156468 0
0.0219352 0.000688259 0
0.0227635 0.000167007 0
0.0206299 0 0
1.81689 0 0
1.78802 0.000214479 0
1.79051 0.00100739 0
1.83591 0.000474079 0
1.83226 0.00151939 0
1.80873 0.000510666 0
1.8067 0.00167147 0
2 0.00164795 0
1.97378 0.00224304 0
2 0.000183105 0
1.93799 0 0
1.96887 0 0
1.9534 0.000213937 0
1.91821 0.00016672 0
1.90735 0 0
1.97483 0.000489423 0
0.939469 2.02076 0
1.04333 2.06887 0
1.02542 2.07914 0
1.0916 2.1583 0
1.07325 2.04546 0
1.0616 2.12255 0
1.05466 2.04384 0
1.04524 2.10296 0
1.06535 2.08291 0
0.993143 2.02274 0
0.973964 2.0563 0
0.995229 2.09786 0
1.26899 1.30987 0
1.27132 1.27753 0
1.24875 1.30893 0
1.26171 1.33709 0
1.28926 1.32428 0
1.23058 1.25921 0
1.3102 1.86847 0
1.2795 1.84912 0
1.27381 1.88006 0
1.25154 1.83236 0
1.27134 1.8195 0
1.35649 1.89616 0
1.32437 1.92285 0
1.72901 1.52199 0
1.90901 1.48494 0
1.89504 1.22733 0
1.86107 1.24589 0
1.89331 1.26434 0
1.72314 1.60434 0
1.76592 1.63675 0
1.78781 1.61727 0
1.6526 1.69879 0
1.5961 1.65679 0
1.83983 1.65073 0
1.79971 1.66535 0
1.75872 1.69086 0
1.77377 1.66585 0
1.90992 1.64841 0
1.53027 1.75635 0
1.54448 1.80983 0
1.54534 1.72013 0
1.52923 1.78676 0
1.58165 1.7148 0
1.55418 1.68928 0
1.59312 1.75158 0
1.63988 1.85679 0
1.62329 1.7987 0
1.61454 1.76832 0
1.60568 1.71555 0
1.58631 1.68472 0
1.50637 1.83156 0
1.48547 1.84933 0
1.52103 1.86107 0
1.22641 1.97788 0
1.26336 1.94363 0
0.617506 1.85737 0
0.592301 1.78634 0
0.598065 1.86513 0
0.604362 1.82245 0
0.572859 1.83312 0
0.582804 1.85878 0
0.615928 1.77803 0
0.587948 1.82012 0
0.617472 1.80861 0
0.614406 1.71833 0
0.632401 1.71941 0
0.601453 1.74955 0
0.599251 1.71851 0
0.621826 1.74733 0
0.594733 1.9273 0
0.552695 1.97012 0
0.582561 1.99395 0
0.571503 1.93856 0
0.593368 1.9648 0
0.605917 2.01287 0
0.607187 2.04943 0
0.623149 2.01213 0
0.554853 1.88684 0
0.568639 1.97475 0
0.557928 2.02213 0
0.568346 1.90411 0
0.553369 1.9282 0
0.527402 1.9469 0
0.541725 1.94814 0
0.574811 2.02943 0
0.590107 2.04597 0
0.532631 2.00849 0
0.546622 2.00078 0
0.581065 2.11137 0
0.536729 2.14392 0
0.575032 2.17375 0
0.592306 2.18765 0
0.579938 2.20659 0
0.557079 2.11518 0
0.583791 2.14553 0
0.568607 2.09922 0
0.548447 2.06793 0
0.540704 2.10408 0
0.506158 2.10449 0
0.523309 2.1148 0
0.51988 2.05714 0
0.510472 2.15314 0
0.529241 2.08316 0
0.320729 1.32804 0
0.287416 1.26971 0
0.294893 1.30263 0
0.306366 1.27479 0
0.276948 1.26282 0
0.306795 1.32106 0
0.315897 1.29728 0
0.297103 1.26537 0
0.249004 1.34881 0
0.24995 1.42869 0
0.236689 1.47442 0
0.240782 1.44499 0
0.362956 1.40971 0
0.345725 1.56741 0
0.33698 1.59368 0
0.305985 1.56736 0
0.312944 1.59356 0
0.350327 1.74571 0
0.320905 1.70799 0
0.329685 1.72437 0
0.328866 1.68538 0
0.296346 1.75861 0
0.2967 1.69207 0
0.310977 1.74331 0
0.309369 1.69143 0
0.300522 1.72536 0
0.312648 1.82593 0
0.31608 1.78364 0
0.302468 1.79634 0
0.287224 1.79524 0
0.299108 1.83699 0
0.295919 1.9502 0
0.294012 1.89223 0
0.292988 1.8614 0
0.33125 1.81639 0
0.270666 1.72831 0
0.285406 1.72749 0
0.327422 1.78536 0
0.338988 1.76643 0
0.321174 1.80946 0
0.259494 1.80819 0
0.278197 1.76323 0
0.264254 1.76691 0
0.273313 1.80447 0
0.339156 1.79634 0
0.25655 1.72967 0
0.236559 1.77718 0
0.250272 1.77367 0
0.242574 1.74161 0
0.2165 1.69818 0
0.227007 1.73573 0
0.235542 1.71475 0
0.363728 1.78044 0
0.000672924 1.1835 0
0.000436965 1.15695 0
9.45224e-05 1.15727 0
0.00068161 1.13781 0
0 1.2312 0
0.000281151 1.2274 0
0.000418045 1.25538 0
9.48429e-05 1.29865 0
0 1.32294 0
0.033484 1.49309 0
0.036134 1.47635 0
0.0355265 1.5511 0
0.0366077 1.51712 0
0.0329051 1.52751 0
0.0391869 1.54028 0
0.040244 1.60621 0
0.0436546 1.57894 0
0.0386913 1.57405 0
0.0314492 1.61417 0
0.0304494 1.56839 0
0.0355973 1.60169 0
0.0353234 1.65146 0
0.0239133 1.60384 0
0.0337439 1.57646 0
0.027745 1.59675 0
0.02493 1.55679 0
0.0267968 1.65066 0
0.0284305 1.6254 0
0.0219047 1.57481 0
0.0139679 1.60039 0
0.0185541 1.6224 0
0.0208797 1.6042 0
0.0220745 1.64971 0
0.023945 1.50569 0
0.0244133 1.63269 0
0.0179965 1.67286 0
0.0231054 1.53358 0
0.0280381 1.47091 0
0.0194392 1.64925 0
0.030065 1.49336 0
0.0428519 1.50692 0
0.0617304 1.65306 0
0.0633381 1.52827 0
0.0321276 0.310786 0
0.0316666 0.323312 0
0.0306624 0.285862 0
0.0276728 0.308682 0
0.0301814 0.299218 0
0.0265437 0.290423 0
0.0247323 0.301557 0
0.0276826 0.34498 0
0 0.0968628 0
0.00814086 0.037449 0
0.00026726 0.363129 0
0.00339905 0.32577 0
0.00219502 0.34753 0
0.000903568 0.348896 0
0.00143136 0.377755 0
0.00088487 0.365651 0
0.000782167 0.41699 0
0.0191972 0.364563 0
0.0283386 0.260213 0
0.0288062 0.273751 0
0.0109558 0.416417 0
0.0171847 0.447309 0
0.0144907 0.426211 0
0.0129781 0.415651 0
0.0288958 0.0177104 0
0.013541 0.00348381 0
0.0167776 0.00407031 0
0.0162092 0.0021144 0
0.0141437 0.00608898 0
0.0150291 0.00815096 0
0.0178197 0.00291022 0
0.0109417 0.000735342 0
0.0165269 0.00573838 0
0.0139482 0.00106795 0
0.00643785 0.00341268 0
0.012207 0 0
0.0115008 0.00201274 0
0.00702996 0.0064062 0
0.0148938 0.000200078 0
0.0137431 0.0021807 0
0.00804824 0.00156865 0
0.00964915 0.00423316 0
0.00736256 0.00842441 0
0.012926 0.000457081 0
0.00988754 0.00140154 0
0.00930135 0.00261054 0
0.0112886 0.00328483 0
0.011818 0.00507397 0
0.0169738 0.0192205 0
0.0047126 0.0367574 0
1.78723 0 0
1.8468 0 0
1.86236 0.00071024 0
1.85995 0.000161066 0
1.92839 0.000638917 0
1.09489 2.02916 0
1.11787 2.09503 0
1.11172 2.05673 0
1.08976 2.07658 0
1.14711 2.06147 0
1.09662 2.11686 0
1.03288 2.23085 0
0.994548 2.06094 0
1.8848 1.47343 0
1.89616 1.51106 0
2 1.48315 0
1.94238 1.43334 0
1.73351 1.57669 0
1.69942 1.57874 0
1.75317 1.60456 0
1.63451 1.67727 0
1.70229 1.66724 0
1.67453 1.64581 0
1.70206 1.63058 0
1.67611 1.68003 0
1.6938 1.74582 0
1.69998 1.70662 0
1.73283 1.64858 0
1.67426 1.7207 0
1.72203 1.7322 0
1.72748 1.68915 0
1.80115 1.72828 0
1.89483 1.61941 0
1.88065 1.64938 0
1.92998 1.74186 0
2 1.61792 0
1.58618 1.83518 0
1.58825 1.79294 0
1.56876 1.81245 0
1.19825 1.94861 0
1.1791 1.94273 0
1.18934 1.98779 0
1.227 1.92908 0
1.19595 1.91342 0
1.24212 1.95385 0
1.29515 1.94291 0
1.28012 2.03689 0
1.26203 1.99409 0
1.33232 2.00609 0
1.2944 1.99213 0
1.31998 1.96602 0
1.35453 1.96652 0
1.27944 1.96691 0
1.30831 2.03019 0
1.29863 2.07788 0
1.40632 2.06443 0
1.39623 1.97911 0
1.23197 2.12053 0
1.35258 2.08307 0
1.334 2.04948 0
1.3251 2.08959 0
1.37246 2.02934 0
1.35571 2.05043 0
1.37908 2.07217 0
1.38664 2.1943 0
1.37588 2.1338 0
1.37724 1.95902 0
1.262 2.08717 0
1.35631 2.00231 0
1.34066 2.13792 0
1.27882 2.06877 0
1.24647 2.04035 0
1.20813 2.04002 0
1.28309 2.10996 0
1.35722 2.11581 0
1.30505 2.27379 0
1.27139 2.19887 0
1.28368 2.15633 0
1.25892 2.13385 0
1.31496 2.20509 0
1.29378 2.18953 0
1.28916 2.235 0
1.23739 2.27249 0
1.26017 2.24274 0
1.22565 2.19363 0
1.27078 2.30336 0
1.23598 2.23108 0
1.23925 2.1593 0
1.28202 2.27053 0
1.25787 2.27654 0
1.24827 2.19938 0
1.17869 2.2517 0
1.20884 2.25433 0
1.36004 2.17285 0
1.33398 2.17719 0
1.35325 2.24348 0
1.36445 2.20985 0
1.33808 2.21418 0
1.32748 2.25231 0
1.34212 2.3329 0
1.34569 2.28734 0
1.32206 2.30564 0
1.36702 2.31472 0
1.38449 2.26719 0
1.24038 2.0059 0
1.23593 2.07875 0
1.19514 2.20707 0
1.19241 2.29538 0
1.48208 2.25104 0
1.21371 2.22121 0
1.20231 2.15086 0
1.15438 2.19544 0
1.1305 2.32411 0
1.21909 2.30775 0
1.24706 2.3802 0
1.22695 2.35055 0
1.29907 2.3835 0
1.25223 2.33588 0
1.31658 2.34919 0
1.2733 2.36577 0
1.24001 2.3072 0
1.29604 2.31959 0
1.43383 2.27292 0
1.20735 2.18187 0
1.17326 2.21515 0
1.17702 2.16951 0
1.15933 2.29737 0
1.40835 2.28467 0
1.41186 2.23098 0
1.1472 2.24749 0
1.16235 2.3679 0
1.38813 2.23078 0
1.44947 2.21905 0
1.11653 2.20763 0
1.13676 2.28427 0
1.09682 2.28641 0
1.11689 2.29611 0
1.11925 2.25162 0
1.10015 2.34569 0
1.15189 2.33366 0
1.43261 2.23978 0
1.13696 2.21585 0
1.08654 2.31808 0
1.06126 2.27086 0
1.07146 2.46696 0
1.12741 2.38863 0
1.17685 2.32949 0
1.07817 2.39997 0
1.1198 2.35488 0
1.08191 2.36319 0
0.614407 1.62416 0
0.624076 1.67091 0
0.604213 1.6786 0
0.573992 1.55478 0
0.612077 1.65338 0
0.549097 1.53765 0
0.577473 1.62776 0
0.593476 1.64712 0
0.536053 1.52856 0
0.536988 1.56723 0
0.551684 1.61285 0
0.54016 1.59583 0
0.555152 1.49462 0
0.580801 1.48181 0
0.541347 1.49176 0
0.565255 1.52364 0
0.566328 1.47582 0
0.481252 1.87861 0
0.522728 1.98105 0
0.54976 2.20371 0
0.520747 2.22277 0
0.510619 2.1925 0
0.527726 2.18193 0
0.535134 2.04622 0
0.517919 2.02008 0
0.492822 2.04578 0
0.25645 1.36657 0
0.258565 1.32467 0
0.224421 1.35428 0
0.242427 1.37965 0
0.236452 1.34764 0
0.230244 1.38636 0
0.201986 1.41341 0
0.22108 1.43534 0
0.230368 1.44893 0
0.222233 1.46501 0
0.207341 1.45783 0
0.214998 1.39085 0
0.228429 1.41563 0
0.274188 1.57479 0
0.279615 1.5303 0
0.257016 1.5224 0
0.289708 1.56549 0
0.288764 1.51869 0
0.267525 1.54278 0
0.267522 1.50894 0
0.265392 1.47921 0
0.284779 1.61053 0
0.297409 1.59285 0
0.298064 1.54764 0
0.260961 1.64062 0
0.255845 1.58621 0
0.264254 1.57069 0
0.267567 1.6076 0
0.287874 1.65459 0
0.274524 1.64288 0
0.266959 1.68296 0
0.299009 1.65976 0
0.284047 1.69007 0
0.254512 1.67449 0
0.231825 1.62969 0
0.236293 1.67073 0
0.259162 1.70063 0
0.246143 1.63606 0
0.276089 1.67215 0
0.223551 1.6624 0
0.254177 1.61703 0
0.240732 1.59171 0
0.245456 1.66577 0
0.22677 1.69542 0
0.204651 1.58181 0
0.246844 1.55253 0
0.216515 1.61516 0
0.256585 1.55186 0
0.24344 1.51115 0
0.227032 1.54645 0
0.223137 1.63353 0
0.252776 1.4885 0
0.248693 1.46188 0
0.236476 1.56098 0
0.226489 1.58835 0
0.230777 1.50883 0
0.236655 1.53153 0
0.215955 1.56586 0
0.216896 1.52868 0
0.348775 1.71449 0
0.26411 1.90944 0
0.267658 1.85564 0
0.266877 1.82591 0
0.317829 1.9139 0
0.309578 1.87263 0
0.305264 1.90859 0
0.327563 1.86845 0
0.31805 1.85325 0
0.318859 1.8839 0
0.210603 1.7537 0
0 1.20135 0
0.00068614 1.22681 0
0.0418466 1.73907 0
0.0279711 1.54853 0
0.0311562 1.65132 0
0.0154669 1.45477 0
0.0151929 1.64272 0
0.0160833 1.61438 0
0.0167341 1.56684 0
0.0155672 1.67194 0
0.0162992 1.50996 0
0.0176313 1.5371 0
0.0122999 1.54311 0
0.0148606 1.54212 0
0.0136093 1.56908 0
0.010163 1.583 0
0.010903 1.64055 0
0.0127554 1.66688 0
0.00809612 1.7143 0
0.00995912 1.68235 0
0.012992 1.62936 0
0.00560356 1.63148 0
0.0113521 1.73498 0
0.00723976 1.66775 0
0.00992855 1.71321 0
0.0119461 1.69873 0
0.00895137 1.65313 0
0.00426313 1.6908 0
0.00604366 1.7014 0
0.00478759 1.72399 0
0.00657811 1.75296 0
0.00544112 1.66694 0
0.00894659 1.75524 0
0.00602705 1.86753 0
0.0135298 1.84383 0
0.00571118 1.80854 0
0.0116923 1.79217 0
0.00554104 1.7765 0
0.00761621 1.79016 0
0.00747546 1.83412 0
0.00955132 1.78784 0
0.00990715 1.90245 0
0.00811307 1.87441 0
0.0065905 1.9256 0
0.0106087 1.8572 0
0.0103482 1.82123 0
0.00804539 1.90798 0
0.00933026 1.94565 0
0.00763867 1.94891 0
0.0137976 2.03293 0
0.0109122 1.99638 0
0.00948697 1.97667 0
0.00864611 1.8133 0
0.0193022 1.75493 0
0.024255 1.71315 0
0.0243257 1.67694 0
0.0209379 1.69429 0
0.0274562 1.69563 0
0.0176823 1.71579 0
0.0213348 1.72866 0
0.0239197 1.77644 0
0.0309838 1.75841 0
0.0300884 1.72245 0
0.026841 1.74851 0
0.0357452 1.72974 0
0.0237919 1.74513 0
0.0146831 1.74558 0
0.0132404 1.72293 0
0.0126244 1.76199 0
0.0154844 1.7974 0
0.0562876 1.60844 0
0.0579458 1.52929 0
0.0604601 1.49858 0
0.0657128 1.50003 0
9.56697e-05 0.352279 0
0 0.387451 0
0.00145021 0.338682 0
0.000564697 0.334974 0
0.00104252 0.399568 0
0.00155847 0.413932 0
0.00217332 0.404716 0
0.000851005 0.462762 0
0.00144406 0.440048 0
0.020509 0.351869 0
0.0164658 0.3648 0
0.0196638 0.400577 0
0.0233371 0.374009 0
0.0249223 0.362566 0
0.0201199 0.382096 0
0.0171267 0.389196 0
0.0229897 0.39346 0
0.0164382 0.409289 0
0.0224277 0.411765 0
0.021432 0.437471 0
0.017605 0.427499 0
0.0196185 0.416445 0
0.0129442 0.452755 0
0.010541 0.454076 0
0.00391609 0.00549095 0
0.0179441 0.000210267 0
0.0147705 0 0
0.00802134 0.000391146 0
0.00368014 0.000939087 0
0.0076985 0.00459701 0
1.13967 2.02698 0
1.14242 2.10214 0
1.12474 2.15055 0
1.05858 2.18576 0
1.00037 2.17623 0
1.95456 1.50285 0
1.91574 1.45174 0
1.94503 1.46857 0
1.97175 1.47871 0
2 1.45038 0
1.97317 1.43413 0
1.7875 1.69709 0
1.77318 1.72595 0
1.90694 1.69852 0
1.95115 1.61998 0
1.59662 1.91633 0
1.6154 1.83542 0
1.60058 1.87345 0
1.57393 1.8671 0
1.24904 1.91354 0
1.34865 1.93077 0
1.45582 2.00685 0
1.40127 2.02154 0
1.43118 2.03593 0
1.42633 1.99088 0
1.45197 1.95714 0
1.45467 1.91449 0
1.41561 1.96149 0
1.49557 1.94106 0
1.52777 1.91256 0
1.4728 1.88834 0
1.47164 1.93807 0
1.481 1.98032 0
1.48772 2.03098 0
1.44578 2.10141 0
1.50389 1.91009 0
1.58013 2.04354 0
1.4626 2.06091 0
1.43047 2.0724 0
1.53995 1.98815 0
1.51081 1.97715 0
1.51812 2.02019 0
1.53152 1.95089 0
1.54912 2.03107 0
1.56994 1.9547 0
1.52582 2.06971 0
1.57243 1.99945 0
1.62925 2.00381 0
1.60023 2.01342 0
1.60675 1.96401 0
1.56321 1.90992 0
1.50455 2.05463 0
1.52605 2.17092 0
1.6669 1.93372 0
1.5167 2.12005 0
1.63104 1.92883 0
1.47749 2.13959 0
1.57422 2.12509 0
1.63491 1.96635 0
1.66723 1.9947 0
1.65167 1.89608 0
1.73878 1.86021 0
1.62549 1.88683 0
1.68905 1.85438 0
1.6647 1.86671 0
1.49382 2.11606 0
1.5024 2.15282 0
1.47891 2.19131 0
1.54612 2.10408 0
1.54887 2.14538 0
1.57169 2.08333 0
1.567 2.21385 0
1.63097 2.09716 0
1.55086 2.18341 0
1.52465 2.23578 0
1.62211 2.0505 0
1.59993 2.10089 0
1.61718 2.17705 0
1.6176 2.13471 0
1.59303 2.15534 0
1.59207 2.19565 0
1.59237 2.24192 0
1.66084 2.30523 0
1.62199 2.28355 0
1.652 2.02826 0
1.65409 2.06982 0
1.72431 2.16247 0
1.69444 2.10818 0
1.67883 2.07987 0
1.65915 2.14009 0
1.75082 1.98806 0
1.65902 1.96417 0
1.47125 2.22218 0
1.55025 2.06579 0
1.70938 2.00473 0
1.69391 1.96296 0
1.68631 2.01413 0
1.72378 1.96952 0
1.76065 1.92114 0
1.74786 1.95252 0
1.78947 1.96463 0
1.70622 1.90717 0
1.67934 1.89733 0
1.72441 1.93373 0
1.69088 1.93151 0
1.73637 1.89833 0
1.21005 2.00358 0
1.1806 2.0744 0
1.16274 2.09312 0
1.2076 2.09319 0
1.18592 2.11457 0
1.31139 2.1638 0
1.45672 2.25612 0
1.47125 2.3481 0
1.45764 2.30424 0
1.42744 2.32755 0
1.39593 2.48653 0
1.4036 2.4023 0
1.37698 2.36715 0
1.34059 2.41168 0
1.33676 2.37189 0
1.40765 2.3585 0
1.44163 2.38876 0
1.37261 2.41931 0
1.35047 2.48424 0
1.39485 2.44306 0
1.37168 2.46101 0
1.43904 2.46189 0
1.41987 2.43413 0
1.08561 2.23076 0
1.09996 2.25304 0
1.01701 2.32047 0
1.16083 2.46284 0
1.10615 2.44395 0
1.10237 2.39024 0
0.646659 1.62889 0
0.659624 1.60431 0
0.66063 1.65283 0
0.529636 1.68481 0
0.519242 1.64333 0
0.506483 1.63623 0
0.507937 1.68389 0
0.539156 1.6466 0
0.494553 1.69675 0
0.518046 1.76417 0
0.508154 1.72687 0
0.558014 1.69299 0
0.527135 1.72665 0
0.558487 1.6514 0
0.573791 1.67292 0
0.544449 1.67734 0
0.545149 1.77256 0
0.532216 1.75702 0
0.528925 1.79873 0
0.5474 1.72937 0
0.499388 1.82078 0
0.51867 1.8425 0
0.512546 1.7991 0
0.493577 1.76962 0
0.569898 1.75676 0
0.574449 1.79418 0
0.584837 1.7388 0
0.559843 1.78244 0
0.571499 1.71541 0
0.560875 1.73428 0
0.501253 1.869 0
0.532869 1.88058 0
0.505278 1.7561 0
0.488968 1.84726 0
0.448274 1.81004 0
0.467064 1.83717 0
0.496104 1.93252 0
0.544916 1.86354 0
0.516609 1.87971 0
0.505224 1.90365 0
0.511758 1.93816 0
0.524403 1.91103 0
0.539616 1.91216 0
0.568254 1.59255 0
0.558274 1.56551 0
0.614998 1.47532 0
0.61226 1.43737 0
0.627957 1.45263 0
0.633181 1.48758 0
0.554115 2.15956 0
0.505193 2.06696 0
0.252073 1.30482 0
0.211072 1.42747 0
0.179845 1.4682 0
0.208436 1.34513 0
0.198755 1.32795 0
0.184791 1.37652 0
0.197616 1.37002 0
0.189672 1.34592 0
0.177001 1.33082 0
0.192381 1.39952 0
0.179824 1.42042 0
0.191896 1.44589 0
0.20691 1.37461 0
0.196606 1.65637 0
0.209903 1.65723 0
0.204988 1.62117 0
0.280269 1.92589 0
0.244992 1.86591 0
0.245343 1.81806 0
0.254275 1.84265 0
0.255733 1.88141 0
0.245906 1.90841 0
0.331449 1.90754 0
0.345201 1.85161 0
0.343929 1.891 0
0.367138 1.84119 0
0.369631 1.80894 0
0.35781 1.87471 0
0.392468 1.92139 0
0.376681 1.88818 0
0.21746 1.73085 0
0.202012 1.71081 0
0.207988 1.68761 0
0.202917 1.88072 0
0.222135 1.78197 0
0.228846 1.76406 0
0.206737 1.81665 0
0.228206 1.84048 0
0.212338 1.78792 0
0.201603 1.78219 0
0.217828 1.82299 0
0.180358 1.83521 0
0.210768 1.85332 0
0.193104 1.82153 0
0.218783 1.91301 0
0.212165 1.88764 0
0.22276 1.87541 0
0.229489 1.90594 0
0.237854 1.889 0
0.238058 1.84131 0
0.230015 1.80507 0
0.183579 1.78602 0
0.189743 1.87041 0
0.200542 1.84508 0
0.185635 1.8141 0
0.192472 1.78782 0
0.176578 1.71218 0
0.166307 1.79492 0
0.187684 1.84216 0
0.167475 1.92548 0
0.191685 1.96108 0
0.205012 1.93698 0
0.183314 1.74444 0
0.189041 1.7013 0
0.171609 1.7537 0
0.175287 1.80395 0
0.176699 1.88663 0
0.194197 1.91392 0
0.194455 1.7243 0
0.196546 1.68696 0
0.163419 1.71357 0
0.182049 1.86474 0
0.185108 1.90259 0
0.170023 1.72558 0
0.160328 1.75659 0
0.143101 1.71274 0
0.155553 1.79572 0
0.153063 1.72472 0
0.132777 1.79915 0
0.156452 1.69272 0
0.144829 1.76582 0
0.152613 1.76508 0
0.146747 1.73755 0
0.145603 1.81005 0
0.139771 1.78965 0
0.132777 1.74392 0
0.13604 1.89436 0
0.143127 1.8572 0
0.138132 1.82725 0
0.15089 1.91869 0
0.151052 1.878 0
0.144088 1.89777 0
0.138823 1.9548 0
0.1596 1.89893 0
0.00010573 1.20546 0
0.02155 1.44199 0
0.0199114 1.50226 0
0.0221149 1.47594 0
0.0248034 1.45412 0
0.018668 1.4644 0
0.0260669 1.37766 0
0.0165371 1.48086 0
0.0123557 1.48975 0
0.0245146 1.41435 0
0.0138026 1.51404 0
0.0094555 1.45169 0
0.00865836 1.42479 0
0.0305298 1.41351 0
0.0279661 1.43784 0
0.0363079 1.40011 0
0.0312754 1.45379 0
0.0180693 1.36868 0
0.0274204 1.40329 0
0.0217664 1.38319 0
0.016632 1.33093 0
0.0231571 1.3325 0
0.0185699 1.41128 0
0.0175418 1.43795 0
0.0142122 1.32925 0
0.0132603 1.38464 0
0.014755 1.41757 0
0.0115042 1.42108 0
0.0158743 1.3887 0
0.0148353 1.35956 0
0.0235724 1.36047 0
0.019791 1.31864 0
0.0204201 1.34894 0
0.0223109 1.30623 0
0.0214328 1.41235 0
0.0117728 1.36065 0
0.0118718 1.45534 0
0.0111517 1.3926 0
0.00994215 1.54844 0
0.00872699 1.50084 0
0.00737734 1.59714 0
0.00914102 1.61689 0
0.0073667 1.63246 0
0.00845097 1.57577 0
0.0025798 1.82369 0
0.0039752 1.90784 0
0.00727675 2.12471 0
0.0167301 1.93635 0
0.0127324 1.93562 0
0.0127925 1.88881 0
0.0146848 1.91268 0
0.0188426 1.87698 0
0.0204188 1.79603 0
0.0178411 1.78297 0
0.0190731 1.83477 0
0.0163202 1.85362 0
0.016315 1.88714 0
0.0286366 1.81653 0
0.0281525 1.78129 0
0.0397876 1.68879 0
0.0134049 1.81177 0
0.0533765 1.58395 0
0.0668856 1.59216 0
0.000191776 0.383827 0
0.000377263 0.401756 0
0.000201585 0.422524 0
0 0.370789 0
0 0.457764 0
0.000578022 0.438502 0
8.47469e-05 0.371814 0
0 0.439636 0
0.000148639 0.448654 0
0.000939207 0.448244 0
7.66722e-05 0.434601 0
0.000152614 0.476257 0
0.000454627 0.453576 0
7.42217e-05 0.462412 0
0.00118587 0.485946 0
0.00204367 0.481961 0
0.0023289 0.457608 0
0.000558104 0.479584 0
0.00155165 0.467116 0
0.00366142 0.459485 0
0.00461183 0.448751 0
0.00306943 0.440444 0
0.0215474 0.476231 0
0.0249606 0.440765 0
0.0225997 0.456542 0
0.0198391 0.451123 0
0.0253018 0.471636 0
0.0240762 0.491076 0
0.0191772 0.504297 0
0.0203645 0.524802 0
0.0211672 0.492651 0
0.0234134 0.527185 0
0.0147692 0.442309 0
0.0121876 0.435014 0
0.00506242 0.00776914 0
0.00541795 0.00561724 0
0.00359592 0.00764556 0
0.00436951 0.0109433 0
0.00242304 0.0174423 0
0.00425383 0.0199041 0
0.00528927 0.0219435 0
0.00599164 0.0169791 0
0.00611575 0.0134306 0
0.00299165 0.0133643 0
0.00440864 0.0149207 0
0.00199897 0.023874 0
0.000752274 0.0123298 0
0.00351803 0.0171638 0
0.00273091 0.0265451 0
0.00308811 0.0222557 0
0.00167939 0.0284988 0
0.000473727 0.0235376 0
0.00070003 0.0290084 0
0.00109654 0.0249192 0
0.00128035 0.0195764 0
0.00172816 0.0118281 0
0.000174701 0.0276914 0
0.00050033 0.0353372 0
0.00203646 0.0203734 0
0.00129397 0.0152726 0
0 0.0358887 0
0 0.0183105 0
0.00208348 0.0145658 0
0.000329141 0.0313192 0
0 0.0309448 0
0.000124122 0.0352405 0
0 0.0411987 0
0.000335943 0.0171541 0
0.000158851 0.0414198 0
0.000804425 0.0173233 0
0.0098877 0 0
0.0108925 0.000166097 0
0.00548077 0.00166015 0
0.00439453 0 0
1.10971 2.1744 0
1.0705 2.15555 0
1.04053 2.15118 0
1.01757 2.1495 0
1.03592 2.19059 0
0.996524 2.13714 0
0.961429 2.12111 0
1.01523 2.20603 0
0.976652 2.24245 0
0.993235 2.21493 0
0.968202 2.17803 0
1.0042 2.26807 0
0.962243 2.08517 0
0.977423 2.30323 0
1.0298 2.27831 0
1.04327 2.31961 0
1.0309 2.40324 0
1.04846 2.36698 0
1.0252 2.36095 0
1.05457 2.4099 0
0.975598 2.40702 0
1.00285 2.39395 0
0.985732 2.27235 0
0.998011 2.30472 0
0.98671 2.35175 0
1.00445 2.51734 0
0.958929 2.34329 0
1.01159 2.45488 0
0.9074 2.36879 0
0.970743 2.37168 0
0.93847 2.39811 0
1.01479 2.4204 0
0.993264 2.43158 0
0.93123 2.34259 0
0.924869 2.37523 0
0.911035 2.42591 0
0.944878 2.36531 0
0.939287 2.51794 0
0.964869 2.47164 0
0.918658 2.47967 0
0.941449 2.47174 0
0.953083 2.43273 0
0.957187 2.397 0
1.05687 2.22841 0
1.9274 1.50665 0
1.95558 1.55064 0
2 1.5163 0
1.86244 1.75679 0
1.95341 1.69534 0
2 1.65253 0
1.97382 1.66997 0
1.94156 1.65985 0
1.41709 2.1491 0
1.41269 2.10627 0
1.39801 2.13155 0
1.41334 2.18968 0
1.44855 2.1678 0
1.43502 2.19392 0
1.45422 2.13383 0
1.5066 2.20235 0
1.55369 2.25799 0
1.51661 2.31207 0
1.4869 2.3096 0
1.52909 2.27576 0
1.55183 2.31634 0
1.53052 2.38275 0
1.53262 2.34316 0
1.50208 2.35433 0
1.48313 2.39247 0
1.50787 2.40077 0
1.46488 2.4332 0
1.44222 2.42532 0
1.59944 2.06577 0
1.65967 2.22627 0
1.69105 2.15419 0
1.66689 2.18288 0
1.64261 2.16865 0
1.7038 2.21785 0
1.70438 2.18321 0
1.72017 2.0609 0
1.7944 1.92187 0
1.83528 1.84277 0
1.77811 1.87412 0
1.82215 1.88803 0
1.77193 1.8068 0
1.78489 1.76643 0
1.80535 1.85494 0
1.80951 1.80863 0
1.78042 1.83954 0
1.79795 1.89157 0
1.84652 1.79846 0
1.91736 1.84913 0
1.82546 1.76161 0
1.89391 1.79917 0
1.87404 1.88539 0
1.80637 1.77949 0
1.87027 1.78624 0
1.8698 1.8314 0
1.85756 1.85998 0
1.89599 1.83057 0
1.84873 1.90874 0
1.90428 2.00694 0
1.89036 1.94522 0
1.87428 1.91849 0
1.9152 1.90164 0
1.8013 2.0631 0
1.71273 1.87255 0
1.18743 2.04291 0
1.16623 2.05116 0
1.44669 2.35113 0
1.08085 2.265 0
1.08061 2.19239 0
1.15173 2.41465 0
1.12935 2.4319 0
1.12561 2.48774 0
1.09641 2.49465 0
1.15026 2.50801 0
1.19934 2.62808 0
1.16908 2.57522 0
1.15321 2.54744 0
1.14038 2.46256 0
1.05453 2.57312 0
1.11305 2.52105 0
1.08466 2.55127 0
1.07416 2.51107 0
1.03931 2.49617 0
1.03935 2.44812 0
1.08927 2.66043 0
1.07854 2.60685 0
1.1167 2.60985 0
1.14328 2.5953 0
1.16733 2.63355 0
1.10806 2.56623 0
1.09719 2.6239 0
1.18199 2.60568 0
1.22534 2.52967 0
1.19856 2.5584 0
1.17814 2.52124 0
1.18744 2.71261 0
1.22826 2.59207 0
1.18509 2.66625 0
1.21806 2.56206 0
1.08509 2.43684 0
0.640176 1.66 0
0.630155 1.63378 0
0.629845 1.58072 0
0.643523 1.59776 0
0.620477 1.53235 0
0.620015 1.5029 0
0.598941 1.50141 0
0.583785 1.5232 0
0.599604 1.56446 0
0.599019 1.53279 0
0.584612 1.58204 0
0.600194 1.60083 0
0.615332 1.59306 0
0.615406 1.56175 0
0.556371 1.82002 0
0.560152 1.85379 0
0.570638 1.87368 0
0.467064 1.76685 0
0.472578 1.73664 0
0.480926 1.80478 0
0.480138 1.77309 0
0.466236 1.80184 0
0.446175 1.87157 0
0.597054 1.46444 0
0.215572 1.36255 0
0.218627 1.31289 0
0.175199 1.36455 0
0.180058 1.30076 0
0.17215 1.30853 0
0.166674 1.32707 0
0.161099 1.44431 0
0.16323 1.39838 0
0.187831 1.42211 0
0.200308 1.44108 0
0.290429 1.92257 0
0.280448 1.88188 0
0.273494 1.90353 0
0.262087 2.02436 0
0.25255 1.9682 0
0.246087 1.94226 0
0.334645 1.84543 0
0.355155 1.83119 0
0.36279 1.92921 0
0.354246 1.90626 0
0.402316 1.84316 0
0.202185 1.7426 0
0.20457 2.00013 0
0.167292 1.84815 0
0.169726 1.68316 0
0.177463 1.59508 0
0.171102 1.63574 0
0.191375 1.6028 0
0.181147 1.66385 0
0.159423 1.58251 0
0.196541 1.62634 0
0.186788 1.63442 0
0.181831 1.6919 0
0.189189 1.67078 0
0.167722 1.601 0
0.158794 1.62326 0
0.178798 1.62515 0
0.135103 1.59699 0
0.147389 1.60003 0
0.133735 1.70232 0
0.141666 1.65357 0
0.151223 1.65881 0
0.139792 1.68414 0
0.147207 1.63153 0
0.148518 1.68925 0
0.115006 1.77143 0
0.129357 1.93239 0
0.132122 1.96138 0
0.135988 1.92586 0
0.119083 1.86063 0
0.128219 1.8413 0
0.112353 1.93627 0
0.126372 1.88915 0
0.122537 1.80193 0
0.13484 1.85923 0
0.120827 1.94726 0
0.118399 1.90647 0
0.108006 1.88364 0
0.127231 1.77143 0
0.123451 1.73067 0
0.112806 1.8203 0
0.121881 1.8326 0
0.114298 1.88189 0
0.121041 1.75942 0
0.105511 1.78669 0
0.107039 1.81477 0
0.104122 1.68727 0
0.0880512 1.78509 0
0.107335 1.73575 0
0.115239 1.73228 0
0.0965415 1.79869 0
0.10918 1.76357 0
0.0990558 1.75447 0
0.0934724 1.76974 0
0.0861525 1.72948 0
0.100865 1.71935 0
0.09217 1.67656 0
0.0934528 1.728 0
0.0977352 1.69112 0
0.145004 2.09526 0
0.138591 2.02755 0
0.0315404 1.36621 0
0.0339452 1.42285 0
0.0403272 1.37542 0
0.0441079 1.38394 0
0.0369155 1.3385 0
0.0409085 1.26948 0
0.0333676 1.34298 0
0.0357341 1.36865 0
0.0364138 1.29646 0
0.0402928 1.31512 0
0.0341585 1.24498 0
0.0313732 1.21665 0
0.0350997 1.21802 0
0.0397582 1.23371 0
0.0367449 1.26716 0
0.0316857 1.27934 0
0.027774 1.26516 0
0.0303356 1.24445 0
0.0540159 1.23261 0
0.02714 1.30468 0
0.0466326 1.24245 0
0.0280362 1.34152 0
0.0428398 1.24783 0
0.0202434 1.28715 0
0.0107577 1.51591 0
0.0102486 1.48023 0
0.00747602 1.47006 0
0.00418067 1.84253 0
0.00546599 1.83895 0
0.00393911 1.79972 0
0.00283713 1.86938 0
0.00455789 1.87606 0
0.00288224 1.90147 0
0.00444864 1.98087 0
0.00257655 1.95901 0
0.00976032 2.06727 0
0.0140585 1.98204 0
0.0120263 1.96753 0
0.0127575 2.00608 0
0.0146493 1.95104 0
0.0252414 1.80846 0
0.0353917 1.68738 0
0.0391042 1.71829 0
0.0507702 1.68963 0
0.0404278 1.64738 0
0.0451344 1.67273 0
0.0459172 1.62527 0
0.0437229 1.70646 0
0.0495674 1.65246 0
0.0554714 1.66264 0
0.0616623 1.74483 0
0.0577963 1.63669 0
0.0625971 1.61704 0
0.0600278 1.69859 0
0.0545243 1.73138 0
0.0480351 1.74051 0
0.0678909 1.71136 0
0.0551915 1.69937 0
0.0559245 1.78934 0
0.0507528 1.71876 0
0.0447 1.78694 0
0.0633771 1.71787 0
0.0648467 1.68179 0
0.070411 1.64046 0
0.0572106 1.75797 0
0.0519429 1.76453 0
0.0514251 1.79695 0
0.0448175 1.75731 0
0.0604329 1.57387 0
0.0654305 1.55939 0
0.0768253 1.55948 0
0.0710116 1.56817 0
0.0717582 1.52508 0
0.0758553 1.60554 0
0.0814961 1.51002 0
0.0707732 1.61076 0
0.0807426 1.66184 0
0.0811331 1.58552 0
0.0852465 1.54807 0
0.081991 1.62362 0
0.0965338 1.51574 0
0.0872894 1.64843 0
0.102355 1.49685 0
0.0755926 1.49913 0
0.0771538 1.52915 0
0.0762487 1.63913 0
0.0735775 1.68077 0
0.0888329 1.51442 0
0.0868232 1.4778 0
0.093683 1.55721 0
0.10683 1.55613 0
0.106356 1.52342 0
0.0691024 1.66848 0
0.0922568 1.45871 0
0.0928199 1.48987 0
0.100313 1.61868 0
0.0979289 1.65372 0
0.0930063 1.62571 0
0.0954615 1.59181 0
0.102533 1.58482 0
0.116049 1.62374 0
0.108169 1.61203 0
0.109638 1.6538 0
0.114687 1.58021 0
0.117368 1.5308 0
0.103703 1.6438 0
0.100106 1.54464 0
0.0979996 1.47864 0
0.112615 1.6925 0
0.119007 1.70486 0
0.124362 1.59616 0
0.113051 1.55215 0
0.120772 1.49921 0
0.131073 1.53917 0
0.128976 1.50475 0
0.124354 1.52805 0
0.125115 1.56191 0
0.142865 1.50853 0
0.13568 1.51593 0
0.141978 1.55654 0
0.125399 1.64141 0
0.132171 1.66478 0
0.13292 1.63015 0
0.140029 1.62062 0
0.117975 1.66187 0
0.0272123 0.497205 0
0.0164644 0.477774 0
0.0219599 0.509682 0
0.00675658 0.00220101 0
0.00662092 0.000887183 0
0.00598145 0 0
0.00515747 0.0002697 0
0.00664145 0.000136928 0
0.00336029 0.000190569 0
0.00305176 0 0
0.00346394 0.00276209 0
0.91714 2.12036 0
0.976713 2.14476 0
0.939156 2.22515 0
0.895755 2.27365 0
0.908415 2.31775 0
0.921753 2.27425 0
0.863512 2.33857 0
0.939778 2.26163 0
0.884305 2.31526 0
0.88382 2.36236 0
0.852072 2.42579 0
0.863624 2.38516 0
0.838365 2.36206 0
0.876663 2.42788 0
0.893158 2.40075 0
0.842747 2.31422 0
0.863704 2.26628 0
0.860048 2.30224 0
0.878909 2.28256 0
0.779999 2.44197 0
0.805181 2.38969 0
0.818963 2.36166 0
0.828039 2.41009 0
0.806994 2.44755 0
0.794543 2.42017 0
0.790386 2.51353 0
0.792187 2.47282 0
0.962777 2.27337 0
0.971642 2.53729 0
0.989287 2.47892 0
0.974978 2.50167 0
0.930967 2.4362 0
1.92737 1.56317 0
1.95178 1.585 0
1.97293 1.52621 0
1.89418 1.73756 0
1.87961 1.70868 0
1.83932 1.71372 0
1.81607 1.69331 0
1.90953 1.76833 0
2 1.75854 0
1.95698 1.79456 0
1.92551 1.80067 0
1.93765 1.77218 0
1.96556 1.7461 0
2 1.72284 0
1.86089 1.72764 0
1.8404 1.6815 0
1.97337 1.71625 0
1.93085 1.71128 0
1.50236 2.27686 0
1.61193 2.40675 0
1.58969 2.34952 0
1.56004 2.3664 0
1.56368 2.45162 0
1.53302 2.43296 0
1.58367 2.39293 0
1.55727 2.40927 0
1.59014 2.43513 0
1.60126 2.5348 0
1.58844 2.48661 0
1.57566 2.32032 0
1.51832 2.53312 0
1.47828 2.50061 0
1.47968 2.46274 0
1.50961 2.4832 0
1.64329 2.48054 0
1.61881 2.45191 0
1.55952 2.53301 0
1.53913 2.47814 0
1.6164 2.49717 0
1.64444 2.54949 0
1.58058 2.51963 0
1.62591 2.23466 0
1.63954 2.20424 0
1.64896 2.26592 0
1.68672 2.26576 0
1.6827 2.23286 0
1.70059 2.3215 0
1.73273 2.26819 0
1.68357 2.29865 0
1.71004 2.25219 0
1.73673 2.02524 0
1.76039 2.06929 0
1.77711 2.0241 0
1.73494 2.11043 0
1.78568 2.1227 0
1.82291 2.00802 0
1.77561 1.99158 0
1.73852 2.07968 0
1.71515 2.0923 0
1.714 2.13045 0
1.78267 2.08783 0
1.75623 2.14641 0
1.75547 2.21091 0
1.78784 2.17262 0
1.7467 2.17834 0
1.80269 2.02925 0
1.89964 1.87429 0
1.94455 1.95945 0
2 1.90503 0
1.01916 2.49071 0
1.02856 2.54775 0
1.04875 2.53317 0
0.997966 2.58788 0
1.00885 2.55517 0
1.02817 2.61116 0
1.03645 2.57954 0
1.05426 2.6554 0
1.07231 2.64206 0
1.13237 2.69219 0
1.1151 2.65722 0
1.16065 2.69383 0
1.14084 2.64471 0
1.14401 2.8454 0
1.14528 2.7663 0
1.14595 2.72466 0
1.20546 2.45824 0
1.21699 2.40457 0
1.18181 2.42352 0
1.243 2.68585 0
1.21405 2.67425 0
1.21452 2.72563 0
1.23343 2.63985 0
1.29155 2.62753 0
1.26043 2.60578 0
1.267 2.65621 0
1.28488 2.74844 0
1.29708 2.68917 0
1.26872 2.70658 0
1.24461 2.74133 0
1.28505 2.57674 0
1.24997 2.55739 0
1.3426 2.5813 0
1.27074 2.54898 0
1.31432 2.55464 0
1.3168 2.60389 0
1.34046 2.53114 0
1.38051 2.55145 0
1.31521 2.48951 0
1.36446 2.51895 0
1.30757 2.52169 0
1.33098 2.45325 0
1.31445 2.41891 0
1.27154 2.44381 0
1.29068 2.42052 0
1.29445 2.46342 0
1.26622 2.40424 0
1.24155 2.43458 0
1.25106 2.49094 0
1.2289 2.47142 0
0.640466 1.55029 0
0.453209 1.84193 0
0.46163 1.93357 0
0.463398 1.87962 0
0.452573 1.90448 0
0.472562 1.90852 0
0.210035 1.31871 0
0.230656 1.31588 0
0.233982 1.2843 0
0.243429 1.2789 0
0.223153 1.28428 0
0.213068 1.27914 0
0.218784 1.25799 0
0.171538 1.44425 0
0.171066 1.41273 0
0.166293 1.48443 0
0.156352 1.47722 0
0.150358 1.4439 0
0.150422 1.49857 0
0.149477 1.53493 0
0.150297 1.40983 0
0.157518 1.54885 0
0.15046 1.56834 0
0.170555 1.5525 0
0.142398 1.46865 0
0.133891 1.4627 0
0.166779 1.51966 0
0.18057 1.5177 0
0.279807 1.99228 0
0.377623 1.92935 0
0.37008 2.00248 0
0.388738 1.97776 0
0.370128 1.96272 0
0.35138 1.98236 0
0.365652 1.898 0
0.3845 1.84557 0
0.391263 1.88116 0
0.412723 1.89674 0
0.392703 1.81038 0
0.420002 1.78214 0
0.397452 1.75922 0
0.407781 1.80613 0
0.425227 1.84454 0
0.439015 1.83706 0
0.433179 1.80138 0
0.413787 1.83328 0
0.437684 1.7444 0
0.443425 1.77662 0
0.403311 1.87548 0
0.200623 1.96801 0
0.192726 2.0073 0
0.175176 1.99021 0
0.18456 1.98682 0
0.178861 1.94386 0
0.181021 2.04314 0
0.186744 1.93456 0
0.174835 1.91694 0
0.170822 1.9587 0
0.156636 2.01427 0
0.165135 1.99327 0
0.155622 1.96404 0
0.167144 2.05111 0
0.159466 1.93343 0
0.170595 2.01928 0
0.188663 2.03492 0
0.147272 1.95328 0
0.143342 1.99132 0
0.1355 1.99398 0
0.147738 2.02823 0
0.143021 2.05871 0
0.142869 1.92863 0
0.150924 1.9911 0
0.2208 2.08102 0
0.217559 1.9697 0
0.16113 1.82317 0
0.159606 1.86347 0
0.167689 1.88451 0
0.0867757 1.91411 0
0.0915704 1.85589 0
0.0962421 1.83273 0
0.0898705 1.82021 0
0.0714628 1.83177 0
0.0802324 1.81673 0
0.108901 1.84898 0
0.0803502 1.76429 0
0.0855193 1.75881 0
0.080964 1.73491 0
0.082386 1.69803 0
0.0881488 1.69969 0
0.0702484 1.77067 0
0.0828056 1.7906 0
0.0749822 1.75451 0
0.0753671 1.792 0
0.0328254 1.3923 0
0.0473163 1.29636 0
0.0443486 1.31601 0
0.0484359 1.18716 0
0.0430294 1.18531 0
0.045468 1.21204 0
0.0501813 1.21418 0
0.0545652 1.15047 0
0.0565239 1.19167 0
0.0613294 1.15836 0
0.0414807 1.21049 0
0.0573217 1.12831 0
0.0573605 1.16827 0
0.00378172 1.94615 0
0.00525476 1.94868 0
0.00601319 1.98165 0
0.00513476 2.05909 0
0.00695478 2.02829 0
0.00517004 2.01769 0
0.00251098 2.03676 0
0.00381342 2.03761 0
0.00309205 2.09229 0
0.00713344 2.0762 0
0.000632915 1.96352 0
0.0509854 1.61695 0
0.0376175 1.78427 0
0.0755478 1.46796 0
0.134796 1.56584 0
0.141377 1.58496 0
0.0188473 0.467902 0
0.0152992 0.460897 0
0.0144504 0.505951 0
0.0114691 0.508826 0
0.0119614 0.480016 0
0.00955965 0.493646 0
0.00733697 0.49212 0
0.0065409 0.475251 0
0.0127199 0.495382 0
0.00501017 0.00083385 0
0.00468954 0.00375963 0
0.00462955 0.00247294 0
0 0.00292969 0
0.00106195 0.00498721 0
0.0020523 0.00662741 0
0.0021475 0.00396139 0
0.000930843 0.00826756 0
0.00173469 0.00897136 0
0.00275901 0.0052911 0
0.00180472 0.00155713 0
0.0017083 0.00515458 0
0.00128718 0.00663207 0
0.00113273 0.0104163 0
0.0023453 0.00252102 0
0.00278494 0.00150259 0
0.00220231 0.000559235 0
0.00119492 0.00287586 0
0.00231217 0.000129649 0
0 0.000732422 0
0.000488281 0 0
0.00104116 0.000235976 0
0.000300534 0.00351468 0
0.000627337 0.00124251 0
0.00132357 0.000786398 0
0.000725675 0.00371651 0
0.00109076 0.00175865 0
0.939242 2.10297 0
0.918209 2.0657 0
0.896531 2.09152 0
0.877016 2.08938 0
0.856779 2.06248 0
0.833942 2.06572 0
0.809554 2.14086 0
0.847173 2.11211 0
0.816793 2.097 0
0.779175 2.08776 0
0.828737 2.12888 0
0.798619 2.08045 0
0.770243 2.0473 0
0.752091 2.10379 0
0.83134 2.21179 0
0.762991 2.07788 0
0.849241 2.16779 0
0.824839 2.17078 0
0.827099 2.26722 0
0.796206 2.19868 0
0.814154 2.20005 0
0.895804 2.13347 0
0.91593 2.18147 0
0.939912 2.15474 0
0.857073 2.21641 0
0.879924 2.18099 0
0.857828 2.13851 0
0.845364 2.2764 0
0.789578 2.27421 0
0.80439 2.24054 0
0.761442 2.3513 0
0.774783 2.39252 0
0.908979 2.22987 0
0.922518 2.15122 0
0.934728 2.18962 0
0.95738 2.15244 0
0.863214 2.18581 0
0.881427 2.23042 0
0.842983 2.23994 0
0.808898 2.28584 0
0.820576 2.23673 0
0.733985 2.42386 0
0.897775 2.19794 0
0.757288 2.42715 0
0.746742 2.3858 0
0.731381 2.32283 0
0.744055 2.34838 0
0.743718 2.49085 0
0.73241 2.24042 0
0.744801 2.45293 0
0.724307 2.46635 0
0.685928 2.39505 0
0.708375 2.42116 0
0.721632 2.37382 0
0.713215 2.25382 0
0.720854 2.28996 0
0.717449 2.21157 0
0.726409 2.17106 0
0.682835 2.47243 0
0.710837 2.33368 0
0.683741 2.33414 0
0.702253 2.37236 0
0.691093 2.43501 0
0.701955 2.47136 0
0.67795 2.27902 0
0.654529 2.26683 0
0.688562 2.30239 0
0.691824 2.26901 0
0.680621 2.24669 0
0.616498 2.30957 0
0.661756 2.31677 0
0.632715 2.27539 0
0.618163 2.24353 0
0.595828 2.24278 0
0.66627 2.36797 0
0.638474 2.32868 0
0.582317 2.31815 0
0.606752 2.27495 0
0.589757 2.28104 0
0.599344 2.3152 0
0.593063 2.39417 0
0.610693 2.36131 0
0.591849 2.35247 0
0.663756 2.42916 0
0.647849 2.29955 0
0.652444 2.34773 0
0.637074 2.37176 0
0.64524 2.41356 0
0.629038 2.51428 0
0.646746 2.47262 0
0.60938 2.40166 0
0.594714 2.48338 0
0.615074 2.45654 0
0.623873 2.34193 0
0.671293 2.39986 0
0.664752 2.56018 0
0.664667 2.47155 0
0.656137 2.51572 0
0.676869 2.5197 0
0.699608 2.58859 0
0.694776 2.51074 0
0.683849 2.56203 0
0.705272 2.54677 0
0.597996 2.43811 0
0.562111 2.43931 0
0.579992 2.45331 0
0.568385 2.37753 0
0.564969 2.49633 0
0.574903 2.41456 0
0.611474 2.50073 0
0.611982 2.57294 0
0.616553 2.53649 0
0.635267 2.56802 0
0.649309 2.5504 0
0.651974 2.60192 0
0.676999 2.62451 0
0.630011 2.47382 0
0.633836 2.43812 0
0.549363 2.47243 0
0.502963 2.46031 0
0.525468 2.47822 0
0.56984 2.60858 0
0.624351 2.59342 0
0.599127 2.65628 0
0.614736 2.63266 0
0.626187 2.72773 0
0.615947 2.6835 0
0.587465 2.75282 0
0.638531 2.67938 0
0.605608 2.72914 0
0.588871 2.70068 0
0.612373 2.82487 0
0.578985 2.6549 0
0.565993 2.72249 0
0.616316 2.77327 0
0.574665 2.69156 0
0.598944 2.79093 0
0.630317 2.80731 0
0.572331 2.81645 0
0.633747 2.90266 0
0.64058 2.76317 0
0.583935 2.79149 0
0.568039 2.76982 0
0.627054 2.856 0
0.682202 2.73877 0
0.647703 2.86241 0
0.66243 2.76377 0
0.668457 3 0
0.660401 2.92842 0
0.648971 2.90181 0
0.64174 2.95169 0
0.650513 3 0
0.666985 2.59653 0
0.561628 2.55384 0
0.62651 2.65767 0
0.661937 2.70108 0
0.692164 2.84792 0
0.669011 2.8407 0
0.586742 2.5598 0
0.597441 2.52592 0
0.581151 2.51068 0
0.57464 2.54211 0
0.645729 2.72015 0
0.684334 2.68006 0
0.655943 2.65188 0
0.67813 2.89294 0
0.682985 2.79541 0
0.706862 2.71439 0
0.697442 2.63936 0
0.700648 2.67782 0
0.756481 2.64576 0
0.729306 2.6714 0
0.732834 2.59002 0
0.716216 2.57783 0
0.718549 2.62761 0
0.671119 2.65961 0
0.681691 2.9512 0
0.706954 2.80093 0
0.667307 2.80124 0
0.691896 2.7112 0
0.686646 3 0
0.740351 2.90158 0
0.707342 2.75749 0
0.718652 2.86067 0
0.692453 2.7662 0
0.706648 2.83791 0
0.702905 2.91301 0
0.727807 2.81333 0
0.786862 2.77071 0
0.755404 2.77939 0
0.738867 2.78403 0
0.69274 2.88528 0
0.960218 2.2156 0
0.949137 2.56939 0
0.892608 2.58424 0
0.919769 2.56266 0
0.918763 2.52102 0
0.922064 2.65919 0
0.938292 2.61756 0
0.913219 2.61148 0
1.63199 2.35125 0
1.47269 2.59706 0
1.53889 2.57378 0
1.5053 2.58313 0
1.4897 2.54343 0
1.57962 2.57354 0
1.62761 2.66344 0
1.61608 2.58864 0
1.62114 2.55347 0
1.65601 2.6132 0
1.63993 2.58564 0
1.53883 2.51497 0
1.66118 2.51423 0
1.70819 2.42721 0
1.67962 2.46461 0
1.653 2.41643 0
1.71957 2.48839 0
1.65725 2.45146 0
1.68033 2.42347 0
1.69739 2.37511 0
1.70353 2.46185 0
1.73511 2.387 0
1.71802 2.35058 0
1.67438 2.34517 0
1.67049 2.38505 0
1.74804 2.44413 0
1.81164 2.37749 0
1.73113 2.4204 0
1.77228 2.36791 0
1.82459 2.26845 0
1.76094 2.40639 0
1.80309 2.45957 0
1.77691 2.4411 0
1.76784 2.51539 0
1.80145 2.41712 0
1.77983 2.48001 0
1.8324 2.43594 0
1.81472 2.21424 0
1.7842 2.30354 0
1.78497 2.21268 0
1.76873 2.25762 0
1.76765 2.33174 0
1.79605 2.26786 0
1.7554 2.29417 0
1.72411 2.30382 0
1.8242 2.10685 0
1.80929 2.13362 0
1.90987 2.13365 0
1.84424 2.05669 0
1.86433 2.13363 0
1.82402 2.07476 0
1.83903 2.13363 0
1.88226 2.22044 0
1.84938 2.19681 0
1.84004 2.23443 0
1.87966 2.17453 0
1.8178 1.9715 0
1.85905 1.9809 0
1.85217 2.01878 0
1.88676 1.97968 0
1.91619 1.97242 0
1.92158 1.93674 0
1.95777 1.91059 0
2 1.94257 0
1.97432 1.96147 0
2 2.05737 0
1.96359 2.01874 0
1.93939 1.9962 0
2 1.86786 0
1.95991 1.84941 0
1.9735 1.82076 0
2 1.79462 0
1.93867 1.82894 0
1.93845 1.87663 0
1.97276 1.88058 0
0.976477 2.57941 0
0.997241 2.67918 0
1.04978 2.61405 0
1.06988 2.70517 0
1.03092 2.71763 0
1.10321 2.73966 0
1.12565 2.74428 0
1.11058 2.81097 0
1.11011 2.69879 0
1.04902 2.69579 0
1.02687 2.66439 0
1.08259 2.73656 0
1.09036 2.78249 0
1.0332 3 0
1.06511 2.89399 0
1.08345 2.84311 0
1.08979 2.69928 0
1.01494 2.69513 0
0.992277 2.74903 0
1.04561 2.82701 0
1.10797 2.91699 0
1.06267 2.85174 0
1.06895 2.80849 0
1.08862 2.88919 0
1.1125 2.86404 0
1.18364 2.47859 0
1.20257 2.50872 0
1.19419 2.38524 0
1.31852 2.73656 0
1.35233 2.66846 0
1.34 2.62713 0
1.31586 2.65263 0
1.37951 2.61867 0
1.29961 2.72433 0
1.30621 2.7834 0
1.2207 3 0
1.31297 2.89075 0
1.26176 2.83267 0
1.31704 2.8353 0
1.27998 2.79642 0
1.26352 2.76609 0
1.28909 2.84496 0
1.27002 3 0
1.26511 2.91587 0
1.27079 2.87311 0
1.28904 2.90402 0
1.28349 2.95454 0
1.29504 3 0
1.35675 2.7346 0
1.33785 2.75269 0
1.27525 2.48907 0
0.157643 1.41847 0
0.174645 1.49387 0
0.181485 1.55744 0
0.184996 1.58393 0
0.196064 1.53318 0
0.187399 1.53565 0
0.206612 1.54452 0
0.204888 1.501 0
0.191928 1.49035 0
0.199831 1.47547 0
0.187561 1.46807 0
0.284786 1.95929 0
0.268271 1.95808 0
0.259053 1.94038 0
0.268671 1.99475 0
0.385135 2.02448 0
0.436211 2.0745 0
0.414501 2.01729 0
0.39928 2.00839 0
0.402732 2.06559 0
0.411317 1.95679 0
0.408782 1.9885 0
0.391686 2.05233 0
0.35302 1.94855 0
0.325356 1.98714 0
0.330345 1.94846 0
0.338136 1.97963 0
0.338789 2.09219 0
0.33513 2.03569 0
0.384424 1.758 0
0.41318 1.72799 0
0.427966 1.88496 0
0.453493 1.7462 0
0.442929 1.71288 0
0.183979 2.14636 0
0.209068 2.05066 0
0.201897 2.03179 0
0.202991 2.12612 0
0.222574 2.02361 0
0.210037 2.09312 0
0.199962 2.08808 0
0.186743 2.09368 0
0.212973 2.01733 0
0.217659 2.05048 0
0.192745 2.12653 0
0.172434 2.10811 0
0.180351 2.1154 0
0.213757 1.93997 0
0.225592 1.94337 0
0.233449 1.98792 0
0.224362 1.99115 0
0.240616 2.05617 0
0.233275 2.02696 0
0.230154 2.06377 0
0.231408 2.11686 0
0.246296 2.01153 0
0.217494 2.14524 0
0.240152 2.09475 0
0.256743 2.08137 0
0.255357 2.00003 0
0.242951 1.97859 0
0.222137 2.11523 0
0.251424 2.04642 0
0.0988637 1.93488 0
0.0992172 1.87645 0
0.0928027 1.89433 0
0.102783 1.9062 0
0.0597315 1.87022 0
0.0782923 1.87697 0
0.0669119 1.74415 0
0.0632793 1.79291 0
0.0591658 1.82655 0
0.0684122 1.80296 0
0.0650827 1.83775 0
0.0541903 1.85157 0
0.0431922 1.93072 0
0.0475502 1.8829 0
0.0499814 1.85743 0
0.0684824 1.89801 0
0.0688862 1.8628 0
0.0514152 1.31409 0
0.0559348 1.2767 0
0.0526322 1.17542 0
0.0619047 1.2251 0
0.00307571 1.9982 0
0 2.13574 0
0.0042905 2.16625 0
0.00142319 1.9457 0
0.00163202 1.99669 0
0.00114414 1.97436 0
0.000723913 2.07084 0
0.000750463 2.01973 0
0.00141625 2.04644 0
0.00148814 2.09301 0
0 2.05737 0
0.00222141 2.10475 0
0.000203912 2.0437 0
0.000242025 1.99663 0
0 2.01874 0
0 2.09637 0
0.000252952 2.11601 0
8.12517e-05 2.01815 0
0.000281381 2.07923 0
0.000876419 2.13401 0
0.000620635 2.10411 0
0.00127504 2.26548 0
0.00131973 2.19701 0
0.00134431 2.16027 0
0 2.21558 0
0.000280187 2.18378 0
0.000739687 2.17748 0
0.000588224 2.23055 0
0.000411058 2.14914 0
9.05765e-05 2.15452 0
0 2.17548 0
0.00114657 2.23085 0
0.00303546 2.23354 0
0.000144709 2.22516 0
6.09163e-05 2.19453 0
0 2.25604 0
0.000265329 2.28431 0
0.000650161 2.26785 0
9.12239e-05 2.25913 0
0.0383173 1.75289 0
0.0168017 0.514387 0
0.0166585 0.495848 0
0.0102807 0.470308 0
0 0.0065918 0
0.00109863 0 0
0.000329145 0.00619612 0
0.000263812 0.000343902 0
0.000131522 0.00181375 0
8.60512e-05 0.00287708 0
0 0.00457764 0
7.34189e-05 0.00553894 0
0.00045289 0.00223826 0
0.000237633 0.000962924 0
0 0.00164795 0
0.901177 2.04249 0
0.789917 2.04517 0
0.770189 2.12787 0
0.788135 2.15424 0
0.794164 2.11764 0
0.741798 2.07716 0
0.77234 2.22861 0
0.543342 2.30138 0
0.499362 2.60596 0
0.533984 2.6143 0
0.550388 2.66701 0
0.563716 2.64628 0
0.551741 2.61033 0
0.541429 2.56743 0
0.517876 2.56789 0
0.529504 2.53707 0
0.564453 3 0
0.58967 2.61057 0
0.598081 2.58139 0
0.725962 2.71611 0
0.738196 2.63222 0
0.732386 2.53686 0
0.764077 2.56199 0
0.752486 2.59967 0
0.746223 2.56184 0
0.699345 2.95708 0
0.742676 3 0
0.72347 2.94626 0
0.722584 2.90279 0
0.743575 2.95029 0
0.761841 3 0
0.776539 2.91252 0
0.757669 2.91977 0
0.769802 2.95671 0
0.762503 2.84861 0
0.767851 2.71268 0
0.746566 2.70153 0
0.75413 2.73837 0
1.61041 2.36974 0
1.63603 2.31442 0
1.60827 2.31903 0
1.43129 2.54661 0
1.4602 2.53822 0
1.45206 2.49815 0
1.42319 2.50076 0
1.40275 2.52827 0
1.67173 2.57212 0
1.74047 2.6608 0
1.70075 2.62552 0
1.63479 2.38913 0
1.74787 2.48556 0
1.73027 2.55364 0
1.70211 2.57173 0
1.82143 2.32341 0
1.88855 2.36772 0
1.86613 2.41089 0
1.79567 2.34302 0
1.87045 2.30096 0
1.85342 2.26908 0
1.8493 2.36145 0
1.87108 2.33848 0
1.83635 2.39656 0
1.88704 2.08058 0
1.85396 2.09512 0
1.85448 1.9449 0
2 2.01874 0
1.94946 2.08543 0
1.9299 2.04316 0
1.89933 2.04498 0
1.87932 2.02123 0
1.91826 2.08012 0
1.00622 2.6336 0
0.985463 2.62248 0
1.13358 2.80506 0
0.95714 2.70296 0
0.971437 2.66284 0
0.948493 2.65934 0
1.00921 2.81483 0
1.3293 2.69325 0
1.3665 2.58439 0
1.39122 2.68363 0
1.24389 2.79763 0
1.20549 2.88684 0
1.23797 2.88074 0
1.21961 2.8338 0
1.22452 2.93757 0
1.24066 2.84107 0
1.18153 2.8024 0
1.15746 2.80557 0
1.19543 2.76011 0
1.16972 2.74896 0
1.24524 3 0
1.24861 2.95232 0
1.20383 2.80388 0
1.19185 2.84612 0
1.1678 2.84665 0
1.17236 3 0
1.15477 2.92453 0
1.15537 2.88177 0
1.13204 2.90189 0
1.17974 2.90441 0
1.12652 2.95018 0
1.17524 2.95178 0
1.14856 3 0
1.19641 3 0
1.19905 2.93567 0
1.146 2.96035 0
1.42383 3 0
0.194873 1.56875 0
0.395987 2.16223 0
0.419615 2.06141 0
0.413018 2.12115 0
0.411919 2.08751 0
0.430674 1.98025 0
0.432298 2.02757 0
0.462151 2.03478 0
0.446657 2.0437 0
0.4503 1.99181 0
0.472704 1.98349 0
0.443121 1.95529 0
0.462269 2.00222 0
0.419278 1.92783 0
0.405355 1.92555 0
0.317593 2.03487 0
0.326387 2.01843 0
0.307691 1.98974 0
0.30984 1.948 0
0.319985 1.95858 0
0.319668 2.09316 0
0.316699 2.00364 0
0.305636 2.02715 0
0.293676 2.00133 0
0.326172 2.06132 0
0.313796 2.06559 0
0.282946 2.05761 0
0.274913 2.02818 0
0.285406 2.02356 0
0.295178 2.04023 0
0.267533 2.06175 0
0.356096 2.05263 0
0.401613 1.73165 0
0.410326 1.75996 0
0.423931 1.74914 0
0.425761 1.71584 0
0.17479 2.07104 0
0.158482 2.09915 0
0.152304 2.06587 0
0.159994 2.06541 0
0.171464 2.16389 0
0.202192 2.22994 0
0.197961 2.17714 0
0.182894 2.22677 0
0.2106 2.18972 0
0.192563 2.21351 0
0.188705 2.17879 0
0.20856 2.15447 0
0.225813 2.27405 0
0.179171 2.18836 0
0.173676 2.22071 0
0.163579 2.33483 0
0.166461 2.27359 0
0.215307 2.23956 0
0.234249 2.19763 0
0.206587 2.28133 0
0.191883 2.27429 0
0.236658 2.15519 0
0.22701 2.14926 0
0.222096 2.20125 0
0.228838 2.23378 0
0.252884 2.28176 0
0.239371 2.26718 0
0.216989 2.31521 0
0.198435 2.30414 0
0.181641 2.34257 0
0.19313 2.34881 0
0.199599 2.26238 0
0.250505 2.21822 0
0.248223 2.1728 0
0.282003 2.17451 0
0.270234 2.12444 0
0.264796 2.18538 0
0.26565 2.09461 0
0.257887 2.12795 0
0.216189 2.27721 0
0.220896 2.42576 0
0.188301 2.31267 0
0.177099 2.29433 0
0.177135 2.2558 0
0.184186 2.45658 0
0.247851 2.25181 0
0.239358 2.36227 0
0.215482 2.37215 0
0.169366 2.30837 0
0.185842 2.39796 0
0.242989 2.31449 0
0.227688 2.38324 0
0.171448 2.38856 0
0.201903 2.43637 0
0.229819 2.32253 0
0.235603 2.43327 0
0.1791 2.37704 0
0.17761 2.42303 0
0.167471 2.43215 0
0.155577 2.39197 0
0.171671 2.50297 0
0.159929 2.42228 0
0.174987 2.4634 0
0.166869 2.47142 0
0.192017 2.43104 0
0.198175 2.39115 0
0.208025 2.40192 0
0.222359 2.34621 0
0.251647 2.40884 0
0.236313 2.3967 0
0.245129 2.43641 0
0.259335 2.34582 0
0.25273 2.31829 0
0.0851862 1.87442 0
0.0814164 1.84914 0
0.077274 1.93738 0
0.0420997 1.84189 0
0.0551233 1.96058 0
0.0510841 1.26046 0
0.0597907 1.29847 0
0.0644753 1.26472 0
0.0593176 1.25237 0
0.0662143 1.2391 0
0.0575256 1.21657 0
0.0659151 1.19779 0
0.0653296 1.17245 0
0.00319319 2.13603 0
0.00252668 2.18299 0
0.00496099 2.11505 0
0.00206022 2.21743 0
0.00359216 2.19903 0
0.00550731 2.24749 0
0.00519739 2.20351 0
0.00612369 2.16297 0
0.0115436 2.20507 0
0.00884655 2.173 0
0.0074167 2.21711 0
0.00620932 2.10172 0
0.00728992 2.18386 0
0.00722363 2.25769 0
0.0102483 2.26005 0
0.00936471 2.21087 0
0.0087031 2.24235 0
0 2.46387 0
0 0.00897217 0
0.000203531 0.0102997 0
0.000122472 0.013762 0
0.000574047 0.00996633 0
0.000103064 0.0078422 0
0 0.0148315 0
7.25963e-05 0.0166585 0
0 0.0221558 0
0.000424074 0.0142664 0
0.00011247 0.0234443 0
0.00026802 0.0204607 0
0.000630237 0.000546195 0
0.000552707 0.000128315 0
0.00012207 0 0
0 0.000183105 0
0.77932 2.19706 0
0.750417 2.20707 0
0.733651 2.20305 0
0.746998 2.16358 0
0.759585 2.28664 0
0.740037 2.28526 0
0.754872 2.24674 0
0.561412 2.32767 0
0.568896 2.28398 0
0.554794 2.25013 0
0.53762 2.23655 0
0.555098 2.28406 0
0.523941 2.38188 0
0.54108 2.41839 0
0.54281 2.35603 0
0.555599 2.40204 0
0.523132 2.42999 0
0.536609 2.45426 0
0.536878 2.38618 0
0.556418 2.35997 0
0.513479 2.70709 0
0.546422 2.71878 0
0.531207 2.68306 0
0.527842 2.75602 0
0.53795 2.65018 0
0.514046 2.64792 0
0.532682 2.72054 0
0.514012 2.60705 0
0.509123 2.51511 0
0.512737 2.48211 0
0.500634 2.55739 0
0.459437 2.57323 0
0.480404 2.57761 0
0.482511 2.50511 0
0.495166 2.52147 0
0.46838 2.63412 0
0.470797 2.53876 0
0.454275 2.45978 0
0.466168 2.49291 0
0.473843 2.43724 0
0.4451 2.52063 0
0.457406 2.53501 0
0.469317 2.59691 0
0.489657 2.6756 0
0.484044 2.62268 0
0.459264 2.41593 0
0.433069 2.3307 0
0.449177 2.36552 0
0.49403 2.39476 0
0.50985 2.40428 0
0.503908 2.67668 0
0.468743 2.26866 0
0.421648 2.42124 0
0.440326 2.42271 0
0.480257 2.40304 0
0.489457 2.43775 0
0.463597 2.324 0
0.448848 2.39916 0
0.432779 2.37901 0
0.430431 2.47648 0
0.460646 2.35617 0
0.485692 2.33712 0
0.506554 2.34797 0
0.446945 2.28292 0
0.441513 2.45905 0
0.430747 2.44234 0
0.476772 2.30349 0
0.493319 2.25215 0
0.505631 2.22934 0
0.512466 2.28794 0
0.524971 2.26218 0
0.473299 2.34648 0
0.494735 2.36075 0
0.44761 2.32413 0
0.459149 2.2914 0
0.49844 2.31039 0
0.525608 2.32752 0
0.529902 2.29444 0
0.53382 2.89595 0
0.723755 3 0
0.796838 2.84716 0
0.772637 2.80613 0
0.741456 2.85117 0
0.751264 2.81829 0
0.81218 2.68221 0
1.40708 2.58607 0
1.4072 2.6354 0
1.4392 2.59964 0
1.45519 2.57385 0
1.45712 2.64105 0
1.49894 2.81476 0
1.47066 2.73208 0
1.45605 2.68958 0
1.42137 2.7513 0
1.50741 2.6692 0
1.44419 2.72917 0
1.45406 2.80338 0
1.4856 2.63863 0
1.48343 2.69172 0
1.51482 2.74468 0
1.50514 2.70838 0
1.67138 2.67856 0
1.71293 2.52523 0
1.7345 2.60713 0
1.81123 2.61547 0
1.76756 2.57413 0
1.75371 2.54453 0
1.81109 2.54513 0
1.80533 2.50251 0
1.84324 2.51392 0
1.82943 2.47713 0
1.73693 2.51792 0
1.78467 2.54485 0
1.85071 2.58001 0
1.8364 2.54933 0
1.88703 2.11522 0
1.96929 2.0562 0
2 2.09637 0
1.87068 2.05346 0
0.979749 2.70961 0
0.964968 2.75559 0
0.912945 2.81984 0
0.942191 2.79993 0
0.991918 2.79132 0
0.98877 3 0
1.02082 2.90174 0
1.04201 2.87797 0
1.02521 2.84703 0
1.031 2.77596 0
1.01014 2.77077 0
1.05064 2.78719 0
1.37427 2.6568 0
1.36871 2.6986 0
1.38891 2.74251 0
1.36862 2.78942 0
1.40805 2.71504 0
1.36004 2.87367 0
1.42866 2.70309 0
1.35213 2.82751 0
1.33477 2.86768 0
0.393979 2.11065 0
0.402169 2.1341 0
0.414565 2.17546 0
0.446054 2.15772 0
0.459613 2.10081 0
0.456705 2.06658 0
0.476113 2.07337 0
0.491166 2.088 0
0.491581 2.13704 0
0.428552 2.14498 0
0.477733 2.03367 0
0.490255 2.00069 0
0.496825 1.96833 0
0.475575 2.11823 0
0.46196 2.1445 0
0.460604 2.20799 0
0.456815 2.17545 0
0.428509 2.18477 0
0.442319 2.21788 0
0.440746 2.11622 0
0.426436 2.10476 0
0.477726 2.16946 0
0.43449 2.25579 0
0.453796 2.24536 0
0.481291 2.21604 0
0.480034 2.25076 0
0.479961 1.94574 0
0.329471 2.1517 0
0.357744 2.01505 0
0.345186 2.01423 0
0.344131 2.0596 0
0.362801 2.13248 0
0.379861 2.14119 0
0.381858 2.1067 0
0.365328 2.23911 0
0.380376 2.20006 0
0.384998 2.17016 0
0.369252 2.17134 0
0.348184 2.17838 0
0.358218 2.16336 0
0.347356 2.13033 0
0.358536 2.20384 0
0.352458 2.09205 0
0.367638 2.08859 0
0.336363 2.12519 0
0.344885 2.22338 0
0.333892 2.33556 0
0.335772 2.27557 0
0.400863 2.22891 0
0.411958 2.21097 0
0.37053 2.04489 0
0.150697 2.16776 0
0.164386 2.13344 0
0.155678 2.13593 0
0.160051 2.17429 0
0.144954 2.28374 0
0.301386 2.13781 0
0.265058 2.24326 0
0.272273 2.15992 0
0.257439 2.16239 0
0.172418 2.34722 0
0.163265 2.37481 0
0.126322 2.4663 0
0.281195 2.4745 0
0.250055 2.36795 0
0.266448 2.29972 0
0.273352 2.26902 0
0.290936 2.23595 0
0.0742713 1.90485 0
0.0702691 1.93821 0
0.0619245 1.9322 0
0.0860796 2.03589 0
0.0807887 1.9089 0
0.0451883 1.8196 0
0.040949 1.80705 0
0.0419088 1.88664 0
0.0342657 1.86189 0
0.0374417 1.83355 0
0.0382504 1.86834 0
0.0349831 1.92566 0
0.0382042 1.90394 0
0.0329555 1.82229 0
0.0496042 1.93075 0
0.0543691 1.89878 0
0.0463441 1.91245 0
0.0538431 1.93014 0
0.0591222 1.90393 0
0.00425708 2.08539 0
0.0124367 2.13035 0
0.0128782 2.36833 0
0 2.37964 0
8.32161e-05 0.000124824 0
0.742646 2.13107 0
0.777892 2.31658 0
0.797184 2.34352 0
0.779686 2.35502 0
0.773002 2.26437 0
0.480977 2.82573 0
0.442966 2.62983 0
0.473023 2.68027 0
0.471036 2.75535 0
0.46768 2.71668 0
0.413862 2.46561 0
0.392793 2.40452 0
0.406264 2.42561 0
0.409741 2.35364 0
0.386981 2.48661 0
0.404218 2.38788 0
0.422755 2.35429 0
0.401385 2.48889 0
0.393847 2.44803 0
0.428807 2.5241 0
0.416362 2.60016 0
0.438178 2.57394 0
0.418811 2.5564 0
0.44883 2.59557 0
0.430202 2.60973 0
0.415979 2.70346 0
0.419777 2.65169 0
0.387179 2.64556 0
0.436078 2.69022 0
0.403574 2.635 0
0.394518 2.56478 0
0.407017 2.57273 0
0.40051 2.5289 0
0.398474 2.68927 0
0.393201 2.60716 0
0.371088 2.57886 0
0.379931 2.61001 0
0.367349 2.61857 0
0.369035 2.7313 0
0.368495 2.67459 0
0.403601 2.74048 0
0.382429 2.70145 0
0.37554 2.64483 0
0.433623 2.8027 0
0.384147 2.75739 0
0.421026 2.75932 0
0.330078 3 0
0.367885 2.87644 0
0.391953 2.72652 0
0.415033 2.81611 0
0.439366 2.7471 0
0.455189 2.74683 0
0.427791 2.72315 0
0.37995 2.82269 0
0.40992 2.77905 0
0.430986 2.90215 0
0.446285 2.714 0
0.3867 2.79321 0
0.370667 2.78188 0
0.341925 2.76681 0
0.356737 2.76131 0
0.347255 2.6993 0
0.351379 2.83101 0
0.348429 2.73655 0
0.365537 2.82732 0
0.350181 2.79252 0
0.427285 2.85089 0
0.454726 2.85818 0
0.440524 2.86825 0
0.460001 2.80242 0
0.359542 2.70384 0
0.446695 2.78483 0
0.444951 2.82732 0
0.467358 2.83897 0
0.469238 3 0
0.483341 2.9173 0
0.478462 2.87218 0
0.506463 2.87012 0
0.492467 2.88348 0
0.503345 2.93738 0
0.472885 2.79429 0
0.496797 2.76541 0
0.496361 2.71825 0
0.484639 2.7427 0
0.484497 3 0
0.476837 2.95942 0
0.491192 2.96132 0
0.463061 2.91402 0
0.446602 2.91542 0
0.43518 2.9509 0
0.454224 3 0
0.410645 3 0
0.4617 2.9599 0
0.424927 3 0
0.416351 2.94123 0
0.408445 2.87912 0
0.531738 3 0
0.396606 2.95272 0
0.418532 2.90185 0
0.40192 2.83683 0
0.387847 2.88661 0
0.515747 3 0
0.523093 2.94533 0
0.407333 2.96408 0
0.517945 2.90162 0
0.488502 2.28567 0
0.548647 2.84006 0
0.77973 2.86792 0
0.784707 2.6591 0
0.775999 2.60856 0
0.796768 2.61954 0
0.786414 2.56425 0
0.792326 2.71581 0
1.48952 2.76871 0
1.57104 2.81957 0
1.67601 2.63888 0
1.64189 2.72433 0
1.70678 2.67906 0
1.74871 2.77831 0
1.73541 2.72075 0
1.6888 2.7525 0
1.77735 2.73027 0
1.70773 2.7215 0
1.71839 2.7667 0
1.64258 3 0
1.71469 2.89203 0
1.72446 2.8296 0
1.75465 2.74258 0
1.75931 2.69487 0
1.77719 2.64338 0
1.6767 2.8439 0
1.69521 2.80212 0
1.66987 2.78433 0
1.79269 2.88906 0
1.81059 2.67351 0
1.78624 2.69163 0
1.78497 2.60478 0
1.70257 2.85407 0
1.76613 2.83771 0
1.88433 2.67604 0
1.74669 2.81549 0
1.74237 2.86961 0
1.74621 2.9356 0
1.84774 2.64529 0
1.84059 2.69237 0
1.88371 2.61585 0
1.83666 2.61134 0
1.87171 2.64613 0
1.9398 2.64467 0
2 2.46387 0
1.9079 2.64535 0
1.92936 2.45229 0
1.89332 2.44417 0
1.9021 2.5274 0
1.92317 2.58422 0
1.91665 2.40274 0
1.90716 2.48365 0
1.87806 2.4994 0
1.87185 2.54474 0
2 2.37964 0
1.94189 2.32654 0
1.90504 2.31862 0
1.96083 2.40921 0
1.92009 2.35891 0
1.95136 2.36769 0
2 2.33807 0
1.9725 2.31743 0
2 2.21558 0
1.94452 2.24689 0
1.9513 2.28701 0
1.92311 2.19327 0
1.9178 2.27583 0
1.91405 2.23364 0
0.916822 2.73875 0
0.941162 2.74189 0
0.934844 2.69711 0
0.940846 2.89931 0
0.988577 2.87315 0
1.00836 2.86934 0
0.335888 2.18444 0
0.353332 2.31138 0
0.383631 2.25666 0
0.150879 2.33603 0
0.15488 2.24883 0
0.154162 2.20657 0
0.138437 2.21473 0
0.146649 2.23058 0
0.144922 2.19367 0
0.140439 2.1441 0
0.147711 2.12995 0
0.307387 2.10255 0
0.315512 2.13981 0
0.307583 2.2 0
0.308054 2.165 0
0.295245 2.18064 0
0.28592 2.12273 0
0.295007 2.09503 0
0.277733 2.09343 0
0.259887 2.21451 0
0.275108 2.21365 0
0.285039 2.2075 0
0.28071 2.24376 0
0.142129 2.44489 0
0.151061 2.43669 0
0.272139 2.40523 0
0.30959 2.29715 0
0.0620008 1.98816 0
0.0792864 1.994 0
0.0334717 1.78634 0
0.0110725 2.16453 0
0.00969668 2.12398 0
0.0112763 2.09607 0
0.0149074 2.08715 0
0.0119898 2.05923 0
0.0104573 2.03229 0
0.00861088 2.09511 0
0.00867176 2.0134 0
0.0107086 2.31996 0
0 2.33807 0
0.455223 2.65054 0
0.41677 2.38689 0
0.432517 2.65267 0
0.314089 2.60724 0
0.334306 2.82105 0
0.326988 2.77438 0
0.332403 2.72142 0
0.298278 2.72197 0
0.310789 2.76028 0
0.323579 2.90715 0
0.33189 2.64689 0
0.320905 2.73654 0
0.340162 2.88211 0
0.324848 2.8573 0
0.336467 2.68367 0
0.341855 2.84589 0
0.355957 3 0
0.353875 2.87853 0
0.348237 2.94038 0
0.335505 2.92655 0
0.305176 3 0
0.342896 3 0
0.324838 2.95528 0
0.308405 2.93684 0
0.317505 3 0
0.307016 2.86967 0
0.367761 2.94477 0
0.293091 3 0
0.313073 2.90159 0
0.300248 2.8106 0
0.358387 2.91765 0
0.357595 2.96113 0
0.30842 2.83238 0
0.309168 2.79588 0
0.298837 2.76624 0
0.279184 2.74749 0
0.277075 2.88388 0
0.28714 2.93715 0
0.291317 2.86008 0
0.284217 2.80509 0
0.286863 2.89656 0
0.288194 2.76788 0
0.281193 2.84512 0
0.25299 2.82083 0
0.266344 2.84335 0
0.270565 2.79076 0
0.236328 3 0
0.264042 2.7363 0
0.258301 3 0
0.272751 2.71757 0
0.285841 2.68101 0
0.231221 2.65195 0
0.25888 2.77923 0
0.242972 2.72204 0
0.252889 2.74132 0
0.25405 2.68 0
0.258856 2.91818 0
0.287376 2.72116 0
0.302523 2.65779 0
0.277759 2.57849 0
0.261722 2.70058 0
0.241981 2.67295 0
0.251533 2.57921 0
0.249644 2.63059 0
0.264547 2.61274 0
0.237234 2.59708 0
0.258897 2.64537 0
0.26622 2.88661 0
0.254411 2.87083 0
0.272303 2.93997 0
0.238765 2.85303 0
0.295788 2.68567 0
0.264445 2.55855 0
0.27772 2.63497 0
0.239922 2.53215 0
0.214205 2.58689 0
0.262581 2.95941 0
0.269653 3 0
0.279957 2.96226 0
0.275735 2.52455 0
0.290695 2.63587 0
0.242687 2.56724 0
0.253391 2.5263 0
0.233918 2.4851 0
0.225171 2.60764 0
0.228858 2.55796 0
0.212311 2.66713 0
0.22109 2.64666 0
0.298835 2.54022 0
0.264185 2.47826 0
0.227369 2.45531 0
0.288136 2.51357 0
0.287807 2.55643 0
0.287507 2.59685 0
0.300601 2.60371 0
0.301957 2.48332 0
0.2637 2.51827 0
0.272864 2.4912 0
0.255177 2.49052 0
0.300611 2.38684 0
0.305583 2.43412 0
0.322918 2.39529 0
0.289722 2.42741 0
0.316379 2.42593 0
0.291917 2.46594 0
0.285053 2.37379 0
0.278969 2.43574 0
0.29617 2.33144 0
0.27444 2.34054 0
0.310342 2.34782 0
0.295686 2.28208 0
0.285177 2.33528 0
0.267547 2.3701 0
0.31184 2.38573 0
0.321002 2.32059 0
0.321149 2.35802 0
0.321665 2.27496 0
0.309199 2.24817 0
0.32019 2.23773 0
0.300914 2.22675 0
0.499438 2.81922 0
0.522857 2.82157 0
0.524324 2.86343 0
0.51149 2.78677 0
0.509409 2.74617 0
0.396606 3 0
0.404981 2.92013 0
0.389876 2.84635 0
0.378682 2.86177 0
0.557613 2.80689 0
0.563296 2.91423 0
0.768621 2.67334 0
1.53526 2.79735 0
1.51315 2.78355 0
1.5328 2.89777 0
1.52404 2.84666 0
1.55315 2.86027 0
1.58643 3 0
1.61321 2.90101 0
1.58603 2.86856 0
1.57803 2.93398 0
1.55893 2.90323 0
1.54224 2.94911 0
1.55872 3 0
1.61969 2.83955 0
1.64698 2.87874 0
1.60283 2.78087 0
1.64923 2.83362 0
1.64215 2.9388 0
1.67953 2.90035 0
1.62111 2.80274 0
1.56349 2.73066 0
1.5379 2.69364 0
1.61438 3 0
1.69971 3 0
1.54085 2.75428 0
1.56511 2.77542 0
1.57331 2.67136 0
1.53416 2.64359 0
1.61294 2.95032 0
1.67102 3 0
1.68533 2.95223 0
1.717 2.95674 0
1.66535 2.93123 0
1.72864 3 0
1.60206 2.71527 0
1.59257 2.62721 0
1.52513 2.6066 0
1.59184 2.96346 0
1.58008 2.70592 0
1.6004 2.66835 0
1.61752 2.62753 0
1.64721 2.68659 0
1.66938 2.72153 0
1.81907 2.81427 0
1.81689 3 0
1.76423 2.89962 0
1.78723 3 0
1.78592 2.94378 0
1.76416 2.96216 0
2 2.54956 0
1.95346 2.51607 0
1.93399 2.48945 0
1.96583 2.47166 0
2 2.50653 0
2 2.42157 0
1.9532 2.44185 0
1.89351 2.57478 0
1.962 2.20072 0
2 2.17548 0
1.94765 2.1517 0
1.97595 2.15556 0
1.92355 2.1607 0
1.93585 2.11787 0
1.88668 2.26326 0
0.923172 2.78095 0
0.933344 2.8489 0
0.959925 2.85853 0
0.956478 2.82183 0
0.994674 2.93619 0
1.01086 3 0
1.022 2.95338 0
1.07861 3 0
1.04593 2.93121 0
1.10168 3 0
1.08345 2.94428 0
0.968613 2.91443 0
1.10323 2.95786 0
1.05579 3 0
0.949794 2.94805 0
0.966919 3 0
0.975561 2.95777 0
0.341605 2.30765 0
0.351084 2.38501 0
0.369786 2.43215 0
0.380954 2.45126 0
0.352365 2.26412 0
0.388837 2.22485 0
0.376204 2.2312 0
0.369808 2.29157 0
0.363986 2.32104 0
0.401646 2.29305 0
0.41795 2.3067 0
0.419521 2.26377 0
0.385493 2.30558 0
0.391538 2.35318 0
0.430569 2.29261 0
0.400658 2.32904 0
0.380381 2.38142 0
0.13612 2.34184 0
0.1623 2.24465 0
0.154119 2.29351 0
0.320655 2.1861 0
0.065588 1.95985 0
0.0596371 1.96023 0
0.0527945 2.04906 0
0.0476722 1.99509 0
0.0503829 1.96594 0
0.0456935 1.96147 0
0.0535493 2.00399 0
0.0387796 2.00928 0
0.0428946 1.99272 0
0.0589917 2.03189 0
0.0386344 1.96087 0
0.0441607 2.06146 0
0.0450197 2.02504 0
0.0597223 2.11647 0
0.0345671 1.96179 0
0.0575905 2.07477 0
0.0520046 2.09559 0
0.0486785 2.06844 0
0.054413 2.13525 0
0.0517754 2.27255 0
0.0626053 2.21271 0
0.0516765 2.20166 0
0.0596404 2.16675 0
0.0516244 2.16474 0
0.057066 2.20397 0
0.0541003 2.23675 0
0.0606661 2.28572 0
0.0563861 2.26875 0
0.0589746 2.23762 0
0.0754064 1.96947 0
0.0895228 1.97513 0
0.0149337 2.12544 0
0.0151726 2.18524 0
0.0132704 2.16363 0
0.0229336 2.046 0
0.0183113 2.01194 0
0.01692 1.97607 0
0.0235903 1.95759 0
0.0198699 1.95373 0
0.021412 1.99218 0
0.0220444 1.90999 0
0.0156536 2.00926 0
0.0167313 2.05076 0
0.0181499 2.09124 0
0.0197006 2.04637 0
0.0189705 1.91331 0
0.0282028 1.91269 0
0.0310061 1.94076 0
0.0272009 1.95055 0
0.0249811 1.92386 0
0.026213 2.0043 0
0.0221844 1.8701 0
0.0263562 1.8569 0
0.0281256 1.9802 0
0.0249145 1.88852 0
0.0302328 1.85188 0
0.0313104 1.88883 0
0.00954858 2.2923 0
0.338849 2.54157 0
0.369263 3 0
0.382004 2.95059 0
0.297698 2.95754 0
0.298928 2.90575 0
0.310963 2.69909 0
0.323128 2.68186 0
0.320207 2.64199 0
0.239489 2.78834 0
0.215332 3 0
0.21438 2.50971 0
0.223823 2.49447 0
0.538146 2.80359 0
0.54993 2.88629 0
0.566333 2.8641 0
0.596056 2.90346 0
0.591706 2.84585 0
0.578984 2.89567 0
0.614732 2.89479 0
0.598145 3 0
0.619364 2.9525 0
0.581177 3 0
0.58963 2.95274 0
0.604416 2.96213 0
0.605759 2.86157 0
1.59656 2.8212 0
1.62514 2.75751 0
1.58665 2.74845 0
1.62369 2.70022 0
1.79869 2.77149 0
1.79017 2.81355 0
1.96676 2.59478 0
1.93006 2.54281 0
1.95738 2.55617 0
1.97136 2.11504 0
1.06289 2.95823 0
0.346338 2.34625 0
0.336556 2.38149 0
0.342002 2.46021 0
0.329982 2.43542 0
0.342975 2.41796 0
0.355368 2.44218 0
0.355819 2.50723 0
0.370832 2.49074 0
0.36065 2.47423 0
0.367089 2.53472 0
0.353576 2.57152 0
0.381142 2.54549 0
0.3497 2.5374 0
0.338874 2.59665 0
0.326452 2.60442 0
0.38935 2.52111 0
0.343569 2.63501 0
0.395707 2.26144 0
0.143141 2.32257 0
0.144094 2.38196 0
0.150424 2.36938 0
0.131814 2.40423 0
0.13685 2.37821 0
0.161523 2.30065 0
0.0724376 2.07792 0
0.0648546 2.06432 0
0.0688121 2.14231 0
0.0702408 2.02996 0
0.0673901 2.10177 0
0.0634761 2.14187 0
0.0660541 2.17904 0
0.0713579 2.23196 0
0.0776392 2.04168 0
0.0740496 2.00537 0
0.066514 2.0049 0
0.0637055 2.03192 0
0.0837273 1.95117 0
0.085145 2.00022 0
0.105443 2.03823 0
0.115061 2.00166 0
0.120019 1.97992 0
0.0919271 1.93893 0
0.0147134 2.2582 0
0.0233577 2.22232 0
0.0234347 2.01417 0
0.0318332 2.09196 0
0.376546 2.90977 0
0.234484 2.81967 0
0.243815 2.82152 0
0.225954 2.74114 0
0.224852 2.69245 0
0.233229 2.71357 0
0.220887 2.90742 0
0.218745 2.54833 0
1.94265 2.60813 0
1.96957 2.63739 0
2 2.72534 0
2 2.68085 0
1.9579 2.70305 0
1.9194 2.69836 0
1.97423 2.67393 0
1.87756 2.76889 0
1.85244 2.73751 0
1.8325 2.77258 0
1.88238 2.7225 0
1.93406 2.77915 0
1.90755 2.7519 0
1.93662 2.73478 0
2 2.7702 0
1.96899 2.74943 0
1.96602 2.80063 0
1.91736 2.89554 0
1.93447 2.83982 0
1.90273 2.80987 0
2 2.90698 0
1.86106 2.82916 0
1.95914 2.89036 0
2 2.86102 0
1.93799 3 0
2 2.95331 0
1.96887 3 0
1.9534 2.94704 0
1.9648 2.84569 0
1.97504 2.92288 0
1.9394 2.9148 0
2 2.59296 0
0.124983 2.35622 0
0.133668 2.44663 0
0.0654979 2.25461 0
0.092947 2.28025 0
0.0955798 2.02022 0
0.104879 1.98115 0
0.12133 2.09921 0
0.132855 2.09033 0
0.138539 2.11087 0
0.0138488 2.22 0
0.0123658 2.24962 0
0.0129336 2.29427 0
0.0127568 2.33112 0
0.0213105 2.34304 0
0.0168915 2.31754 0
0.0151844 2.2926 0
0.0194349 2.18891 0
0.017093 2.22477 0
0.0201149 2.22847 0
0.0183514 2.27201 0
0.0197526 2.30776 0
0.0251076 2.29281 0
0.022191 2.26464 0
0.0306924 2.03626 0
0.229998 2.77841 0
0.198505 2.77644 0
0.227338 2.8653 0
1.85568 2.79056 0
1.83208 2.87342 0
1.83756 2.83762 0
1.80762 2.85303 0
1.8736 2.89227 0
1.85611 2.86576 0
0.129414 2.32649 0
0.134582 2.28217 0
0.139905 2.2531 0
0.126528 2.23399 0
0.128446 2.26708 0
0.120276 2.41285 0
0.080945 2.27186 0
0.107766 2.32631 0
0.0932103 2.07767 0
0.0825052 2.10321 0
0.0822944 2.0655 0
0.111409 1.97131 0
0.105467 1.94452 0
0.0970752 1.9761 0
0.101578 2.01061 0
0.108641 2.00861 0
0.124419 2.03985 0
0.131013 2.0231 0
0.128558 2.14405 0
0.0172884 2.38762 0
0.0173173 2.16958 0
0.0251902 2.13913 0
0.0212623 2.12085 0
0.0213134 2.08079 0
0.0258392 2.08675 0
0.019992 2.15326 0
0.0238566 2.11026 0
0.0285358 2.11738 0
0.0370915 2.1948 0
0.0334135 2.14788 0
0.0267004 2.04567 0
0.0288928 2.0725 0
0.0277082 2.3673 0
0.0283736 2.24362 0
0.025157 2.25292 0
0.0358524 2.05503 0
0.0343819 2.01654 0
0.0326092 2.06131 0
0.0372781 2.10743 0
0.0400203 2.04608 0
0.0405739 2.08354 0
0.0424435 2.13419 0
0.045553 2.10149 0
0.0452811 2.18375 0
0.0349648 2.0849 0
0.0339945 2.11607 0
0.0379538 2.15 0
0.0408916 2.17786 0
0.0455214 2.15191 0
0.0466077 2.23744 0
0.0411228 2.22663 0
0.0415866 2.33556 0
0.0353188 2.25233 0
0.0455659 2.29218 0
0.0375545 2.22729 0
0.0430944 2.26046 0
0.0516683 2.37096 0
0.0554055 2.32372 0
0.0471283 2.33951 0
0.0658405 2.40848 0
0.0437059 2.40577 0
0.0631952 2.34677 0
0.0470774 2.37925 0
0.0482385 2.42092 0
0.0569115 2.43402 0
0.0522443 2.43857 0
0.059965 2.32074 0
0.0576041 2.36819 0
0.0548088 2.39935 0
0.0620684 2.38337 0
0.213234 2.77738 0
1.82701 2.9371 0
1.81588 2.90258 0
1.8079 2.96294 0
1.8468 3 0
1.84778 2.90863 0
1.873 2.94606 0
1.90735 3 0
1.9121 2.94749 0
1.8966 2.85769 0
0.126505 2.42875 0
0.125534 2.39148 0
0.110437 2.484 0
0.0746471 2.26721 0
0.117072 2.32639 0
0.112392 2.25258 0
0.112357 2.37653 0
0.11238 2.2938 0
0.118792 2.2732 0
0.102724 2.27306 0
0.119096 2.37585 0
0.0987352 2.38552 0
0.111138 2.42982 0
0.105141 2.36591 0
0.0980613 2.32735 0
0.104775 2.40829 0
0.0986035 2.42654 0
0.103349 2.46311 0
0.1177 2.45977 0
0.102794 2.30722 0
0.0856538 2.3436 0
0.0871262 2.41506 0
0.0931724 2.40533 0
0.0925148 2.35927 0
0.0875157 2.37824 0
0.0760422 2.38487 0
0.0909256 2.31922 0
0.0866092 2.28919 0
0.0916055 2.04508 0
0.103049 2.09455 0
0.0989166 2.05485 0
0.0893558 2.11403 0
0.0873595 2.08139 0
0.0825939 2.18704 0
0.087324 2.23359 0
0.0843552 2.14484 0
0.0784569 2.22647 0
0.0764148 2.13615 0
0.0907746 2.17752 0
0.0723449 2.11298 0
0.0740851 2.18431 0
0.103234 2.1967 0
0.0784273 2.16673 0
0.069752 2.20027 0
0.0975042 2.17395 0
0.095709 2.22409 0
0.105308 2.1452 0
0.0920648 2.24808 0
0.102082 2.23452 0
0.10095 2.12422 0
0.115746 2.18495 0
0.111888 2.1095 0
0.108959 2.17671 0
0.109422 2.21618 0
0.118035 2.14101 0
0.114715 2.05853 0
0.120833 2.06673 0
0.118121 2.03051 0
0.108244 2.07131 0
0.127529 2.11091 0
0.130234 2.19035 0
0.137309 2.17785 0
0.123088 2.17295 0
0.0183941 2.35095 0
0.0231045 2.17704 0
0.0280846 2.18616 0
0.0279444 2.32284 0
0.0245153 2.33293 0
0.0281734 2.28033 0
0.0316204 2.25908 0
0.0366454 2.30568 0
0.0341843 2.28322 0
0.0330749 2.35301 0
0.0408145 2.29535 0
0.033598 2.31983 0
0.0372785 2.34747 0
0.0404781 2.37605 0
0.0506285 2.31172 0
0.213908 2.72179 0
0.199157 2.70226 0
0.205896 2.7477 0
0.207441 2.69756 0
0.205557 2.85551 0
0.216252 2.86295 0
0.212157 2.8218 0
0.2028 2.81437 0
0.179842 2.84617 0
0.192473 2.8515 0
0.187025 2.79904 0
0.158203 3 0
0.197973 2.92352 0
0.194492 2.81426 0
0.18815 2.73726 0
0.171697 2.7808 0
0.185081 2.90482 0
0.198561 2.88176 0
0.196497 2.7388 0
0.187765 2.68081 0
0.178503 2.80518 0
0.179999 2.76046 0
0.17627 3 0
0.165823 2.91149 0
0.175249 2.59976 0
0.167157 2.68662 0
0.171709 2.73085 0
0.177381 2.68931 0
0.156867 2.74037 0
0.180931 2.64189 0
0.164721 2.75573 0
0.170902 2.64241 0
0.151678 2.57013 0
0.159335 2.52109 0
0.162636 2.59657 0
0.138465 2.52379 0
0.148522 2.49421 0
0.138142 2.48152 0
0.188866 2.95547 0
0.177969 2.94612 0
0.185669 3 0
0.175192 2.89896 0
0.167114 3 0
0.167661 2.85145 0
0.162628 2.95708 0
0.170515 2.96265 0
0.141113 3 0
0.149536 2.94682 0
0.169365 2.55449 0
0.159367 2.56038 0
0.149942 2.65799 0
0.146472 2.53586 0
0.155661 2.49022 0
0.166187 2.81103 0
0.153988 2.6155 0
0.159551 2.65532 0
0.155123 2.69518 0
1.84846 2.95966 0
0.0694554 2.36604 0
0.0751289 2.33452 0
0.0772537 2.29997 0
0.0678223 2.33004 0
0.0799727 2.35596 0
0.0823867 2.31363 0
0.0263663 2.21592 0
0.0324161 2.19213 0
0.0297275 2.15268 0
0.0330933 2.48005 0
0.0375734 2.43394 0
0.0356813 2.39109 0
0.2052 3 0
0.210236 2.94386 0
0.200226 2.96444 0
0.209562 2.89767 0
0.220784 2.95679 0
0.225708 3 0
0.129101 2.79184 0
0.140586 2.73369 0
0.148793 2.72508 0
0.146865 2.78891 0
0.149536 3 0
0.132935 2.91224 0
0.0410449 2.51337 0
0.154436 2.77924 0
0.137788 2.78087 0
0.13584 2.84675 0
0.139939 2.94713 0
0.144635 2.88814 0
0.132935 3 0
0.128937 2.95596 0
0.0957031 3 0
0.112695 2.8762 0
0.122003 2.90621 0
0.137665 2.88405 0
0.155132 2.89769 0
0.14481 2.83769 0
0.128041 2.87026 0
0.109863 3 0
0.156463 2.9357 0
0.161732 2.87739 0
0.113148 2.93946 0
0.120625 2.95779 0
0.11731 3 0
0.115937 2.90692 0
0.0995553 2.91156 0
0.104789 2.9549 0
0.106982 2.90843 0
0.103726 2.84918 0
0.0978224 2.95601 0
0.0812319 2.90202 0
0.0825195 3 0
0.0900361 2.91838 0
0.102661 3 0
0.114008 2.78718 0
0.0964441 2.86537 0
0.0868468 2.84657 0
0.0841669 2.94919 0
0.0755224 2.94982 0
0.0889893 3 0
0.110663 2.83002 0
0.119881 2.83949 0
0.103979 2.78369 0
0.0864363 2.88673 0
0.0762939 3 0
0.0650199 2.83326 0
0.0915239 2.96032 0
0.126654 2.83005 0
0.121384 2.79541 0
0.124137 2.7162 0
0.124718 2.75795 0
0.131935 2.73364 0
0.136241 2.66775 0
0.130258 2.693 0
0.141367 2.60793 0
0.140453 2.56518 0
0.126533 2.56188 0
0.133176 2.59113 0
0.120703 2.51424 0
0.133468 2.55214 0
0.130055 2.50859 0
0.101296 2.81593 0
0.089098 2.68012 0
0.0488281 3 0
0.0718798 2.88181 0
0.109676 2.70459 0
0.0946369 2.74245 0
0.0758376 2.90894 0
0.059082 3 0
0.109251 2.75075 0
0.11704 2.74048 0
0.102116 2.72505 0
0.100651 2.64034 0
0.0961539 2.69447 0
0.103495 2.68109 0
0.100511 2.55011 0
0.112548 2.63431 0
0.103903 2.50879 0
0.111701 2.5578 0
0.109878 2.52146 0
0.097766 2.77717 0
0.06708 2.93726 0
0.11904 2.55539 0
0.115715 2.59455 0
0.0708082 2.96152 0
0.0426572 2.4599 0
0.0384117 2.47714 0
0.045421 2.49598 0
0.0500339 2.65071 0
0.0464884 2.57571 0
0.0446945 2.53709 0
0.152981 2.85263 0
0.143669 2.68877 0
0.142605 2.64702 0
0.1324 2.63201 0
0.0783208 2.84419 0
0.0829559 2.76696 0
0.0716474 2.82919 0
0.0766934 2.793 0
0.0744528 2.71208 0
0.0773938 2.74965 0
0.0829215 2.71294 0
0.0676147 2.76279 0
0.0680026 2.80183 0
0.08271 2.81195 0
0.0892159 2.79114 0
0.0880265 2.73973 0
0.080101 2.64379 0
0.0786867 2.68397 0
0.117529 2.67867 0
0.124191 2.67488 0
0.105261 2.59475 0
0.0652211 2.8861 0
0.0560837 2.86197 0
0.0587806 2.92985 0
0.0610638 2.86065 0
0.0645752 3 0
0.122876 2.59732 0
0.0656682 2.6952 0
0.0573471 2.77631 0
0.0584007 2.82082 0
0.0625014 2.79073 0
0.0535938 2.80601 0
0.0494148 2.73218 0
0.0503119 2.77435 0
0.0899232 2.60028 0
0.0974272 2.59598 0
0.0498747 2.91935 0
0.053833 3 0
0.0513 2.96179 0
0.0625312 2.95955 0
0.0693125 2.72421 0
0.0708113 2.67903 0
0.0595526 2.62541 0
0.0617458 2.73772 0
0.0583468 2.68428 0
0.0626435 2.6598 0
0.0551056 2.64936 0
0.0534808 2.5877 0
0.0517023 2.52601 0
0.0552402 2.48353 0
0.0526902 2.69309 0
0.0546144 2.73613 0
0.0639335 2.47562 0
0.0593069 2.46579 0
0.0865427 2.63868 0
0.0934518 2.64384 0
0.054528 2.90463 0
0.0493241 2.60895 0
0.0503727 2.56147 0
0.0604183 2.54232 0
0.0563297 2.52135 0
0.0765941 2.53477 0
0.0735371 2.45539 0
0.0586305 2.58278 0
0.0654434 2.59521 0
0.0655815 2.63151 0
0.0727599 2.58334 0
0.0754111 2.61958 0
0.0682144 2.5323 0
0.074982 2.65712 0
0.064712 2.55827 0
0.0725338 2.49982 0
0.0689362 2.47278 0
0.0637487 2.51389 0
0.0597006 2.5 0
0.787153 0.437015 0
0.774199 0.425659 0
0.289828 0.271082 0
0.406255 0.247495 0
0.200568 0.15283 0
0.159859 0.263289 0
0.939745 0.380142 0
0.953501 0.36995 0
0.16443 0.448537 0
0.343029 0.0407033 0
0.353464 0.0442216 0
0.341726 0.036022 0
0.154688 0.683577 0
0.157254 0.665692 0
0.146526 0.677499 0
0.155769 0.701617 0
0.361769 0.542544 0
0.372975 0.552226 0
0.372496 0.523575 0
0.346353 0.532044 0
0.359721 0.508054 0
0.350538 0.549005 0
0.343587 0.51136 0
0.367025 0.496275 0
0.35755 0.525572 0
0.293091 0 0
0.2945 0.00023787 0
0.283004 0.000172745 0
0.269653 0 0
0.268012 0.000454793 0
0.257123 0.000631558 0
0.259975 0.000161785 0
0.273007 0.000123418 0
0.736608 0.0642329 0
0.744997 0.0707937 0
0.780356 0.065269 0
0.7646 0.0697484 0
0.79992 0.0618573 0
0.78289 0.0765732 0
0.8042 0.0725781 0
0.803277 0.0817364 0
0.788188 0.0706088 0
0.752717 0.0574265 0
0.762517 0.0629712 0
0.779309 0.0567169 0
0.737644 0.0587668 0
0.765314 0.054419 0
0.20198 0.0508651 0
0.598145 0 0
0.600264 0.000369886 0
0.615356 0 0
0.624054 0.000116204 0
0.581177 0 0
0.572784 0.00013796 0
0.58831 0.000123478 0
0.547974 0 0
0.466102 0.00669836 0
0.4604 0.00419956 0
0.444628 0.00701419 0
0.431918 0.00946505 0
0.444185 0.0110796 0
0.473506 0.00230557 0
0.455879 0.00777073 0
0.454536 0.00572969 0
0.433289 0.00748622 0
0.427906 0.0127891 0
0.471457 0.00350955 0
0.439453 0 0
0.414465 0.0136033 0
0.426149 0.0166802 0
0.431474 0.000943775 0
0.411179 0.00145076 0
0.410645 0 0
0.394637 0.0009046 0
0.392915 0.000180759 0
0.454325 0.00234761 0
0.417319 0.0195454 0
0.435124 0.0189386 0
0.399864 0.00158883 0
0.396606 0 0
0.437355 0.00207711 0
0.424225 0.00173469 0
0.428554 0.00309983 0
0.424062 0.00456285 0
0.411554 0.00543457 0
0.436574 0.00534994 0
0.488027 0.00301425 0
0.494631 0.0018982 0
0.415003 0.000360704 0
0.40262 0.000436547 0
0.419337 0.00088044 0
0.43157 0.000209951 0
0.469238 0 0
0.424927 0 0
0.484497 0 0
0.476837 0.000286543 0
0.489429 0.000421951 0
0.454224 0.000231783 0
0.469709 0.00102457 0
0.465937 0.00012095 0
0.442982 0.000115217 0
0.454224 0 0
0.451011 0.0010142 0
0.441752 0.000527406 0
2 0.703857 0
1.00485 1.17296 0
0.0672823 0.933044 0
1.95939 0.41367 0
2 0.40448 0
1.97 0.396413 0
1.97253 0.428987 0
2 0.439636 0
0.0550669 0.28705 0
0.059206 0.293578 0
0.0454618 0.278658 0
0.049051 0.267517 0
0.0443041 0.264793 0
0.0502874 0.281504 0
0.0384019 0.276809 0
0.0335201 0.27187 0
0.0466696 0.297952 0
0.048303 0.311537 0
0.0540386 0.306196 0
0.0389415 0.260938 0
0.0346998 0.285716 0
0.0415136 0.290974 0
0.051167 0.295042 0
0.0353284 0.261704 0
0.0403434 0.303882 0
0.0579897 0.274401 0
1.69207 0.872519 0
1.66769 0.86572 0
1.85646 0.916764 0
1.82224 0.928536 0
1.83537 0.952995 0
1.82818 0.898421 0
1.83774 0.872547 0
1.79956 0.899367 0
1.74369 0.111175 0
1.28998 1.14927 0
1.26552 1.15047 0
1.27669 1.12173 0
1.25596 1.11972 0
1.31286 1.13685 0
1.29398 1.18132 0
1.31777 1.18017 0
1.79058 1.11709 0
1.8359 1.08377 0
1.81404 1.09973 0
1.84706 1.10974 0
1.86862 1.16869 0
1.85062 1.14145 0
1.83393 1.17095 0
1.82199 1.20071 0
1.8614 1.20665 0
2 1.05762 0
1.81175 1.05697 0
1.88355 1.0461 0
1.8691 1.01031 0
1.8475 1.05168 0
2 1.00269 0
1.92233 0.960592 0
1.87925 0.951084 0
1.86654 1.07546 0
1.8625 1.03272 0
1.92696 1.01151 0
1.88214 0.981543 0
1.8981 1.00398 0
1.91965 0.986238 0
1.96069 0.990472 0
2 0.975769 0
1.85653 0.939493 0
1.96128 0.95644 0
2 0.84668 0
1.93196 0.89159 0
1.88815 0.869607 0
1.86227 0.864014 0
1.86775 0.890857 0
1.89933 0.915558 0
2 0.897217 0
1.93733 0.928027 0
1.911 0.937869 0
1.92325 0.910905 0
1.93859 0.841743 0
1.9025 0.89093 0
1.96435 0.906641 0
2 0.871765 0
1.96731 0.859177 0
1.93789 0.866721 0
1.96011 0.882509 0
2 0.923035 0
1.97097 0.931732 0
1.89062 0.828234 0
1.89516 0.782789 0
1.85925 0.82296 0
1.87416 0.76637 0
1.88029 0.804547 0
1.84107 0.806672 0
1.90829 0.849551 0
1.92648 0.807485 0
1.86444 0.786634 0
1.91757 0.827918 0
2 0.797607 0
1.94735 0.766543 0
1.91066 0.748077 0
1.89223 0.726305 0
1.94593 0.71554 0
1.93355 0.694195 0
1.88543 0.707628 0
1.9213 0.72743 0
1.95017 0.740766 0
1.96742 0.696133 0
1.97185 0.755058 0
2 0.773621 0
2 0.726746 0
2 0.681335 0
1.97005 0.785568 0
1.9746 0.716568 0
1.97523 0.671087 0
1.94148 0.788302 0
1.96742 0.818004 0
1.97504 0.838477 0
1.94305 0.82215 0
1.91854 0.769543 0
1.91288 0.707749 0
0.934649 0.131157 0
0.322758 0.757901 0
0.334339 0.753977 0
0.311946 0.748764 0
0.000257361 0.836113 0
9.64174e-05 0.855226 0
0 0.871765 0
0.00018046 0.805734 0
0.000416036 0.790751 0
0 0.773621 0
0 0.82196 0
0.000891774 0.78349 0
8.17995e-05 0.823264 0
0.00068586 0.763284 0
7.77893e-05 0.785434 0
0.0467753 1.13306 0
0.0487187 1.1587 0
0.0427629 1.12991 0
0.0514154 1.12941 0
0.00943023 0.686513 0
0.00821375 0.669211 0
0.00956406 0.655656 0
0 0.533936 0
0.000151918 0.553894 0
0.000552025 0.556225 0
0.000382801 0.528964 0
0.000240099 0.502457 0
7.48585e-05 0.569131 0
0.000717727 0.540044 0
0.00010274 0.535891 0
0.000494447 0.513392 0
8.06781e-05 0.49101 0
0 0.553894 0
0 0.514343 0
0.000101466 0.517671 0
0.0521443 0.0138461 0
0.247192 0 0
1.24878 1.74682 0
0.00138347 0.259519 0
0.0554302 0.0008779 0
1.91372 1.35908 0
2 1.35425 0
1.9589 1.38411 0
2 1.38593 0
1.95546 1.33506 0
1.92238 1.39833 0
1.9051 1.42298 0
1.88835 1.39095 0
1.87872 1.41727 0
1.94199 1.36059 0
1.97187 1.3584 0
2 1.32294 0
1.92362 1.32728 0
1.89204 1.32027 0
1.89079 1.55981 0
0.000671703 1.49744 0
0 1.48315 0
0.000259715 1.45256 0
0.000293582 1.42444 0
0.00101927 1.45391 0
0.000167489 1.49056 0
0 1.5163 0
0.000278914 1.54049 0
0.000335146 1.51304 0
0.000569445 1.46942 0
0.00199018 1.49483 0
0.00104792 1.42384 0
0 1.61792 0
0.00200306 1.45657 0
0.00122928 1.48311 0
0.00130047 1.54781 0
0.00131394 1.51519 0
0 1.58368 0
0.00289713 1.42427 0
0.00244802 1.39815 0
0.00469028 0.483311 0
0.00363942 0.496374 0
0.00920645 0.00634081 0
1.65606 1.76726 0
1.66311 1.81625 0
1.64655 1.79472 0
1.70719 1.80079 0
1.71673 1.83565 0
1.72647 1.77029 0
1.74492 1.8233 0
1.75349 1.78019 0
1.68035 1.78685 0
1.688 1.82196 0
1.64921 1.7341 0
1.14741 2.15807 0
0.00117111 1.72932 0
0.00234984 1.76442 0
0.00333366 1.77287 0
0.00299939 1.7224 0
0.00199909 1.73254 0
0.000799402 1.80293 0
0.00166981 1.79762 0
0.00140386 1.76338 0
0 0.40448 0
8.86749e-05 0.398047 0
0.825887 2.51218 0
0.809993 2.48833 0
0.830786 2.46123 0
0.859867 2.50019 0
0.871564 2.46718 0
0.849859 2.46561 0
2 1.58368 0
0.768145 2.4894 0
0.756273 2.52283 0
0.773828 2.5288 0
0.89059 2.52617 0
0.902418 2.55351 0
0.902658 2.49808 0
0.866236 2.55894 0
0.882687 2.55646 0
0.872879 2.52481 0
0.845302 2.53799 0
0.826241 2.55706 0
0.832029 2.62615 0
0.814579 2.61573 0
0.847005 2.58768 0
0.870961 2.6637 0
0.896155 2.65257 0
0.869085 2.61096 0
0.888989 2.7143 0
0.85237 2.64013 0
0.844167 2.71625 0
0.853733 2.68085 0
0.866487 2.72105 0
0.85351 2.75831 0
0.819998 2.76859 0
0.882136 2.77798 0
0.902504 2.7816 0
0.835911 2.7512 0
0.819969 2.72347 0
0.886579 2.62008 0
0.90703 2.69089 0
0.803102 2.75018 0
0.832765 2.67241 0
0.803727 2.80059 0
0.861328 3 0
0.828617 2.82839 0
0.83734 2.79207 0
0.856523 2.90215 0
0.84819 2.85422 0
0.881871 2.85242 0
0.86479 2.83875 0
0.908052 2.89413 0
0.924857 2.88246 0
0.902832 3 0
0.92395 3 0
0.923494 2.94235 0
0.898297 2.9451 0
0.885181 2.90281 0
0.873633 2.95173 0
0.881958 3 0
0.820801 3 0
0.901298 2.854 0
0.820539 2.908 0
0.837989 2.89085 0
0.840942 3 0
0.841513 2.94488 0
0.82192 2.9538 0
0.798842 2.93449 0
0.79571 2.89093 0
0.786447 2.96174 0
0.856934 2.96197 0
0.81552 2.86325 0
1.31316 2.94591 0
1.37158 3 0
1.34342 2.92434 0
1.38268 2.93154 0
1.3639 2.91179 0
1.39758 3 0
1.41058 2.85432 0
1.38749 2.88256 0
1.38444 2.8318 0
1.40954 2.80058 0
1.4312 2.82616 0
1.47705 3 0
1.45383 2.9126 0
1.43629 2.87407 0
1.50104 2.94265 0
1.41391 2.91586 0
1.50403 3 0
1.48985 2.87883 0
1.41068 2.9608 0
1.43953 2.95692 0
1.52057 2.96435 0
1.45032 3 0
1.46713 2.95476 0
1.39028 2.78091 0
1.4804 2.91838 0
1.50887 2.9038 0
1.47382 2.83835 0
1.46028 2.87255 0
0.00334846 2.35278 0
0.0010363 2.36053 0
0.000983744 2.31143 0
0.000244142 2.35881 0
0.00198208 2.33291 0
0.000579333 2.33774 0
0.00319508 2.29276 0
0.00283032 2.32391 0
0.00716144 2.41397 0
0.000161171 2.42157 0
0.000108779 2.32073 0
0.00224591 2.26582 0
0.00172091 2.2966 0
0.00521859 2.31799 0
0.00599018 2.2842 0
0.00443656 2.27667 0
0.0094917 2.37635 0
8.97315e-05 2.38695 0
0 2.42157 0
0.000488281 2.51244 0
0.000558855 2.39644 0
0.000644072 2.45459 0
0.00143512 2.41244 0
0.000169173 2.47205 0
0.00113566 2.49186 0
0.00201634 2.6481 0
0.00130997 2.57282 0
0.00099986 2.53374 0
0.00234829 2.52723 0
0.00182713 2.49906 0
0.000857976 2.42335 0
0.00296425 2.41408 0
0.00182677 2.37434 0
0.00212117 2.42909 0
0.00521758 2.37711 0
0.0109902 2.3547 0
0.00861858 2.33655 0
0.0113106 2.47064 0
0.00269827 2.58972 0
0.00391845 2.47908 0
0.00269901 2.37998 0
0.00450768 2.34745 0
0.00387838 2.38822 0
0.00659937 2.34747 0
0.0114463 2.41625 0
0.00917435 2.41844 0
0.0141817 2.4455 0
0.0165022 2.42634 0
0.0142202 2.40365 0
0.00205841 2.56252 0
0.00178743 2.6072 0
0.000477512 2.63802 0
0.000966621 2.61244 0
0 2.54956 0
0.000307971 2.57472 0
0 2.50653 0
0.00011492 2.528 0
0.00446684 2.65383 0
0.00295542 2.45413 0
0.00424187 2.54561 0
0.00763635 2.37736 0
0.000121191 2.61552 0
0 2.59296 0
0.00315353 2.6335 0
0.00446904 2.59923 0
0.00587846 2.6265 0
0.00757875 2.55026 0
0.00603716 2.57944 0
0.00781938 2.48096 0
0.00776411 2.59322 0
0.0159126 2.61118 0
0.0117277 2.56383 0
0.00945133 2.56803 0
0.0103203 2.51882 0
0.0145022 2.51355 0
0.00955803 2.4855 0
0.0152916 2.47826 0
0.0122756 2.50478 0
0.0034011 2.51542 0
0.00308422 2.55381 0
0.00571963 2.45644 0
0.00491133 2.419 0
0.00542519 2.50662 0
0.00602075 2.54128 0
0.00842417 2.5167 0
0.014699 2.56397 0
0.0217804 2.54912 0
0.017859 2.53555 0
0.0190083 2.58544 0
0.0205911 2.49729 0
0.0215113 2.70347 0
0.0244248 2.62339 0
0.0266057 2.50221 0
0.0225607 2.42179 0
0.0193865 2.4174 0
0.0237074 2.37775 0
0.0206604 2.45532 0
0.0236187 2.47712 0
0.0206108 2.38131 0
0.0235872 2.51676 0
0.0269181 2.56623 0
0.0282578 2.43549 0
0.0262462 2.4031 0
0.0327428 2.4299 0
0.0301092 2.39911 0
0.0193142 2.64803 0
0.0221163 2.59197 0
0.0250827 2.44343 0
0.00268364 2.48905 0
0.0280092 2.60998 0
0.0308623 2.53138 0
0.0321561 2.58328 0
0.0390123 2.58312 0
0.042802 2.63942 0
0.0298586 2.49469 0
0.0358126 2.52477 0
0.0355085 2.61768 0
0.0392722 2.62172 0
0.0389622 2.54516 0
0.0135535 2.71898 0
0.0224468 2.66011 0
0.0276422 2.70288 0
0.0276139 2.65611 0
0.0244739 2.69135 0
0.0455594 2.68866 0
0.0428775 2.59852 0
0.0421221 2.56336 0
0.0354976 2.56467 0
0.0172234 2.70154 0
0.0193478 2.68398 0
0.0162676 2.65719 0
0.0116837 2.64316 0
0.0140094 2.63821 0
0.0125648 2.6035 0
0.0130721 2.67727 0
0.00917813 2.71395 0
0.0112946 2.70546 0
0.0162176 2.75908 0
0.010743 2.82821 0
0.0114206 2.76717 0
0.0205098 2.76664 0
0.0247961 2.75089 0
0.00790421 2.78316 0
0.0138704 2.8087 0
0.0137007 2.76069 0
0.0192502 2.72941 0
0.0181703 2.77968 0
0.0221986 2.73861 0
0.0352949 2.80529 0
0.0420806 2.7711 0
0.0365206 2.70385 0
0.0391442 2.66704 0
0.0346835 2.66234 0
0.0310095 2.68136 0
0.0097572 2.79188 0
0.0303419 2.76388 0
0.0445716 2.73275 0
0.0408204 2.70779 0
0.0277547 2.74103 0
0.00583402 2.72226 0
0.00642883 2.67434 0
0.00736594 2.70794 0
0.00656589 2.89025 0
0.0175781 3 0
0.0150409 2.90698 0
0.0153864 2.85437 0
0.0123897 2.87508 0
0.00925196 2.88326 0
0.012207 3 0
0.00827588 2.83494 0
0.00809675 2.93862 0
0.0119976 2.93705 0
0.0098877 3 0
0.0147705 3 0
0.0161438 2.95436 0
0.0239258 3 0
0.0213703 2.89575 0
0.013777 2.96219 0
0.0185638 2.86455 0
0.0199848 2.95222 0
0.022692 2.82851 0
0.0199407 2.8313 0
0.0109189 2.90302 0
0.0206299 3 0
0.0240594 2.94091 0
0.023168 2.78685 0
0.0274863 2.81678 0
0.0274658 3 0
0.025805 2.87595 0
0.0312384 2.80825 0
0.0337888 2.90331 0
0.0334959 2.85209 0
0.0293274 2.93981 0
0.0298771 2.88049 0
0.0416836 2.87207 0
0.0378497 2.84468 0
0.0377022 2.88969 0
0.0395508 3 0
0.04202 2.93821 0
0.0463087 2.95883 0
0.0422297 2.82149 0
0.0440674 3 0
0.0390331 2.79717 0
0.037773 2.7503 0
0.0336638 2.73762 0
0.0252836 2.84004 0
0.0230535 2.86592 0
0.0335148 2.95504 0
0.0352783 3 0
0.0266546 2.96128 0
0.00996739 2.95518 0
0.0180393 2.91281 0
0.0265976 2.91608 0
0.0452253 2.90329 0
0.0491967 2.86729 0
0.0452321 2.85026 0
0.0523747 2.8425 0
0.0378023 2.95582 0
2 2.25604 0
1.97134 2.26002 0
1.9764 2.22767 0
0.247192 3 0
0.24173 2.93053 0
0.249461 2.90593 0
0.235117 2.89521 0
0.23084 2.9391 0
0.25121 2.95557 0
0.206313 2.62381 0
0.195814 2.54736 0
0.202658 2.6618 0
0.198498 2.59217 0
0.205744 2.55977 0
0.18648 2.5824 0
0.183611 2.52436 0
0.175884 2.53397 0
0.19382 2.49204 0
0.179127 2.56751 0
0.185912 2.4907 0
0.203372 2.51371 0
0.208059 2.47302 0
0.21185 2.43731 0
0.187723 2.62004 0
0.262118 2.4326 0
0.260774 2.39645 0
0.54499 2.94976 0
0.547974 3 0
0.560312 2.95734 0
0.575022 2.96212 0
0.365458 2.38842 0
0.35897 2.35583 0
0.318532 2.53933 0
0.312725 2.50216 0
0.308705 2.56707 0
0.328396 2.56321 0
0.329002 2.49974 0
0.341286 2.50109 0
0.0154394 2.35443 0
0.118502 2.22501 0
0.0894404 2.52576 0
0.0931379 2.56193 0
0.0963598 2.51137 0
0.0716675 2.41457 0
0.0797479 2.42843 0
0.0819563 2.39235 0
0.0805233 2.48463 0
0.0828198 2.5255 0
0.0812575 2.58067 0
0.086808 2.56319 0
0.355841 0.575516 0
0.367306 0.58128 0
0.344188 0.575687 0
1.93985 1.06411 0
1.90486 1.07982 0
1.93664 1.13929 0
1.91228 1.05331 0
1.93802 1.10137 0
1.90733 1.10911 0
1.88711 1.13822 0
2 1.11401 0
2 1.08563 0
1.97124 1.07158 0
1.911 1.17193 0
1.91194 1.13272 0
1.96565 1.12115 0
1.96869 1.15468 0
1.97473 1.09681 0
2 1.2312 0
2 1.14276 0
1.96078 1.20135 0
1.97431 1.17936 0
1.94289 1.1728 0
2 1.20135 0
1.88799 1.19177 0
1.94177 1.24795 0
1.91421 1.24669 0
1.92793 1.21468 0
1.96817 1.23103 0
2 1.26141 0
1.96548 1.27666 0
1.94559 1.30276 0
1.93458 1.27583 0
1.97471 1.30742 0
1.87997 1.35555 0
0 1.45038 0
6.12089e-05 1.46656 0
0.0044323 1.52164 0
0.00493421 1.48093 0
0.00469733 1.57764 0
0.0063909 1.51059 0
0.0057368 1.59988 0
0.00624647 1.56752 0
0.0077482 1.52252 0
0.00566538 1.5383 0
0.00282287 1.55422 0
0.00216038 1.52752 0
0.00312753 1.50576 0
0.00370827 1.48203 0
0.00400256 1.55091 0
0.00169407 1.63747 0
0.00166612 1.68547 0
0.0028261 1.68322 0
0.00373301 1.64514 0
0.00420808 1.61127 0
0.00271512 1.61635 0
0.00328725 1.58587 0
0.00157226 1.59176 0
0.000411195 1.65992 0
0.000331613 1.60075 0
6.83465e-05 1.60075 0
0.000105998 1.63811 0
9.32805e-05 1.56675 0
0 1.65253 0
0.000100619 1.67288 0
0 1.75854 0
0.000417623 1.70839 0
0.00257606 1.65089 0
0.00193912 1.56496 0
0.00102581 1.66075 0
0.000861396 1.62109 0
0.000923189 1.69471 0
0.000789346 1.57723 0
0.000688378 1.54769 0
0.000468124 1.75771 0
0.000847132 1.77375 0
0.000645958 1.73186 0
0.000115256 1.73557 0
0 1.72284 0
0.000157781 1.79974 0
0.000148373 1.76735 0
0.000428003 1.78695 0
0 1.79462 0
0.808216 2.53461 0
1.34583 3 0
1.33427 2.96314 0
0 2.81543 0
0.00975569 2.61425 0
0.00954364 2.66658 0
0.00298571 2.72624 0
0.00326416 2.68013 0
0.00427289 2.71145 0
0.00447028 2.80649 0
0.00467802 2.75817 0
0.0062774 2.81619 0
0.00625455 2.76472 0
0.00195313 3 0
0.00682451 2.85207 0
0.0880046 2.47594 0
0.0907869 2.44348 0
0.0844599 2.4473 0
1.96583 1.03128 0
1.97494 1.00964 0
1.93629 1.03702 0
2 1.02997 0
0 2.72534 0
0.000970143 2.72458 0
0 2.68085 0
0.00024152 2.70305 0
0.000145261 2.66012 0
0.000160774 2.7702 0
0.000678934 2.6819 0
0.00142698 2.68548 0
0.00183889 2.72822 0
0.00105805 2.65161 0
0.002268 2.69267 0
0.00130518 2.77351 0
0.00242073 2.77024 0
0.000598612 2.76441 0
0.00307849 2.80912 0
0.00280362 2.90698 0
0.00348971 2.77147 0
0.00263163 2.85655 0
0.00437415 2.87379 0
0.00513665 2.84099 0
8.92651e-05 2.73326 0
0 2.7702 0
2 0.553894 0
1.97014 0.550099 0
0 1.26141 0
0.000110322 1.26559 0
7.61038e-05 1.2404 0
0 1.90503 0
0.000366936 1.86912 0
0.000695753 1.91294 0
0.00114127 1.87043 0
0.00157136 1.83632 0
0.00017399 1.90891 0
0.00122423 1.90134 0
0.00189529 1.87223 0
0.000713147 1.84041 0
0.000252825 1.83422 0
0 1.94257 0
0.000158413 1.95293 0
0 1.86786 0
9.07072e-05 1.87768 0
5.89626e-05 1.84767 0
0.000488281 2.8696 0
0.00139866 2.89004 0
0.000939895 2.82517 0
0.000315696 2.81908 0
8.15014e-05 2.80541 0
0.000965068 2.8628 0
0.000488281 3 0
0.00179748 2.94302 0
0.000726259 2.93789 0
0.00109863 3 0
0 2.90698 0
0.00117514 2.96135 0
0.000134893 2.95093 0
0.000406663 2.9628 0
0.000314047 2.91207 0
0 2.95331 0
0.00012207 3 0
0 2.86102 0
0.000117477 2.87461 0
0.00439453 3 0
0.00305176 3 0
0.00369263 2.95039 0
0.00262568 2.96172 0
0.0057048 2.95134 0
0.00598145 3 0
0.00702887 2.96676 0
0.00515107 2.91045 0
VECTORS error float
0 0 0
0 -4.36096e-13 0
-2.94209e-13 -4.36096e-13 0
-2.94209e-13 0 0
-1.73955e-05 4.40124e-06 0
1.79967e-13 0 0
0 1.94733e-13 0
-1.10356e-13 -3.33067e-13 0
-3.68594e-14 -2.93099e-14 0
-2.97175e-07 5.07603e-06 0
2.13815e-05 1.38613e-05 0
1.16557e-05 -4.57026e-05 0
-3.39221e-05 -2.35914e-05 0
0 2.67564e-13 0
1.98175e-14 -1.24345e-13 0
-1.33055e-05 -8.05006e-07 0
2.43916e-05 2.02358e-05 0
1.277e-05 9.88413e-06 0
4.87943e-14 4.15668e-13 0
-1.16963e-06 2.13355e-05 0
9.03787e-06 -1.07576e-05 0
3.05204e-05 -2.27413e-05 0
2.08755e-05 2.5339e-05 0
0 -3.91354e-14 0
0 -1.60982e-13 0
0 8.14904e-14 0
-5.81337e-07 -1.9513e-05 0
-5.46508e-06 1.03868e-05 0
-5.08915e-06 -1.8622e-05 0
1.60984e-05 -1.6351e-05 0
0 -4.79616e-14 0
1.39472e-15 -3.00204e-13 0
8.49442e-06 6.64575e-05 0
-1.18128e-13 -2.02505e-13 0
9.28405e-06 4.39849e-05 0
-1.25161e-05 -4.59497e-06 0
-1.14668e-05 -1.12931e-05 0
-3.28806e-08 3.38056e-05 0
-2.0568e-05 -3.33238e-05 0
-1.40468e-05 -2.6422e-05 0
1.26072e-05 6.87878e-06 0
-9.53234e-06 -6.21517e-06 0
2.12297e-05 3.72726e-05 0
6.02058e-06 2.53579e-05 0
1.4766e-14 0 0
5.46662e-07 -4.84414e-06 0
-1.89098e-05 6.56922e-05 0
-1.71605e-05 -8.976e-06 0
8.74065e-06 -1.54022e-05 0
-3.45501e-13 0 0
-3.64738e-05 9.29052e-06 0
-1.34696e-05 -1.19738e-05 0
-1.11252e-05 1.80518e-05 0
-3.50263e-06 9.58667e-05 0
-1.14575e-13 -3.92186e-14 0
-2.88436e-13 0 0
1.59428e-13 0 0
-1.37651e-05 5.37805e-06 0
6.74685e-07 -2.50319e-05 0
-4.84612e-14 0 0
-2.25751e-05 -8.44095e-06 0
-3.10776e-05 -1.78054e-05 0
0 -1.17267e-14 0
-7.13665e-15 0 0
2.80641e-05 -1.22041e-05 0
2.27545e-06 1.7157e-06 0
-5.41701e-06 -1.23582e-05 0
5.86198e-14 -9.42024e-14 0
-8.62139e-06 4.97397e-05 0
-2.80366e-05 -5.83818e-05 0
-5.08482e-14 1.28564e-13 0
-1.06478e-05 -1.11843e-05 0
4.42045e-05 -2.00403e-05 0
-2.24043e-13 1.89182e-13 0
3.35731e-13 2.14412e-15 0
-1.41846e-05 3.27203e-05 0
-6.56326e-06 1.20734e-05 0
2.4785e-05 2.09423e-07 0
9.11364e-06 -2.64584e-05 0
-2.60236e-13 -3.56604e-13 0
-1.22714e-05 3.10043e-05 0
2.21878e-05 3.15164e-05 0
2.24799e-05 -8.15723e-06 0
-1.56494e-05 -3.74185e-06 0
-2.49578e-13 3.60156e-13 0
3.33511e-13 2.6823e-13 0
-6.50566e-06 4.08291e-05 0
-1.49274e-05 1.04464e-05 0
-1.9042e-05 -5.08232e-06 0
-4.0767e-07 -2.60757e-06 0
2.0303e-05 -1.74014e-05 0
-1.88742e-06 2.8774e-05 0
5.51098e-08 1.41475e-05 0
-2.4869e-14 -3.80584e-13 0
-1.30769e-05 -5.22549e-06 0
1.69937e-05 9.76118e-06 0
0 4.94049e-15 0
1.70928e-05 -5.64186e-06 0
3.55796e-06 -1.16735e-06 0
-1.97333e-05 -2.5157e-06 0
4.41548e-06 1.43925e-05 0
-1.14204e-05 -1.73876e-05 0
1.10439e-13 0 0
1.29345e-05 -1.67337e-05 0
2.34617e-05 2.12296e-05 0
-5.56582e-06 9.58841e-07 0
2.1407e-05 1.12318e-05 0
3.97027e-06 -6.57733e-07 0
1.66913e-05 7.3941e-06 0
8.03538e-06 -3.05786e-05 0
-4.64073e-14 0 0
2.25042e-13 0 0
1.23936e-05 3.67329e-06 0
0 1.9585e-15 0
-1.01913e-05 -2.02331e-05 0
-2.06293e-05 -2.62602e-05 0
1.36496e-05 2.60524e-05 0
1.10883e-05 -2.72731e-05 0
1.58876e-05 -7.1583e-07 0
1.44485e-05 -2.18265e-05 0
-1.42997e-13 -4.89164e-13 0
-2.21378e-13 -1.33671e-13 0
-3.64994e-06 6.22638e-06 0
2.38476e-13 -5.99298e-13 0
5.04929e-13 -2.3892e-13 0
-2.04449e-06 1.68346e-05 0
-7.50492e-06 3.80989e-05 0
-1.41152e-05 -2.63371e-05 0
3.3387e-05 1.93705e-05 0
-2.61857e-15 0 0
1.39376e-05 -3.98281e-06 0
3.63436e-05 1.66275e-05 0
-1.12996e-05 2.15489e-05 0
6.00108e-06 -8.61294e-06 0
-2.15155e-05 -4.06636e-06 0
1.83359e-06 6.77954e-06 0
1.07172e-05 2.58253e-05 0
-1.3469e-05 -7.97072e-06 0
-2.78879e-05 -1.75175e-05 0
9.52742e-08 -8.95123e-06 0
-9.87692e-06 3.07581e-05 0
-1.34997e-05 -9.94539e-06 0
1.28408e-05 6.55973e-07 0
1.86073e-13 1.15852e-13 0
7.60826e-06 4.14968e-05 0
1.92158e-05 1.153e-05 0
3.94942e-06 2.44833e-06 0
1.82965e-13 -2.13163e-14 0
-1.50939e-05 -1.50872e-06 0
4.76287e-06 9.06975e-06 0
8.46615e-06 4.48883e-05 0
1.76129e-05 -1.35242e-05 0
1.41667e-05 -5.30576e-06 0
-2.85993e-13 -3.12639e-13 0
-3.14397e-05 -7.23577e-07 0
-1.63915e-05 -2.49388e-05 0
5.06141e-06 -1.68005e-05 0
6.14702e-06 3.21355e-05 0
8.19005e-07 -1.81747e-05 0
1.81359e-05 -3.79577e-06 0
1.00168e-05 -3.37038e-05 0
-7.81054e-06 1.36039e-05 0
2.19294e-05 2.70799e-05 0
3.12699e-05 2.6834e-05 0
-5.20392e-06 -9.14303e-06 0
-9.64107e-06 -8.62558e-06 0
-4.05374e-06 2.11216e-05 0
1.32117e-13 0 0
1.59651e-06 2.18699e-05 0
3.85613e-06 7.74165e-06 0
-1.36175e-05 6.71766e-06 0
-4.69064e-07 1.85639e-05 0
-1.54448e-05 -1.31334e-05 0
3.0166e-05 1.81043e-06 0
6.47778e-06 -1.47138e-05 0
1.60801e-06 2.90664e-05 0
-4.29222e-06 -1.47172e-05 0
6.45804e-06 -2.95665e-05 0
1.12392e-05 1.05839e-05 0
-3.7835e-05 -2.91525e-05 0
2.29664e-05 5.26247e-05 0
0 -3.55271e-14 0
7.31695e-06 -2.24628e-05 0
1.97083e-05 6.06121e-06 0
-2.71936e-05 -6.06647e-07 0
-3.46886e-07 2.13035e-05 0
2.95898e-05 1.65587e-05 0
8.47203e-06 2.28256e-05 0
-3.68172e-06 -1.80787e-05 0
1.83845e-05 2.5623e-05 0
-2.80717e-06 -1.1292e-05 0
-1.75513e-06 -4.92999e-06 0
-1.44906e-05 -5.64815e-06 0
-2.09738e-05 1.32158e-05 0
8.84363e-06 -5.48427e-06 0
1.69649e-06 -1.30776e-05 0
-4.8854e-06 -8.45671e-06 0
4.25342e-06 -2.43111e-05 0
-8.05369e-06 5.26814e-06 0
0 3.21132e-14 0
-9.32192e-06 -4.06752e-06 0
1.863e-06 -1.54727e-05 0
9.18669e-06 3.77597e-06 0
-1.31943e-05 1.13212e-06 0
1.70101e-05 -1.59885e-05 0
2.11192e-05 3.27413e-05 0
-1.87662e-06 2.34527e-06 0
1.10562e-05 -1.21466e-05 0
-1.50718e-05 -1.89431e-05 0
-2.05096e-05 4.3301e-06 0
3.02556e-06 -1.79543e-05 0
7.98944e-06 3.39733e-06 0
5.82774e-07 6.14201e-06 0
3.02987e-05 -1.40421e-07 0
-3.65726e-06 1.76143e-05 0
7.433e-06 -1.58899e-05 0
-6.53288e-06 8.04262e-06 0
-2.85548e-06 2.3848e-05 0
-4.98441e-06 -2.81265e-05 0
6.48189e-06 4.75168e-05 0
1.23822e-05 -8.9635e-06 0
1.31966e-06 -7.08627e-06 0
-2.68304e-05 -1.24042e-05 0
1.46622e-05 1.87913e-05 0
1.12799e-13 -1.8785e-13 0
-8.43769e-14 -5.68434e-14 0
-3.55353e-06 5.48777e-06 0
2.25204e-05 4.20429e-06 0
1.43665e-06 1.2381e-07 0
6.66939e-06 6.83595e-06 0
1.50264e-05 -7.84399e-06 0
5.97042e-06 -9.663e-06 0
-1.33482e-05 -1.61969e-05 0
9.55858e-06 2.20422e-05 0
-8.43338e-06 2.24863e-05 0
-9.08369e-06 3.41678e-06 0
3.93607e-06 3.09181e-05 0
-1.77217e-05 7.85612e-06 0
-4.18348e-05 -1.85391e-05 0
0 7.4607e-14 0
-1.64131e-05 3.38573e-06 0
2.6738e-05 -2.24851e-05 0
1.89803e-05 1.05971e-05 0
6.15401e-06 1.07444e-05 0
9.30968e-06 1.44973e-06 0
-1.7556e-05 1.27271e-05 0
7.74852e-06 -2.2112e-05 0
-1.55648e-05 -1.26956e-05 0
8.85325e-06 -1.31823e-05 0
5.65664e-06 6.90195e-06 0
-2.52987e-07 -2.2869e-05 0
4.37677e-06 -5.91209e-06 0
8.06146e-06 1.06557e-05 0
-2.97272e-06 2.45391e-05 0
2.54912e-05 5.51514e-06 0
3.61058e-05 -1.53271e-05 0
-4.69316e-06 -1.42763e-05 0
-1.22713e-05 2.43972e-05 0
-2.96193e-05 9.45093e-06 0
4.06169e-06 1.77503e-05 0
3.25676e-05 -4.55633e-06 0
-4.0652e-06 -2.04953e-05 0
6.08401e-05 -6.90516e-06 0
1.73885e-05 2.30305e-06 0
-9.336e-07 6.64328e-06 0
1.77277e-06 1.34079e-05 0
-1.93585e-05 3.26425e-06 0
5.61268e-06 -1.22311e-05 0
1.58891e-05 1.70755e-05 0
-1.10239e-06 1.88983e-05 0
-1.04858e-05 -2.33848e-05 0
7.61426e-06 3.11581e-05 0
-1.37583e-05 -1.17697e-05 0
3.48129e-05 -2.37313e-07 0
-1.5116e-05 -5.881e-06 0
8.60531e-06 8.99024e-06 0
1.26107e-05 2.73518e-05 0
-1.06353e-05 -3.67198e-05 0
9.47834e-06 2.58203e-05 0
0 2.91767e-13 0
1.12719e-05 -1.25668e-05 0
2.77799e-06 1.37393e-05 0
-1.25844e-05 -2.18126e-06 0
-1.33911e-05 -5.23854e-06 0
6.13575e-06 -1.4329e-05 0
-4.88912e-06 4.96315e-06 0
-6.94704e-07 -3.25862e-05 0
-8.43429e-06 -4.58789e-06 0
1.34871e-05 4.38806e-05 0
-3.82167e-07 1.51379e-05 0
-9.4089e-06 -6.52878e-06 0
7.75408e-06 4.15198e-06 0
-3.48594e-06 -1.29951e-05 0
3.0543e-05 -8.12409e-06 0
-2.95319e-13 -3.27377e-14 0
-1.62535e-05 1.26062e-05 0
-2.49204e-05 -1.80107e-05 0
-2.0955e-05 -9.32858e-06 0
-1.09203e-06 -1.12602e-05 0
-2.24842e-05 -1.50797e-05 0
1.66848e-05 -4.46265e-06 0
-6.70251e-06 1.0221e-05 0
-1.24417e-05 2.97033e-05 0
-8.30485e-06 8.55874e-06 0
-1.13498e-05 2.45735e-05 0
-1.83867e-05 -4.3378e-06 0
-5.82523e-06 1.30053e-05 0
2.77374e-05 -3.98271e-07 0
-3.24226e-06 -1.60552e-05 0
-2.59191e-05 -3.10954e-05 0
4.80404e-06 4.37108e-05 0
-4.7129e-14 1.74971e-13 0
1.11242e-05 4.0742e-06 0
3.03456e-06 -4.92176e-07 0
-1.88542e-05 2.25487e-05 0
1.04704e-05 -8.61184e-06 0
2.38695e-05 -5.77599e-06 0
-4.83699e-06 1.37899e-05 0
1.11848e-05 -1.29771e-05 0
1.206e-06 -5.36741e-07 0
1.62105e-07 -1.52924e-05 0
1.97553e-05 2.25602e-06 0
-6.9386e-07 9.10791e-06 0
-4.68724e-06 -2.30096e-06 0
-9.4369e-15 -1.63425e-13 0
-2.80248e-05 -1.81654e-05 0
-7.38154e-07 7.4794e-06 0
7.39292e-06 -6.65863e-06 0
-3.60542e-06 2.79168e-05 0
1.73639e-13 0 0
-1.1116e-05 1.64308e-05 0
-1.88475e-05 -3.07609e-05 0
1.19765e-14 0 0
1.42941e-14 -3.65485e-13 0
0 5.6577e-13 0
-1.72973e-13 -5.01509e-15 0
2.97232e-06 -1.66915e-05 0
-5.77663e-16 -3.82361e-13 0
0 -4.00124e-13 0
-1.06137e-13 0 0
-2.06636e-05 -3.06563e-05 0
-1.71056e-05 2.96758e-06 0
2.22903e-05 -1.28292e-06 0
-2.27645e-05 7.20083e-06 0
1.35773e-05 -3.19015e-05 0
6.20856e-06 -2.58337e-06 0
1.1491e-05 -2.59879e-05 0
2.01632e-05 1.1643e-05 0
2.87347e-06 1.4972e-05 0
-7.2158e-07 1.54711e-05 0
2.40392e-06 7.90695e-06 0
-8.56828e-06 -1.46982e-05 0
2.42584e-05 -7.24374e-06 0
1.99397e-06 -1.5081e-05 0
1.44194e-05 1.8159e-05 0
0 4.99741e-10 0
9.88992e-06 5.78384e-05 0
-5.55112e-15 -4.24105e-13 0
-7.04205e-06 2.54302e-05 0
-8.50636e-06 -3.3812e-05 0
5.91225e-06 -4.57624e-06 0
-2.04329e-06 3.50877e-06 0
-5.87339e-06 -6.04621e-06 0
1.39451e-05 1.11223e-05 0
1.15218e-05 -7.60845e-06 0
-1.57607e-05 8.79309e-07 0
-1.31188e-05 -1.83747e-05 0
-1.42797e-05 -1.25829e-05 0
5.08729e-06 6.10731e-06 0
8.4728e-06 -2.4301e-06 0
5.98657e-06 -1.51016e-05 0
-4.65396e-06 6.24322e-05 0
1.58983e-05 3.09269e-05 0
-4.39548e-06 3.91572e-06 0
3.43903e-05 -3.79723e-08 0
-1.2812e-05 1.13755e-05 0
-1.54257e-05 1.60718e-05 0
-2.20934e-14 0 0
0 5.00017e-10 0
2.54657e-15 0 0
-8.16941e-06 3.66745e-05 0
2.45262e-05 1.99971e-05 0
-1.14609e-05 -1.61927e-05 0
2.44713e-06 -4.97238e-06 0
4.63118e-06 -3.523e-05 0
1.19787e-05 -6.83388e-06 0
-3.54762e-06 1.33035e-05 0
-2.10275e-06 -3.12618e-05 0
-5.25697e-06 -9.21501e-06 0
1.38836e-05 -1.62686e-06 0
-2.42174e-05 3.64929e-06 0
-3.0842e-13 4.99908e-10 0
1.50575e-05 9.98738e-06 0
1.62365e-06 -1.4076e-05 0
3.27793e-14 0 0
-1.94154e-05 4.69416e-05 0
-5.66943e-06 2.34125e-05 0
3.03801e-05 -8.04862e-06 0
2.59298e-05 1.47402e-05 0
-7.83792e-06 -2.20148e-05 0
1.68615e-06 -3.88925e-06 0
2.79142e-05 -1.4687e-05 0
3.94314e-05 -1.27698e-05 0
1.00588e-05 -5.22073e-06 0
-1.80078e-13 5.0023e-10 0
-5.13229e-06 -1.29391e-05 0
-8.59488e-06 2.04379e-05 0
-2.02167e-05 -3.89546e-06 0
-3.02139e-08 4.85002e-06 0
7.13675e-06 -2.5914e-05 0
2.63785e-05 -9.84384e-06 0
3.97873e-05 1.56114e-05 0
1.2568e-05 -3.39404e-05 0
0 5.00037e-10 0
-1.69645e-05 2.26242e-06 0
-1.35241e-05 4.03608e-06 0
-1.25136e-06 1.18327e-05 0
9.47014e-06 -1.59034e-05 0
9.29634e-06 9.04777e-06 0
1.11144e-06 8.76305e-07 0
-9.91297e-06 -1.11382e-05 0
2.77556e-16 0 0
2.50046e-05 -2.2928e-05 0
-1.62949e-05 4.73911e-06 0
3.38396e-13 5.00562e-10 0
2.22045e-13 4.99746e-10 0
2.67332e-05 8.96068e-06 0
3.0036e-05 1.02219e-05 0
3.29544e-06 -4.24102e-06 0
1.78381e-05 1.51166e-05 0
-1.59261e-05 1.82854e-05 0
-2.0517e-07 -1.78623e-05 0
3.85718e-06 -1.23001e-05 0
-2.02387e-05 1.80217e-07 0
-7.66492e-06 1.68976e-05 0
2.24621e-05 -3.91027e-06 0
-7.9386e-07 2.64341e-06 0
2.33959e-05 -1.11066e-05 0
9.35222e-06 -1.54468e-05 0
-2.63832e-05 -2.68331e-05 0
-1.37169e-05 -3.74272e-06 0
2.71974e-05 1.04837e-05 0
4.05787e-05 -3.24552e-06 0
-4.79394e-13 0 0
9.70176e-07 5.73373e-07 0
-2.73455e-05 6.80644e-06 0
-6.47501e-06 1.83784e-06 0
4.16751e-05 -8.25128e-06 0
0 4.99742e-10 0
3.80406e-06 -5.23564e-06 0
-1.43204e-05 -6.29722e-06 0
0 5.00059e-10 0
-1.66414e-05 -9.68008e-06 0
3.44886e-06 -5.8245e-06 0
-2.06293e-06 9.09044e-06 0
8.80356e-06 8.28989e-06 0
-2.79488e-05 1.13219e-05 0
6.08825e-06 3.73493e-05 0
5.18367e-06 3.12838e-06 0
2.08525e-06 -3.68855e-05 0
4.54499e-06 6.22942e-06 0
-4.61047e-06 1.48218e-05 0
-1.31331e-05 -2.99618e-05 0
-1.59063e-05 -1.48489e-05 0
4.58474e-06 3.73344e-05 0
-5.62478e-06 -8.93059e-06 0
-1.17398e-05 -2.64131e-05 0
-7.89548e-06 -2.40902e-05 0
1.09734e-05 -2.32788e-05 0
-2.64953e-06 -6.76991e-06 0
1.01766e-05 1.68292e-05 0
1.14825e-05 3.05664e-06 0
-2.81315e-06 -1.26863e-05 0
5.8669e-06 5.88166e-05 0
0 5.00108e-10 0
1.89615e-05 1.67603e-05 0
-1.63981e-05 -1.06917e-05 0
1.70509e-05 5.43955e-06 0
-2.39749e-06 -1.51091e-05 0
-4.2254e-06 -8.89874e-06 0
-6.34134e-06 1.22183e-05 0
-2.77209e-06 -3.86656e-07 0
-1.42251e-05 5.09209e-05 0
1.14225e-05 -3.89407e-06 0
9.39712e-06 1.54248e-05 0
-6.49572e-06 -2.20561e-05 0
-4.71058e-06 -3.41854e-06 0
-3.37515e-06 1.24776e-05 0
1.99582e-06 1.53001e-05 0
-1.50604e-05 4.83786e-06 0
1.25489e-05 2.71109e-06 0
-2.87081e-05 -2.54191e-05 0
-5.37096e-06 -2.01096e-05 0
-1.52509e-05 -6.5292e-06 0
4.96617e-06 2.32827e-05 0
-1.21299e-05 3.0722e-05 0
-1.58961e-05 -3.19168e-05 0
-5.59231e-06 4.75026e-05 0
-3.5904e-05 7.69538e-06 0
-9.52014e-06 -2.47883e-05 0
-2.30688e-05 -1.49621e-06 0
2.37397e-05 -4.44775e-06 0
1.55431e-13 5e-10 0
-4.06713e-06 1.19641e-05 0
-3.28573e-05 1.05301e-05 0
-4.40848e-05 1.49993e-05 0
-1.12838e-05 1.80241e-05 0
-8.87593e-06 -1.80926e-05 0
-1.44406e-05 7.10534e-07 0
1.61367e-05 4.15597e-06 0
1.06513e-06 2.19892e-06 0
1.75874e-05 2.80361e-05 0
5.91199e-06 -5.6607e-06 0
-4.10343e-05 -2.16601e-05 0
-9.08532e-06 -1.74941e-05 0
-4.43085e-06 -3.77871e-06 0
-1.40919e-06 8.64108e-06 0
-5.18699e-06 -3.79192e-05 0
2.00055e-05 3.60855e-05 0
-2.34479e-13 3.5083e-14 0
2.84661e-13 5.00294e-10 0
1.3887e-05 4.99544e-05 0
2.56462e-14 0 0
6.41784e-06 -5.68768e-06 0
1.69006e-05 -1.45415e-05 0
-1.11763e-05 -2.07443e-05 0
8.83145e-06 -1.0657e-05 0
2.46722e-06 2.5612e-05 0
1.06799e-05 -2.07008e-05 0
6.64095e-06 2.41059e-05 0
-2.03725e-05 -4.474e-06 0
-1.37277e-05 9.17546e-06 0
-1.57416e-05 -1.61522e-05 0
4.98383e-06 -4.12477e-06 0
-2.59651e-05 7.43256e-07 0
8.04481e-07 8.10377e-06 0
-2.76616e-06 -1.19682e-05 0
1.73535e-05 -1.79323e-06 0
7.59259e-06 2.27823e-05 0
-2.41254e-08 -4.09331e-06 0
-1.374e-05 -2.12313e-05 0
1.19816e-05 1.22539e-05 0
4.04341e-06 4.06224e-05 0
-5.21028e-06 -2.37659e-05 0
5.42755e-06 -1.50182e-05 0
-1.88564e-05 7.77601e-06 0
-1.86596e-05 -2.34332e-05 0
-1.71241e-05 2.16406e-05 0
-1.57282e-05 -8.25181e-06 0
-3.20479e-06 4.93622e-05 0
9.04286e-06 8.57804e-06 0
2.40808e-05 -9.00478e-06 0
4.37148e-06 -1.2787e-05 0
1.32513e-06 -2.33788e-05 0
-1.87217e-06 2.1453e-05 0
-4.59627e-06 -2.57299e-06 0
-2.83951e-06 1.73843e-05 0
-7.2075e-06 -1.3135e-05 0
-1.36919e-06 1.08888e-05 0
1.02801e-05 1.60522e-06 0
-2.50248e-07 -3.33325e-05 0
-2.87672e-05 -3.42625e-05 0
-4.98497e-06 -6.52945e-06 0
1.23244e-05 2.9175e-05 0
1.71492e-06 2.26436e-05 0
-1.3028e-05 -8.84777e-07 0
1.1656e-05 1.43339e-05 0
5.80265e-06 -4.19328e-05 0
1.14254e-05 -3.10733e-06 0
9.92319e-06 -7.90265e-06 0
2.51204e-06 -7.01363e-06 0
1.31683e-05 -2.93828e-05 0
4.80281e-06 -1.89308e-05 0
6.63358e-14 -5.4623e-14 0
-1.07998e-05 -3.52044e-07 0
-2.36932e-05 3.77204e-05 0
5.67159e-05 4.41656e-05 0
6.93882e-06 1.98989e-05 0
2.20949e-06 3.71539e-05 0
9.47383e-06 1.57774e-06 0
2.56576e-05 6.23851e-06 0
5.06219e-06 -1.43045e-05 0
1.5806e-05 -6.85095e-06 0
-9.44312e-06 6.97109e-06 0
-1.51828e-05 -4.74385e-06 0
-2.4008e-05 -4.20691e-06 0
-2.31135e-05 -3.91642e-05 0
-1.16517e-05 7.73916e-06 0
-3.62053e-05 -2.24173e-05 0
-1.31006e-13 0 0
2.22212e-05 5.99544e-05 0
6.93274e-06 5.43896e-05 0
-1.25099e-05 5.16515e-05 0
1.45407e-05 3.787e-05 0
6.71844e-06 6.89708e-06 0
-6.52507e-06 1.18546e-05 0
-1.15425e-05 -3.14475e-05 0
-2.64267e-07 4.16136e-06 0
-2.04455e-06 -1.39363e-06 0
0 5.00014e-10 0
-2.82981e-05 -2.41288e-05 0
-2.79301e-05 1.46215e-05 0
3.08188e-06 -8.41155e-06 0
3.48891e-06 7.00603e-06 0
1.76783e-05 2.14337e-05 0
1.7071e-05 -2.16308e-07 0
-1.29417e-05 -3.18056e-05 0
1.98395e-05 3.67028e-06 0
-6.86035e-06 -1.759e-05 0
2.17096e-05 3.94333e-05 0
-1.58547e-05 -1.542e-05 0
2.25429e-05 1.08562e-05 0
-7.27199e-06 4.00756e-06 0
-7.54453e-07 8.20686e-06 0
-9.9476e-06 1.34747e-05 0
-1.37488e-05 -1.50522e-05 0
9.36001e-06 5.61984e-06 0
0 4.99858e-10 0
-1.09833e-05 7.15287e-06 0
1.45484e-05 -1.58965e-07 0
1.9616e-05 -4.49703e-06 0
5.85181e-06 -8.90224e-06 0
-1.0169e-05 1.39818e-05 0
2.01577e-05 3.13666e-05 0
-1.35073e-05 -1.46214e-05 0
-1.82437e-07 1.70566e-05 0
-6.22332e-17 0 0
-1.77436e-05 7.00674e-06 0
-1.87417e-05 -1.07188e-05 0
1.73694e-05 2.95553e-05 0
-5.7975e-06 3.86613e-05 0
-2.91015e-06 -1.94052e-06 0
-7.76195e-06 4.61342e-05 0
-4.65014e-06 -6.48629e-06 0
2.91372e-06 -1.81152e-05 0
5.77058e-06 8.7902e-06 0
1.0294e-06 1.73867e-05 0
-1.10976e-05 -2.568e-05 0
1.03994e-05 4.17775e-05 0
0 4.99879e-10 0
1.2075e-05 -3.24683e-05 0
4.59817e-06 -9.08941e-06 0
2.55431e-06 1.80748e-05 0
1.68341e-05 -8.86655e-06 0
-2.06251e-06 -1.07012e-05 0
-1.79876e-05 3.05903e-05 0
-1.80882e-06 -3.47607e-05 0
-2.13163e-14 5.00001e-10 0
-5.33842e-06 2.94352e-06 0
2.86475e-05 -4.47231e-05 0
3.29514e-13 5.0002e-10 0
3.39266e-05 3.26707e-05 0
1.9803e-05 -1.88934e-05 0
-8.17538e-06 -6.09724e-06 0
1.29282e-05 -1.2755e-05 0
3.05089e-13 4.99996e-10 0
-2.91505e-05 -2.15719e-05 0
2.27325e-05 1.45715e-05 0
-3.73351e-06 2.21446e-06 0
-2.1795e-05 7.62617e-06 0
6.72745e-06 -6.63024e-07 0
-9.5135e-06 4.85779e-06 0
-4.06668e-07 -1.13177e-05 0
-1.24578e-05 3.78938e-06 0
8.61687e-06 2.90506e-05 0
-9.55572e-07 8.62501e-06 0
-2.29272e-06 8.45412e-06 0
-4.28094e-06 -2.29454e-06 0
-8.36947e-06 -2.3051e-07 0
-8.69116e-06 -3.77219e-06 0
3.82833e-05 -7.68587e-06 0
-1.93819e-05 1.34878e-05 0
1.0053e-05 2.39929e-05 0
1.43485e-06 -2.42976e-06 0
2.14836e-05 3.04603e-05 0
1.96659e-05 9.88815e-06 0
1.87487e-05 -3.38926e-05 0
5.09525e-06 1.72567e-05 0
-1.50472e-05 8.09873e-06 0
-1.81191e-05 -3.68679e-05 0
2.15682e-06 -6.75051e-06 0
-6.20549e-06 1.64582e-05 0
8.41348e-06 2.12124e-05 0
1.46959e-05 8.19262e-06 0
9.80147e-06 -1.14718e-05 0
5.42537e-07 -1.3804e-07 0
1.67353e-05 -2.8697e-06 0
1.14162e-06 1.57177e-05 0
3.6096e-06 7.89651e-06 0
5.01898e-06 -2.45545e-05 0
-1.72895e-05 -1.65467e-05 0
7.34285e-06 -2.10528e-05 0
-1.29722e-05 8.05248e-06 0
9.28817e-06 8.15977e-06 0
3.08803e-05 3.18651e-06 0
3.03446e-06 -2.55863e-05 0
3.69602e-06 1.12219e-05 0
8.22303e-06 1.09592e-05 0
-1.23477e-05 -1.46409e-05 0
-2.82142e-05 -1.08079e-05 0
-2.47006e-05 -2.18816e-05 0
-5.25746e-06 1.11514e-05 0
-6.32055e-06 -1.52569e-05 0
-1.56958e-05 -7.4798e-06 0
2.3553e-05 -1.18429e-06 0
-6.4495e-06 -1.63603e-05 0
2.48846e-05 3.31077e-05 0
-1.58415e-05 -8.87187e-06 0
-1.14181e-05 -2.36811e-05 0
-2.39001e-05 -3.00481e-05 0
7.96904e-06 4.18447e-05 0
-1.83282e-05 -8.89651e-06 0
-1.48067e-05 1.89127e-05 0
-6.31974e-06 -1.87203e-05 0
-1.39341e-05 -1.11814e-05 0
2.07178e-05 -1.17618e-05 0
4.89436e-06 1.01417e-05 0
2.82528e-05 -1.97244e-05 0
-2.01679e-05 -1.25469e-05 0
-2.56839e-05 -1.76209e-05 0
1.12517e-05 5.54975e-06 0
-9.32958e-06 -2.68989e-05 0
-2.95926e-06 -2.22826e-06 0
-3.03349e-05 -8.50582e-06 0
9.52487e-06 -1.73678e-05 0
3.3888e-05 2.40183e-05 0
1.11625e-05 -3.22308e-06 0
-7.37925e-06 2.20986e-05 0
1.63691e-05 -1.17628e-05 0
1.02734e-06 -1.13511e-06 0
9.54293e-06 -2.53489e-05 0
-9.68647e-06 -4.55815e-05 0
-1.32241e-05 1.38681e-05 0
6.55091e-06 2.20407e-05 0
1.41576e-05 -1.45959e-05 0
-8.65844e-06 -1.84016e-05 0
1.6268e-05 -1.32278e-05 0
-8.25012e-06 -1.93397e-05 0
-2.36523e-05 1.06928e-05 0
-2.48865e-05 1.41161e-06 0
1.21256e-05 -2.91743e-05 0
-1.08993e-05 -3.59452e-05 0
-2.74606e-05 -3.93148e-05 0
6.38902e-06 1.07559e-05 0
-1.22557e-05 2.57614e-05 0
3.27714e-06 2.81602e-07 0
-1.80223e-05 -2.89023e-05 0
2.69391e-05 1.7974e-05 0
-8.54435e-06 -4.58864e-05 0
2.32076e-05 -1.49763e-05 0
-3.03661e-06 1.93526e-05 0
2.38846e-05 2.72954e-05 0
1.47194e-05 2.85428e-05 0
-8.03863e-06 -1.44463e-05 0
1.15766e-05 -9.19262e-06 0
1.41146e-05 4.62687e-05 0
1.01712e-05 3.30528e-05 0
-3.36495e-05 3.59318e-06 0
8.18786e-06 -1.3357e-05 0
-4.35133e-06 -3.55852e-05 0
-5.99076e-06 1.58393e-06 0
1.8462e-05 -2.75307e-06 0
1.46054e-05 7.64683e-06 0
-1.97296e-05 -1.90185e-05 0
6.23391e-06 5.97351e-06 0
2.36133e-06 2.54962e-05 0
-2.02108e-05 2.0341e-05 0
2.72097e-06 4.17094e-05 0
-4.96537e-06 5.61528e-05 0
3.20568e-05 2.14769e-05 0
-4.45664e-06 -7.31006e-06 0
-1.27145e-05 3.64942e-05 0
-3.77999e-05 -3.17286e-06 0
-7.0974e-07 -5.4999e-06 0
-1.54438e-05 -1.57451e-05 0
8.20351e-06 1.12189e-05 0
2.53998e-06 5.45316e-06 0
-1.81693e-05 1.02674e-06 0
7.86632e-06 -1.83706e-05 0
2.72464e-06 -2.9541e-05 0
-1.94626e-06 -1.02219e-07 0
6.87398e-06 -4.28842e-06 0
-2.24507e-06 1.33153e-06 0
-1.8988e-05 -3.7713e-06 0
-3.03784e-05 -4.83421e-06 0
-3.75924e-06 4.85114e-05 0
2.35881e-05 5.0868e-06 0
5.25814e-06 -2.07704e-05 0
7.35834e-07 -1.02024e-05 0
4.43993e-06 -1.65305e-05 0
1.56416e-06 1.58744e-05 0
-1.27949e-05 -2.21707e-05 0
5.73731e-06 -5.65253e-06 0
1.03738e-05 -6.21759e-06 0
1.91707e-05 3.43189e-05 0
-6.07742e-06 3.51976e-05 0
-1.56076e-05 -2.93566e-05 0
1.3467e-05 4.52481e-05 0
-1.70887e-05 -2.55828e-05 0
-1.98696e-06 -2.64581e-05 0
-3.14996e-05 -5.6174e-06 0
1.05689e-05 1.87754e-05 0
-8.8802e-06 -1.27577e-05 0
8.07989e-07 8.54397e-06 0
-1.19112e-05 -8.61722e-06 0
-1.14564e-05 -7.63578e-06 0
-6.49198e-07 -7.33081e-06 0
8.18362e-06 -4.05919e-05 0
4.37579e-06 4.2334e-05 0
5.09142e-06 -2.77009e-05 0
-8.00837e-06 -1.21032e-05 0
2.03839e-05 -3.30142e-05 0
1.68569e-05 2.6625e-06 0
-9.18246e-06 1.56887e-05 0
-5.79114e-06 -8.45257e-06 0
-1.12203e-05 -2.48229e-05 0
4.58884e-06 3.99933e-05 0
-4.18625e-06 -1.69536e-05 0
4.54011e-06 3.15519e-05 0
-1.86902e-05 -3.42051e-05 0
-1.78504e-05 8.68373e-07 0
-4.96052e-08 7.282e-07 0
6.97377e-06 -4.76285e-06 0
7.38975e-07 2.86551e-05 0
1.10467e-07 4.92049e-06 0
1.77901e-05 1.40599e-05 0
1.40518e-06 -8.23343e-07 0
-7.63618e-07 -8.76816e-06 0
-1.33259e-05 -5.39506e-05 0
-5.66082e-06 9.97126e-06 0
-2.17598e-05 2.6427e-05 0
-7.75935e-06 1.97711e-05 0
-1.97912e-05 -1.2383e-05 0
-2.49986e-05 -6.48684e-06 0
-2.36342e-06 8.75087e-06 0
6.58268e-06 -1.54459e-05 0
-1.13983e-05 9.27873e-06 0
1.09676e-05 -2.90658e-05 0
2.19132e-05 2.29028e-05 0
3.62763e-05 1.83221e-05 0
1.28658e-05 -1.5896e-05 0
-1.66311e-05 -4.34646e-05 0
-1.71728e-05 -2.49499e-05 0
-1.01575e-05 -2.87348e-05 0
-2.75754e-05 -2.12189e-05 0
3.31644e-06 1.22094e-05 0
-1.09236e-05 -2.8212e-05 0
-1.52971e-05 4.96993e-06 0
8.27983e-06 1.94768e-05 0
-1.97799e-05 -1.34311e-05 0
-7.99306e-06 -2.70117e-05 0
1.86244e-05 2.57831e-05 0
7.56872e-06 -1.40127e-05 0
-2.13518e-05 7.09221e-06 0
1.61523e-05 -9.00946e-06 0
4.51895e-06 -6.88637e-06 0
-2.0035e-06 -3.79199e-05 0
-7.79435e-06 -5.27922e-08 0
-1.09534e-05 -6.77776e-06 0
-2.38422e-05 1.93273e-05 0
-2.15336e-05 -2.56995e-05 0
-1.6955e-06 -2.82864e-05 0
1.58751e-05 1.74582e-05 0
2.82094e-05 1.26275e-05 0
5.0128e-07 -1.58864e-05 0
-1.51303e-05 -9.44312e-06 0
8.74011e-06 7.17244e-06 0
8.77057e-07 2.82561e-05 0
3.43087e-06 4.30922e-06 0
7.29094e-06 -2.7694e-05 0
1.6057e-05 -5.29602e-06 0
-7.00794e-07 2.59399e-05 0
-2.04069e-06 -1.08419e-05 0
6.9164e-06 4.54916e-06 0
-2.28374e-05 -1.80856e-05 0
-1.32641e-05 -8.67039e-06 0
5.86167e-06 5.20263e-06 0
2.57709e-05 -8.94264e-07 0
-1.99455e-05 -3.59565e-06 0
-1.01407e-06 -8.97172e-07 0
-2.26196e-06 1.16977e-05 0
-4.03871e-06 -4.14718e-06 0
-1.87177e-05 2.76722e-05 0
3.09615e-05 2.06537e-05 0
-7.93483e-06 -1.71598e-05 0
-5.13298e-06 1.79359e-05 0
-6.01259e-06 -2.41126e-05 0
-2.26145e-06 -1.98857e-05 0
-7.7592e-06 -1.728e-05 0
-5.68235e-06 -9.75523e-06 0
-4.28165e-05 -7.79856e-06 0
-1.51624e-05 -7.31666e-06 0
-1.53726e-05 -1.54532e-05 0
1.2309e-05 -5.29953e-05 0
1.13397e-05 -1.31408e-05 0
-2.3834e-05 1.899e-05 0
2.00756e-06 7.12977e-06 0
1.12725e-06 -2.55489e-05 0
-4.59503e-06 3.35409e-05 0
-3.1747e-06 3.18801e-05 0
-2.15351e-05 1.97725e-05 0
1.72295e-05 3.91825e-05 0
2.69975e-05 4.18659e-06 0
-2.91988e-06 -1.55479e-07 0
-9.5044e-06 1.61576e-05 0
5.58927e-07 -3.21638e-05 0
-9.30772e-06 -1.22917e-05 0
-8.77799e-06 -1.51851e-05 0
-4.76766e-06 -2.33941e-05 0
-1.68315e-05 5.25291e-07 0
1.56776e-05 5.843e-06 0
7.78902e-06 -1.37044e-05 0
4.17643e-05 5.59536e-05 0
-5.61376e-06 -8.05165e-06 0
-2.13098e-05 -2.50951e-05 0
-1.85731e-05 3.87118e-06 0
-2.22888e-05 1.72386e-05 0
2.00047e-06 -1.19209e-06 0
-1.71686e-05 7.67476e-06 0
2.80507e-05 -2.06106e-07 0
3.94761e-06 7.2168e-06 0
-1.97553e-05 -1.99042e-05 0
-8.79966e-06 -1.37849e-06 0
-7.47374e-06 4.73958e-06 0
-4.35844e-06 -1.07466e-05 0
1.14453e-05 2.11033e-07 0
-2.86309e-05 -5.86864e-06 0
2.18476e-05 1.15848e-05 0
-1.29414e-05 -5.52116e-06 0
-6.98319e-06 -2.29755e-05 0
3.26993e-05 9.65504e-06 0
-1.78416e-05 1.68939e-05 0
2.40501e-06 -1.37061e-05 0
2.50518e-05 -1.22017e-05 0
-2.742e-05 -2.70612e-05 0
3.304e-06 -1.16548e-05 0
1.31696e-06 2.67148e-05 0
1.27762e-05 -8.31525e-06 0
-1.85748e-05 -1.06397e-05 0
1.05092e-05 1.77024e-05 0
-4.6595e-06 4.95815e-06 0
-1.82017e-05 7.21846e-06 0
-8.3103e-06 2.12238e-06 0
9.74238e-06 1.4165e-05 0
-3.19543e-05 -1.55728e-05 0
-2.59392e-05 8.41054e-06 0
-1.3826e-05 1.47786e-05 0
3.01231e-05 1.10339e-05 0
3.44769e-05 1.21634e-05 0
-4.08926e-06 -2.6888e-05 0
-8.7056e-06 -4.41449e-06 0
-2.189e-05 1.43881e-05 0
-1.81814e-05 -2.70835e-05 0
-8.20913e-06 -1.63591e-05 0
-1.38034e-05 -1.83054e-05 0
-9.63227e-06 -2.69196e-05 0
-9.22559e-06 -2.01167e-06 0
2.69657e-05 2.69322e-05 0
4.19899e-06 -1.34052e-05 0
1.25273e-05 -2.00585e-05 0
2.64257e-05 -2.54439e-05 0
-1.4261e-05 -7.22514e-06 0
1.48302e-06 6.41567e-05 0
-1.91135e-05 3.83212e-06 0
2.38152e-05 -1.13383e-05 0
-6.6603e-06 1.83415e-05 0
-2.57729e-07 2.39615e-07 0
4.65743e-07 -7.21171e-06 0
3.98373e-06 1.18456e-05 0
1.04924e-05 -9.35904e-06 0
-1.21228e-08 1.53999e-06 0
-5.26749e-06 -6.3474e-06 0
-4.89844e-06 -2.8758e-05 0
-8.93247e-06 -2.90906e-05 0
-1.76346e-06 1.30186e-05 0
3.50467e-06 -1.2618e-05 0
8.85168e-06 6.42002e-05 0
-2.43073e-05 -4.33042e-06 0
-5.80244e-06 -8.95274e-06 0
1.61331e-05 2.57474e-06 0
6.83867e-07 2.13261e-05 0
-1.17958e-05 2.43581e-05 0
-3.79693e-05 -4.92869e-05 0
-2.11071e-06 -2.75678e-05 0
-2.58665e-05 -1.48703e-05 0
-1.31821e-05 -4.86965e-07 0
1.61533e-05 1.27214e-05 0
-1.76126e-05 1.74108e-05 0
-8.54994e-06 5.9139e-06 0
-2.46736e-05 -4.26773e-05 0
-6.22552e-06 6.07201e-06 0
2.55434e-06 2.60167e-05 0
7.74007e-06 -1.81267e-05 0
9.84312e-06 1.52114e-05 0
7.26091e-06 9.80623e-06 0
7.63722e-06 1.50061e-05 0
4.7792e-06 3.67246e-05 0
-3.23341e-05 8.49341e-06 0
3.09987e-06 1.23383e-05 0
-1.77966e-05 -7.33099e-06 0
-1.74216e-06 -1.57248e-05 0
-1.91702e-05 2.69144e-05 0
-3.51803e-06 -2.33069e-06 0
-1.05316e-05 -6.10905e-06 0
-1.17857e-05 -4.09325e-05 0
-2.33645e-07 1.6318e-05 0
-7.42248e-06 -9.18929e-06 0
3.848e-06 2.21378e-05 0
-5.25199e-06 1.82492e-06 0
-4.51468e-06 1.71933e-05 0
2.2284e-05 6.91731e-06 0
9.68549e-06 3.6926e-07 0
1.38407e-05 4.69928e-06 0
-8.79527e-07 -2.87886e-06 0
2.45744e-06 -3.5935e-06 0
6.76808e-06 2.78578e-06 0
1.15288e-05 -1.40443e-06 0
-2.95721e-05 -1.17664e-05 0
6.75025e-07 2.41711e-05 0
2.16508e-05 5.1686e-05 0
2.10673e-06 5.64074e-05 0
-1.78377e-06 -9.03362e-06 0
-1.61297e-05 -2.83842e-05 0
-7.77812e-07 -8.30666e-07 0
-1.72683e-05 1.25911e-05 0
3.84096e-06 3.17059e-06 0
-3.6664e-06 3.91776e-06 0
1.87359e-05 1.67805e-05 0
-4.50623e-06 5.04792e-06 0
-8.51318e-06 -6.00393e-06 0
-1.34933e-05 -9.86814e-06 0
5.17554e-06 -6.52342e-06 0
-1.60702e-05 -2.63913e-05 0
4.18521e-06 -1.43715e-05 0
1.76992e-05 -2.71204e-05 0
-1.14925e-05 -2.36517e-05 0
1.00903e-05 -7.76499e-06 0
-1.17352e-05 2.14751e-05 0
6.39989e-06 7.18044e-06 0
4.5864e-06 -8.21551e-06 0
7.07119e-06 -7.35174e-06 0
-2.01805e-06 -6.58956e-06 0
-2.21516e-06 -7.75481e-06 0
9.78015e-06 6.00576e-06 0
-6.0619e-06 2.23142e-05 0
-1.11275e-05 7.04266e-06 0
-4.50342e-06 9.1772e-06 0
2.01943e-05 1.41935e-05 0
-3.65949e-05 -9.24236e-06 0
-2.66524e-05 -2.42011e-05 0
9.22023e-06 -1.40405e-05 0
-9.87591e-06 1.38172e-05 0
-4.24153e-06 8.61927e-06 0
-1.49123e-05 -1.58065e-05 0
-3.52024e-05 9.05851e-06 0
7.29189e-06 1.19292e-05 0
3.37699e-05 1.34738e-05 0
7.43285e-06 1.62729e-06 0
-6.72052e-06 -4.26596e-05 0
-6.17592e-06 2.44225e-06 0
-1.49769e-05 -5.87851e-06 0
8.37433e-06 1.34886e-05 0
1.32173e-05 2.89169e-05 0
-1.72858e-05 -5.43209e-06 0
-1.26536e-05 -4.74319e-07 0
-1.28116e-05 -3.48098e-05 0
-2.52759e-05 -6.08763e-06 0
-1.56418e-06 1.02622e-06 0
-1.08296e-05 1.01147e-05 0
-1.30484e-05 -1.34719e-06 0
-1.49797e-05 2.50507e-05 0
-2.03994e-05 -9.42479e-06 0
-2.26234e-06 4.52683e-06 0
1.30883e-05 -8.05008e-06 0
-1.5753e-05 1.96643e-05 0
1.98592e-05 -2.20782e-05 0
-1.43881e-05 2.49699e-05 0
-2.42052e-05 3.0219e-05 0
-1.44247e-05 1.43959e-05 0
-7.00941e-06 -3.70157e-05 0
-7.78213e-06 -1.47749e-05 0
4.93228e-06 -1.53324e-05 0
-2.2124e-05 1.42589e-05 0
-4.49383e-06 -1.16241e-05 0
2.21686e-05 1.46115e-05 0
5.66835e-06 -9.14728e-06 0
-5.53918e-06 1.19802e-05 0
-1.31252e-05 1.07629e-05 0
4.0695e-06 1.43154e-06 0
-9.18367e-06 9.32535e-06 0
-9.60513e-06 2.97601e-06 0
-3.69134e-05 9.01324e-08 0
1.41639e-05 3.288e-06 0
-6.79082e-07 -5.01392e-06 0
-8.94411e-07 1.62141e-06 0
-1.69338e-05 2.77066e-06 0
-2.38766e-05 -4.1529e-06 0
2.34723e-05 -1.00691e-05 0
3.87413e-06 -6.61338e-07 0
5.6771e-06 1.35085e-06 0
-5.69088e-06 5.28815e-06 0
-2.96974e-05 -2.85403e-05 0
1.18154e-05 2.74761e-05 0
-1.11045e-05 5.00349e-06 0
4.83371e-06 2.81698e-05 0
2.88029e-05 1.70177e-05 0
-9.21971e-06 -1.73537e-05 0
3.52385e-06 -1.19561e-05 0
6.09727e-06 2.01518e-05 0
-2.23137e-05 1.5073e-07 0
-8.81954e-06 -2.58326e-06 0
2.4916e-05 1.61607e-05 0
2.16161e-05 -1.80417e-05 0
2.45087e-05 1.88469e-05 0
-1.87544e-05 -3.77261e-05 0
1.56518e-05 -2.67843e-05 0
1.59411e-05 2.36968e-05 0
5.5781e-06 -7.55045e-06 0
9.11409e-06 -2.09433e-05 0
2.87151e-05 3.20264e-05 0
-1.22629e-05 -8.73324e-06 0
3.22058e-05 -1.51209e-05 0
-3.82798e-07 1.27753e-06 0
-1.63336e-05 7.40728e-06 0
2.57314e-05 2.66687e-06 0
7.63654e-06 2.99306e-06 0
-1.14153e-05 -1.72741e-05 0
-6.65687e-06 4.68955e-06 0
-4.38416e-06 -3.49114e-05 0
3.84467e-06 -1.89267e-05 0
-9.17176e-06 -2.06631e-05 0
-2.44577e-05 3.95574e-06 0
-5.42573e-06 2.23559e-05 0
-2.47764e-05 -1.48965e-05 0
1.31468e-06 1.7217e-05 0
-7.10071e-06 1.12696e-05 0
-5.06036e-06 1.32025e-05 0
5.16087e-06 2.07132e-05 0
1.51927e-05 -5.95867e-06 0
-6.57569e-06 -3.26645e-05 0
-7.65067e-06 2.83087e-06 0
1.60559e-05 1.61777e-05 0
5.44495e-06 6.23959e-07 0
4.13906e-06 1.33178e-06 0
-4.73895e-06 -7.14699e-06 0
-5.73409e-06 -8.95523e-06 0
2.31486e-05 2.80528e-05 0
-1.01087e-05 -4.4464e-06 0
3.09625e-05 7.54845e-06 0
-6.49044e-06 -7.14579e-06 0
1.26725e-05 -1.78027e-05 0
-1.0468e-05 3.44612e-05 0
1.70244e-05 -6.90102e-06 0
1.65137e-05 7.54129e-06 0
-1.19546e-05 -3.19411e-05 0
-8.5089e-06 4.29283e-06 0
-6.18587e-07 4.34606e-05 0
-5.29469e-06 6.41146e-05 0
-2.95068e-05 1.81852e-05 0
1.10106e-05 2.2511e-06 0
-3.1366e-05 -7.46382e-06 0
1.26191e-05 -2.0833e-06 0
4.05383e-05 1.01553e-05 0
-1.12869e-05 9.37454e-06 0
1.10913e-05 1.29691e-05 0
-7.4672e-08 -2.99561e-05 0
4.43325e-05 8.69673e-06 0
-1.45936e-07 1.42925e-05 0
1.10596e-05 1.47831e-05 0
5.17145e-06 9.80339e-06 0
-3.61887e-06 5.76182e-06 0
1.37313e-05 2.9157e-07 0
6.09465e-06 -1.67356e-05 0
-8.88234e-06 -2.06259e-05 0
1.87146e-06 -7.87689e-07 0
-1.77464e-05 -3.669e-05 0
-3.39541e-06 -9.5711e-06 0
2.67147e-05 1.79979e-05 0
5.44694e-06 4.63524e-07 0
-1.42832e-05 -2.60961e-05 0
-3.88835e-07 -8.84189e-06 0
-2.151e-05 -1.59096e-05 0
-4.70923e-05 -1.58111e-05 0
7.85092e-06 1.35257e-05 0
2.98216e-06 -2.7628e-05 0
-1.79411e-05 -1.68736e-05 0
1.22644e-05 -2.3181e-05 0
3.11302e-05 -3.01602e-05 0
6.87091e-06 9.7207e-06 0
9.20829e-06 -1.18272e-05 0
7.39797e-06 1.94542e-05 0
-1.38696e-05 -3.83759e-05 0
-8.1114e-06 1.2838e-05 0
-1.80561e-05 -5.97645e-07 0
-1.3774e-05 -6.66821e-07 0
8.81123e-06 1.31861e-05 0
1.72159e-05 -8.98891e-06 0
6.09278e-07 -3.18842e-05 0
-2.42638e-06 -1.84876e-06 0
-1.20152e-05 -2.40451e-05 0
1.1148e-06 9.83536e-06 0
1.12779e-05 9.23939e-06 0
-8.35101e-06 -2.95364e-05 0
3.15637e-05 -4.55939e-06 0
-9.39795e-06 -7.51775e-06 0
6.39919e-06 1.9983e-06 0
-3.17077e-06 3.5703e-05 0
2.18794e-05 9.75697e-06 0
4.02731e-06 -2.74626e-05 0
2.01841e-05 1.83962e-05 0
8.96059e-06 -6.70848e-06 0
-7.82935e-07 1.0279e-05 0
5.71107e-07 8.09534e-06 0
-9.14907e-06 -3.34674e-05 0
1.11644e-06 5.41375e-06 0
-2.18882e-06 -3.51321e-05 0
1.32941e-05 -4.31567e-06 0
-8.96586e-07 -7.46343e-06 0
-1.09267e-05 2.09243e-05 0
-2.22584e-05 1.11664e-06 0
-8.07875e-06 -4.27428e-05 0
3.26525e-05 4.81139e-06 0
2.23932e-06 1.20943e-06 0
2.15465e-05 -4.46289e-06 0
6.50056e-06 5.52346e-06 0
1.28391e-06 -1.12807e-05 0
7.04182e-06 1.3615e-05 0
-2.92962e-06 -2.73682e-06 0
-6.54847e-06 -2.19227e-05 0
-1.19985e-05 1.35037e-05 0
-1.14796e-05 -1.74107e-05 0
8.90721e-06 -1.08888e-05 0
6.2559e-06 -1.66909e-05 0
1.19775e-05 1.26529e-05 0
6.60983e-07 -3.28718e-05 0
1.38965e-05 -8.16036e-06 0
1.70763e-05 -2.80377e-06 0
-2.07987e-05 -1.48872e-05 0
-2.71951e-05 1.11194e-05 0
-1.08548e-05 -3.73527e-05 0
-8.88671e-06 -2.87471e-06 0
-1.89357e-05 -1.72206e-05 0
4.83479e-06 2.24975e-05 0
1.04103e-05 -1.56895e-05 0
-2.05247e-05 2.75679e-05 0
-7.87121e-06 -6.87532e-06 0
1.67287e-05 4.41991e-05 0
-3.28723e-05 -2.21321e-06 0
-4.02633e-06 -1.72016e-05 0
-1.1453e-05 1.16238e-05 0
5.602e-06 6.27871e-06 0
-3.33197e-06 -1.95517e-05 0
-1.32453e-05 -9.60363e-06 0
1.13982e-05 3.30302e-06 0
-1.82537e-06 9.30932e-06 0
2.91211e-05 2.88062e-06 0
-1.3002e-05 -3.05865e-05 0
-2.3827e-05 -2.26689e-05 0
-1.37065e-05 -1.15126e-05 0
-2.66683e-05 -8.96034e-06 0
-2.23849e-05 -7.39955e-07 0
2.00408e-06 3.60198e-05 0
2.40708e-05 5.75124e-06 0
-1.15917e-05 2.41663e-06 0
1.18257e-05 1.80334e-05 0
-2.99407e-05 1.07922e-05 0
3.83034e-05 1.16223e-05 0
2.89917e-05 1.39421e-05 0
-1.47332e-05 5.18937e-06 0
6.31929e-06 7.95441e-06 0
-7.07552e-06 -2.09298e-05 0
-8.96252e-06 -2.06718e-05 0
8.82222e-06 2.46086e-05 0
-5.50057e-06 -1.74945e-06 0
-1.43865e-05 -4.20759e-05 0
2.08902e-05 1.28172e-05 0
6.70008e-06 -2.21665e-06 0
1.58752e-05 4.90045e-06 0
-1.14703e-05 -2.87104e-05 0
-8.00371e-06 3.11449e-05 0
1.39472e-05 -1.88712e-05 0
-1.13113e-05 3.77393e-06 0
-2.28723e-05 -2.11071e-05 0
-1.25613e-05 1.36091e-05 0
1.13399e-06 -3.17827e-06 0
1.12085e-06 7.9119e-06 0
-1.09195e-05 -1.85177e-05 0
3.58724e-06 9.49973e-07 0
-2.33546e-05 1.24059e-05 0
-4.07109e-05 -1.37997e-05 0
1.29137e-05 2.21396e-05 0
-5.98593e-06 1.70981e-05 0
-1.40789e-05 1.05196e-05 0
2.12864e-05 -4.34961e-05 0
-3.68322e-06 -3.40499e-05 0
-1.36862e-05 -4.18566e-05 0
-4.91198e-06 -1.70214e-05 0
6.76702e-06 2.95063e-05 0
2.39743e-06 -1.24091e-05 0
7.86748e-06 -8.88604e-06 0
9.04455e-06 -5.10744e-06 0
-3.42299e-05 -5.47872e-06 0
3.55744e-06 -2.4693e-05 0
-1.83906e-06 -9.42929e-06 0
4.58058e-06 -3.32824e-05 0
-5.50975e-06 7.68236e-06 0
-9.0989e-06 -4.76532e-07 0
1.06261e-05 -4.7663e-06 0
1.33082e-05 -3.29875e-05 0
2.84782e-05 4.14403e-06 0
-2.41021e-05 -6.37205e-06 0
-1.44626e-05 1.85755e-05 0
6.18856e-06 1.0916e-05 0
2.40489e-05 -3.96934e-06 0
-1.26043e-05 -1.31392e-05 0
-9.25227e-06 1.95036e-05 0
2.19743e-05 3.26831e-05 0
-2.67518e-06 1.06283e-05 0
1.20562e-05 2.52193e-05 0
-2.48711e-06 -2.79213e-05 0
-5.78451e-07 4.83004e-05 0
2.2052e-05 4.33303e-06 0
7.92523e-07 -2.38578e-07 0
-2.38904e-06 -4.85911e-06 0
-7.62441e-06 1.26032e-05 0
1.23158e-05 -1.65879e-06 0
-1.76782e-05 9.10794e-06 0
-1.83118e-06 1.41392e-05 0
-2.43696e-05 1.41811e-05 0
-8.63088e-06 -1.33563e-05 0
-8.48282e-06 3.06473e-05 0
-2.21928e-05 3.30273e-05 0
-1.24598e-05 1.55709e-05 0
-1.0054e-05 1.92594e-06 0
4.99224e-07 1.44938e-05 0
-1.87206e-05 1.15059e-05 0
-1.31619e-05 -3.59474e-06 0
-2.18742e-06 -8.80319e-06 0
2.11024e-05 2.25361e-06 0
4.70747e-06 -3.10201e-05 0
-5.85747e-06 2.52815e-05 0
-1.56706e-05 -2.30924e-05 0
2.09651e-05 -1.39208e-05 0
1.52768e-05 6.3225e-06 0
-1.75571e-05 -2.5318e-05 0
-2.82347e-06 3.63864e-06 0
-4.48331e-06 -1.20499e-05 0
2.60777e-05 2.40789e-05 0
-2.62649e-06 3.27901e-07 0
-1.13735e-05 1.98735e-06 0
-1.43801e-05 9.87515e-06 0
-1.98859e-06 -9.37032e-06 0
-2.16035e-05 -4.57234e-06 0
2.30576e-06 5.57614e-06 0
1.14791e-05 4.03269e-05 0
-6.06727e-06 3.69042e-05 0
-1.33038e-05 2.47144e-05 0
-2.23615e-05 2.20616e-05 0
8.72082e-06 -2.35457e-05 0
-6.28471e-06 5.78719e-06 0
-1.60688e-05 -1.1475e-05 0
-2.78759e-06 -8.572e-06 0
-2.4992e-05 -1.73145e-05 0
4.63871e-05 1.6438e-05 0
1.12209e-05 -1.03467e-05 0
2.14059e-06 1.82222e-05 0
-1.27378e-05 1.19007e-05 0
-2.34849e-05 -1.28922e-05 0
5.14046e-06 2.76962e-05 0
-1.18083e-05 -3.62828e-05 0
-6.26722e-06 4.50592e-06 0
9.23951e-06 -2.20526e-05 0
6.5856e-06 -2.58743e-05 0
-1.3282e-05 2.06466e-05 0
-2.05417e-05 -1.14468e-05 0
-1.07463e-06 -2.57501e-05 0
-1.06257e-05 -7.77079e-06 0
-1.02198e-06 -3.21638e-06 0
-5.8395e-06 -4.38086e-06 0
-4.93285e-05 -1.27698e-07 0
2.60136e-06 -6.49013e-06 0
-1.57164e-05 4.15561e-05 0
-8.0516e-07 -1.86246e-05 0
7.19033e-06 -1.07265e-05 0
-9.61653e-06 -1.02657e-05 0
-1.15632e-05 -1.7316e-05 0
-7.26553e-06 -3.94965e-06 0
-1.49653e-05 8.69466e-06 0
1.07526e-05 -2.27385e-05 0
1.33762e-05 -7.53361e-06 0
-9.14418e-06 1.91518e-05 0
7.66082e-07 -2.65131e-05 0
8.01352e-06 -1.21471e-05 0
1.72425e-05 -1.75992e-05 0
-3.68613e-07 1.79371e-05 0
-3.35643e-06 2.56277e-05 0
-3.33221e-05 -3.20586e-05 0
2.5315e-05 4.69816e-05 0
4.79775e-05 5.01648e-05 0
-1.75063e-05 -6.03408e-06 0
-1.05854e-05 -2.0834e-06 0
3.43691e-05 1.21933e-06 0
1.81989e-05 -2.64915e-06 0
-1.38483e-05 -1.14533e-05 0
-2.79948e-05 -4.55483e-06 0
-1.63696e-05 -1.71523e-05 0
-1.01641e-05 7.98028e-06 0
1.61233e-06 9.6973e-07 0
4.09938e-06 -1.38397e-05 0
3.82492e-07 -2.02576e-05 0
-1.86681e-05 -2.8863e-05 0
-3.54095e-05 8.36077e-07 0
1.43057e-05 2.78063e-05 0
-9.7171e-06 2.60943e-05 0
2.19885e-06 3.4904e-06 0
-2.0904e-06 7.25148e-06 0
1.27466e-05 1.75993e-05 0
-3.44686e-07 -2.56752e-05 0
-2.6555e-05 -6.63678e-07 0
-7.99192e-06 7.41416e-06 0
-1.36471e-05 -8.61498e-06 0
7.12047e-06 -6.75789e-07 0
2.88702e-07 1.42447e-05 0
-6.98175e-06 -1.02694e-05 0
1.24461e-05 -2.3674e-05 0
5.42111e-06 1.55014e-05 0
-7.15667e-06 -3.35319e-05 0
-2.74103e-05 -5.89972e-07 0
4.52403e-07 2.77074e-06 0
1.04943e-05 5.84155e-06 0
1.78853e-06 2.17473e-07 0
1.11397e-05 8.33883e-06 0
8.16076e-08 1.29711e-05 0
-3.13998e-05 -7.66175e-06 0
-7.6475e-06 1.87225e-05 0
2.57144e-05 -6.39272e-06 0
-9.33779e-07 -3.27303e-06 0
-2.54991e-05 -1.10657e-05 0
-3.78643e-05 -7.89044e-06 0
2.56166e-06 7.60036e-07 0
1.66804e-06 -3.97227e-06 0
6.15101e-07 3.64235e-05 0
-1.83125e-05 4.25813e-06 0
-1.45557e-05 1.08967e-06 0
1.20845e-06 1.9596e-05 0
3.5855e-06 -2.27399e-05 0
-2.76811e-06 2.82203e-05 0
1.7531e-05 -1.61782e-06 0
1.68268e-05 -2.09079e-06 0
3.40455e-06 3.18042e-05 0
-8.45468e-06 1.15002e-06 0
-1.57666e-06 -2.41586e-05 0
2.09533e-05 -1.83103e-05 0
9.33926e-06 -8.45775e-06 0
-5.75021e-06 1.3372e-05 0
-1.87239e-05 2.75743e-05 0
2.16824e-05 -1.02814e-05 0
-3.99233e-06 1.10404e-05 0
-1.23713e-05 8.70883e-06 0
2.21498e-05 2.2275e-05 0
1.23802e-05 3.17703e-05 0
-4.01157e-06 4.41219e-06 0
-8.28185e-06 -3.26184e-05 0
-2.23616e-05 -3.98439e-06 0
-6.84676e-06 -1.94887e-05 0
-6.44475e-08 -8.92129e-06 0
-1.04697e-05 -7.21885e-07 0
-1.51285e-05 3.46939e-05 0
1.74273e-05 -1.84377e-05 0
-2.02203e-05 -9.86114e-06 0
3.20107e-05 3.95458e-05 0
-2.19147e-05 -1.78085e-05 0
2.01352e-05 3.09977e-05 0
1.39554e-05 -3.8734e-06 0
-1.57322e-05 -1.04919e-05 0
9.21503e-06 -6.71582e-06 0
-1.73327e-05 -1.4643e-05 0
1.20896e-05 2.27952e-05 0
-1.74496e-05 2.66135e-06 0
1.26957e-05 2.191e-05 0
-1.57584e-05 -3.9998e-06 0
-5.71366e-06 -6.63474e-06 0
1.7578e-05 2.8503e-05 0
-8.79865e-07 3.92672e-06 0
-5.86461e-06 -2.7735e-06 0
1.15554e-07 -1.43154e-05 0
3.16948e-05 -3.23494e-06 0
-1.32072e-06 -1.42595e-06 0
1.1649e-05 8.73581e-07 0
-7.04034e-06 8.22404e-06 0
-2.29698e-06 6.58537e-06 0
-8.07792e-06 1.06272e-05 0
1.85117e-05 1.90081e-05 0
-5.76325e-06 -1.53216e-05 0
2.20193e-05 -1.37348e-06 0
-1.89442e-05 -3.74673e-08 0
-2.68619e-05 -3.24881e-06 0
-1.75578e-06 -2.95176e-05 0
1.70297e-05 1.34898e-05 0
2.34103e-05 -1.1194e-05 0
-2.08225e-05 -2.68011e-05 0
-8.85368e-06 -8.62156e-06 0
-5.36968e-06 1.17902e-05 0
-1.91112e-05 3.02074e-06 0
-3.89093e-06 4.35603e-06 0
1.64573e-05 -1.82066e-05 0
4.44305e-06 1.51892e-05 0
-2.73112e-05 -4.36377e-06 0
-2.12525e-05 -1.2556e-05 0
1.15527e-05 8.39702e-06 0
-8.07801e-07 -4.91247e-06 0
-8.61054e-06 1.38113e-06 0
-1.39043e-05 -3.18997e-06 0
-7.5351e-06 -1.72751e-06 0
9.60077e-06 1.01755e-05 0
-6.79419e-06 -3.32544e-06 0
9.1765e-06 -1.8249e-06 0
-2.10704e-05 6.47649e-07 0
-3.23007e-06 2.84488e-06 0
4.59672e-06 1.15446e-05 0
2.31188e-05 2.16467e-05 0
8.72656e-07 -3.60679e-05 0
2.05554e-05 6.04575e-06 0
3.51063e-05 6.82528e-06 0
-3.24101e-05 7.43731e-06 0
-2.59667e-05 -5.93963e-06 0
-1.60732e-05 4.28644e-06 0
-1.63102e-05 -1.94671e-05 0
1.18349e-05 -9.15635e-06 0
7.30446e-06 7.83598e-07 0
1.38614e-06 3.15658e-05 0
6.02085e-06 1.30797e-05 0
-2.54072e-05 -2.56279e-05 0
-7.451e-07 -2.45434e-06 0
-2.34106e-05 -2.38555e-05 0
-2.14464e-05 -1.31188e-06 0
-5.24592e-06 2.96505e-05 0
-1.71929e-05 -1.88986e-06 0
-1.9395e-05 3.17689e-05 0
3.07321e-05 -4.84117e-06 0
5.65696e-06 -1.13245e-06 0
1.93786e-05 1.47333e-05 0
-1.09819e-05 -1.48216e-05 0
1.98253e-05 1.52633e-06 0
-6.89396e-06 1.31168e-05 0
2.2576e-05 5.17185e-06 0
4.80749e-06 1.72854e-05 0
5.03479e-06 3.29217e-05 0
1.59999e-05 3.44728e-05 0
1.50672e-05 1.15006e-05 0
-5.8501e-06 1.05273e-05 0
1.08001e-05 -1.80858e-05 0
4.88435e-07 -7.44594e-06 0
1.69418e-05 1.10027e-05 0
1.04835e-05 2.02522e-06 0
-1.92068e-05 6.71216e-06 0
1.4224e-05 5.98974e-05 0
-1.80911e-05 -3.84717e-06 0
-8.97859e-06 3.5787e-05 0
-2.62495e-05 -2.08121e-05 0
-4.81864e-06 -1.59818e-05 0
-2.01105e-06 -2.04913e-05 0
1.20494e-05 -5.42544e-07 0
-1.56235e-05 1.24589e-05 0
4.22983e-06 -2.53493e-05 0
1.38353e-05 9.81523e-07 0
-2.16175e-06 1.16678e-05 0
2.69152e-06 1.89888e-05 0
-6.73332e-06 -1.51907e-05 0
-8.2946e-06 4.49086e-05 0
-2.57103e-06 -9.60954e-06 0
-1.65692e-05 1.07353e-05 0
-1.13689e-05 6.81394e-06 0
2.28282e-06 8.66352e-06 0
2.34871e-06 -6.0228e-06 0
8.53987e-06 2.59533e-06 0
1.59417e-05 1.84235e-06 0
5.50341e-06 3.46138e-05 0
1.62051e-06 6.71077e-06 0
-3.58259e-07 1.24064e-06 0
-1.20507e-06 9.01183e-06 0
7.7569e-06 5.16638e-07 0
4.102e-06 2.84062e-06 0
1.536e-05 -6.82063e-06 0
1.84153e-05 8.92068e-06 0
-6.7623e-06 -1.197e-05 0
-2.42847e-06 -2.99614e-05 0
-2.15109e-05 -2.39557e-05 0
-5.71185e-06 -2.13416e-05 0
8.72226e-06 -2.30478e-06 0
-1.26948e-05 7.48857e-06 0
7.2901e-06 -7.24101e-06 0
-7.96605e-06 3.3058e-06 0
-4.49174e-05 -1.92762e-05 0
-7.35716e-06 -8.63011e-06 0
1.8657e-05 3.29515e-05 0
1.91674e-05 -3.49403e-05 0
1.86467e-05 -2.08543e-05 0
3.13998e-06 1.68428e-05 0
2.20292e-07 3.316e-05 0
-3.0378e-06 4.37572e-06 0
-6.04725e-06 1.42398e-05 0
-6.85078e-06 2.68894e-05 0
1.32015e-06 4.43755e-06 0
-1.20093e-05 1.44344e-05 0
1.56478e-05 -9.93572e-06 0
1.40939e-05 -5.55775e-06 0
9.05455e-06 -1.67168e-05 0
-2.2397e-05 -5.94574e-06 0
-6.04342e-06 -3.74043e-05 0
-1.95998e-05 -2.30855e-05 0
-2.33999e-05 4.43454e-05 0
-1.72108e-06 1.28581e-05 0
6.8813e-06 1.14338e-06 0
-5.20422e-07 2.75336e-05 0
1.31948e-06 -2.27775e-05 0
-6.7755e-06 -1.3274e-06 0
4.82944e-05 1.82859e-05 0
2.94086e-05 1.31411e-05 0
-1.35954e-06 1.26017e-06 0
2.74794e-05 -1.48937e-05 0
-1.03587e-05 -5.69452e-06 0
1.84926e-05 2.9764e-05 0
-9.45723e-06 2.04477e-05 0
-6.59033e-06 -2.78529e-05 0
-8.75508e-06 -6.14099e-06 0
-2.04517e-05 -6.81744e-06 0
-2.16758e-05 3.80164e-06 0
4.60337e-06 -9.49332e-06 0
-1.84563e-05 -2.31232e-05 0
-2.20994e-05 -2.31376e-05 0
1.05799e-05 -1.58754e-05 0
1.65893e-05 -1.8584e-05 0
2.16601e-05 2.36077e-05 0
3.72127e-06 4.01493e-05 0
-3.92985e-05 2.71036e-05 0
5.60559e-06 1.03932e-05 0
2.90515e-05 8.32793e-06 0
9.45572e-06 2.40525e-05 0
-1.83736e-05 -1.83456e-05 0
-1.35729e-05 -4.42904e-06 0
-5.63782e-07 1.32512e-05 0
5.34659e-06 -1.79256e-05 0
4.2442e-05 1.86974e-05 0
-1.88791e-05 -2.71537e-06 0
-7.35173e-06 -9.42426e-06 0
-2.01245e-05 4.21355e-05 0
-2.79529e-05 -3.058e-05 0
-8.8514e-06 2.51786e-06 0
-9.99968e-06 -2.59445e-05 0
-4.70939e-06 1.00316e-05 0
-1.5495e-05 -3.97183e-05 0
-6.9253e-06 -3.99952e-06 0
-8.37653e-06 4.70424e-05 0
-1.08127e-05 -7.63803e-06 0
2.26232e-05 -1.64174e-06 0
9.33017e-06 2.51064e-06 0
1.27578e-06 6.76736e-06 0
9.0992e-06 2.07661e-05 0
1.00015e-05 -8.66447e-06 0
-2.03649e-05 -7.35495e-06 0
1.40171e-06 2.50064e-05 0
3.74861e-06 -7.4256e-06 0
2.40869e-05 1.41214e-05 0
1.33109e-05 -1.4747e-05 0
-1.32893e-05 -3.70697e-06 0
-2.25794e-06 -1.03659e-06 0
-1.46969e-05 1.65799e-07 0
1.56032e-05 5.02863e-05 0
-5.69741e-05 -2.2966e-05 0
1.58736e-05 5.41913e-06 0
-1.69426e-05 -2.02158e-06 0
-1.34654e-05 -1.16333e-05 0
-1.21719e-05 -1.77678e-05 0
-1.22834e-05 -2.15999e-05 0
-7.10586e-06 -1.82972e-05 0
1.56992e-05 1.17691e-05 0
-4.19456e-07 -2.88697e-05 0
1.8363e-05 7.05792e-06 0
2.30751e-05 -5.94148e-06 0
2.61275e-05 -1.85639e-05 0
1.15413e-05 4.39228e-05 0
-1.30229e-05 -1.67567e-05 0
-7.69116e-06 1.52052e-05 0
-3.07562e-05 6.47211e-06 0
1.62524e-05 4.29107e-05 0
-1.88529e-05 -8.98795e-06 0
-7.9839e-06 -1.47223e-05 0
1.29984e-05 1.11081e-05 0
-1.42795e-05 -1.01109e-05 0
2.28117e-06 -5.36676e-06 0
2.54255e-06 -2.33559e-05 0
8.89061e-08 1.14836e-05 0
-9.28341e-06 -1.12827e-06 0
1.00725e-05 1.16505e-06 0
1.40752e-05 -1.20466e-05 0
2.07626e-05 2.95494e-05 0
-3.16167e-06 -4.06956e-06 0
-6.40387e-06 1.77619e-06 0
1.88788e-05 7.73218e-06 0
6.82591e-07 2.15612e-05 0
-7.57252e-06 -2.25439e-05 0
1.10063e-05 2.7223e-05 0
8.19688e-06 8.23771e-07 0
4.19793e-06 -1.13457e-05 0
-1.29806e-05 -3.55669e-05 0
1.32806e-05 -1.90314e-05 0
-9.2694e-06 -2.99994e-05 0
-1.22208e-05 -1.1444e-05 0
2.81285e-05 -1.48554e-05 0
-1.98762e-05 -3.48915e-05 0
1.01642e-05 6.06012e-05 0
1.61269e-05 8.47575e-06 0
1.95523e-05 -5.31798e-06 0
-2.26631e-05 -3.1364e-05 0
7.58497e-06 -2.28697e-05 0
9.51425e-06 8.03613e-06 0
-1.07305e-05 -2.18991e-05 0
-7.0037e-06 -1.60346e-05 0
-1.68958e-05 -9.9585e-06 0
1.63674e-06 1.70183e-05 0
1.04207e-05 -1.9512e-05 0
9.95891e-06 2.59346e-05 0
-9.30162e-06 3.63787e-06 0
-1.35401e-05 2.01293e-05 0
-3.62725e-06 1.72985e-05 0
-2.75422e-05 3.39659e-05 0
2.18537e-06 -2.56187e-05 0
2.12233e-05 1.44548e-06 0
-2.89705e-06 -3.45297e-05 0
2.08786e-05 -6.51009e-06 0
1.44728e-05 -1.17168e-05 0
-3.99913e-06 3.48344e-06 0
-1.63837e-05 -2.24077e-05 0
1.56944e-05 -2.08747e-05 0
2.55431e-05 8.41365e-06 0
-1.62403e-05 -1.88604e-06 0
4.26462e-06 -7.22804e-06 0
-6.00103e-06 8.5343e-06 0
4.00569e-05 -2.84228e-05 0
1.23839e-05 -2.13326e-05 0
-2.98453e-05 3.07605e-05 0
-5.69494e-06 8.79284e-06 0
1.22758e-05 -6.71651e-06 0
9.66866e-06 3.29428e-05 0
-2.0665e-06 -6.5056e-07 0
-4.0361e-05 -1.69343e-05 0
-7.08239e-06 1.74258e-05 0
2.45477e-05 -5.95905e-06 0
-1.7821e-05 2.93957e-05 0
1.84546e-05 1.31477e-05 0
-2.05005e-05 2.72506e-05 0
4.98165e-06 8.81751e-06 0
-3.34019e-06 -3.25462e-05 0
2.34958e-05 -1.16841e-05 0
-7.04299e-06 -1.30661e-05 0
5.01893e-06 -1.39856e-05 0
-4.24855e-06 2.44341e-05 0
1.97095e-07 -2.30677e-05 0
-5.8683e-06 -1.08673e-06 0
-1.67284e-05 3.98849e-06 0
-1.24407e-05 -2.3137e-06 0
-9.54371e-06 8.54857e-06 0
-1.69184e-05 -4.09543e-06 0
-5.68988e-06 -2.04139e-06 0
-6.20766e-06 4.77597e-06 0
-2.25788e-05 -1.23829e-05 0
5.62599e-06 -4.01446e-06 0
9.7926e-06 -4.70253e-06 0
-3.34496e-06 1.53232e-05 0
1.9491e-05 3.42376e-05 0
7.79467e-06 1.49677e-05 0
3.59681e-05 4.9961e-06 0
-1.18101e-06 1.0898e-05 0
1.77815e-05 1.82106e-05 0
8.44574e-06 6.98518e-06 0
2.9319e-06 -3.3151e-05 0
7.98515e-08 -2.75817e-05 0
-1.25038e-05 1.78343e-05 0
7.71165e-06 -4.39428e-06 0
1.46608e-05 -1.03397e-05 0
-4.50755e-06 -1.13252e-05 0
-1.83448e-05 -3.00995e-06 0
1.15736e-05 -1.31152e-06 0
-1.35507e-05 -2.55741e-05 0
-2.00987e-05 3.33011e-06 0
-7.35634e-06 -2.66165e-05 0
-1.59228e-05 -3.35755e-05 0
2.48084e-05 -1.09596e-05 0
7.50403e-06 1.93812e-05 0
2.03286e-05 8.43801e-06 0
-1.93151e-05 -1.05261e-05 0
7.04921e-06 1.8451e-05 0
5.43399e-06 -1.31e-05 0
4.9933e-06 2.30395e-05 0
9.48892e-06 2.90071e-06 0
-3.72918e-06 1.14361e-05 0
1.54702e-06 2.0909e-05 0
-1.97564e-05 -2.49403e-05 0
-8.70911e-06 1.23252e-06 0
-1.50781e-05 -3.56914e-06 0
-9.13442e-08 2.37106e-06 0
1.05956e-05 -4.18328e-07 0
-1.99516e-05 -3.13936e-06 0
-1.57195e-05 -8.41424e-06 0
-4.35567e-06 4.54474e-05 0
1.57162e-05 8.41873e-06 0
-1.74458e-05 1.50902e-05 0
1.40452e-05 5.95019e-05 0
8.18059e-06 -3.74479e-06 0
-5.15938e-06 9.44236e-06 0
2.41498e-07 -6.09052e-06 0
3.94688e-05 9.65207e-06 0
4.71107e-06 1.06764e-05 0
4.42954e-06 7.31799e-06 0
-1.9416e-06 -1.28067e-05 0
7.02681e-06 -8.11199e-06 0
-1.52878e-05 -6.84164e-05 0
-6.70052e-06 -4.39057e-05 0
2.2935e-05 -2.80511e-05 0
-2.07601e-05 -3.05458e-05 0
-1.51149e-05 3.57013e-05 0
2.42083e-05 -8.96274e-06 0
-1.31555e-07 -9.05594e-06 0
1.27401e-05 2.67009e-05 0
-2.42247e-05 -1.76961e-05 0
1.67634e-05 -3.64138e-05 0
3.17125e-06 2.41176e-06 0
-6.91037e-06 -3.39415e-05 0
-7.99142e-06 1.89703e-06 0
2.04883e-05 2.78378e-05 0
-1.57477e-06 4.02727e-05 0
-2.57618e-06 -1.85159e-05 0
3.36598e-05 5.81648e-06 0
-9.47556e-06 -1.65131e-05 0
-1.09363e-05 -2.13011e-05 0
-4.4717e-06 -1.59438e-05 0
8.79542e-06 1.49807e-05 0
3.14504e-05 -2.76435e-06 0
8.8507e-06 2.44846e-05 0
-1.93737e-05 5.04846e-07 0
-2.90589e-05 -5.48463e-06 0
-1.26046e-05 -3.56262e-05 0
-7.16076e-06 5.72045e-06 0
3.34427e-05 -2.83989e-05 0
-3.73413e-06 -6.26476e-07 0
-7.78326e-06 -2.44127e-05 0
1.94567e-05 -1.61425e-05 0
-3.89772e-06 1.50741e-05 0
-3.87724e-06 -1.70451e-05 0
5.5515e-06 7.38917e-06 0
1.10462e-05 -5.4992e-06 0
-1.18313e-05 -8.65078e-06 0
2.08864e-05 2.74414e-05 0
-5.68304e-06 -3.08963e-05 0
4.1789e-07 -4.16479e-06 0
2.26295e-06 7.02705e-06 0
-1.06947e-05 -2.21275e-05 0
-1.33772e-06 2.3162e-05 0
5.19767e-06 -1.15015e-05 0
1.93473e-05 -7.16351e-06 0
-1.33444e-05 -1.44166e-05 0
9.84491e-06 -5.80416e-06 0
-6.14743e-06 -2.83607e-05 0
-8.54228e-06 -2.11773e-05 0
1.77222e-05 -1.04497e-05 0
1.11286e-05 -5.0319e-06 0
-4.18743e-06 5.97482e-06 0
-4.67924e-06 1.48369e-05 0
-8.04365e-06 -1.49332e-05 0
6.11454e-06 -3.53559e-06 0
-1.41718e-05 2.81586e-05 0
9.23161e-06 -2.72248e-05 0
2.53673e-05 2.06456e-05 0
1.98122e-05 1.70015e-05 0
-5.55359e-07 1.02816e-05 0
5.56637e-06 3.95097e-05 0
-1.21284e-05 7.38127e-06 0
2.85112e-05 2.62468e-05 0
-4.86743e-06 -2.77213e-05 0
2.06058e-05 2.58622e-05 0
7.81126e-06 1.3373e-06 0
-1.28723e-05 5.0871e-06 0
1.75172e-06 -3.13525e-05 0
-6.89689e-06 -6.01178e-06 0
1.1515e-05 -2.90247e-06 0
-1.14348e-05 -1.41848e-05 0
-6.52856e-06 -2.6065e-05 0
4.63156e-06 7.41125e-06 0
1.27705e-07 -7.24422e-06 0
1.28981e-05 -4.48264e-06 0
2.10604e-05 -2.18101e-05 0
-1.3083e-07 1.82989e-07 0
-2.27008e-05 4.15664e-06 0
9.15728e-06 -4.16921e-05 0
-8.54855e-06 -1.68857e-06 0
2.24686e-05 1.59195e-05 0
-3.40464e-05 -2.71405e-05 0
-2.03651e-05 1.53719e-05 0
-2.72315e-05 -2.54379e-06 0
-1.2893e-05 1.9069e-05 0
-3.48245e-05 -1.48155e-05 0
3.72775e-06 -1.1826e-05 0
1.41723e-05 6.20233e-06 0
-1.73714e-05 -5.59572e-06 0
-1.07142e-05 6.58241e-06 0
5.87628e-06 8.53583e-06 0
3.06959e-07 -7.16268e-06 0
2.64041e-06 -9.93183e-07 0
2.36858e-05 1.85208e-06 0
7.55238e-06 1.17514e-05 0
-2.3706e-05 -4.34712e-05 0
-2.48227e-05 9.95537e-07 0
-1.02955e-06 2.3565e-07 0
6.3843e-06 9.97076e-06 0
2.3088e-05 -2.71717e-05 0
-1.3225e-05 1.35706e-05 0
1.36832e-05 1.48905e-05 0
4.07014e-05 1.44395e-05 0
5.28225e-05 5.47118e-05 0
1.93364e-05 -2.86027e-06 0
1.52753e-07 -4.6866e-06 0
-8.55581e-06 2.95524e-06 0
-1.68738e-05 -2.26956e-05 0
-1.8215e-07 -1.4396e-05 0
1.30987e-05 -2.69665e-05 0
-1.95907e-05 8.44529e-07 0
2.33658e-05 1.94813e-05 0
-2.48629e-05 -2.24878e-06 0
2.58083e-05 8.24212e-06 0
2.19801e-05 4.02419e-05 0
2.2984e-05 8.64621e-06 0
5.35249e-08 4.34158e-05 0
-4.60537e-06 -2.08979e-06 0
1.71378e-05 7.14036e-06 0
-7.95064e-06 5.04787e-05 0
1.34161e-06 1.4207e-05 0
-5.37075e-06 -7.15792e-06 0
9.42655e-06 -6.8328e-06 0
-4.17126e-05 6.00333e-06 0
1.43088e-05 1.67324e-05 0
-2.53199e-05 -4.78661e-05 0
-1.2142e-05 -3.00314e-05 0
-1.56468e-05 -3.1702e-06 0
3.99279e-06 5.34795e-06 0
1.06534e-05 4.39751e-05 0
-3.39444e-06 7.29855e-06 0
1.14515e-05 4.1343e-06 0
1.19029e-05 3.08968e-05 0
2.03154e-05 1.53679e-05 0
-6.84839e-06 1.64053e-05 0
4.5102e-06 -1.07269e-05 0
-1.06524e-05 1.15227e-05 0
6.167e-06 -1.42407e-05 0
7.88973e-06 -1.14565e-06 0
-1.0927e-05 2.19903e-05 0
-1.50294e-05 -3.78878e-06 0
2.31858e-05 -2.62118e-05 0
-1.0629e-05 2.06556e-05 0
-1.30076e-05 -9.39561e-06 0
-8.57795e-06 1.14843e-05 0
2.1283e-05 1.30711e-05 0
3.47759e-06 3.44964e-05 0
3.25401e-06 -8.62447e-06 0
-2.34872e-05 1.05546e-06 0
3.86624e-06 -3.3562e-06 0
-1.70798e-06 -1.71493e-05 0
9.64833e-06 -3.38674e-05 0
-4.97796e-06 -1.12427e-05 0
7.28534e-06 1.61347e-05 0
-6.19339e-06 -1.98223e-05 0
5.22919e-07 -1.51054e-05 0
-3.62659e-06 1.40088e-05 0
3.69082e-05 1.80217e-05 0
1.85975e-05 8.51243e-06 0
3.83326e-06 -1.2564e-05 0
1.25352e-05 -2.95991e-05 0
6.59093e-07 1.56862e-06 0
-7.52222e-06 -1.81755e-05 0
-1.53536e-05 -1.04033e-05 0
-3.60424e-06 -4.25174e-06 0
7.00487e-06 -2.65313e-06 0
2.58774e-06 -3.27425e-06 0
1.23341e-05 1.38544e-05 0
5.6992e-06 9.10465e-06 0
1.44064e-05 8.67262e-06 0
-1.19531e-06 -1.16494e-05 0
-1.02119e-06 1.58594e-05 0
1.16069e-05 -1.338e-06 0
4.73355e-05 2.34248e-05 0
-4.19889e-06 -3.0922e-06 0
2.81666e-05 5.01798e-07 0
2.60249e-06 -1.01068e-05 0
-2.09545e-06 -6.78701e-06 0
1.76424e-05 1.29237e-05 0
1.33415e-05 -3.98028e-06 0
1.01772e-06 2.1527e-06 0
-1.63619e-05 -3.47531e-06 0
-1.38325e-06 4.37663e-06 0
3.14041e-06 9.06291e-06 0
9.86036e-07 -5.52239e-06 0
-8.70908e-06 -1.61664e-05 0
2.30385e-05 2.9746e-06 0
4.43357e-06 9.66351e-06 0
1.55906e-06 -3.3583e-06 0
-5.18355e-06 -7.49405e-06 0
-6.31559e-06 -1.47132e-05 0
3.42516e-05 4.21228e-05 0
-1.04924e-05 -2.06776e-05 0
-7.02035e-06 -1.76385e-05 0
4.44189e-06 -1.43236e-05 0
7.12564e-06 3.45996e-05 0
-8.632e-06 3.03962e-05 0
-1.46405e-05 -1.246e-05 0
-2.03977e-05 4.91104e-06 0
6.88126e-08 -2.58189e-05 0
2.61022e-06 -1.20931e-05 0
-1.42993e-05 2.62873e-06 0
-4.19991e-06 1.2736e-05 0
-1.43463e-05 8.1541e-06 0
1.38468e-05 1.46852e-05 0
-2.86641e-05 -1.20601e-05 0
-2.07465e-05 -2.34548e-06 0
-1.69252e-05 -1.67868e-05 0
-2.08464e-05 -2.43306e-05 0
1.07437e-05 6.62954e-06 0
1.04261e-05 -1.5099e-05 0
-1.99726e-05 -3.4963e-06 0
4.43432e-06 6.93158e-05 0
-2.60986e-05 1.30777e-06 0
1.18551e-05 -8.6353e-06 0
-9.22754e-06 -1.59136e-05 0
7.84183e-06 -1.28475e-05 0
-3.12296e-06 -1.10013e-06 0
6.53191e-06 -1.22591e-05 0
-2.10916e-07 2.36273e-07 0
-1.70695e-05 -1.31968e-05 0
5.82245e-06 1.12257e-05 0
2.37018e-05 3.14754e-05 0
1.89394e-05 -7.80463e-06 0
-1.17904e-05 -1.28394e-06 0
-1.71708e-06 -1.42764e-05 0
-2.00315e-06 -1.3721e-05 0
8.46234e-06 -8.27961e-06 0
-1.80959e-06 2.18764e-06 0
-4.94495e-06 -1.18636e-05 0
-2.81002e-05 -4.50084e-07 0
-2.38402e-05 -1.50309e-05 0
-4.92223e-06 6.63918e-06 0
1.60111e-05 -7.3801e-06 0
-3.29288e-06 -1.95638e-05 0
7.93413e-06 -1.17344e-05 0
-4.1714e-07 1.81616e-05 0
9.56852e-06 -4.50498e-07 0
1.86666e-05 2.57847e-05 0
-1.48263e-06 -1.74351e-06 0
-5.19341e-06 3.73673e-05 0
-1.21801e-05 9.69731e-06 0
-1.47715e-06 3.57327e-07 0
-6.17053e-06 -1.47448e-05 0
2.48291e-05 -1.35781e-05 0
2.37614e-05 2.12793e-05 0
3.16031e-05 -1.50841e-05 0
2.77291e-06 -1.70109e-05 0
-1.03392e-06 -1.22709e-05 0
-9.89182e-07 1.03709e-05 0
2.12239e-06 8.22824e-06 0
4.84738e-06 7.28169e-06 0
2.27577e-07 7.97153e-09 0
-2.55632e-05 -2.028e-05 0
3.52929e-05 -9.87577e-06 0
-6.16718e-06 -4.10347e-06 0
4.65893e-06 6.76507e-06 0
-3.90121e-06 -6.41312e-06 0
7.68648e-06 2.29931e-05 0
-7.37101e-06 2.10174e-05 0
1.5946e-05 -2.63926e-06 0
1.71963e-05 1.11731e-05 0
2.39367e-05 -1.10893e-05 0
-3.88666e-05 -3.43504e-05 0
9.95721e-06 2.41522e-05 0
1.3656e-05 2.52374e-05 0
4.40884e-06 -3.85423e-05 0
-8.22251e-06 -1.18104e-05 0
-2.32621e-05 -9.29673e-06 0
1.95023e-05 6.28423e-06 0
6.23121e-07 1.43259e-05 0
2.23552e-05 -1.95344e-05 0
1.23064e-05 1.16356e-05 0
1.25322e-05 8.19536e-07 0
2.81119e-05 -1.23068e-05 0
5.26096e-07 1.62889e-05 0
-6.81481e-07 -9.39352e-06 0
-2.89026e-05 -1.2845e-05 0
-1.2225e-05 -2.1764e-05 0
2.1229e-06 -4.9432e-07 0
-2.46333e-05 -1.56948e-05 0
-7.11818e-06 -6.0651e-06 0
-1.52478e-05 -2.60919e-05 0
-9.96826e-06 9.52667e-06 0
-4.78171e-06 9.96942e-06 0
-2.34205e-05 -3.32617e-05 0
9.80887e-06 5.37665e-06 0
-4.356e-06 6.16966e-06 0
-1.47322e-05 2.60794e-05 0
4.75743e-06 2.52988e-05 0
-1.4241e-05 8.8971e-06 0
4.51347e-06 -1.71718e-05 0
-4.3832e-06 -2.0033e-05 0
1.32783e-05 -1.31101e-05 0
4.21962e-06 -6.09555e-06 0
1.46624e-05 9.18834e-06 0
1.20148e-06 -2.41061e-06 0
-9.70283e-06 1.71083e-05 0
-2.10392e-05 -9.17349e-06 0
-1.26598e-06 -1.44035e-05 0
-5.17104e-06 -1.36813e-05 0
-6.04429e-06 -2.76051e-05 0
-1.41713e-05 1.71579e-05 0
4.34013e-06 -8.70704e-06 0
1.09483e-06 2.43855e-06 0
2.49186e-05 -5.45083e-06 0
2.47886e-06 5.1964e-06 0
1.43224e-05 -1.67275e-05 0
-1.95251e-05 9.85759e-06 0
6.81667e-06 2.24955e-05 0
2.13745e-05 1.14743e-05 0
-4.72341e-06 2.97972e-06 0
1.48257e-06 -7.97929e-06 0
-7.11576e-06 -1.71208e-05 0
5.64146e-06 -2.05496e-05 0
-5.68819e-06 5.1871e-08 0
-8.54906e-06 1.42605e-05 0
-5.38602e-06 -3.51913e-05 0
-1.2065e-05 2.36437e-06 0
1.51495e-05 -1.31019e-05 0
-1.70215e-05 -3.66492e-05 0
-1.35227e-05 -1.86409e-05 0
3.76115e-05 -4.57241e-07 0
-1.41019e-05 -2.22132e-05 0
1.2954e-05 -2.28778e-05 0
2.02252e-05 2.43922e-05 0
1.28757e-06 3.53631e-05 0
4.53923e-06 -1.57943e-05 0
-1.75676e-05 -3.6822e-05 0
-1.07565e-05 -3.62989e-07 0
-9.34867e-06 6.95742e-06 0
-1.46492e-05 -2.4025e-05 0
3.0516e-06 1.7474e-05 0
-8.17941e-06 -2.16509e-05 0
2.8355e-05 1.34491e-05 0
-4.98642e-06 -1.45959e-05 0
-1.10336e-06 4.05061e-05 0
-6.38038e-06 2.13755e-05 0
1.33698e-05 2.05788e-06 0
4.59324e-06 2.01468e-05 0
3.5072e-07 -1.18827e-05 0
1.08172e-06 -1.17664e-05 0
2.32859e-05 -8.88172e-06 0
5.84601e-06 3.58675e-05 0
6.00046e-06 -1.00882e-06 0
5.28793e-06 2.72663e-06 0
2.79594e-06 -3.70756e-05 0
1.92109e-06 1.1066e-05 0
-1.78993e-07 -1.80204e-05 0
-3.40045e-05 -3.10468e-06 0
-1.82934e-05 -8.58292e-06 0
-9.33358e-06 -2.52952e-05 0
4.04817e-06 2.41508e-05 0
1.54264e-05 1.55553e-05 0
5.16359e-07 2.40889e-05 0
2.43283e-05 2.69207e-05 0
6.86772e-06 5.6149e-06 0
1.27004e-05 1.73484e-05 0
1.2349e-05 1.97898e-05 0
-5.54785e-08 1.23489e-05 0
7.46488e-06 6.81094e-06 0
-2.382e-05 3.37557e-05 0
1.72304e-05 5.85543e-07 0
-2.87655e-06 -2.12417e-05 0
2.7556e-05 2.00985e-05 0
-1.95083e-05 -9.13687e-06 0
4.84358e-06 -1.5979e-05 0
-9.6747e-06 1.21253e-05 0
-7.40794e-06 3.3063e-05 0
8.03538e-06 -2.24469e-05 0
-2.81583e-05 3.20385e-05 0
1.36187e-05 -4.09849e-06 0
-2.51706e-06 -1.97633e-05 0
-8.42793e-06 1.36655e-05 0
-1.36012e-05 1.42289e-06 0
-1.79074e-06 2.77986e-05 0
-4.23664e-05 -2.73051e-05 0
-1.39493e-05 1.35433e-05 0
-5.12051e-07 2.46359e-05 0
1.83805e-05 -3.37948e-06 0
6.24121e-06 2.63545e-05 0
-1.81503e-06 3.29279e-05 0
-7.32212e-06 1.81414e-05 0
1.46659e-05 6.15435e-06 0
-1.12863e-05 -2.25935e-05 0
-1.55731e-05 1.93736e-05 0
1.53699e-06 7.7817e-06 0
-2.26549e-06 1.14276e-05 0
-4.0503e-07 1.07199e-06 0
-1.41801e-05 -1.26915e-07 0
-1.49985e-05 4.6717e-06 0
1.29957e-05 2.6146e-05 0
1.84406e-06 2.72441e-05 0
1.79973e-06 -3.79892e-06 0
-1.7448e-06 3.02466e-06 0
1.58918e-05 3.95217e-05 0
-1.90338e-05 2.65269e-06 0
2.14131e-05 -2.27621e-05 0
-6.18198e-06 -1.73484e-05 0
5.03123e-06 1.12623e-05 0
9.0824e-07 1.08726e-05 0
7.29008e-06 3.24697e-05 0
-9.73448e-06 -5.14955e-06 0
-2.18187e-05 -2.77903e-05 0
2.47277e-06 1.32233e-05 0
1.1104e-05 -1.59681e-05 0
9.58061e-06 1.10383e-05 0
1.57456e-05 -7.75071e-06 0
-3.57909e-05 -3.45998e-05 0
-1.18458e-05 2.39202e-05 0
4.54428e-06 -1.41877e-05 0
1.24165e-05 -1.40606e-05 0
-1.01311e-05 9.76424e-06 0
-1.64731e-05 2.2768e-05 0
7.09536e-06 1.3627e-05 0
-2.75916e-05 -7.73981e-07 0
1.13967e-05 1.97871e-05 0
7.99437e-06 -3.55556e-05 0
-7.49718e-06 -2.98231e-06 0
-4.34291e-06 1.68513e-06 0
1.50373e-05 -2.0917e-05 0
2.46942e-06 -8.47655e-06 0
-7.82461e-07 -1.04016e-05 0
-1.21314e-06 -5.56273e-06 0
-1.3037e-05 -3.67591e-07 0
-3.47224e-05 -1.55837e-05 0
2.17615e-05 2.31885e-05 0
-5.38728e-07 -5.19439e-06 0
-8.99803e-06 2.52992e-06 0
-6.71218e-06 2.75001e-05 0
-1.64096e-05 -1.77321e-05 0
-7.61633e-07 -7.9829e-06 0
4.57284e-06 -7.12088e-06 0
-5.61693e-06 -5.20995e-05 0
-5.03117e-06 2.54058e-05 0
6.32319e-06 -1.89631e-05 0
2.12778e-05 6.65413e-05 0
1.26757e-05 -1.70651e-06 0
-2.4498e-05 2.50853e-05 0
-1.60583e-05 -9.99505e-06 0
-2.6933e-05 -1.30475e-05 0
-1.40248e-05 7.60126e-06 0
-2.179e-05 3.76456e-05 0
-7.76235e-06 1.64779e-05 0
1.30004e-05 -3.33319e-05 0
-2.63022e-05 -2.98246e-05 0
1.04638e-05 -1.62736e-05 0
-8.92978e-06 -1.5664e-05 0
-5.4932e-06 1.46887e-05 0
2.23839e-06 1.1712e-05 0
-1.9283e-05 -3.72345e-06 0
-1.11622e-05 -2.2994e-05 0
1.40272e-05 -8.71222e-06 0
4.16088e-06 1.05728e-06 0
-2.03531e-06 -1.26197e-05 0
2.59792e-06 -4.4864e-06 0
-8.29213e-06 -5.42102e-07 0
-1.30744e-05 -1.62218e-05 0
-1.69904e-05 -2.09118e-05 0
1.83516e-05 -5.4512e-06 0
-1.02525e-06 4.88948e-05 0
-1.09811e-05 -1.61193e-05 0
-1.29286e-05 -3.24977e-06 0
-3.98571e-08 1.29246e-05 0
1.63343e-05 2.07863e-05 0
1.44204e-05 -2.8498e-05 0
5.25494e-06 -5.50792e-06 0
2.39765e-06 1.28282e-05 0
-5.23675e-06 -2.78556e-05 0
-6.75909e-06 1.97988e-05 0
1.30717e-05 5.59849e-06 0
-6.41553e-06 -2.89223e-06 0
2.48266e-05 -5.33992e-06 0
-2.50047e-05 -1.83338e-05 0
1.86407e-05 -3.48531e-06 0
-2.34882e-05 -1.6503e-05 0
1.76969e-05 3.76433e-05 0
-9.47371e-06 1.05396e-05 0
4.09585e-06 3.12117e-06 0
4.5151e-06 1.09143e-05 0
-2.12204e-05 1.91072e-05 0
-1.33279e-05 -1.86818e-05 0
-1.10235e-06 -6.24622e-07 0
8.36832e-06 -1.77861e-05 0
-1.09159e-05 -1.88997e-05 0
-2.62978e-05 4.1346e-06 0
9.5259e-06 3.63271e-05 0
-9.26534e-06 -5.71341e-06 0
1.48009e-05 4.91076e-05 0
-3.06971e-06 -2.04286e-05 0
1.17752e-05 -8.54789e-06 0
5.12652e-06 -3.80432e-06 0
9.78881e-06 2.24233e-06 0
1.62355e-05 7.91654e-06 0
-9.68523e-06 6.50934e-06 0
-8.19189e-06 6.57734e-05 0
5.11565e-06 2.73381e-05 0
-2.26055e-05 -2.19347e-05 0
1.88227e-05 1.248e-05 0
-2.89262e-06 1.35124e-05 0
-2.95956e-05 -2.98745e-06 0
-1.14005e-05 2.17344e-05 0
-2.53303e-05 9.54335e-06 0
-2.91964e-06 -1.35432e-05 0
9.85729e-06 -1.22377e-05 0
1.62533e-05 -1.10695e-06 0
-1.83908e-05 -1.12589e-05 0
1.85219e-05 -4.04811e-06 0
-9.05273e-06 8.62543e-06 0
-1.19747e-05 1.8471e-06 0
2.21753e-05 -7.04185e-07 0
-1.43485e-05 -2.42891e-05 0
2.25342e-05 1.4794e-05 0
-3.97036e-06 -2.28359e-05 0
8.66684e-06 -6.97943e-06 0
-2.30719e-05 -1.15879e-05 0
3.28928e-06 9.43993e-06 0
-4.33632e-06 -1.16216e-05 0
1.32877e-05 7.5926e-06 0
-1.04535e-06 -2.21793e-05 0
1.17747e-07 -2.28604e-05 0
-1.20529e-05 -3.00221e-05 0
1.7993e-05 2.58753e-05 0
1.54936e-05 1.22902e-05 0
-7.0909e-06 1.09635e-05 0
-3.08762e-05 -1.60981e-05 0
-1.13985e-05 -1.34573e-05 0
5.17026e-06 -4.97598e-06 0
3.32329e-05 2.60065e-05 0
1.59873e-05 8.13277e-07 0
-1.44766e-05 -8.11454e-06 0
-8.78032e-06 -3.87822e-06 0
3.06957e-06 2.0429e-05 0
5.99393e-06 1.69619e-05 0
-2.39213e-05 3.77825e-05 0
-9.30859e-06 2.56943e-05 0
7.34618e-06 1.65853e-06 0
-6.30512e-06 -1.14959e-05 0
-3.83323e-06 -8.34997e-06 0
6.95136e-06 -1.87499e-06 0
1.00969e-06 -1.07867e-06 0
1.09167e-06 7.09096e-06 0
5.78727e-06 -2.73569e-05 0
6.18168e-06 3.36929e-05 0
1.05444e-05 -3.22393e-06 0
1.37427e-05 1.94555e-05 0
7.83398e-06 -2.04872e-05 0
-2.71773e-05 2.09037e-05 0
5.81852e-06 4.41507e-06 0
9.13662e-06 4.31448e-06 0
6.99644e-06 1.67717e-05 0
3.43151e-05 8.52315e-06 0
-5.94289e-06 7.59903e-06 0
2.00725e-06 -1.81352e-05 0
-1.31647e-05 -2.11521e-06 0
-3.01323e-05 1.49322e-05 0
1.46139e-05 2.52495e-05 0
-1.74076e-05 8.19895e-06 0
-2.65109e-05 -1.95216e-05 0
1.62047e-05 1.3377e-05 0
3.46545e-06 7.69461e-06 0
-1.66558e-05 -1.51883e-05 0
-1.21205e-05 -1.65489e-06 0
-2.20687e-05 -2.52065e-05 0
-1.68045e-05 1.68253e-05 0
-3.31083e-06 3.88872e-06 0
-3.23603e-05 -6.61838e-06 0
-3.88838e-07 -1.10061e-05 0
-1.2865e-05 -3.46577e-06 0
-1.49491e-05 -2.13658e-06 0
-9.29668e-06 4.92224e-06 0
1.25801e-05 2.31837e-05 0
-9.00738e-06 1.35276e-05 0
9.94117e-06 1.57766e-06 0
-5.24085e-06 1.99881e-05 0
2.72988e-05 1.60811e-05 0
-1.84715e-05 -5.19135e-07 0
-2.04336e-05 1.26936e-05 0
-5.66561e-06 1.24137e-05 0
1.02305e-05 -3.93712e-06 0
-1.87484e-05 -3.55103e-05 0
8.90227e-06 7.88888e-06 0
-1.81575e-05 -2.43519e-05 0
-2.26849e-05 2.82081e-05 0
-1.05975e-05 -1.0338e-05 0
3.25138e-05 4.62331e-05 0
2.79831e-05 4.76244e-05 0
-2.10656e-05 1.46991e-05 0
-2.54061e-05 -2.04777e-05 0
-7.24625e-06 3.53242e-05 0
-5.85541e-06 2.41945e-06 0
8.7802e-06 3.47067e-05 0
1.03469e-05 -2.91138e-06 0
-1.12431e-05 1.78842e-06 0
4.20221e-05 -2.05929e-06 0
-1.0588e-06 -1.9724e-06 0
2.93005e-07 7.4184e-06 0
-6.10562e-06 -7.81756e-06 0
-4.08669e-06 -1.54917e-05 0
6.88565e-06 -2.5825e-05 0
-9.35304e-06 -1.83804e-05 0
8.48691e-06 -3.48202e-05 0
1.128e-06 -1.81899e-05 0
-1.65355e-05 -9.79058e-06 0
-1.33541e-05 -6.47455e-06 0
-2.24625e-05 5.16769e-05 0
-2.51829e-05 8.47516e-06 0
1.19793e-05 -6.904e-06 0
1.30325e-05 -1.9006e-05 0
-1.08962e-05 -3.74139e-05 0
4.35802e-06 -1.8172e-05 0
-1.12955e-05 -1.4094e-06 0
6.09605e-06 -1.561e-06 0
-1.10451e-05 -7.9165e-06 0
1.35019e-05 -9.67891e-06 0
-1.35553e-05 1.69939e-05 0
1.20471e-05 -1.22697e-05 0
2.18747e-06 -1.03407e-05 0
9.96777e-07 1.19994e-05 0
4.26912e-06 2.10135e-06 0
8.07319e-06 6.52999e-06 0
-5.85015e-06 -2.70341e-05 0
1.30062e-05 -4.64357e-06 0
4.23903e-06 -4.19922e-06 0
-7.70255e-06 1.64373e-05 0
8.17442e-06 2.07224e-05 0
1.77564e-05 2.63938e-06 0
-8.59375e-06 -1.08368e-06 0
-4.87623e-06 2.5578e-05 0
9.90912e-06 -1.07787e-05 0
1.16869e-06 8.34168e-06 0
1.82584e-06 4.0462e-05 0
-3.92727e-06 -5.66177e-06 0
1.28437e-06 -1.7822e-05 0
1.53631e-05 2.43817e-05 0
1.60866e-06 2.18563e-05 0
-4.02886e-06 1.27443e-05 0
2.27675e-05 -1.58176e-05 0
-8.55135e-06 -5.40341e-06 0
3.82484e-06 5.14858e-06 0
9.26423e-06 -6.68797e-06 0
1.15957e-05 -1.00013e-05 0
2.46771e-05 2.94612e-05 0
-1.48165e-05 -2.50888e-05 0
1.13496e-05 5.60923e-05 0
1.04586e-05 -5.27839e-06 0
-2.08506e-05 8.02216e-06 0
5.89182e-06 -3.54763e-07 0
2.25111e-06 3.41076e-06 0
2.81408e-05 4.55137e-06 0
2.33498e-06 9.53749e-06 0
9.93706e-06 1.13859e-05 0
1.27027e-05 1.20642e-06 0
1.24265e-05 -2.083e-05 0
1.75115e-05 3.08477e-06 0
-6.32575e-06 -1.30086e-06 0
4.67419e-06 -1.19671e-05 0
1.16334e-05 6.03575e-07 0
1.39339e-05 -7.63639e-06 0
2.3584e-05 -9.14606e-06 0
1.92449e-05 4.79708e-06 0
1.0654e-05 1.14782e-06 0
1.66363e-05 -3.91571e-07 0
-3.96287e-06 -5.64553e-07 0
1.93353e-05 8.24908e-06 0
9.75065e-06 6.5145e-06 0
2.15661e-05 2.33362e-05 0
2.57879e-05 -1.34782e-05 0
1.29231e-06 8.40518e-06 0
-6.43965e-06 3.26629e-05 0
1.68836e-06 -1.65817e-05 0
6.43035e-06 -5.33985e-06 0
1.54036e-05 1.49766e-05 0
1.84021e-05 1.57497e-05 0
-8.97485e-06 -4.10931e-06 0
-1.45393e-06 8.91679e-06 0
6.7602e-06 -7.01932e-06 0
-1.63219e-06 -1.98895e-06 0
3.3197e-06 -2.93021e-06 0
1.96161e-05 1.39595e-05 0
2.37303e-05 -1.90581e-05 0
2.65007e-05 1.07375e-05 0
4.15923e-07 -6.5987e-06 0
1.2729e-05 3.1441e-05 0
-1.30671e-06 -1.68345e-05 0
2.80476e-05 7.26724e-06 0
-2.36094e-06 2.32856e-05 0
-2.1418e-05 -9.80256e-06 0
2.07769e-05 -3.45417e-05 0
1.65551e-05 5.82887e-06 0
-9.58614e-06 -2.1713e-05 0
-2.32167e-05 -3.11481e-05 0
-6.29298e-06 -1.32643e-05 0
-7.78532e-06 1.41499e-05 0
4.61484e-06 9.65487e-06 0
1.89738e-05 -9.52342e-06 0
1.76279e-05 2.53111e-05 0
-2.85737e-05 -2.67743e-05 0
1.81249e-05 -5.51483e-06 0
-5.30471e-06 1.91451e-05 0
-3.81401e-06 9.04866e-06 0
7.00911e-06 -7.41346e-06 0
-9.59562e-06 -1.52503e-05 0
1.89585e-05 3.66396e-05 0
1.06677e-05 2.17858e-05 0
1.75811e-05 -2.17768e-05 0
9.86824e-06 1.74473e-05 0
-5.13437e-06 4.68015e-07 0
3.3512e-06 3.90282e-05 0
2.74988e-06 6.97787e-06 0
1.68098e-05 1.44396e-05 0
-1.93861e-05 8.87286e-06 0
1.20515e-06 -1.58026e-05 0
2.10421e-07 -6.23613e-07 0
-4.32213e-06 5.06685e-05 0
-4.23749e-06 -7.86822e-06 0
3.12243e-06 2.22052e-05 0
2.56888e-05 1.76595e-05 0
-1.41369e-05 2.0924e-05 0
1.45249e-05 8.41819e-06 0
6.91232e-06 -1.36431e-05 0
3.94756e-06 9.96355e-07 0
6.78097e-06 2.40931e-05 0
1.39853e-05 1.34477e-05 0
3.86572e-06 2.59354e-05 0
-3.20051e-06 -4.56991e-06 0
-1.70701e-06 7.75398e-06 0
1.49745e-05 1.119e-05 0
-2.50101e-05 -3.86779e-05 0
5.93675e-06 6.0577e-07 0
-2.10165e-05 -1.74818e-05 0
-3.57725e-05 -2.74195e-05 0
-1.71569e-05 -8.34991e-06 0
2.78094e-05 -2.85815e-05 0
1.57944e-05 -1.9311e-05 0
1.26723e-05 -9.99156e-06 0
-1.86958e-05 -1.7894e-05 0
2.72788e-05 -1.94326e-05 0
2.72188e-05 -5.83226e-05 0
1.92451e-05 -1.92682e-05 0
2.58843e-05 2.07598e-06 0
1.63883e-05 -1.03447e-05 0
1.207e-05 -1.84465e-05 0
2.9527e-05 6.2043e-07 0
-2.97697e-06 1.05563e-05 0
-2.44673e-06 -9.16195e-06 0
-3.27265e-06 1.50748e-05 0
8.07306e-06 1.94017e-05 0
1.06334e-05 2.41589e-05 0
-2.30319e-05 -7.68434e-06 0
-9.13148e-06 -8.09734e-06 0
8.78669e-06 -1.26689e-05 0
-8.03643e-06 1.58256e-06 0
-2.50195e-05 2.74543e-06 0
-7.39558e-06 -9.34287e-06 0
-1.95452e-05 8.46869e-06 0
-6.45798e-06 -7.25477e-06 0
1.2206e-06 2.11736e-06 0
7.75348e-06 -3.87768e-05 0
-1.95434e-08 1.2846e-05 0
-1.33251e-05 -2.27134e-05 0
-1.41389e-06 -4.0043e-05 0
3.13803e-05 -3.36501e-05 0
3.19137e-05 -6.91456e-06 0
-1.37819e-05 -4.02464e-06 0
6.46122e-06 -5.10174e-06 0
6.41565e-08 1.03657e-05 0
1.54583e-05 1.25392e-05 0
1.30424e-05 -3.75627e-05 0
-2.23125e-05 2.56156e-05 0
8.19807e-06 -6.74576e-06 0
8.75866e-06 1.94434e-05 0
1.08069e-05 3.59929e-06 0
1.94464e-06 -8.75279e-06 0
3.01969e-06 -1.47373e-05 0
1.37315e-05 -1.37253e-05 0
-6.48333e-06 -1.47262e-06 0
3.99251e-06 9.99279e-06 0
6.61516e-06 1.69721e-05 0
-1.17499e-05 7.0231e-06 0
1.61791e-05 3.35386e-05 0
3.80337e-06 -2.42988e-05 0
-1.86034e-05 -1.86004e-05 0
4.62593e-05 2.58463e-05 0
5.25749e-06 -6.93283e-06 0
1.40055e-05 -1.84088e-05 0
-7.25244e-06 -2.81046e-05 0
-1.92043e-05 -1.12448e-05 0
-1.61279e-06 -7.47179e-06 0
3.50921e-05 -1.0531e-05 0
-4.63927e-06 -3.50927e-05 0
3.46881e-05 6.24026e-07 0
2.64852e-06 -1.8581e-05 0
-9.2928e-06 5.19062e-06 0
1.79476e-05 -5.78988e-06 0
1.16063e-05 3.2179e-05 0
3.2117e-05 -1.11327e-05 0
1.02844e-05 1.91641e-05 0
-1.93367e-05 -2.07979e-05 0
9.05478e-06 4.84748e-05 0
-1.25681e-05 -4.10403e-05 0
6.7204e-06 2.77827e-05 0
-3.25106e-06 1.68572e-05 0
-5.60112e-06 5.66298e-06 0
-2.46055e-05 4.74046e-05 0
1.06359e-05 -8.05408e-06 0
1.15177e-05 -2.69922e-05 0
2.69985e-06 8.89256e-06 0
8.50797e-07 8.34051e-06 0
7.25667e-07 1.6011e-05 0
-3.87833e-05 7.16914e-06 0
-2.97852e-06 1.7628e-05 0
-2.01413e-05 -1.50196e-05 0
-1.52088e-05 2.95824e-06 0
2.76845e-06 5.21441e-06 0
1.43534e-05 -3.92216e-06 0
5.8806e-06 -2.5709e-05 0
2.38253e-05 -1.13372e-05 0
1.29917e-05 1.14781e-05 0
-6.5792e-07 1.2627e-05 0
-3.61787e-07 3.95729e-05 0
3.87972e-06 2.97861e-05 0
5.89181e-06 1.65334e-05 0
-1.84585e-05 1.57809e-05 0
-3.30276e-05 -1.96365e-05 0
5.59689e-06 2.59218e-05 0
-1.76896e-05 -7.47015e-06 0
1.26646e-05 1.57901e-05 0
2.0923e-05 -1.63163e-05 0
1.28537e-05 2.48577e-05 0
1.20553e-05 1.61616e-05 0
1.46472e-05 1.59985e-05 0
1.39911e-05 2.62614e-05 0
4.4503e-05 2.69347e-05 0
-1.10096e-05 -9.29915e-06 0
-1.37639e-05 -2.03677e-06 0
1.25597e-05 -2.44464e-05 0
-8.2812e-06 -1.53507e-05 0
2.72123e-06 2.01142e-05 0
-6.86749e-06 -4.0871e-05 0
4.81388e-06 -1.84407e-05 0
-1.40434e-05 2.35212e-05 0
1.54141e-05 1.81266e-07 0
-1.13219e-05 5.60223e-05 0
7.93636e-06 1.97678e-05 0
-3.12512e-05 5.51052e-06 0
-5.11395e-06 4.27719e-06 0
9.33736e-06 2.51174e-05 0
-4.18015e-06 -6.57117e-07 0
1.21533e-06 -8.77034e-06 0
-1.19219e-05 -1.27212e-05 0
-8.63803e-06 -7.29093e-07 0
-9.27354e-06 -1.02616e-05 0
1.38935e-06 1.92968e-06 0
-9.04292e-06 -5.27272e-06 0
-2.79032e-07 -2.86826e-05 0
-7.56588e-06 -2.50927e-05 0
-1.52976e-05 1.49698e-06 0
-4.09195e-06 -1.06535e-06 0
2.5953e-05 1.46679e-05 0
-2.83032e-06 6.75597e-06 0
-1.61763e-05 -1.04272e-05 0
2.49693e-05 -3.01699e-05 0
2.02192e-06 -2.32986e-05 0
3.04439e-06 4.07839e-05 0
-6.2222e-06 -5.53513e-06 0
2.26073e-05 2.92834e-06 0
2.47282e-06 -7.06014e-06 0
1.14905e-06 2.67882e-05 0
-2.38813e-05 -1.56115e-05 0
8.14415e-06 1.98778e-05 0
2.04149e-07 2.65831e-05 0
7.51986e-06 3.85184e-05 0
1.05596e-06 1.66742e-06 0
1.04637e-05 -1.43138e-06 0
1.71362e-05 8.96436e-06 0
2.68164e-05 2.50967e-05 0
9.6397e-06 -2.34374e-05 0
8.86936e-06 1.94784e-05 0
1.07682e-05 2.94805e-05 0
-3.44245e-06 3.05934e-06 0
-1.10816e-05 3.04524e-06 0
1.51136e-05 2.89717e-05 0
2.35641e-05 1.81172e-07 0
-2.69662e-05 -1.20124e-05 0
-1.03669e-05 7.54762e-06 0
1.69466e-05 1.2474e-05 0
-4.17197e-06 -2.42881e-06 0
2.22663e-05 1.58828e-05 0
1.76058e-06 1.09058e-06 0
-2.48334e-05 -3.05521e-05 0
3.11659e-05 2.33352e-05 0
1.23784e-05 -3.55457e-05 0
-5.08949e-05 -3.57675e-05 0
1.94148e-05 1.79596e-05 0
1.64545e-05 1.45741e-05 0
-3.3864e-06 9.52472e-06 0
1.53509e-05 1.33743e-05 0
5.51262e-06 2.11593e-05 0
-1.57846e-05 -1.03816e-05 0
-1.72905e-05 1.05401e-05 0
1.28094e-05 7.57846e-06 0
1.02273e-05 1.18023e-05 0
-1.8303e-05 -8.88904e-06 0
-1.00869e-05 -1.06798e-05 0
2.98177e-06 -1.2512e-05 0
2.09611e-05 -8.63241e-06 0
1.09086e-05 1.52005e-06 0
1.64668e-06 -4.36552e-06 0
2.14769e-05 -4.74474e-06 0
7.40418e-06 -1.06056e-05 0
-1.49475e-07 -4.28638e-06 0
-3.67124e-06 -3.59435e-07 0
1.14663e-05 2.15293e-05 0
-3.39941e-05 1.31054e-05 0
1.06809e-05 1.22864e-06 0
1.43198e-05 -4.10882e-05 0
1.99729e-05 2.55129e-05 0
2.11682e-05 2.12885e-05 0
1.77001e-05 1.79445e-05 0
1.70269e-05 3.93745e-05 0
-1.16762e-05 -4.33797e-06 0
6.99883e-06 1.84503e-05 0
-1.025e-05 2.55741e-06 0
-2.76204e-05 -7.12664e-06 0
1.63354e-05 -9.08696e-06 0
-3.22661e-05 2.28965e-05 0
6.13591e-06 -3.3786e-05 0
2.54775e-06 1.81079e-05 0
3.66121e-06 3.13658e-05 0
7.29709e-06 -9.63313e-06 0
-6.57071e-06 -4.4919e-05 0
-1.61939e-06 8.58719e-06 0
1.90359e-05 1.07181e-06 0
9.14695e-06 1.84005e-05 0
2.28537e-05 8.95053e-06 0
7.46204e-06 -1.53998e-05 0
-8.40355e-06 1.52253e-05 0
-1.24967e-05 3.04087e-05 0
5.36776e-06 -1.14312e-05 0
8.72267e-06 -1.37007e-05 0
-6.60196e-07 -1.64527e-05 0
-2.15528e-06 1.82728e-07 0
-1.56492e-05 -5.5002e-06 0
4.35219e-05 3.776e-05 0
1.2074e-05 1.52286e-05 0
-2.09124e-05 1.94261e-06 0
8.14638e-07 -6.25254e-06 0
-2.28708e-05 4.63165e-06 0
-4.79524e-06 -3.08943e-05 0
-1.80899e-06 -1.55645e-05 0
-2.62143e-06 -9.16484e-06 0
8.94018e-07 -1.61148e-05 0
5.11657e-06 -2.99222e-05 0
3.92561e-06 2.46296e-06 0
7.25808e-06 4.8267e-05 0
-9.09694e-06 -4.35987e-07 0
-6.2533e-06 -2.03384e-05 0
-1.70254e-06 -2.41632e-05 0
-1.0534e-05 -2.32887e-05 0
-6.2037e-07 4.05932e-06 0
-1.42429e-05 2.51095e-05 0
-1.46e-05 8.24509e-06 0
2.51381e-05 -7.34603e-06 0
-3.79111e-06 -2.13921e-05 0
-8.27559e-06 -1.9535e-05 0
-8.53902e-06 3.73306e-05 0
3.34957e-05 -1.53564e-05 0
8.35109e-07 -1.66833e-05 0
-3.02035e-05 -2.60161e-05 0
-1.40603e-05 5.63372e-06 0
-2.4601e-05 -1.13623e-05 0
-6.55015e-06 2.60889e-06 0
-2.52371e-05 2.76579e-05 0
-1.63968e-05 -2.93986e-05 0
1.43267e-05 -1.97396e-05 0
1.06524e-05 1.48654e-05 0
9.12427e-06 8.12294e-06 0
-1.52733e-05 -9.54038e-06 0
2.25519e-05 1.64241e-05 0
1.85018e-05 -8.46511e-06 0
1.50545e-05 1.07627e-05 0
1.70951e-05 1.99943e-05 0
-2.72059e-05 -3.40052e-05 0
-1.78374e-05 1.09131e-05 0
-2.57301e-05 2.56346e-06 0
2.35634e-05 -2.58939e-05 0
6.73879e-06 1.86404e-06 0
-4.76515e-07 5.59236e-05 0
1.29046e-05 -1.08148e-06 0
3.6407e-05 5.76092e-06 0
1.62582e-06 2.41297e-05 0
-8.55575e-06 -2.91237e-05 0
2.85125e-05 1.518e-05 0
3.26186e-06 2.32092e-06 0
-9.57386e-06 2.68343e-05 0
1.19409e-06 -3.33296e-07 0
-3.53339e-06 1.33143e-05 0
-1.16522e-05 -1.44438e-05 0
-8.73933e-06 -3.62342e-05 0
-4.06134e-07 1.15947e-05 0
-1.57422e-05 2.14814e-06 0
7.90902e-06 1.19388e-05 0
-3.07022e-05 2.96656e-06 0
-1.27757e-05 -7.29339e-06 0
-2.16864e-06 1.17712e-05 0
-2.46663e-05 1.54805e-05 0
-8.99895e-06 -9.62561e-06 0
-8.50006e-06 1.34415e-05 0
-1.92448e-05 -1.50616e-05 0
-8.88367e-07 -4.57886e-05 0
-1.56774e-06 -1.32496e-05 0
2.6364e-06 8.98307e-06 0
-9.74188e-06 -3.62539e-05 0
1.20676e-05 3.46969e-05 0
-1.91073e-05 -2.35832e-06 0
5.19058e-05 4.24537e-05 0
-1.95551e-05 9.78971e-06 0
5.67112e-06 -1.63918e-05 0
-1.12284e-05 -1.89216e-05 0
1.03983e-05 2.0846e-05 0
-1.50696e-05 -3.82023e-06 0
-1.70086e-05 8.84873e-06 0
-2.0899e-05 2.08788e-05 0
2.57916e-05 2.5331e-05 0
-1.59758e-05 9.15596e-06 0
-1.87229e-05 2.23383e-07 0
5.72441e-06 1.02878e-05 0
1.75536e-05 3.0742e-05 0
4.83366e-09 3.19149e-06 0
-3.58079e-06 4.53444e-06 0
-1.89665e-05 1.5466e-05 0
2.78704e-06 1.09848e-05 0
-2.87784e-06 -8.75835e-06 0
-2.71372e-05 -2.57311e-06 0
1.25406e-05 -4.36981e-06 0
1.12955e-05 1.5275e-05 0
-3.73114e-05 3.13891e-05 0
-3.62161e-05 -8.04668e-06 0
-9.64819e-06 2.12351e-05 0
-5.61755e-06 -6.62057e-07 0
-3.10064e-05 -2.24683e-05 0
3.05651e-06 3.26012e-05 0
-2.05204e-05 6.55326e-06 0
-9.37311e-06 1.82698e-05 0
1.85827e-05 2.07697e-05 0
-1.23067e-05 -1.9442e-05 0
-1.14619e-05 -4.61573e-06 0
-1.44426e-05 -2.45688e-06 0
6.65322e-08 1.34633e-05 0
-4.05869e-06 1.09984e-05 0
-1.71258e-05 1.71768e-05 0
1.17349e-05 4.51136e-06 0
3.5597e-06 8.11156e-06 0
-1.32988e-05 -5.0029e-06 0
3.19343e-05 6.79746e-06 0
1.46789e-06 4.80059e-06 0
3.26565e-06 3.17912e-05 0
-7.42866e-06 6.50965e-06 0
-3.27728e-06 1.89628e-05 0
2.40276e-05 3.05419e-05 0
-7.58337e-06 3.38819e-05 0
-2.61785e-05 2.13196e-05 0
-1.26582e-06 1.31267e-05 0
3.58693e-06 8.15855e-06 0
-1.81696e-05 3.88536e-05 0
5.03646e-06 4.24436e-05 0
1.40066e-05 1.27099e-05 0
-1.33642e-05 2.00818e-05 0
-8.60628e-06 -5.25245e-06 0
-7.21747e-06 2.74468e-05 0
-2.73469e-07 -1.17393e-06 0
1.73199e-05 1.31176e-05 0
1.3788e-05 2.01819e-05 0
-1.11606e-05 1.92161e-05 0
5.58024e-07 1.82641e-05 0
9.06425e-06 8.69243e-06 0
-4.09584e-09 6.21643e-06 0
-2.59778e-05 -6.49549e-06 0
-3.29234e-06 2.48662e-05 0
1.63987e-06 -1.95127e-05 0
1.17645e-06 -1.50659e-05 0
-5.9395e-06 1.68047e-05 0
1.97728e-05 3.94781e-05 0
-2.78574e-05 3.60835e-05 0
1.0539e-05 -4.97348e-06 0
1.45772e-05 3.41184e-05 0
2.34124e-05 3.39094e-05 0
-1.8057e-05 -1.28074e-06 0
1.43685e-06 -2.87718e-05 0
-9.6778e-06 -8.59111e-06 0
-1.43652e-05 1.19496e-06 0
5.65751e-06 -7.7074e-06 0
-7.891e-07 2.71443e-06 0
5.53745e-06 -8.80186e-06 0
1.17378e-05 -3.93881e-06 0
3.41529e-05 8.11224e-06 0
9.27964e-07 -1.68938e-05 0
1.4615e-05 1.47813e-05 0
-2.06238e-05 2.71953e-06 0
6.04502e-06 -1.60727e-05 0
3.30234e-06 5.86658e-07 0
2.93795e-05 1.92708e-05 0
2.10228e-05 1.98086e-06 0
-1.60253e-06 1.75671e-06 0
9.99541e-06 -3.88803e-06 0
1.0936e-05 3.02506e-06 0
-1.79646e-05 -2.12317e-05 0
5.07575e-06 -1.74449e-06 0
-1.52382e-05 2.13785e-06 0
2.65008e-05 -1.48007e-05 0
-1.25773e-06 1.16079e-05 0
-5.46555e-06 9.82063e-06 0
-2.71124e-06 -8.54595e-06 0
2.33789e-06 -8.2093e-06 0
1.2967e-06 -1.11418e-05 0
-7.29612e-06 1.78767e-05 0
2.41339e-06 -2.10642e-05 0
-4.70252e-06 -6.64681e-06 0
-8.86236e-06 1.3573e-05 0
-2.29898e-06 -1.06402e-05 0
-3.0566e-06 2.01656e-07 0
1.896e-05 -1.14641e-05 0
7.93981e-06 9.14663e-07 0
-4.21003e-07 1.00972e-05 0
1.41026e-05 4.71496e-05 0
3.50115e-05 1.50354e-05 0
1.31745e-05 9.21179e-06 0
-2.99799e-07 -1.85368e-05 0
3.01494e-05 9.83087e-06 0
1.93861e-05 6.5926e-06 0
2.36714e-05 2.18073e-05 0
-1.36861e-05 -4.8088e-06 0
-5.88438e-06 -1.219e-06 0
-1.26088e-05 -5.38821e-06 0
-5.01083e-07 -1.2043e-06 0
8.37688e-06 1.16509e-05 0
-4.50738e-06 -1.03005e-05 0
8.76142e-06 -8.51341e-06 0
-5.44755e-06 -1.96554e-05 0
4.57287e-06 -1.04854e-05 0
9.59849e-06 1.93799e-06 0
2.62132e-05 2.10599e-05 0
1.70336e-05 -5.58859e-06 0
1.73989e-05 8.97244e-06 0
6.57956e-06 5.28731e-06 0
-3.1175e-06 -3.53681e-06 0
-1.71453e-05 -1.13322e-05 0
-6.83188e-07 1.03091e-05 0
1.44398e-06 6.50627e-06 0
-1.44269e-05 1.33022e-05 0
-3.95144e-06 -2.94238e-05 0
4.41746e-06 1.75998e-06 0
8.24595e-06 -2.48434e-06 0
3.16862e-06 6.26326e-06 0
-4.48278e-06 8.28803e-07 0
8.94675e-06 1.51016e-05 0
1.41486e-05 1.37382e-05 0
1.12278e-05 -2.1913e-05 0
-2.32541e-05 -9.86422e-06 0
-6.52121e-06 -2.16126e-06 0
1.73761e-05 -2.29059e-05 0
-1.15115e-05 -1.52399e-05 0
7.00882e-10 -2.81607e-06 0
2.50567e-05 -1.65213e-05 0
-1.4213e-05 1.4838e-05 0
-1.60175e-05 -2.64462e-05 0
6.29088e-06 5.03218e-06 0
1.5149e-05 9.18898e-06 0
8.60093e-06 -2.47433e-06 0
-6.05471e-06 -1.74896e-05 0
1.27013e-05 9.94317e-06 0
-1.75917e-05 1.25372e-05 0
-8.4158e-07 -1.24885e-05 0
-1.32241e-05 5.06121e-05 0
-4.31239e-06 -3.64281e-05 0
-5.37824e-07 -1.44664e-05 0
-3.00815e-06 -5.38263e-07 0
8.92238e-06 -2.0503e-06 0
-1.2286e-05 5.67791e-06 0
-1.82122e-05 -3.51176e-06 0
-2.14771e-05 -1.29565e-05 0
1.86504e-05 2.02824e-06 0
1.17721e-05 -2.43475e-05 0
-3.49974e-05 -2.73808e-06 0
-2.59306e-07 -5.56626e-06 0
1.61735e-05 -1.60258e-05 0
-8.1104e-06 -8.93273e-06 0
1.50094e-05 -1.014e-05 0
-1.04811e-05 -3.17848e-07 0
-2.69718e-05 -4.06178e-06 0
-1.815e-05 1.07462e-06 0
-1.52492e-05 -1.78581e-05 0
-1.51326e-05 5.35634e-06 0
1.55669e-06 1.75534e-05 0
1.99297e-05 2.62617e-06 0
3.58405e-05 1.42829e-05 0
-3.35719e-06 -5.95894e-06 0
5.768e-06 6.86558e-06 0
2.81745e-05 7.26277e-06 0
1.80796e-05 7.35244e-06 0
2.38726e-05 1.05574e-05 0
7.47153e-06 -7.57213e-06 0
-1.06695e-05 -8.563e-07 0
1.02781e-05 -4.82986e-06 0
6.15966e-06 1.37365e-05 0
3.2899e-05 -1.64288e-05 0
-9.21353e-06 3.1761e-05 0
8.50003e-07 -7.94052e-06 0
2.45643e-05 -5.79434e-06 0
3.39941e-06 5.24065e-06 0
-8.69019e-06 -9.45666e-06 0
1.96743e-05 2.43896e-05 0
-6.65728e-06 5.13184e-06 0
-5.01484e-06 2.71846e-06 0
-1.23895e-05 2.07655e-06 0
8.19806e-07 2.28348e-06 0
1.64227e-05 2.64916e-05 0
-8.67891e-06 -1.44164e-05 0
2.41827e-06 5.82018e-06 0
-1.69799e-06 8.29855e-06 0
-1.00499e-06 2.99353e-05 0
-1.38186e-05 -8.53475e-06 0
-6.79548e-06 2.72931e-05 0
-8.14786e-06 -2.27179e-05 0
-2.1225e-06 -2.02385e-05 0
-1.94105e-06 -2.77509e-05 0
2.26825e-05 -1.40411e-05 0
8.13064e-06 3.85077e-06 0
1.20533e-05 -9.51444e-07 0
-3.03228e-06 -2.01774e-05 0
2.05017e-06 1.2369e-05 0
-5.54273e-06 -4.29625e-06 0
-7.13611e-06 -8.32811e-06 0
-1.07445e-05 -1.0421e-05 0
2.11692e-05 -4.99891e-06 0
5.43654e-06 7.64416e-07 0
2.67502e-05 1.36812e-05 0
-3.33627e-07 -1.53003e-05 0
-9.262e-06 -1.08028e-06 0
3.28955e-05 -2.90065e-06 0
-1.21511e-05 -2.64995e-05 0
1.33667e-05 2.67253e-05 0
-1.26917e-05 -1.52895e-05 0
-1.73114e-07 1.95013e-05 0
1.13165e-05 3.02493e-06 0
-1.64709e-06 -3.12751e-06 0
-4.95292e-06 -2.8424e-06 0
-2.16691e-05 -6.67453e-05 0
1.4353e-05 1.83667e-05 0
2.60919e-06 1.7394e-05 0
2.19888e-07 1.12393e-05 0
5.75217e-06 -8.37559e-07 0
-2.01507e-06 1.49019e-05 0
6.98693e-06 -5.55184e-06 0
2.17234e-05 -1.26661e-05 0
6.21653e-06 1.81871e-05 0
2.68233e-06 9.15786e-06 0
1.46936e-05 2.7255e-05 0
2.06417e-05 1.30222e-05 0
5.4777e-06 9.94634e-06 0
6.26255e-06 7.5729e-06 0
5.77194e-06 5.46203e-06 0
-1.13513e-05 -1.76014e-05 0
-2.17851e-06 -6.46944e-06 0
-8.90126e-06 -2.56571e-05 0
-7.87145e-06 -1.84924e-05 0
5.36006e-06 5.15989e-06 0
-5.24716e-07 -1.36396e-05 0
1.14998e-06 -1.42295e-05 0
1.21422e-05 1.65552e-05 0
-3.72761e-06 -4.4357e-06 0
1.99676e-06 1.46585e-05 0
2.5537e-06 2.93486e-05 0
-1.27725e-05 1.40104e-05 0
-2.94184e-05 -5.02254e-05 0
1.50982e-05 1.08496e-05 0
-1.90299e-05 -1.58711e-05 0
-5.35621e-06 3.53799e-05 0
-2.50392e-05 -3.14467e-05 0
1.80893e-06 4.71122e-06 0
1.06892e-05 4.83424e-06 0
-1.8818e-05 -1.13648e-05 0
1.67535e-05 -5.96667e-06 0
-1.80298e-05 -3.92616e-05 0
1.23095e-05 5.94742e-06 0
-1.19942e-06 2.38169e-05 0
-1.08172e-05 2.30088e-05 0
5.18015e-06 1.32735e-05 0
1.4081e-05 1.31081e-06 0
1.8235e-05 1.39323e-06 0
-1.64755e-05 -9.69852e-06 0
-3.40333e-06 -9.34123e-06 0
-9.65937e-06 -3.1126e-05 0
2.46185e-06 -2.13813e-05 0
-3.63729e-06 -6.06825e-07 0
1.4666e-05 1.14104e-05 0
1.08381e-05 -7.03801e-06 0
-5.45433e-06 2.35004e-05 0
-3.43733e-06 -1.3179e-05 0
1.57112e-07 7.86413e-06 0
3.42912e-06 -3.71026e-06 0
-1.03273e-05 -1.86681e-05 0
2.54258e-05 7.37101e-06 0
2.82645e-06 -3.48517e-08 0
-2.54054e-05 -4.79764e-06 0
5.67153e-06 -3.95365e-07 0
-4.38219e-07 6.20329e-06 0
-3.19533e-05 -1.49352e-05 0
-3.83802e-05 -1.96058e-05 0
-1.35127e-05 -1.96939e-05 0
-2.33335e-05 7.00869e-06 0
-2.1881e-05 -3.50925e-05 0
1.35471e-06 -1.69432e-05 0
1.13678e-06 -1.9776e-05 0
-2.39268e-05 -1.18849e-05 0
8.2639e-06 6.6369e-06 0
3.0385e-06 1.47239e-05 0
-8.85897e-06 1.19296e-05 0
2.87403e-07 6.2787e-06 0
-2.93438e-05 -3.40611e-05 0
1.7712e-05 -2.30878e-05 0
9.57321e-06 -4.99295e-06 0
2.34071e-05 3.84966e-05 0
2.1413e-05 3.09685e-05 0
2.34449e-05 2.06391e-06 0
1.11526e-05 5.07604e-05 0
6.94964e-06 1.2927e-05 0
-7.13654e-06 9.3197e-06 0
9.66923e-06 2.19625e-05 0
-5.34497e-06 3.84608e-06 0
1.21078e-05 3.32691e-05 0
-1.54462e-05 2.05422e-05 0
-1.91847e-05 3.22507e-06 0
-1.7788e-05 8.22934e-06 0
-9.92968e-06 -2.37083e-05 0
5.00527e-06 -3.92139e-06 0
-1.67997e-05 3.41425e-05 0
-1.18597e-05 2.03321e-05 0
-1.5608e-05 7.24775e-06 0
-1.03947e-05 -5.93013e-07 0
-6.9456e-07 1.90165e-06 0
3.30751e-05 4.47759e-05 0
-1.88168e-06 -8.6039e-06 0
-3.2857e-05 -3.15235e-05 0
-1.83493e-05 8.81127e-06 0
-6.73294e-06 -8.3514e-06 0
-6.17041e-07 -8.76392e-06 0
-1.11675e-05 -1.39174e-05 0
3.87246e-07 -1.58082e-06 0
-1.43719e-06 1.24468e-05 0
2.19208e-05 5.10244e-06 0
6.99105e-06 5.35218e-05 0
-8.91045e-06 9.49807e-06 0
-1.56581e-05 1.41314e-05 0
2.32751e-05 -2.0271e-06 0
1.23178e-05 1.93887e-07 0
1.715e-05 -8.50657e-07 0
-5.83637e-06 7.1476e-06 0
-2.31648e-05 -1.54522e-05 0
-2.89065e-06 7.29656e-06 0
7.689e-06 -8.06288e-07 0
-6.35718e-06 -2.91984e-07 0
-2.05069e-05 -3.39509e-05 0
-5.93798e-06 3.6115e-05 0
4.37832e-05 1.49773e-05 0
-2.02687e-05 3.21588e-05 0
-6.39345e-06 -4.80308e-05 0
-9.55707e-06 4.68537e-05 0
-1.15117e-05 -1.28669e-05 0
3.30441e-06 4.15384e-05 0
6.30645e-06 1.33025e-05 0
1.77792e-05 6.0941e-06 0
-2.52654e-05 1.6199e-05 0
-1.02372e-05 1.22506e-05 0
-2.4022e-05 -1.87486e-05 0
7.90786e-08 1.75212e-05 0
2.21181e-05 2.84711e-05 0
1.66271e-06 -4.75562e-06 0
3.37606e-06 -1.6992e-06 0
7.01621e-06 -5.99233e-06 0
2.0877e-05 -3.01198e-05 0
-4.29416e-06 3.06188e-05 0
-2.58513e-05 4.55576e-06 0
1.32449e-05 1.78357e-06 0
2.76689e-06 2.70328e-05 0
-1.82122e-05 2.51876e-06 0
-2.44466e-06 1.21176e-05 0
6.04064e-07 -1.9771e-05 0
3.21197e-05 -3.45189e-05 0
4.20181e-06 -8.22806e-06 0
-3.63531e-06 -1.94542e-05 0
1.29672e-05 -3.19116e-05 0
-7.38839e-06 -1.25139e-05 0
-1.55141e-06 -1.95436e-06 0
1.68098e-05 8.43289e-06 0
-1.37858e-05 -1.19317e-05 0
-5.65931e-06 2.50381e-05 0
1.87879e-05 -1.01678e-05 0
-1.21584e-05 -2.93902e-05 0
5.72099e-06 9.82683e-06 0
-1.46281e-05 -2.38472e-05 0
3.7723e-06 4.00386e-06 0
-1.02731e-05 -2.07666e-05 0
-7.09573e-06 -1.96909e-06 0
-1.19596e-05 -2.73608e-05 0
-3.18151e-05 -2.51072e-06 0
-1.72808e-05 2.28769e-05 0
2.02411e-06 1.48814e-06 0
5.6115e-06 1.49661e-05 0
-9.93625e-06 -4.68792e-06 0
-3.67542e-07 1.70093e-05 0
-2.22993e-05 -2.65662e-06 0
1.59551e-06 -8.58568e-06 0
1.38586e-05 -2.37226e-05 0
-9.4755e-06 -1.33901e-05 0
7.82085e-08 7.75017e-06 0
-2.2199e-06 2.83229e-07 0
1.94741e-05 -1.30265e-05 0
-1.3389e-05 -5.03258e-06 0
-5.11077e-05 -2.57448e-05 0
1.57916e-06 -2.49755e-05 0
-2.8528e-05 3.68662e-05 0
1.91704e-05 7.5574e-06 0
-4.34211e-06 5.35377e-06 0
-9.82693e-06 -7.49721e-06 0
1.42433e-05 1.74926e-05 0
-1.77758e-05 1.2851e-05 0
1.26589e-05 -2.89335e-05 0
-1.21228e-05 -1.42917e-05 0
-1.76231e-05 -3.25526e-05 0
-1.11102e-05 5.73308e-06 0
3.86333e-05 -2.80242e-05 0
-4.64313e-06 -3.79458e-05 0
2.94262e-05 1.64837e-05 0
1.19823e-05 -3.52628e-06 0
-2.25364e-05 -3.79232e-05 0
-1.01133e-05 1.50012e-05 0
6.25969e-07 -3.64423e-05 0
-1.54188e-05 -1.16455e-07 0
4.74686e-06 2.91532e-05 0
1.09828e-05 -1.25612e-05 0
-5.40782e-06 1.10138e-05 0
9.83464e-06 3.31176e-05 0
-7.14038e-06 2.69673e-06 0
1.56283e-05 2.52651e-05 0
-3.82743e-06 6.54477e-07 0
-4.21949e-06 1.38253e-05 0
3.97939e-06 1.56956e-05 0
-4.65789e-06 -2.36717e-05 0
-1.71915e-05 -9.23206e-06 0
-3.34101e-06 6.50258e-06 0
-4.55363e-06 4.84758e-05 0
-9.1283e-06 2.48597e-06 0
-1.13559e-05 1.29875e-05 0
-3.48959e-06 7.57619e-06 0
4.43954e-05 1.00354e-05 0
-1.10091e-05 4.01009e-05 0
2.28833e-06 1.70622e-05 0
2.12827e-06 -3.89388e-05 0
-7.17743e-06 1.74399e-05 0
-9.27039e-06 5.28278e-05 0
-1.46204e-05 2.80202e-05 0
2.43644e-06 8.41998e-06 0
-5.6384e-06 2.0801e-05 0
-1.2364e-05 3.84265e-05 0
2.84524e-06 7.47978e-06 0
1.52488e-05 4.19007e-05 0
9.06282e-06 2.79662e-05 0
1.12333e-05 1.48732e-05 0
-1.60704e-06 3.15107e-05 0
-3.11352e-05 -1.04444e-10 0
7.00123e-06 2.95486e-08 0
-1.1202e-05 -1.49325e-05 0
1.63378e-05 1.78046e-05 0
2.206e-06 -3.61921e-06 0
6.41106e-06 -4.55392e-05 0
-1.77331e-05 -2.33132e-05 0
4.20868e-06 -1.34816e-05 0
-3.05663e-06 -3.33117e-06 0
-1.19598e-05 -1.44949e-05 0
-2.87686e-06 4.52936e-05 0
2.74903e-06 -1.93166e-05 0
4.0076e-05 -4.3856e-06 0
-1.71722e-06 -1.42167e-05 0
-5.01743e-06 -2.25083e-05 0
2.0059e-05 1.23172e-05 0
1.2551e-05 -2.13354e-05 0
8.29801e-06 -2.69122e-06 0
2.08421e-05 2.32463e-05 0
2.54894e-05 1.02598e-05 0
1.04395e-05 -1.90548e-05 0
2.56726e-05 -2.7942e-05 0
-1.87664e-05 -2.30264e-05 0
2.41358e-05 -1.02515e-05 0
1.7224e-05 7.84744e-06 0
1.41748e-05 5.80713e-06 0
-1.71126e-05 -1.16231e-05 0
2.91964e-05 -2.14791e-05 0
1.62218e-05 -1.72379e-05 0
1.64331e-05 5.20019e-05 0
2.19599e-05 3.48339e-05 0
-2.18829e-05 1.08833e-05 0
3.07756e-06 -3.54533e-05 0
8.57127e-06 -3.01074e-05 0
8.6566e-06 6.63387e-06 0
2.00801e-06 -1.38353e-05 0
2.12154e-05 -5.59559e-06 0
2.16404e-05 -5.06893e-06 0
-2.31539e-06 -3.07339e-05 0
-8.42868e-06 -3.83279e-06 0
-1.30486e-05 1.19106e-05 0
5.16865e-06 1.3692e-05 0
-5.8734e-06 -8.77418e-06 0
-8.18374e-06 -2.77841e-05 0
-2.15512e-06 -4.78313e-06 0
-8.04409e-06 6.10119e-07 0
-1.39397e-05 1.31462e-05 0
1.47573e-05 -2.53923e-05 0
-3.11268e-06 -1.15108e-05 0
-4.27136e-06 1.22282e-05 0
-1.00975e-05 5.65261e-06 0
-2.08488e-06 -1.78015e-05 0
6.22143e-06 1.72738e-05 0
1.85366e-05 4.73649e-05 0
1.11294e-05 6.05662e-06 0
1.2798e-05 -2.09705e-05 0
1.05393e-05 -2.5128e-05 0
-1.80787e-05 1.49702e-06 0
1.13602e-05 6.28279e-06 0
-1.90518e-05 3.46067e-05 0
6.77069e-06 -2.07261e-06 0
-8.82341e-07 3.14721e-05 0
-2.69888e-07 -1.08425e-05 0
1.15147e-05 1.74685e-05 0
-1.47535e-05 1.49061e-05 0
3.68627e-06 1.20318e-06 0
5.6747e-06 3.73425e-06 0
-1.30074e-05 -1.09665e-05 0
-8.26425e-06 -3.34598e-05 0
-2.66824e-05 -3.32893e-05 0
-1.95468e-05 -2.77921e-05 0
2.3842e-07 8.62628e-06 0
-7.18763e-07 3.47449e-07 0
2.02386e-06 -5.82866e-06 0
-2.46643e-05 2.68736e-05 0
-1.08903e-05 4.55945e-05 0
-1.19481e-05 3.88966e-05 0
4.86395e-06 5.57733e-06 0
-1.24141e-05 2.92081e-05 0
2.98183e-06 -3.94035e-06 0
3.42069e-06 2.28329e-06 0
-4.02527e-06 1.19745e-05 0
1.01478e-05 2.11296e-05 0
-2.72455e-06 -1.71678e-05 0
-2.84816e-05 -3.12926e-05 0
1.85824e-05 4.09306e-06 0
-2.10349e-05 9.69674e-06 0
-3.16242e-06 1.26645e-05 0
1.2531e-05 -1.6317e-05 0
-2.22496e-05 -8.97987e-06 0
2.12535e-05 2.0877e-05 0
1.81354e-05 3.28975e-05 0
5.63673e-06 2.9579e-06 0
-1.01738e-05 -4.171e-05 0
-1.37712e-05 4.0251e-06 0
7.42865e-06 6.34886e-06 0
-5.48099e-06 2.82386e-06 0
-4.17672e-06 2.93554e-06 0
1.2783e-05 7.86874e-06 0
1.90034e-06 -1.43141e-05 0
2.47441e-05 2.57261e-05 0
-1.04966e-05 -8.99652e-06 0
-1.08517e-05 -2.30579e-05 0
-1.26095e-05 -2.01267e-05 0
-1.5592e-05 -1.06958e-05 0
1.21913e-05 -1.02643e-05 0
2.28023e-05 1.9589e-05 0
2.57733e-05 1.87975e-06 0
1.53851e-05 -1.66225e-05 0
-2.43824e-05 7.17111e-07 0
-1.04381e-05 -2.43782e-05 0
2.95377e-06 -1.88031e-05 0
-1.09473e-05 1.66811e-05 0
-1.38309e-05 -1.25755e-05 0
-9.96412e-06 -5.80113e-06 0
-1.82487e-05 -3.1279e-05 0
-1.00194e-05 -1.02637e-05 0
7.23176e-06 -1.36056e-05 0
1.15624e-05 3.82349e-05 0
-2.80467e-05 -7.0326e-06 0
-1.25461e-05 6.47903e-06 0
7.48204e-06 7.16309e-06 0
5.68187e-06 1.65169e-05 0
-4.92376e-06 -2.11198e-05 0
-1.60944e-05 3.97815e-06 0
-1.37824e-05 1.66912e-06 0
-1.83502e-05 1.13089e-05 0
1.13777e-05 1.35589e-05 0
2.19013e-06 1.83421e-05 0
-1.09773e-05 -1.87813e-05 0
-9.64003e-06 -2.39143e-05 0
-1.50821e-05 -3.49927e-06 0
1.35822e-05 -1.96622e-05 0
-2.3671e-05 -4.91497e-05 0
-4.05765e-06 1.22755e-05 0
2.82121e-05 1.61163e-05 0
1.10691e-05 -2.07403e-06 0
-8.26468e-06 -2.00223e-05 0
-2.36384e-05 1.60255e-05 0
1.76747e-05 9.82104e-06 0
6.00358e-06 -4.65809e-06 0
1.50356e-05 -3.23752e-06 0
1.44589e-05 6.37073e-06 0
9.27855e-06 -2.09814e-06 0
-1.269e-05 -3.31756e-05 0
2.31994e-05 5.88663e-06 0
-1.0272e-05 -7.65964e-06 0
1.53684e-05 1.93435e-05 0
5.99855e-06 -1.55486e-05 0
2.49128e-05 8.68633e-07 0
-5.69092e-06 -2.22609e-05 0
1.50536e-06 -2.52117e-05 0
2.8872e-05 1.07796e-05 0
3.2836e-05 -1.35919e-05 0
3.43585e-05 2.45022e-05 0
1.46995e-05 2.67551e-05 0
-7.37906e-06 -1.12922e-05 0
-6.81564e-06 -2.06134e-05 0
-1.22961e-05 -9.87038e-06 0
-5.20221e-06 -4.28853e-05 0
1.42455e-05 2.02342e-06 0
2.12092e-05 -4.90578e-06 0
2.49131e-05 -2.24685e-05 0
-6.41969e-06 -1.35659e-06 0
7.20229e-06 -4.18201e-06 0
9.60208e-06 -1.89778e-06 0
4.89652e-06 -2.12983e-05 0
-1.60391e-05 -6.5419e-06 0
6.07616e-06 2.36152e-05 0
3.17524e-05 -1.55637e-05 0
-6.34362e-07 -1.45065e-05 0
-3.69904e-06 -1.35465e-05 0
1.07423e-06 2.21587e-05 0
2.51249e-05 1.03126e-05 0
2.57561e-05 4.4629e-05 0
-4.17111e-06 -2.74153e-06 0
-2.03551e-05 -7.60761e-06 0
8.2403e-06 2.27019e-05 0
1.49154e-05 1.77164e-05 0
-3.97049e-06 -7.41425e-06 0
1.38304e-05 1.87469e-05 0
-1.27791e-05 1.02245e-05 0
7.89316e-06 -2.73183e-05 0
3.63285e-06 -1.83349e-06 0
-1.14947e-05 1.21866e-05 0
3.43468e-06 -1.44487e-05 0
-3.01427e-05 -3.11331e-05 0
-4.68477e-06 -4.52512e-05 0
-7.69896e-06 -3.67845e-05 0
2.43182e-05 1.64185e-05 0
1.44216e-06 -9.15664e-07 0
-1.09895e-05 8.34268e-06 0
-6.44895e-07 2.53938e-05 0
-1.86821e-06 -1.08368e-05 0
9.65597e-06 -1.58608e-05 0
-2.41742e-06 1.29759e-06 0
5.08719e-06 -5.95955e-06 0
1.10668e-05 2.71937e-05 0
-5.68708e-06 5.46818e-06 0
2.94109e-05 -1.02399e-05 0
1.68278e-05 1.01113e-05 0
-2.68645e-06 2.06394e-05 0
2.11724e-05 -8.8561e-06 0
-8.72368e-06 2.69192e-05 0
-3.48575e-06 -1.15782e-05 0
2.60087e-05 -3.10388e-05 0
4.71476e-06 -1.88519e-06 0
-1.3507e-06 -1.55714e-05 0
4.42752e-06 -2.52476e-05 0
-6.20654e-06 -1.80499e-05 0
-1.08673e-05 2.24042e-05 0
1.62823e-05 1.48261e-05 0
-5.71208e-06 2.65351e-06 0
1.94312e-05 3.83043e-06 0
-1.79556e-05 -1.86087e-05 0
4.33064e-06 4.80268e-05 0
3.11925e-05 1.78562e-05 0
-1.48905e-05 1.87632e-06 0
-2.18813e-05 7.58748e-06 0
-7.90094e-06 2.30163e-05 0
3.89997e-06 2.79344e-05 0
1.93981e-05 -9.25205e-06 0
7.64451e-06 2.62368e-05 0
-5.20269e-06 -6.38068e-07 0
2.6958e-05 1.30148e-05 0
1.10085e-06 5.05342e-05 0
2.37343e-06 3.36907e-05 0
-1.61987e-08 -7.50869e-08 0
-2.15856e-05 -2.27582e-05 0
-1.49133e-05 2.62128e-05 0
-3.85051e-06 -4.2654e-07 0
-1.05073e-05 1.65755e-05 0
-1.14778e-06 -9.32251e-06 0
-1.62531e-05 2.39994e-05 0
-1.49341e-06 2.52642e-05 0
-1.68781e-05 2.26743e-06 0
-1.25477e-06 9.1107e-06 0
-1.79892e-05 3.85444e-05 0
-1.12425e-05 2.82356e-07 0
-2.81267e-05 2.07087e-05 0
-9.70801e-06 2.92685e-05 0
1.51349e-05 2.88458e-05 0
-9.58218e-06 2.15747e-05 0
-1.27676e-05 2.33324e-05 0
-7.70568e-07 -7.59228e-06 0
-6.52418e-06 -2.25556e-05 0
1.75478e-05 8.32791e-06 0
8.83882e-06 1.38574e-05 0
-2.27765e-05 -1.83883e-05 0
9.5398e-06 -5.12568e-07 0
9.55636e-06 1.09063e-05 0
-1.96386e-05 -1.16325e-05 0
6.58585e-06 2.12628e-05 0
-2.1234e-05 -8.28317e-07 0
-3.85781e-06 4.26667e-05 0
-6.97764e-06 8.8993e-06 0
9.12437e-06 1.38322e-05 0
6.33975e-06 -3.61341e-06 0
5.256e-06 1.71893e-05 0
1.5251e-05 2.82036e-05 0
-4.85434e-06 1.56534e-05 0
1.51779e-05 -2.05193e-05 0
1.85625e-05 -9.68848e-06 0
3.36814e-05 5.16316e-06 0
2.06217e-05 -3.75376e-06 0
9.42469e-06 -2.01283e-05 0
-9.01982e-06 3.68293e-05 0
2.38376e-05 3.6817e-06 0
-1.83631e-05 -1.49876e-05 0
7.48217e-06 1.39737e-05 0
3.91134e-06 2.97799e-05 0
4.22783e-06 1.84838e-05 0
1.0349e-05 -1.23291e-05 0
3.13624e-07 -1.15215e-05 0
-2.06423e-05 -1.36995e-05 0
-6.7121e-06 -2.17069e-05 0
1.48779e-06 8.58849e-06 0
-1.50772e-05 5.01074e-05 0
-4.16902e-06 5.8129e-06 0
-2.69221e-05 7.33266e-06 0
-1.42493e-05 1.85807e-05 0
4.9407e-06 -1.32502e-05 0
1.72196e-05 4.8239e-05 0
-1.95581e-05 -5.45132e-06 0
-2.99895e-06 -2.90517e-05 0
-9.67237e-06 3.67369e-05 0
-2.27754e-06 5.15068e-06 0
-1.59733e-05 -2.73375e-05 0
-9.67308e-06 9.53578e-06 0
9.86556e-06 2.10311e-05 0
-2.52205e-05 2.06574e-05 0
-3.16421e-06 1.2157e-05 0
-8.66593e-06 9.46671e-06 0
-1.24151e-05 1.03329e-05 0
1.69944e-05 9.78072e-06 0
-1.90817e-05 -2.53929e-06 0
-1.63731e-06 1.80767e-05 0
-7.23109e-06 -1.08626e-05 0
1.14195e-05 3.83692e-06 0
-1.70505e-05 -5.53679e-07 0
-7.89667e-07 6.85098e-07 0
7.83002e-06 -8.96155e-06 0
4.42875e-06 -6.47539e-06 0
-8.00613e-06 8.48242e-06 0
-2.29288e-07 3.50382e-06 0
-1.02464e-05 -1.30405e-05 0
2.01609e-05 5.51237e-06 0
-2.68673e-05 2.42095e-05 0
1.0879e-05 -1.9428e-05 0
-6.9263e-06 2.57805e-05 0
1.21615e-05 -9.52166e-06 0
2.67085e-05 1.70823e-06 0
-7.27252e-06 1.40041e-05 0
-1.92523e-05 4.66795e-05 0
-4.35719e-06 1.83396e-05 0
1.05694e-05 -9.2333e-06 0
1.02054e-05 2.88466e-05 0
-1.89859e-05 -2.62394e-06 0
2.07243e-05 -5.06622e-06 0
-2.64751e-06 4.03755e-05 0
-1.65059e-05 5.92677e-06 0
-1.77768e-05 2.69009e-05 0
-1.22754e-05 -1.5022e-05 0
6.87514e-06 -7.85296e-06 0
2.03019e-05 -6.51684e-06 0
3.02991e-05 -1.25818e-05 0
-2.46904e-05 -2.27321e-05 0
-6.9012e-06 1.05438e-05 0
-8.73991e-06 -3.45089e-05 0
3.77949e-05 -4.42628e-06 0
1.6678e-05 3.39384e-06 0
1.24834e-05 -9.35905e-07 0
2.34181e-05 2.67691e-05 0
1.13645e-05 -6.80402e-06 0
-1.67939e-06 -2.45583e-06 0
-2.57917e-06 -1.41552e-05 0
-2.06692e-06 -1.68274e-05 0
-7.17622e-06 2.00708e-06 0
1.75523e-05 5.25453e-06 0
-1.51724e-05 -1.00741e-05 0
-2.80459e-05 -8.03693e-06 0
4.41326e-06 3.26074e-05 0
1.23912e-05 -1.73296e-05 0
1.56707e-05 4.59455e-06 0
2.38471e-05 -3.57449e-05 0
1.48404e-05 1.28904e-05 0
-7.09958e-06 3.43387e-05 0
2.22349e-05 3.96889e-06 0
2.31372e-05 -4.25047e-06 0
-8.60164e-06 -4.56062e-06 0
-2.68981e-06 -1.64203e-05 0
-1.8256e-06 -1.39541e-05 0
3.45104e-05 9.31926e-06 0
2.20179e-05 -2.599e-05 0
3.57194e-06 7.8431e-06 0
3.28095e-05 2.7408e-06 0
9.72177e-06 -1.92391e-05 0
-8.19486e-06 2.07749e-05 0
2.65766e-05 1.02729e-05 0
2.03895e-05 -2.72436e-06 0
-9.76708e-07 1.73592e-05 0
3.59739e-06 -5.65076e-06 0
1.25244e-05 2.92536e-05 0
-5.00124e-06 1.30614e-05 0
1.04574e-05 2.67836e-05 0
-1.6146e-05 -3.4379e-05 0
-6.10515e-06 -1.3682e-05 0
-4.16201e-06 -4.01433e-05 0
-6.08701e-06 -1.80097e-05 0
1.55103e-05 3.28878e-05 0
-1.4726e-07 -1.65259e-05 0
6.09152e-06 5.08324e-05 0
6.11954e-06 -2.6912e-05 0
-2.97781e-06 -3.46542e-05 0
-2.75317e-06 -3.09178e-06 0
-7.84456e-06 3.95524e-05 0
-1.66995e-06 -4.01011e-06 0
1.36224e-05 6.64552e-06 0
-1.7241e-05 3.42762e-06 0
8.77979e-06 -3.65461e-05 0
-2.70885e-06 -2.79062e-05 0
1.12469e-05 -2.41351e-06 0
-6.88425e-06 -1.6971e-05 0
-1.26806e-05 -7.25063e-06 0
-1.77203e-05 -1.59608e-05 0
2.54338e-06 6.65809e-06 0
1.72093e-07 -1.89938e-05 0
1.45793e-05 6.37932e-06 0
1.32607e-05 -2.50516e-06 0
-8.0374e-06 -8.20045e-06 0
2.90396e-06 1.8549e-05 0
1.84229e-05 3.19033e-06 0
1.39652e-05 6.35256e-06 0
-1.19109e-05 -5.75988e-06 0
8.99354e-06 -2.72318e-06 0
-3.62388e-06 -3.87085e-05 0
-4.397e-06 -1.65096e-05 0
1.79344e-05 6.87312e-06 0
3.15379e-05 4.71748e-05 0
-9.92048e-07 -2.03572e-05 0
-1.10674e-05 1.2567e-06 0
1.6406e-05 3.37019e-05 0
9.88739e-06 4.06569e-07 0
2.60022e-05 1.96864e-05 0
4.35551e-05 1.63787e-05 0
-3.3881e-07 5.51578e-06 0
-1.0617e-05 -2.17432e-05 0
2.28816e-05 2.38454e-05 0
3.42665e-06 1.68602e-05 0
-2.15077e-05 6.57772e-06 0
1.38974e-05 3.0015e-05 0
1.38319e-05 -3.23965e-06 0
7.85076e-06 -2.56783e-05 0
-1.17416e-05 6.18718e-06 0
2.13765e-06 1.11646e-05 0
1.21584e-05 5.9732e-06 0
-5.55668e-06 1.18637e-05 0
1.10453e-05 -3.52776e-06 0
-1.14886e-05 2.3234e-05 0
2.83105e-05 -2.11423e-05 0
2.58046e-06 -1.33379e-05 0
-1.30778e-06 2.11014e-05 0
-2.22266e-05 -6.42253e-06 0
2.19164e-05 6.06356e-06 0
2.09142e-05 1.55361e-05 0
-8.20872e-06 1.54838e-05 0
9.15441e-06 -1.59321e-05 0
5.55743e-06 -1.44426e-05 0
3.02301e-05 2.45707e-05 0
-1.19069e-05 1.46568e-05 0
-2.65504e-05 2.74187e-05 0
-4.96281e-06 4.03755e-06 0
9.41689e-06 1.61507e-05 0
3.57736e-05 1.18268e-05 0
1.23898e-05 -5.87941e-06 0
1.11515e-06 -1.37162e-05 0
6.57819e-06 1.26382e-05 0
1.49362e-05 1.66875e-05 0
-3.14847e-05 1.67577e-05 0
9.39483e-06 2.63243e-06 0
1.29889e-05 -1.79701e-05 0
6.43943e-06 -1.83789e-07 0
-6.08107e-07 1.18317e-05 0
5.61183e-05 6.03909e-06 0
-3.57462e-06 -1.48135e-05 0
1.34774e-06 2.26153e-05 0
4.57343e-06 2.20923e-05 0
-5.44057e-06 2.95892e-05 0
-2.45257e-05 1.02368e-06 0
2.41566e-05 8.88357e-06 0
3.36735e-05 9.43423e-06 0
-1.99376e-06 2.49801e-05 0
5.47698e-06 8.17566e-06 0
3.5399e-05 1.79084e-05 0
-5.25286e-06 -1.03076e-06 0
1.19337e-05 3.33079e-06 0
-1.92876e-05 1.44612e-05 0
1.14399e-05 -3.34099e-06 0
1.80259e-05 -2.62768e-05 0
-7.50882e-07 -2.97603e-06 0
1.38795e-05 3.24332e-05 0
-1.44847e-05 -2.19687e-05 0
7.21747e-07 2.2316e-05 0
2.49966e-05 -2.11363e-05 0
9.33258e-06 4.96547e-06 0
-1.13116e-06 1.69032e-05 0
2.32403e-06 1.61686e-05 0
-2.32474e-06 8.98725e-06 0
-4.80063e-06 2.14095e-06 0
-5.19116e-06 -1.62562e-05 0
2.54359e-05 -4.20182e-06 0
9.05667e-06 3.04314e-05 0
6.50162e-07 -1.76754e-05 0
-1.95278e-07 -1.58695e-05 0
3.39457e-05 -1.13687e-05 0
8.34632e-06 -4.67867e-06 0
1.30768e-05 -1.35782e-05 0
-2.07045e-05 1.76013e-05 0
-1.27603e-06 2.70068e-05 0
4.92022e-05 3.93222e-05 0
-1.22541e-05 -3.23371e-06 0
-1.02826e-07 -1.40608e-05 0
-8.084e-06 1.88966e-07 0
2.87103e-07 1.8109e-05 0
5.25746e-06 5.10437e-06 0
9.89941e-06 -6.80035e-07 0
-8.84551e-06 6.23389e-06 0
-9.87196e-06 -2.20347e-05 0
5.06935e-06 3.24814e-06 0
1.32036e-05 3.61382e-05 0
-1.63436e-06 -4.87933e-06 0
2.92307e-05 4.5359e-06 0
1.01454e-05 2.94623e-05 0
-3.24404e-06 -3.97336e-07 0
1.34663e-05 -2.3872e-05 0
3.06528e-06 3.00569e-05 0
8.25252e-06 1.35676e-05 0
-1.50746e-05 -4.74963e-06 0
1.07537e-05 -4.31946e-06 0
2.12097e-05 5.20127e-06 0
-7.05294e-06 1.23504e-05 0
-1.33344e-05 4.64557e-06 0
-1.12403e-05 -1.30409e-05 0
-1.63304e-06 1.89123e-05 0
1.00069e-05 7.82566e-06 0
-5.05131e-06 -1.3789e-05 0
2.91385e-05 -1.43656e-05 0
-1.61111e-05 -3.4622e-06 0
3.83709e-05 2.55886e-05 0
2.03544e-05 1.70045e-05 0
-5.33309e-06 5.8471e-06 0
-2.0092e-05 2.69043e-05 0
8.23482e-06 -2.94985e-05 0
-2.01918e-06 -2.54466e-05 0
3.04116e-06 2.32396e-05 0
-5.07187e-05 2.09807e-05 0
1.12945e-05 8.94333e-06 0
-8.97082e-06 4.03755e-05 0
-3.83021e-05 6.92692e-06 0
2.02006e-05 -7.67724e-06 0
2.59739e-07 4.91914e-05 0
-1.29934e-05 -1.46065e-05 0
-1.70201e-05 2.82931e-05 0
1.72961e-05 2.89071e-05 0
-9.64912e-08 8.10411e-06 0
1.49246e-05 2.36927e-05 0
7.15158e-06 1.70268e-05 0
-1.22697e-05 8.26043e-06 0
-2.05422e-05 -1.90481e-05 0
-3.98956e-06 -3.1474e-05 0
6.89894e-06 2.19062e-05 0
2.83058e-05 2.47257e-05 0
2.92217e-05 2.85739e-07 0
6.25869e-06 1.94803e-05 0
-6.89495e-07 2.35935e-05 0
8.95666e-06 6.80263e-05 0
8.43633e-06 2.83481e-05 0
-1.06514e-05 1.6297e-05 0
1.44248e-05 3.96255e-06 0
2.48038e-05 7.91062e-06 0
3.24109e-05 1.53757e-05 0
7.64663e-06 1.52312e-05 0
1.26064e-05 -1.69846e-07 0
9.72779e-06 -9.72092e-06 0
3.50148e-05 1.28093e-05 0
8.03868e-06 -1.46953e-05 0
-1.18306e-05 2.5314e-05 0
-2.35254e-05 2.70652e-06 0
-9.53047e-06 1.19231e-05 0
-3.25669e-06 -8.78501e-06 0
1.84589e-05 -4.82184e-06 0
1.87344e-05 1.07117e-05 0
-2.62386e-06 -2.80996e-05 0
1.33367e-05 4.21903e-05 0
1.02913e-05 1.5103e-05 0
1.03524e-05 1.00361e-05 0
-5.18423e-06 1.77379e-05 0
4.51377e-06 1.66529e-06 0
5.56584e-06 4.12891e-06 0
-9.05661e-06 -3.21487e-06 0
-1.08595e-05 -1.51314e-05 0
-1.5459e-06 3.18916e-05 0
4.95564e-05 -2.0903e-05 0
1.89361e-05 -5.49725e-06 0
5.04964e-07 2.55454e-05 0
1.57666e-05 -2.86445e-06 0
5.35004e-06 -1.82805e-05 0
-3.69652e-06 -5.64723e-06 0
-1.04501e-05 -5.97315e-06 0
-1.24075e-05 -1.47621e-05 0
-2.12981e-06 -2.52348e-06 0
-1.22028e-05 -2.71017e-05 0
-2.6515e-05 2.35869e-05 0
2.46529e-05 1.49323e-05 0
5.80569e-06 -2.14141e-05 0
1.09044e-06 -3.51405e-05 0
-1.77547e-05 -1.7383e-05 0
7.79613e-06 -8.41058e-06 0
-1.75624e-05 3.06374e-05 0
-2.21545e-05 1.97847e-05 0
-2.13309e-05 -1.68532e-05 0
1.79003e-06 3.47268e-06 0
2.51429e-05 -9.28363e-06 0
2.01015e-05 -5.91518e-06 0
-1.02212e-05 1.79029e-06 0
1.3455e-05 2.73759e-05 0
2.19809e-05 -1.14177e-05 0
-2.41403e-05 6.31611e-05 0
6.31413e-06 -5.19626e-06 0
-5.68117e-06 -9.32539e-06 0
1.40118e-05 -8.91753e-06 0
9.10851e-07 -1.50758e-05 0
-2.9034e-06 -2.50974e-05 0
4.14328e-05 2.49734e-05 0
1.11877e-05 1.64185e-05 0
8.81446e-07 -1.90114e-05 0
2.60155e-05 -1.28587e-05 0
1.60962e-05 2.95183e-05 0
7.76654e-06 1.67422e-05 0
-2.62315e-06 -1.38601e-05 0
1.26283e-05 8.04357e-08 0
-3.87462e-06 3.24244e-05 0
2.76233e-05 -2.11044e-05 0
-9.2273e-06 -7.43685e-07 0
7.27493e-06 -1.5406e-05 0
3.69142e-06 1.56889e-05 0
-3.0824e-07 -2.95794e-05 0
-1.02624e-05 -2.46602e-06 0
7.61532e-06 1.75828e-05 0
1.23592e-05 2.29953e-05 0
1.83443e-05 -1.02132e-05 0
4.28594e-07 6.37788e-06 0
-4.32804e-06 -9.23378e-06 0
-6.61891e-06 -1.46347e-06 0
-3.62854e-06 -1.34882e-05 0
2.00762e-06 -7.39068e-06 0
-1.85593e-05 -4.11727e-06 0
-2.53976e-06 -2.90092e-06 0
-1.12403e-05 1.89476e-06 0
1.21901e-05 5.78923e-06 0
7.17561e-06 -1.50017e-05 0
7.72313e-06 -1.81379e-05 0
-4.5988e-06 -8.08176e-06 0
2.67112e-05 8.83658e-06 0
-8.08713e-06 -1.12083e-05 0
-2.28011e-05 8.16655e-06 0
-5.4784e-06 -9.99615e-06 0
-1.54212e-05 9.89813e-06 0
2.03986e-05 -2.62313e-05 0
3.98078e-06 -2.21047e-05 0
-3.74884e-06 -4.02776e-06 0
1.19663e-05 5.42855e-06 0
-8.73177e-06 9.65482e-06 0
-1.46943e-06 -1.84001e-05 0
9.89498e-06 -4.68134e-06 0
1.91076e-05 -5.96509e-07 0
8.85357e-06 -1.53256e-05 0
1.28969e-05 -3.20838e-06 0
6.92694e-06 -4.44849e-06 0
3.22777e-05 3.04224e-06 0
8.77824e-06 8.3703e-06 0
1.61806e-05 -2.61287e-05 0
-1.09544e-05 2.95029e-05 0
4.61228e-06 1.41025e-06 0
1.53512e-05 -2.10125e-05 0
-8.58724e-06 -2.16316e-05 0
2.33318e-05 1.03024e-05 0
-1.69343e-06 1.50393e-05 0
8.8895e-06 -2.63909e-05 0
-3.54969e-06 1.78862e-05 0
1.47217e-05 -1.4276e-05 0
2.86604e-06 1.84052e-05 0
1.25197e-05 2.5431e-05 0
-4.97927e-06 6.42141e-06 0
-2.26658e-06 -6.7969e-06 0
1.23387e-05 6.06864e-06 0
-2.95652e-05 -8.76634e-06 0
5.19571e-06 -1.51935e-05 0
-3.89068e-06 2.97042e-06 0
3.30159e-05 1.10816e-05 0
1.11985e-05 -9.80383e-06 0
1.86897e-05 6.71674e-06 0
-1.00923e-05 -6.4943e-06 0
-3.22675e-06 -5.16332e-06 0
-2.33076e-06 -8.15308e-06 0
-9.18443e-06 -1.06225e-05 0
-6.72797e-06 -1.96137e-05 0
7.67972e-06 3.68701e-06 0
-9.14483e-06 -1.04482e-05 0
-1.34186e-05 -9.58339e-06 0
-1.24606e-05 -1.84961e-06 0
2.88507e-07 -2.74667e-05 0
-3.76019e-06 -3.88045e-05 0
-1.4337e-05 5.65246e-06 0
1.65483e-05 9.59042e-06 0
5.4746e-06 3.64413e-05 0
-8.37012e-06 -9.67592e-06 0
7.93531e-06 -4.11005e-07 0
2.15155e-06 -4.11848e-06 0
-7.39246e-06 3.02147e-06 0
-7.48359e-06 -2.05357e-05 0
-1.05229e-05 -2.53553e-05 0
-7.1832e-06 1.28851e-06 0
-8.9986e-06 -3.51013e-05 0
5.11481e-06 2.31231e-05 0
-1.24165e-05 -1.08594e-05 0
-1.64944e-07 -1.31507e-06 0
-1.05298e-05 -2.41432e-05 0
1.70718e-06 -1.72958e-05 0
4.19453e-05 2.02816e-05 0
8.54601e-06 3.50691e-06 0
-5.56798e-06 1.23167e-06 0
-5.29878e-06 -2.66648e-05 0
2.90832e-06 -2.24543e-05 0
2.23735e-05 -2.53403e-05 0
-4.82403e-06 7.70776e-06 0
1.74781e-06 -2.65936e-05 0
-2.74933e-05 2.00194e-06 0
1.38807e-06 4.3595e-05 0
1.02609e-05 -8.52466e-06 0
-2.13616e-06 -1.9514e-05 0
-1.74732e-05 -2.38065e-07 0
-2.33297e-05 -2.06757e-05 0
2.71387e-05 1.38049e-05 0
9.35467e-06 1.45961e-05 0
2.0646e-05 -1.1563e-05 0
1.13147e-05 1.49303e-07 0
1.47321e-05 -4.40813e-06 0
-7.44372e-06 -1.10509e-05 0
1.02788e-05 -1.25413e-05 0
-2.70024e-06 2.12549e-05 0
-3.30703e-05 -8.46581e-06 0
4.99709e-07 -1.06507e-05 0
-1.16849e-05 -1.32996e-05 0
9.25145e-06 5.07465e-06 0
-2.09685e-05 -1.97849e-05 0
1.97102e-05 1.02938e-05 0
-4.41207e-06 -4.37126e-06 0
-7.79634e-06 -6.52191e-06 0
-2.6479e-05 2.89034e-05 0
-9.93125e-06 2.49748e-05 0
4.80743e-06 -9.10784e-06 0
2.95926e-05 1.78656e-05 0
6.74544e-06 -1.34848e-05 0
3.47726e-05 2.15718e-06 0
1.06417e-05 1.28481e-05 0
-2.15413e-05 -1.27234e-05 0
-4.13203e-06 -2.55795e-05 0
3.09373e-05 -3.97152e-06 0
-1.53414e-06 -1.41976e-05 0
-7.89254e-06 -5.884e-06 0
-1.97036e-05 4.71375e-05 0
2.61635e-06 4.88736e-05 0
-1.2124e-05 1.49236e-05 0
-4.71107e-06 2.23931e-05 0
1.75766e-05 1.43094e-05 0
4.99677e-06 -6.54998e-06 0
-3.82424e-06 2.14384e-05 0
7.20208e-06 -4.25525e-05 0
1.33297e-05 -9.08217e-07 0
-5.55104e-06 -1.30227e-05 0
-2.76226e-05 -1.55552e-05 0
3.25747e-05 -1.56e-05 0
-2.20619e-06 2.305e-05 0
1.89318e-05 -9.93843e-06 0
1.26875e-05 -4.54577e-07 0
1.42161e-06 -2.39342e-05 0
-1.87985e-06 -6.93349e-07 0
-1.54399e-05 5.79916e-06 0
3.74247e-06 2.97561e-06 0
-8.59336e-06 -9.87247e-06 0
1.44353e-05 1.30922e-05 0
-3.08494e-06 5.57619e-06 0
1.43359e-05 -2.3216e-05 0
-3.34118e-06 -1.82684e-05 0
-4.22851e-07 2.22212e-05 0
4.40648e-05 -4.4523e-06 0
1.71818e-06 3.61936e-05 0
-2.33136e-06 -1.35543e-05 0
1.15703e-05 1.33288e-05 0
-9.24038e-06 -2.64576e-05 0
2.312e-05 2.66987e-05 0
2.18561e-06 -2.2237e-06 0
1.91925e-05 8.37709e-06 0
-5.12311e-06 -3.37015e-06 0
-5.23453e-06 -5.73129e-06 0
6.07881e-06 1.00171e-05 0
-2.85674e-05 -2.1796e-06 0
6.25885e-06 -1.18747e-05 0
-2.2722e-05 1.11662e-05 0
1.48197e-05 5.44794e-07 0
-4.68268e-06 -1.62739e-05 0
-2.48355e-06 -9.70369e-06 0
-2.97004e-05 -8.90956e-06 0
-1.15315e-05 -3.64978e-05 0
2.42151e-05 1.40242e-05 0
-1.06777e-05 -1.87857e-07 0
1.41014e-05 -4.9966e-06 0
1.39595e-05 -5.79788e-06 0
1.14463e-05 -1.02001e-05 0
2.75326e-05 -8.92625e-06 0
1.28296e-05 3.13022e-05 0
-5.84308e-06 -1.58635e-05 0
-1.99774e-05 -3.69357e-05 0
-2.26573e-05 -1.46846e-05 0
3.01886e-06 7.75308e-07 0
-2.37944e-05 3.98673e-06 0
-2.71766e-05 -3.22159e-05 0
-2.84299e-05 -4.00679e-05 0
-2.38161e-06 2.55256e-05 0
1.84899e-05 6.57395e-06 0
3.70347e-06 -2.15451e-05 0
-1.79708e-05 -1.6203e-05 0
-4.9074e-06 4.37689e-06 0
-1.91467e-05 -2.78189e-06 0
9.14873e-06 3.0109e-07 0
-2.77211e-05 -3.57435e-05 0
-3.64122e-05 1.31952e-05 0
3.92221e-06 3.03725e-05 0
-5.38385e-06 9.7986e-06 0
4.91275e-06 -3.41212e-06 0
6.5283e-06 -2.18935e-06 0
3.19417e-05 6.98083e-05 0
9.63591e-06 1.95057e-05 0
1.20163e-05 2.87717e-05 0
-1.07917e-06 2.59596e-05 0
2.12441e-06 2.83497e-05 0
1.92405e-07 5.74087e-06 0
-4.54774e-07 1.94918e-06 0
-1.79767e-06 2.30558e-05 0
-8.87978e-07 -7.55511e-06 0
-2.56363e-05 2.42038e-05 0
5.84168e-06 1.43229e-05 0
1.05284e-05 1.91045e-05 0
-1.71491e-05 -7.27879e-06 0
-3.84977e-06 3.19378e-05 0
9.37526e-07 1.35482e-05 0
-2.51155e-05 7.05354e-06 0
1.29839e-05 6.85608e-06 0
-2.15405e-05 8.06804e-06 0
-1.49991e-07 3.26054e-06 0
-1.5249e-05 9.60488e-06 0
-1.81565e-05 -5.36011e-07 0
-7.86674e-06 1.09201e-05 0
1.38641e-06 1.5439e-05 0
8.25075e-06 1.18263e-05 0
-4.59836e-06 1.45218e-05 0
-3.92822e-05 -3.85479e-06 0
1.01641e-05 1.40445e-05 0
4.49432e-06 1.23194e-05 0
1.35909e-06 2.15724e-05 0
-3.84784e-06 -1.2295e-05 0
-2.22266e-05 -9.70408e-06 0
-1.30199e-05 1.44288e-05 0
6.96953e-06 -5.26475e-06 0
-1.62233e-05 7.02462e-06 0
-2.24741e-05 2.90525e-06 0
-1.05743e-06 -5.03753e-07 0
1.86281e-05 1.76786e-06 0
-2.36494e-05 1.83157e-05 0
-9.69528e-06 1.09642e-05 0
-1.33395e-05 3.00507e-06 0
-8.03317e-06 -4.56342e-06 0
8.07919e-06 6.66349e-06 0
-1.79136e-05 -8.12212e-06 0
-8.4157e-06 -2.04692e-06 0
-7.14152e-06 -8.60591e-06 0
-2.08931e-05 9.20827e-06 0
-1.98608e-05 3.66355e-05 0
-2.03871e-05 -2.24901e-08 0
-2.72863e-05 2.79163e-06 0
-1.8292e-05 2.03386e-06 0
-2.96722e-05 -6.42787e-06 0
-1.98543e-05 7.23068e-06 0
1.09737e-07 1.68051e-05 0
-2.06232e-05 -1.2155e-06 0
7.70327e-06 2.15838e-05 0
-1.54522e-05 4.32493e-05 0
1.95456e-05 -6.20143e-07 0
2.80043e-05 8.19356e-05 0
-2.04196e-05 6.73325e-06 0
2.2704e-05 3.08476e-05 0
-1.50884e-05 5.34474e-05 0
2.37315e-05 2.26355e-05 0
1.90223e-05 7.65286e-06 0
-8.75181e-07 -1.62559e-05 0
1.33127e-05 8.99003e-06 0
-1.521e-06 -2.70678e-05 0
-1.4428e-05 1.4065e-05 0
-3.24462e-06 -1.68336e-06 0
-1.43941e-05 -6.25646e-07 0
-2.45363e-06 3.85292e-05 0
8.34669e-06 6.41532e-06 0
-6.66079e-06 1.72645e-05 0
-1.77521e-05 -9.13068e-06 0
1.71369e-06 1.56353e-05 0
-8.79289e-07 1.24353e-05 0
-1.17744e-06 1.41453e-05 0
4.09793e-05 -1.75393e-06 0
-2.01563e-05 -1.07498e-05 0
4.11247e-05 1.63044e-05 0
-1.62438e-05 -2.4504e-05 0
-1.78732e-05 1.32337e-05 0
-1.2859e-07 -2.36048e-06 0
1.86362e-05 2.58813e-05 0
1.35402e-05 1.28645e-05 0
4.82927e-05 3.48906e-05 0
-2.47703e-06 2.20621e-05 0
-1.77781e-05 3.43932e-05 0
6.70307e-06 -1.99432e-05 0
4.03388e-06 -1.20009e-05 0
-2.15991e-05 1.19676e-05 0
1.17804e-05 6.76101e-05 0
2.20513e-05 4.0677e-05 0
1.1445e-05 8.84681e-06 0
8.06458e-07 8.74862e-06 0
5.61831e-06 6.46648e-06 0
2.42388e-06 1.35713e-05 0
1.10136e-05 -1.45729e-05 0
2.4945e-05 2.21389e-05 0
3.26944e-05 -2.33373e-05 0
-1.8084e-05 -7.52818e-06 0
1.6091e-05 -2.57918e-05 0
-1.00083e-05 3.1475e-05 0
-5.9622e-06 1.73209e-05 0
1.10404e-06 1.45147e-05 0
2.48951e-05 1.07975e-05 0
4.01528e-06 3.6583e-05 0
-5.15716e-06 1.06941e-05 0
-1.65528e-05 -8.3576e-06 0
-5.97345e-07 2.38007e-05 0
2.96925e-05 -3.2671e-05 0
1.2494e-05 -4.53965e-06 0
-9.64303e-06 1.66074e-05 0
2.60402e-07 -9.94667e-06 0
-1.21505e-05 -1.8649e-05 0
-1.41809e-05 2.20467e-05 0
-8.84422e-06 2.33437e-06 0
-4.92253e-06 1.84634e-05 0
7.25414e-06 1.68159e-05 0
1.1424e-05 4.02625e-05 0
-2.21367e-06 -8.04406e-06 0
-6.92318e-06 2.569e-05 0
-8.13793e-06 -9.13084e-07 0
-2.52197e-05 -6.90748e-06 0
-2.41636e-05 -1.43548e-05 0
1.49665e-05 -4.21793e-06 0
-6.22579e-06 1.01617e-06 0
-7.39891e-06 5.42226e-06 0
2.24924e-05 2.05823e-05 0
-9.65238e-08 -2.40269e-06 0
2.1966e-06 1.525e-05 0
1.56715e-05 -3.0327e-05 0
-4.39804e-08 3.38106e-06 0
4.60948e-06 -2.93045e-05 0
4.60043e-05 -1.56134e-05 0
1.76139e-05 -3.25179e-05 0
2.57229e-05 -2.31948e-05 0
8.60856e-06 9.54391e-06 0
2.74816e-05 2.12083e-05 0
2.89694e-05 4.99749e-05 0
-1.50199e-05 -2.64095e-06 0
-5.67083e-06 2.15083e-06 0
1.09664e-05 -1.44316e-05 0
1.44382e-05 -1.84356e-05 0
2.45347e-05 4.085e-05 0
9.07223e-07 -1.54802e-05 0
8.53919e-06 -4.62827e-06 0
-9.05198e-07 2.72668e-05 0
-3.49304e-06 -1.00714e-05 0
9.36712e-07 3.95363e-06 0
3.12429e-05 1.52361e-05 0
1.4688e-06 -7.96464e-06 0
1.37876e-06 1.59744e-05 0
3.78269e-05 1.9231e-05 0
2.4342e-06 -5.25768e-05 0
4.70106e-05 -6.19877e-06 0
-1.76286e-06 -1.18028e-05 0
8.48925e-06 -6.42845e-06 0
-4.27074e-06 -2.85973e-05 0
1.54045e-05 1.69251e-06 0
9.70385e-08 1.70903e-06 0
-8.97088e-06 -1.95873e-05 0
3.03956e-05 2.19015e-06 0
1.0741e-05 -3.04072e-05 0
-9.32332e-06 -1.30854e-05 0
-2.90003e-07 -9.67363e-06 0
-6.72508e-06 -1.86011e-06 0
4.57699e-05 -1.0193e-05 0
-3.554e-06 -1.85797e-05 0
-3.67035e-06 -3.68208e-05 0
1.93156e-05 -3.95703e-06 0
3.10251e-06 9.65409e-06 0
-7.64967e-07 5.99115e-06 0
-7.34913e-07 -2.77274e-06 0
-7.27081e-06 1.70778e-05 0
-6.49284e-07 -1.17758e-05 0
2.73209e-07 1.84123e-05 0
-1.33123e-05 3.43678e-06 0
7.57742e-06 -9.75233e-06 0
1.84487e-05 -9.16775e-06 0
6.89402e-06 3.46416e-05 0
-2.16149e-08 2.7813e-06 0
6.8839e-07 1.92573e-06 0
-3.99805e-06 1.27181e-05 0
1.44999e-06 1.01577e-05 0
5.18199e-05 4.38542e-05 0
-1.55177e-06 -2.01613e-05 0
-1.39791e-05 4.70391e-06 0
3.02152e-06 4.59999e-06 0
5.91252e-06 3.3027e-05 0
9.17764e-06 -1.93892e-05 0
6.99437e-06 -1.42393e-05 0
-2.40663e-05 -7.01427e-06 0
1.43069e-05 3.47596e-06 0
-2.37268e-05 4.02819e-06 0
1.47985e-05 -1.64573e-05 0
6.79775e-07 -7.42512e-06 0
1.39216e-07 -1.94494e-05 0
2.69116e-05 2.05741e-07 0
2.13049e-05 -8.01689e-06 0
-5.51516e-06 1.07493e-05 0
9.81241e-06 -1.31928e-06 0
9.91561e-06 -2.21995e-05 0
1.70549e-06 -6.95863e-06 0
1.96992e-05 2.94287e-06 0
-1.26199e-05 2.72569e-05 0
1.82833e-06 -8.71649e-06 0
-1.09628e-05 -1.68012e-06 0
-5.08171e-06 -6.37919e-06 0
-3.74539e-06 2.25733e-05 0
2.26526e-05 5.70549e-05 0
1.92242e-05 2.02881e-05 0
1.50191e-05 -1.62648e-05 0
1.27335e-05 2.40501e-05 0
6.82343e-06 -2.25898e-07 0
1.10113e-05 2.01134e-05 0
-3.07403e-06 -1.74912e-05 0
1.42332e-05 -2.52995e-06 0
2.23956e-05 -2.87449e-06 0
-6.43274e-07 -8.29948e-06 0
-1.73471e-05 -1.12036e-06 0
6.72545e-06 -1.38844e-05 0
-8.35155e-06 2.35826e-05 0
1.08905e-05 1.52507e-05 0
-1.9292e-05 -2.14152e-05 0
6.70672e-06 1.89615e-07 0
3.70222e-05 4.21772e-06 0
-7.10684e-06 -2.08973e-07 0
1.73677e-06 5.36582e-06 0
5.62971e-06 -2.34252e-05 0
-7.65024e-06 -1.9699e-06 0
4.59061e-06 -1.16679e-05 0
-4.49829e-06 1.64629e-05 0
-9.12233e-06 -1.55498e-05 0
-1.14441e-05 -4.02881e-06 0
-1.09755e-05 -2.85205e-05 0
-1.13875e-05 -7.99883e-07 0
-6.36705e-06 1.09384e-05 0
7.25177e-06 7.81637e-06 0
-1.11561e-05 9.27286e-06 0
1.79903e-05 -4.30176e-06 0
3.16312e-06 -1.64138e-05 0
-1.5373e-06 -4.58784e-06 0
3.61719e-06 2.57824e-05 0
-1.18127e-05 1.44154e-06 0
-2.7619e-05 1.66683e-05 0
5.53977e-05 4.28612e-06 0
7.49942e-06 -3.89e-06 0
-4.69422e-06 -4.79918e-07 0
-2.39374e-05 -8.07747e-06 0
2.5764e-05 -3.13642e-05 0
1.63096e-05 -1.25702e-05 0
-6.04786e-06 -2.39943e-05 0
2.58421e-05 -1.99197e-05 0
1.77891e-07 -6.47752e-06 0
3.31723e-05 -4.53969e-06 0
-1.24725e-05 1.63011e-05 0
2.64241e-06 -2.37624e-05 0
1.904e-05 -1.65378e-05 0
-6.31204e-06 -1.2825e-06 0
-7.56713e-06 -6.50189e-07 0
6.8125e-06 1.32475e-05 0
2.22652e-05 1.45818e-05 0
2.15022e-05 -9.99173e-06 0
2.05499e-06 -1.63999e-05 0
3.09158e-05 -1.37998e-05 0
2.47e-05 4.02794e-06 0
1.7978e-05 1.13458e-05 0
3.0378e-05 -1.24089e-05 0
2.27303e-05 -4.86646e-06 0
9.32385e-07 -8.36109e-06 0
2.16468e-06 -1.15493e-05 0
-2.41717e-06 1.99938e-05 0
1.52998e-05 4.93215e-06 0
-2.63318e-05 -9.02073e-07 0
-1.50346e-05 -2.35972e-05 0
6.76594e-06 3.93147e-05 0
2.45494e-05 2.29223e-05 0
3.28736e-05 -2.22582e-05 0
-6.77786e-06 -6.09986e-06 0
-2.00085e-05 6.28404e-06 0
2.86978e-05 2.65951e-05 0
-5.56663e-06 2.02904e-06 0
2.06372e-06 3.08466e-06 0
-1.47474e-05 1.44683e-05 0
-9.07083e-06 -1.04205e-05 0
1.2709e-05 1.11197e-05 0
2.65337e-05 -1.91351e-05 0
9.51983e-08 1.12455e-05 0
2.04192e-05 -1.7064e-05 0
4.8318e-06 3.15214e-05 0
-8.89705e-06 3.19933e-05 0
-1.22524e-05 -1.94986e-05 0
-1.90173e-05 -9.39429e-06 0
4.68773e-05 -1.78942e-05 0
-8.45518e-07 -3.09959e-05 0
1.46528e-06 -1.18818e-06 0
1.08004e-05 -1.43309e-05 0
1.59275e-05 4.54013e-06 0
-8.35333e-06 -2.02199e-05 0
6.32795e-06 2.54651e-06 0
-6.45447e-06 2.27939e-06 0
9.03264e-06 1.4667e-05 0
1.7583e-05 9.69631e-06 0
-6.01944e-06 5.92402e-06 0
8.14936e-06 -2.83861e-05 0
7.83051e-06 -1.21353e-05 0
-2.05244e-06 -2.25571e-05 0
3.99667e-06 6.11721e-06 0
4.9814e-07 2.24759e-06 0
3.18482e-07 2.1958e-06 0
-1.68273e-05 1.38144e-05 0
-1.37932e-05 -1.19153e-06 0
-1.35944e-06 1.21694e-05 0
-5.65061e-06 1.39558e-05 0
2.59061e-05 1.46463e-05 0
3.64611e-06 8.56057e-06 0
-1.329e-05 -1.85582e-05 0
3.62091e-07 -4.53767e-06 0
1.72241e-06 1.87561e-06 0
1.01855e-05 6.13662e-06 0
-2.3324e-05 1.42056e-05 0
9.00941e-07 -1.42222e-05 0
-1.48805e-05 9.88943e-06 0
1.31201e-05 2.69335e-05 0
-7.04835e-06 -2.74809e-05 0
-6.63849e-07 -2.76504e-06 0
-8.25567e-06 -1.21584e-06 0
3.64306e-06 1.70866e-05 0
4.18936e-05 1.11189e-05 0
1.14934e-05 9.64956e-06 0
1.45069e-05 1.5434e-05 0
2.88954e-06 1.24105e-05 0
1.63219e-05 1.52676e-05 0
-4.01067e-05 3.05259e-06 0
5.43973e-06 9.81578e-06 0
-2.10094e-05 -3.13717e-05 0
-2.21182e-05 2.05349e-05 0
-6.97436e-06 2.25662e-05 0
-4.11804e-06 2.26186e-05 0
-4.73168e-06 1.80554e-05 0
-6.88474e-06 2.09959e-05 0
4.87777e-06 -5.98279e-06 0
6.91655e-07 3.50539e-05 0
-6.39514e-07 1.05204e-05 0
-2.1327e-05 -7.70434e-06 0
5.14113e-06 8.79682e-06 0
-3.02921e-05 1.81207e-05 0
-1.44648e-05 2.13103e-05 0
-3.99273e-06 3.39458e-06 0
-6.77755e-06 6.99522e-06 0
1.53673e-05 1.59149e-05 0
-2.01734e-05 9.38668e-06 0
9.37665e-06 2.11247e-05 0
1.71655e-05 4.44182e-08 0
1.39433e-05 -2.04563e-05 0
2.35964e-05 -9.43809e-06 0
-2.70774e-05 -2.87767e-06 0
1.54764e-06 2.1479e-05 0
-1.09716e-05 5.36886e-05 0
-1.79247e-05 -1.04119e-05 0
-1.14318e-05 2.41733e-05 0
-1.48614e-06 4.20686e-06 0
-2.93886e-06 -3.20336e-05 0
-8.54827e-06 2.15797e-05 0
7.85385e-06 -1.9342e-05 0
6.08248e-06 1.62359e-05 0
5.37055e-06 6.66798e-07 0
4.00193e-06 2.42011e-06 0
6.84325e-06 3.42712e-06 0
-3.99036e-06 -6.88104e-06 0
1.31893e-05 -3.11682e-06 0
-1.05785e-05 -1.80903e-05 0
1.82704e-05 9.98647e-06 0
3.66403e-06 2.82215e-06 0
-2.41891e-05 -1.1934e-05 0
7.97143e-07 -3.3269e-05 0
2.50668e-05 2.03165e-05 0
2.9104e-06 -1.17314e-05 0
-8.51191e-06 -2.21355e-05 0
4.64179e-07 -1.74144e-05 0
-6.86484e-07 -2.53876e-06 0
5.1147e-06 -1.16504e-05 0
1.12295e-05 1.22596e-05 0
-9.73964e-07 -2.14869e-05 0
8.64361e-06 -5.58178e-06 0
6.09476e-06 -3.6104e-07 0
2.14298e-05 7.75185e-06 0
2.36901e-06 -8.0467e-06 0
1.44488e-05 8.47903e-07 0
1.92717e-05 3.98083e-05 0
1.72282e-05 -9.00981e-06 0
-4.659e-06 7.063e-06 0
-9.3694e-06 -1.11655e-05 0
-1.96268e-05 -5.42811e-06 0
-2.00473e-06 -2.06671e-05 0
2.74879e-06 6.08992e-06 0
-2.25796e-05 -5.42653e-07 0
-4.90459e-06 -3.82202e-06 0
1.35528e-05 9.83498e-06 0
1.31164e-05 -3.05817e-07 0
1.11324e-05 2.29816e-06 0
1.40523e-05 1.06014e-06 0
-1.72019e-05 -3.41236e-05 0
-1.16902e-05 -5.36499e-05 0
1.90699e-05 -7.52195e-08 0
2.77352e-05 1.77218e-05 0
-2.31832e-05 2.2264e-05 0
-1.7023e-05 -3.63135e-06 0
-1.69313e-05 2.48999e-05 0
9.89287e-06 5.22981e-06 0
-1.29635e-05 -1.57625e-05 0
5.1307e-06 2.11461e-05 0
-4.84704e-06 2.17146e-05 0
-1.63166e-05 -7.73262e-06 0
1.2456e-05 3.80059e-05 0
2.26865e-05 5.28812e-05 0
7.76862e-08 -1.02524e-05 0
1.04226e-05 -1.56537e-05 0
-3.82599e-06 -1.09354e-05 0
2.18161e-05 1.4178e-05 0
2.40377e-05 2.25588e-05 0
9.90955e-06 1.57919e-05 0
-1.14754e-05 4.37681e-06 0
1.93518e-05 -2.66755e-05 0
-2.64738e-05 -1.20855e-05 0
1.93963e-05 2.88829e-06 0
3.87332e-05 2.37948e-05 0
1.1378e-05 1.30073e-05 0
5.13617e-06 2.49539e-05 0
8.74956e-06 2.00503e-05 0
-4.603e-06 4.04646e-06 0
6.69677e-06 -1.74411e-05 0
1.22857e-05 -1.45982e-05 0
6.72825e-06 -4.12423e-05 0
7.75805e-06 -6.95339e-06 0
-1.27947e-05 -1.63772e-05 0
-4.56204e-07 -1.50123e-05 0
2.04945e-05 1.24211e-05 0
5.1356e-06 1.20673e-05 0
2.21496e-05 -2.47228e-06 0
2.45353e-05 -2.35755e-05 0
1.21384e-05 1.69077e-05 0
3.56938e-06 -5.63597e-06 0
8.06963e-06 1.1355e-05 0
-1.33922e-05 -4.27223e-05 0
7.74438e-06 -1.80121e-05 0
-8.71335e-06 3.68692e-05 0
-3.02736e-05 -2.04596e-05 0
1.56801e-05 5.01059e-05 0
1.28412e-05 4.9042e-05 0
1.08113e-05 -2.10853e-06 0
-1.96587e-06 -5.8646e-06 0
2.65862e-05 -1.30804e-05 0
-2.03457e-06 8.90191e-06 0
-1.45894e-05 -8.1883e-06 0
1.1805e-05 -2.20398e-05 0
2.26072e-05 -9.91732e-06 0
-9.89203e-06 -7.73679e-06 0
-6.58753e-06 7.12886e-06 0
3.67562e-07 -2.53848e-05 0
-9.69818e-06 -6.55714e-06 0
7.2726e-06 2.83074e-05 0
-2.98657e-07 -4.42811e-06 0
-2.38823e-05 5.70878e-06 0
1.29605e-06 3.26882e-05 0
-1.05888e-05 -1.57607e-05 0
4.55398e-06 -1.5846e-06 0
-1.50718e-05 3.43882e-05 0
-2.58493e-05 8.27503e-06 0
-1.76688e-05 1.75083e-05 0
-9.26639e-06 -9.45529e-06 0
1.42504e-05 -9.00367e-06 0
1.23803e-05 -1.44732e-05 0
3.3214e-05 8.98317e-06 0
-8.09621e-06 -2.18165e-05 0
-4.91836e-06 -3.6821e-05 0
-1.60148e-05 3.94774e-05 0
4.2026e-06 7.00571e-06 0
9.56663e-06 1.12382e-05 0
-3.69612e-06 1.99336e-06 0
1.82079e-05 1.76911e-05 0
3.94605e-06 -9.1061e-06 0
-9.61851e-07 2.30162e-05 0
-1.30235e-05 -3.16372e-05 0
1.90075e-05 1.02895e-05 0
-1.17277e-05 5.43668e-06 0
2.36054e-05 -1.72214e-05 0
-8.27215e-06 -2.09417e-05 0
-2.07034e-06 3.5145e-06 0
2.77871e-05 1.38225e-05 0
-1.05486e-05 -1.50418e-06 0
1.55015e-06 -2.10378e-06 0
4.1558e-06 -4.93797e-06 0
-4.21884e-06 -2.3029e-05 0
1.61423e-05 -2.27969e-06 0
1.61353e-05 4.38001e-06 0
1.84118e-05 2.17655e-06 0
1.7544e-05 1.00959e-05 0
2.18721e-05 9.61293e-06 0
1.43003e-05 -2.57321e-06 0
1.20631e-05 8.5536e-06 0
2.25899e-05 1.70235e-05 0
1.13994e-05 -8.16797e-06 0
2.2544e-05 2.72428e-05 0
-3.36021e-05 -2.58551e-05 0
8.64241e-06 -2.33751e-05 0
1.9193e-05 2.69565e-06 0
7.36218e-06 -3.16737e-06 0
-1.55475e-05 -3.73843e-06 0
-9.49737e-06 -2.44458e-05 0
-1.53721e-05 -4.29975e-05 0
-1.37563e-05 8.49814e-06 0
-9.50931e-06 -2.83006e-05 0
1.34061e-06 -1.22216e-05 0
1.40486e-05 1.71863e-05 0
-7.33256e-06 -1.80912e-05 0
3.0909e-05 3.47979e-05 0
5.55939e-06 -3.14825e-06 0
1.25205e-05 -1.96249e-07 0
6.35151e-06 1.04295e-05 0
-4.01696e-07 5.22335e-06 0
2.38036e-05 1.27554e-05 0
-5.22651e-06 -2.87917e-05 0
-1.63259e-05 -2.38005e-06 0
-1.91662e-05 -3.20141e-05 0
-1.39686e-05 2.225e-05 0
9.1042e-06 -5.40479e-06 0
-6.4107e-06 3.39975e-05 0
-7.26245e-08 -3.8673e-06 0
-7.32419e-06 -9.06445e-06 0
-1.01832e-05 -2.09513e-05 0
1.68464e-05 2.41668e-05 0
7.57504e-06 -1.7554e-05 0
-7.55832e-06 -1.1268e-06 0
-3.14357e-05 -7.755e-06 0
1.44238e-05 -6.06639e-07 0
-1.52326e-05 1.56312e-05 0
-1.28115e-06 -2.38678e-05 0
1.48637e-05 -1.65308e-06 0
1.38959e-05 -2.77917e-06 0
1.32985e-05 1.32886e-05 0
8.4508e-07 -1.74124e-05 0
5.03313e-06 3.7114e-05 0
-9.43593e-06 2.97571e-06 0
2.9107e-09 -2.64939e-05 0
1.55385e-05 6.77099e-06 0
7.79133e-06 2.10238e-05 0
4.52474e-06 1.47568e-05 0
1.35558e-05 1.60192e-05 0
-8.38839e-06 1.23592e-05 0
1.16811e-05 -4.25657e-07 0
-1.98869e-06 3.37296e-05 0
1.9383e-05 1.8274e-05 0
1.36104e-05 -1.68058e-05 0
-8.4323e-06 -1.00224e-05 0
-1.95084e-05 -6.61648e-06 0
2.12535e-05 2.12585e-05 0
4.78862e-06 -9.52714e-06 0
1.82383e-05 -8.66088e-06 0
1.98206e-05 2.31047e-05 0
2.70812e-05 2.41612e-05 0
-3.15276e-06 -1.16714e-06 0
-1.47338e-05 3.92486e-05 0
1.83073e-05 8.7557e-06 0
-1.83304e-05 -1.55493e-05 0
-2.28347e-05 1.67958e-05 0
-4.93922e-06 -1.36334e-05 0
1.08228e-05 4.36026e-05 0
3.53081e-06 -3.19453e-05 0
2.34264e-05 2.61601e-05 0
-1.99355e-05 1.92694e-05 0
1.19202e-05 -5.16319e-06 0
9.73185e-06 2.06576e-05 0
-9.26981e-06 -1.51769e-05 0
-1.49834e-05 -1.02459e-05 0
1.432e-05 1.893e-06 0
6.47078e-06 5.00855e-07 0
1.51519e-05 3.36552e-05 0
3.92299e-05 -1.32683e-05 0
4.21152e-06 -1.5214e-05 0
3.77819e-05 -1.08525e-05 0
1.24101e-05 -1.93005e-05 0
2.04286e-05 2.52714e-05 0
6.881e-06 2.78531e-05 0
-3.62138e-06 -2.65229e-06 0
-1.08297e-05 -1.42903e-05 0
7.5492e-06 -4.72734e-06 0
9.66811e-06 5.26165e-06 0
2.08157e-05 -9.06745e-08 0
-2.26041e-05 -6.55447e-07 0
-2.25346e-06 1.80747e-05 0
-7.2595e-06 -9.61131e-06 0
-1.05674e-06 2.11229e-05 0
6.34145e-06 1.81211e-05 0
-1.11764e-06 -9.92706e-06 0
3.67539e-05 2.09874e-05 0
-1.56611e-05 -7.5924e-06 0
-1.13306e-05 -6.29329e-06 0
-8.38811e-07 7.61497e-06 0
3.22777e-05 -1.09074e-05 0
1.06855e-05 -3.40281e-06 0
1.25603e-05 -6.38654e-06 0
-1.61495e-05 2.50169e-05 0
2.09699e-05 -3.98545e-06 0
-1.78174e-05 -6.46421e-06 0
1.01218e-05 1.24189e-05 0
1.27397e-06 3.79132e-06 0
-1.73633e-05 -3.4381e-06 0
4.5856e-05 2.85478e-05 0
-1.76575e-06 3.72721e-05 0
1.88982e-05 1.51876e-05 0
1.18698e-05 3.94223e-06 0
-3.28768e-06 9.72847e-06 0
-2.98716e-07 4.34746e-06 0
2.39399e-05 -2.02924e-07 0
2.70138e-05 -5.50474e-06 0
2.6909e-05 4.14561e-05 0
1.50386e-05 -1.89744e-05 0
-2.23389e-05 8.60171e-06 0
2.01198e-05 1.99754e-05 0
3.52047e-06 -2.82031e-06 0
-3.22512e-06 8.74053e-06 0
-7.81474e-06 -4.05995e-06 0
-2.78273e-06 1.53184e-05 0
-1.15741e-05 -1.20578e-05 0
1.83586e-05 -3.71172e-06 0
-7.58304e-06 -8.17362e-06 0
-2.13039e-05 -2.55866e-05 0
-2.35189e-05 -1.90786e-05 0
1.2668e-05 3.51113e-05 0
-7.84901e-06 3.88586e-07 0
-4.57562e-05 8.45421e-06 0
-6.41882e-06 1.41676e-05 0
-7.93285e-06 1.09983e-06 0
1.35042e-05 5.93028e-06 0
-2.50731e-05 -5.02618e-05 0
2.37135e-05 2.38834e-05 0
1.09868e-05 1.56722e-05 0
-1.23775e-06 -2.20471e-05 0
-3.73285e-06 -5.24863e-05 0
1.91248e-07 2.54069e-05 0
-1.30205e-05 -2.45076e-05 0
-1.92587e-05 -1.25921e-05 0
2.89289e-06 3.8695e-05 0
-3.7742e-05 3.843e-06 0
4.91669e-06 -1.95116e-05 0
-7.88792e-06 7.3703e-06 0
-6.67912e-06 -1.64705e-05 0
8.39047e-07 3.08154e-05 0
-2.36678e-05 -1.3795e-05 0
-1.54222e-05 1.97304e-05 0
-1.29742e-05 -5.85982e-06 0
-1.55367e-05 -1.82899e-06 0
4.25328e-06 2.46547e-05 0
-1.19394e-05 1.27632e-05 0
-2.79015e-05 -5.75624e-06 0
8.20827e-06 1.35535e-05 0
-2.54004e-06 2.01788e-05 0
3.64914e-06 2.18756e-05 0
1.62242e-05 4.38125e-05 0
2.90507e-05 2.35648e-05 0
-2.06263e-05 1.59323e-05 0
-1.09078e-05 2.6626e-05 0
-1.29909e-05 -1.07705e-05 0
1.19288e-05 3.07172e-05 0
-2.6882e-06 2.36282e-05 0
-2.5005e-10 0 0
-5.51806e-06 4.16389e-05 0
-1.38112e-05 3.58416e-05 0
-2.4797e-05 3.96958e-06 0
-1.27223e-05 2.02476e-05 0
1.73954e-05 2.13807e-05 0
3.57341e-06 2.75248e-05 0
-5.99186e-06 1.54889e-05 0
-3.79956e-06 3.39927e-05 0
-1.41537e-05 2.45715e-05 0
-1.10149e-05 8.99153e-06 0
6.27087e-06 1.77637e-05 0
4.04316e-05 4.97363e-05 0
8.43052e-06 3.06431e-05 0
1.5442e-05 -4.87778e-06 0
1.88519e-05 2.70982e-05 0
1.39257e-05 -4.35731e-06 0
-3.91351e-07 3.27079e-05 0
5.86697e-06 2.04718e-05 0
-4.74446e-08 4.0163e-05 0
-1.83723e-05 -1.4785e-05 0
-6.79124e-06 2.68146e-05 0
-9.03711e-07 7.67458e-06 0
-1.65553e-05 -5.97495e-06 0
1.15616e-05 2.72723e-06 0
-5.43479e-06 -9.7118e-06 0
2.22617e-05 2.20141e-05 0
-1.52097e-05 3.34145e-05 0
1.56199e-05 4.87152e-05 0
-3.12283e-05 8.47539e-07 0
-5.2775e-06 1.46811e-05 0
2.42497e-06 2.22212e-05 0
-3.61963e-06 1.67971e-05 0
-5.42703e-06 3.56955e-05 0
1.61663e-05 3.23553e-06 0
-7.52615e-06 1.44749e-05 0
-1.60511e-05 2.63045e-06 0
1.25541e-05 -8.29605e-06 0
-1.7613e-05 4.27362e-06 0
-2.52187e-05 3.5623e-05 0
-3.09429e-06 2.75521e-05 0
2.65037e-06 1.91161e-05 0
-4.30403e-06 -3.47652e-06 0
-1.72954e-05 -3.33352e-05 0
1.26827e-05 -1.86783e-05 0
2.84021e-06 3.62002e-06 0
-8.76625e-06 -8.90401e-06 0
-1.48936e-05 -2.40428e-05 0
-1.15437e-05 -7.89355e-06 0
1.44184e-05 1.53712e-06 0
-1.26973e-05 6.25507e-06 0
4.22434e-05 1.42667e-05 0
-1.47592e-05 -2.54864e-05 0
-4.115e-06 1.59999e-05 0
1.78861e-05 1.20705e-05 0
-2.81323e-05 -7.90012e-06 0
1.55834e-05 1.26713e-05 0
2.75667e-05 -1.37132e-05 0
1.0555e-05 6.68022e-06 0
5.31448e-06 3.72174e-05 0
-4.88866e-07 -2.21978e-05 0
5.44864e-05 6.71066e-06 0
1.98945e-05 -1.7389e-05 0
-1.23756e-05 6.65354e-06 0
1.9105e-06 -2.00233e-05 0
1.86985e-05 8.65373e-06 0
8.29587e-06 2.18005e-05 0
5.01224e-05 -1.98264e-06 0
-1.59914e-05 2.91244e-05 0
-7.89545e-06 -3.02284e-06 0
-3.51319e-06 -1.0368e-05 0
-3.49585e-06 -5.71968e-06 0
1.30028e-06 -1.78497e-05 0
1.49683e-06 2.90793e-05 0
-3.20861e-06 -1.3352e-05 0
1.59763e-05 -1.16666e-06 0
1.69565e-05 -2.14611e-06 0
8.11966e-06 -6.54454e-06 0
1.82227e-05 9.0977e-06 0
5.03371e-06 -2.3539e-05 0
6.47439e-06 -3.6624e-05 0
-2.45628e-05 -9.43314e-06 0
2.46079e-05 1.90468e-05 0
6.02673e-06 1.35075e-05 0
3.32079e-05 1.90125e-05 0
1.03399e-07 -5.09851e-05 0
3.24905e-05 1.25087e-05 0
3.73354e-05 -7.43156e-06 0
-1.61805e-05 6.02386e-06 0
1.87857e-05 -1.59773e-05 0
1.57004e-05 3.12786e-05 0
4.54406e-05 -1.06814e-05 0
-1.34815e-05 -2.38307e-05 0
2.89863e-05 1.07018e-05 0
1.83434e-05 2.57998e-06 0
9.9949e-06 2.57513e-05 0
-1.57309e-06 -3.46863e-05 0
3.0447e-05 -2.95167e-05 0
1.13337e-05 -1.19197e-05 0
3.54652e-05 -1.10385e-05 0
1.5893e-05 -6.93907e-06 0
2.72028e-06 -1.62077e-05 0
1.4106e-05 -2.16965e-05 0
3.30441e-05 -9.96569e-06 0
2.852e-05 1.54391e-05 0
2.26047e-05 1.59058e-05 0
3.57202e-05 7.15234e-06 0
7.24111e-06 1.62349e-05 0
-2.56349e-05 8.05193e-07 0
-8.49592e-06 -5.21085e-05 0
1.05992e-05 -9.6956e-06 0
1.02386e-05 -1.08821e-05 0
2.24557e-05 -5.58374e-06 0
-1.33511e-07 -5.11253e-06 0
-1.18811e-05 -8.19787e-06 0
-3.36708e-06 -1.26479e-05 0
3.04681e-05 -2.50175e-05 0
1.66755e-05 2.15473e-05 0
2.09411e-05 9.4415e-06 0
-2.4726e-05 4.05265e-06 0
-1.04982e-05 -1.53652e-05 0
5.2924e-06 5.20182e-06 0
-1.16994e-05 8.56196e-06 0
-3.23817e-06 1.75504e-05 0
-8.43484e-07 1.44258e-05 0
3.12202e-06 2.28899e-05 0
-2.65031e-05 -1.70482e-05 0
7.07984e-06 2.73827e-05 0
1.83453e-05 4.32182e-05 0
-2.20655e-06 3.13217e-05 0
-2.91287e-05 1.2607e-05 0
-3.33494e-06 -1.16956e-05 0
1.00689e-05 4.67646e-06 0
-1.24197e-05 1.88701e-05 0
-2.03014e-05 1.8733e-05 0
-1.50986e-05 2.17144e-05 0
-6.63631e-06 2.39767e-05 0
1.3484e-05 6.63453e-06 0
4.42353e-06 3.42695e-05 0
-1.7477e-05 -1.50016e-05 0
3.91214e-06 -4.07483e-07 0
4.87374e-05 2.62051e-05 0
-2.58376e-06 2.15551e-05 0
-1.53005e-05 9.84628e-06 0
-1.35219e-05 -2.12348e-05 0
-2.09172e-05 6.97255e-06 0
-1.93355e-05 -1.0572e-06 0
-1.23786e-05 1.31152e-05 0
6.06262e-06 1.68014e-05 0
-1.75625e-06 1.81588e-05 0
-1.11121e-05 -1.15562e-05 0
-1.1365e-05 4.41386e-05 0
-3.00153e-06 -6.39644e-06 0
-2.4419e-05 2.77915e-05 0
-1.37511e-05 -1.70579e-05 0
-2.1161e-05 3.18273e-05 0
6.13879e-06 1.14059e-05 0
-1.89457e-05 2.23641e-05 0
-9.20222e-06 1.96293e-05 0
-1.80913e-05 -2.65983e-05 0
-2.18645e-06 -1.41999e-05 0
-1.44672e-06 -7.92589e-06 0
-2.51882e-05 -3.03807e-06 0
-6.66279e-06 1.7238e-05 0
1.76243e-06 2.41624e-07 0
-2.41067e-05 1.42155e-06 0
1.7048e-06 2.1083e-05 0
1.24552e-06 1.16697e-05 0
-7.11417e-06 -1.24193e-05 0
-2.32418e-05 -3.38287e-07 0
2.42538e-06 -2.38106e-05 0
1.30542e-05 1.09808e-05 0
1.73872e-06 1.48337e-05 0
3.36798e-06 6.79296e-06 0
-2.01662e-05 2.65331e-06 0
-6.30886e-06 2.3947e-05 0
-1.74179e-05 2.15312e-05 0
-6.69118e-06 9.57659e-06 0
-2.72513e-07 1.20268e-05 0
1.67092e-05 2.49631e-05 0
-1.05002e-05 3.14894e-06 0
-4.68264e-06 1.82274e-05 0
1.09199e-05 4.47741e-05 0
-6.6132e-07 -1.44576e-05 0
5.80968e-09 -3.43878e-06 0
-2.12055e-05 -1.5558e-06 0
-2.7868e-05 2.35781e-05 0
-1.4432e-05 -1.31795e-05 0
4.41256e-06 2.9988e-05 0
1.88439e-05 9.01095e-06 0
2.69723e-05 -2.12136e-05 0
4.38035e-06 -2.35082e-06 0
-3.47113e-07 -3.03444e-06 0
3.56975e-05 8.62509e-06 0
3.21886e-06 1.99663e-05 0
1.5105e-05 2.86749e-05 0
1.07576e-05 1.68028e-05 0
-6.078e-06 -4.91685e-06 0
5.72534e-06 -4.54138e-06 0
1.94983e-05 -9.6906e-06 0
1.89631e-05 4.85822e-05 0
-1.08013e-06 -2.92972e-05 0
-6.01654e-06 2.77906e-05 0
-8.75651e-06 3.50795e-05 0
-1.4326e-05 2.48511e-05 0
-4.71512e-06 1.60308e-05 0
6.19038e-06 4.3785e-05 0
2.02393e-05 -1.08481e-05 0
-2.96429e-05 2.91305e-05 0
-3.17587e-05 3.04785e-05 0
2.63506e-05 6.61447e-06 0
-1.91572e-05 8.11076e-06 0
2.33568e-06 2.33013e-05 0
2.68845e-06 8.31452e-06 0
-6.74001e-06 -2.01778e-05 0
4.27163e-06 9.5351e-06 0
-3.25356e-05 2.28056e-06 0
-1.0497e-05 -2.20102e-05 0
-1.89344e-05 1.78212e-05 0
-1.44685e-06 2.48525e-05 0
1.26604e-06 1.66946e-05 0
-8.65432e-06 1.51372e-05 0
-2.36178e-05 2.09212e-05 0
1.75621e-05 1.46196e-05 0
-1.2906e-05 -4.30901e-06 0
-6.70949e-06 6.66192e-06 0
6.10952e-06 9.07403e-06 0
1.22708e-05 1.56463e-05 0
-2.30379e-05 9.52118e-06 0
-2.28457e-05 6.98681e-06 0
1.98839e-05 1.70244e-05 0
3.56722e-07 3.32762e-05 0
1.1829e-05 6.52294e-06 0
-1.66459e-05 -2.64305e-06 0
-6.07324e-06 5.65313e-06 0
-3.37278e-05 7.10864e-06 0
-3.23741e-13 0 0
-2.30464e-05 1.12819e-05 0
2.24471e-05 2.18104e-05 0
9.95783e-06 3.13571e-06 0
-5.29384e-06 7.26359e-06 0
-6.49437e-06 7.85293e-06 0
1.06611e-05 -3.18516e-06 0
-1.14532e-05 -5.26899e-06 0
-1.40561e-05 4.93859e-07 0
-1.84223e-05 2.45044e-05 0
-2.9568e-05 -1.04227e-05 0
-9.73577e-06 1.87122e-05 0
-3.16665e-05 3.42224e-06 0
-2.42049e-06 9.15546e-06 0
5.4431e-06 3.71316e-05 0
-2.15934e-06 -3.9604e-06 0
3.79141e-06 1.55307e-05 0
-1.99171e-05 4.90162e-05 0
-2.4998e-10 0 0
1.66405e-06 1.60363e-05 0
-1.40891e-05 1.67098e-05 0
-9.55249e-06 2.94957e-05 0
-2.53264e-05 2.37328e-05 0
4.92747e-06 1.36116e-05 0
5.65185e-07 2.54629e-06 0
4.62969e-06 3.50578e-06 0
1.61162e-05 4.17664e-05 0
-6.45735e-07 2.83677e-05 0
-2.43977e-06 -8.63013e-06 0
-1.33912e-07 3.75554e-06 0
-1.51393e-05 -7.54109e-06 0
4.83222e-05 2.27999e-05 0
1.67421e-06 -1.75095e-05 0
1.07384e-05 1.08574e-05 0
5.74313e-06 3.63291e-05 0
-1.82657e-05 4.11265e-05 0
-1.34067e-05 -3.36594e-06 0
1.1767e-05 1.44196e-06 0
-8.0495e-06 1.17491e-06 0
-1.27297e-05 -2.04144e-05 0
-1.26111e-06 1.0116e-05 0
-2.22348e-06 8.8936e-06 0
-2.011e-05 -1.07567e-05 0
-1.22285e-05 1.12525e-05 0
1.31683e-05 4.42618e-06 0
1.3728e-05 2.31093e-05 0
5.04218e-05 1.52777e-05 0
5.04365e-07 -8.69028e-06 0
-1.23262e-05 4.0702e-05 0
1.47077e-05 -2.19012e-06 0
1.94971e-05 4.24269e-05 0
-3.1237e-10 0 0
3.70254e-07 1.52057e-05 0
1.87746e-10 0 0
2.54927e-05 1.55448e-05 0
-1.28706e-05 4.69961e-05 0
-8.35562e-06 1.89326e-05 0
-7.17391e-06 2.12575e-05 0
4.08427e-06 9.4613e-06 0
4.54208e-06 -1.7307e-06 0
-2.05442e-05 -6.87293e-06 0
3.67339e-05 1.58607e-05 0
7.66661e-07 7.77526e-06 0
-7.17251e-06 2.00379e-05 0
-3.64041e-06 1.88495e-05 0
-8.95816e-06 -1.99261e-06 0
-2.49829e-10 0 0
1.34341e-05 5.07517e-05 0
-2.81523e-05 2.93874e-06 0
1.60795e-05 2.6897e-05 0
-1.25428e-05 -1.61953e-05 0
-6.54389e-07 -5.3093e-06 0
1.6758e-06 -3.1008e-05 0
-1.87409e-05 2.63692e-05 0
-1.46055e-05 3.03259e-05 0
1.94582e-06 -4.13165e-06 0
8.35067e-07 1.59256e-05 0
-1.61105e-05 -1.10987e-05 0
-1.10979e-07 3.54982e-05 0
1.93954e-05 3.14328e-05 0
-6.05353e-06 3.58149e-05 0
2.33829e-06 1.20772e-05 0
-7.66122e-06 2.04914e-05 0
6.96838e-07 1.40652e-06 0
-9.47526e-06 3.36737e-05 0
3.65593e-05 2.52891e-05 0
-3.12263e-10 0 0
7.18241e-06 1.1328e-05 0
-7.51489e-06 2.45989e-05 0
-1.26857e-05 1.20622e-05 0
-1.71808e-05 -4.64616e-06 0
3.33023e-07 2.08371e-05 0
2.86182e-05 3.2131e-05 0
2.77162e-05 4.76595e-06 0
1.72586e-06 1.6631e-05 0
-7.75942e-06 1.09235e-05 0
-2.32355e-05 4.94592e-05 0
-1.59488e-05 1.36449e-05 0
2.82904e-06 5.8595e-06 0
-1.53563e-05 -1.97531e-05 0
1.81845e-06 8.63943e-06 0
-9.44684e-07 7.82505e-06 0
4.81255e-06 7.46419e-06 0
-1.00995e-05 -3.40596e-06 0
-2.47063e-05 -3.24674e-05 0
1.09525e-05 -5.59517e-06 0
2.4979e-05 1.22078e-05 0
1.40269e-05 -4.87692e-06 0
-1.21532e-05 2.58366e-07 0
-2.25539e-05 3.80934e-05 0
-1.1123e-05 -1.25339e-05 0
-1.05452e-05 -8.56186e-06 0
-1.52151e-05 2.40201e-06 0
1.16284e-05 -1.18711e-05 0
-2.48992e-05 8.67015e-06 0
6.65045e-06 1.39192e-05 0
-2.28382e-05 -2.82779e-05 0
-1.22827e-05 9.90981e-07 0
-6.30742e-06 2.24226e-05 0
2.69482e-06 -1.85028e-05 0
3.12521e-05 1.07734e-05 0
-8.85229e-07 3.18348e-05 0
-2.12506e-05 -1.63599e-05 0
-3.03479e-06 -3.25895e-06 0
7.12938e-06 8.46029e-07 0
-1.34164e-05 7.49072e-06 0
6.33312e-06 1.67177e-06 0
1.26144e-05 1.73737e-05 0
3.66903e-06 4.48729e-05 0
-5.16918e-06 -6.50761e-06 0
3.7398e-05 1.98014e-05 0
-1.11839e-05 1.18411e-05 0
6.26743e-06 8.1562e-06 0
5.64515e-06 5.67093e-05 0
-4.51839e-06 2.59723e-05 0
-1.65344e-05 1.31625e-06 0
-4.47729e-06 -3.69194e-06 0
-2.26802e-05 -3.4732e-05 0
-2.07575e-05 -2.7623e-05 0
-1.17811e-06 -2.71768e-06 0
6.4046e-06 6.581e-06 0
-1.14788e-05 5.28409e-06 0
-4.20664e-05 -2.81108e-06 0
-4.23665e-06 1.81787e-05 0
-1.05922e-05 -3.15314e-05 0
-1.36961e-06 1.68291e-05 0
2.62647e-05 1.32797e-05 0
-5.64702e-06 -1.04195e-05 0
-9.77831e-06 -6.76169e-06 0
5.14778e-06 2.3092e-05 0
-1.98881e-06 -8.95059e-06 0
-9.86688e-06 7.47935e-06 0
-1.0129e-05 -1.87118e-05 0
7.60709e-06 5.44273e-06 0
-5.09989e-06 -1.42801e-05 0
-3.66232e-05 -3.76295e-05 0
-2.73665e-05 -8.08503e-06 0
2.00163e-05 3.18565e-05 0
1.15567e-05 1.09457e-05 0
2.22673e-05 1.63524e-05 0
-6.61606e-06 -1.26362e-05 0
5.09506e-09 -1.21788e-05 0
3.13036e-05 -8.89328e-06 0
-4.90828e-06 -1.54409e-05 0
2.46557e-05 -1.08203e-05 0
-3.10791e-06 -2.75258e-06 0
1.49303e-05 6.12325e-06 0
1.47249e-06 3.90451e-05 0
-6.36982e-06 -1.98033e-05 0
-2.09334e-05 -1.21231e-05 0
9.04871e-07 2.38612e-05 0
-4.28707e-06 -3.49348e-06 0
3.20727e-05 -2.5942e-05 0
-1.09436e-05 -3.1555e-05 0
-7.9865e-06 2.2496e-06 0
4.53556e-05 -2.56972e-05 0
-2.80285e-06 4.50783e-06 0
-3.80471e-06 -1.28969e-05 0
-1.75733e-05 -3.91956e-06 0
-2.96358e-05 3.27001e-05 0
-3.49617e-05 3.62145e-06 0
1.72743e-06 4.45095e-06 0
-8.65029e-07 -1.713e-05 0
-7.15676e-06 4.97027e-06 0
3.43451e-06 -1.42286e-05 0
-1.9145e-05 -1.46506e-06 0
-1.22856e-05 -1.87181e-05 0
1.68866e-07 1.81006e-05 0
-1.39075e-05 -7.98737e-06 0
1.94388e-05 -1.91612e-05 0
-6.90022e-07 -3.22373e-05 0
4.16331e-06 -1.7701e-05 0
1.56966e-05 6.03866e-05 0
-2.30001e-05 -4.0222e-06 0
-3.75419e-06 2.97863e-05 0
-5.02839e-06 -1.221e-05 0
-1.35583e-05 -4.38953e-06 0
-4.3346e-06 -2.29224e-05 0
-1.30225e-05 -8.80496e-06 0
-4.83857e-07 -1.17294e-05 0
3.73535e-06 -2.15505e-05 0
-2.60243e-05 -3.10111e-05 0
-8.87947e-06 -2.26796e-05 0
1.83472e-05 -1.72159e-05 0
4.39254e-06 -2.41346e-05 0
1.03998e-05 1.29583e-05 0
-1.67383e-06 -1.24407e-05 0
-9.04117e-06 -5.07186e-06 0
5.05452e-07 4.39784e-06 0
2.54439e-05 -8.65392e-09 0
6.42823e-06 -3.46278e-06 0
1.08608e-05 2.54437e-05 0
9.58926e-06 1.87248e-05 0
5.04377e-06 -4.86336e-06 0
2.98311e-05 -3.99908e-06 0
3.32788e-05 -3.12711e-06 0
3.30216e-06 -1.29047e-05 0
1.80328e-05 1.855e-05 0
-6.57621e-06 1.63693e-05 0
8.5096e-06 1.09325e-05 0
1.89785e-05 2.04167e-06 0
-1.15944e-06 1.45879e-05 0
-4.21301e-06 -3.80163e-06 0
-1.4189e-05 -2.43007e-05 0
-1.1649e-05 -1.56249e-05 0
-3.1504e-06 6.5756e-06 0
-9.44281e-07 3.20189e-06 0
-1.03981e-05 -3.82006e-07 0
2.9032e-05 -4.49405e-06 0
-9.70337e-06 3.82955e-06 0
1.61732e-05 -9.36201e-07 0
-9.13875e-06 -1.78598e-05 0
1.79719e-05 3.77921e-05 0
-3.41272e-06 -1.2591e-05 0
4.19916e-05 1.57691e-05 0
2.76217e-05 1.43191e-06 0
-4.64333e-06 1.96022e-05 0
1.32641e-06 6.48166e-06 0
1.34446e-06 -1.25137e-05 0
-5.2858e-06 -1.91008e-05 0
6.04683e-06 -4.4828e-06 0
2.1157e-06 -1.79686e-05 0
1.36428e-05 -1.63372e-05 0
-6.37755e-06 1.06993e-05 0
-2.52536e-05 -2.42059e-05 0
5.84824e-06 -1.83068e-05 0
-2.00102e-05 -1.46188e-06 0
1.23488e-05 -2.40537e-05 0
1.03911e-05 -3.88863e-05 0
-1.27078e-05 -2.63372e-05 0
-9.72165e-06 -1.79657e-05 0
4.53582e-05 1.51213e-05 0
-5.83835e-06 -1.38535e-06 0
1.06808e-06 1.00653e-05 0
2.83506e-05 -6.84414e-06 0
-5.74908e-06 1.61422e-05 0
-1.52833e-05 -3.32627e-05 0
1.58912e-05 -1.71072e-05 0
-2.70981e-07 -5.47956e-06 0
-2.24417e-05 -1.88486e-05 0
1.10432e-05 4.3264e-05 0
5.0578e-06 1.84154e-05 0
3.03851e-06 -6.63918e-06 0
-8.36596e-07 1.18326e-05 0
-6.95746e-06 -1.58924e-05 0
5.24729e-06 -8.35768e-06 0
-6.8354e-06 3.1301e-05 0
-3.60014e-06 -2.01421e-05 0
2.54503e-05 1.9257e-05 0
4.42796e-05 5.22467e-06 0
2.52985e-05 -1.42727e-05 0
3.05815e-05 -8.28484e-06 0
-2.52125e-05 -5.88367e-06 0
7.57452e-06 -9.57079e-06 0
-1.83252e-06 -1.07212e-05 0
9.8238e-06 -8.86275e-06 0
2.18249e-05 1.14879e-05 0
2.48192e-05 -2.88778e-05 0
1.88655e-05 2.99956e-06 0
1.39219e-05 -5.37878e-06 0
1.69108e-05 1.30995e-05 0
-4.72595e-06 1.02566e-05 0
-3.50466e-06 7.8054e-06 0
-1.57519e-05 1.88586e-05 0
1.53402e-05 1.09713e-05 0
-1.26636e-05 2.47879e-05 0
-1.28291e-05 -1.40129e-05 0
2.84714e-06 3.7768e-06 0
-1.29724e-05 -3.32106e-05 0
1.11911e-05 -7.72202e-06 0
9.13312e-07 6.06479e-06 0
1.11947e-05 2.36559e-05 0
3.47993e-06 -1.80524e-05 0
-8.96474e-06 6.89244e-06 0
-8.00222e-06 -8.69386e-06 0
8.23309e-06 1.39594e-05 0
8.23992e-07 1.56732e-06 0
1.45447e-05 -7.15117e-06 0
1.93608e-07 1.19274e-05 0
-4.2302e-06 -4.05338e-07 0
-2.28473e-05 -3.75022e-07 0
4.73581e-07 -1.86578e-05 0
4.68275e-06 -1.65527e-05 0
-5.51276e-06 -2.96624e-05 0
-2.40702e-06 -3.02068e-05 0
-1.17254e-05 5.96582e-06 0
-1.77542e-05 1.89524e-06 0
-1.88866e-05 3.20381e-05 0
-1.06084e-05 -3.28136e-05 0
3.02603e-05 1.98367e-05 0
1.90316e-05 3.38758e-06 0
8.67461e-08 -1.75923e-05 0
-2.10269e-06 -1.10989e-05 0
-1.70684e-05 2.34377e-05 0
-1.13029e-05 4.23788e-05 0
4.10478e-05 2.08291e-05 0
1.65851e-05 2.22763e-05 0
-2.51072e-06 3.5006e-06 0
-1.14738e-05 6.3388e-06 0
1.12602e-05 -9.35254e-06 0
1.50973e-05 -4.30127e-07 0
-3.10956e-06 -8.19709e-06 0
-7.89215e-07 4.27989e-05 0
-1.00962e-05 1.8731e-05 0
1.53826e-05 1.06921e-05 0
7.02633e-06 2.83998e-06 0
-3.67257e-05 5.80824e-07 0
3.47462e-05 4.1899e-06 0
-2.19488e-05 2.44303e-05 0
-1.05855e-05 1.07845e-05 0
-3.23181e-05 -3.24121e-06 0
-1.46496e-05 8.82703e-06 0
2.05635e-06 -1.1898e-05 0
-3.14982e-05 1.06562e-06 0
-2.92575e-05 8.3524e-07 0
1.51861e-05 1.6699e-05 0
-3.00332e-05 -1.24641e-06 0
1.82527e-06 -5.47182e-06 0
1.57893e-05 3.94408e-05 0
5.82458e-06 5.8024e-06 0
2.17894e-05 9.14238e-06 0
-1.14811e-05 2.80665e-05 0
1.43937e-05 1.18922e-05 0
-1.91337e-05 5.08234e-05 0
8.50927e-06 8.67845e-06 0
-2.65943e-05 -5.96616e-06 0
1.76764e-06 3.19795e-05 0
1.09132e-05 -1.63455e-05 0
-1.68289e-06 -1.98557e-05 0
1.39746e-05 -5.8166e-06 0
1.61464e-05 3.25699e-05 0
-1.29799e-05 1.40401e-05 0
-2.1023e-05 2.24965e-05 0
-2.83924e-06 4.1617e-06 0
-1.36827e-05 2.86326e-05 0
4.31693e-06 2.38871e-05 0
-8.47745e-06 -1.55563e-05 0
-1.69151e-05 5.06949e-05 0
6.66462e-06 -4.94872e-06 0
-1.27422e-05 -2.36006e-05 0
7.92005e-06 2.46276e-05 0
4.13846e-06 2.42962e-05 0
2.47018e-05 1.44698e-06 0
6.574e-07 -9.14055e-06 0
4.8458e-05 4.61815e-05 0
-8.04382e-06 5.68473e-06 0
-2.27375e-05 3.58932e-05 0
-8.53046e-06 -2.4876e-06 0
1.66222e-06 6.55827e-06 0
1.18582e-05 8.75964e-06 0
-5.95488e-06 -1.13109e-06 0
1.64128e-05 8.63132e-06 0
-3.50474e-06 1.74346e-05 0
3.89938e-05 2.79798e-05 0
-3.71758e-06 4.38147e-05 0
4.30387e-06 -3.82258e-06 0
-2.56926e-06 1.73978e-05 0
1.838e-05 3.45676e-05 0
2.62167e-05 6.24826e-05 0
-1.58483e-05 1.5521e-06 0
-1.59741e-06 -6.79873e-06 0
-2.06672e-05 -1.81352e-05 0
2.96543e-06 1.35113e-05 0
-3.80371e-05 8.11757e-06 0
-1.67321e-06 2.2091e-05 0
-1.07107e-05 3.82559e-05 0
-2.6162e-05 9.05011e-06 0
2.33105e-05 2.16047e-06 0
-1.28663e-05 -6.85995e-06 0
-2.42047e-07 -6.29996e-06 0
1.24305e-05 1.06701e-05 0
-7.26491e-06 4.65777e-05 0
-1.87793e-05 2.97005e-06 0
-1.29786e-05 3.59617e-05 0
2.51213e-05 4.54676e-05 0
5.37053e-07 -7.17777e-06 0
1.43725e-05 1.53826e-05 0
-6.54735e-06 2.37338e-05 0
-1.44958e-05 2.20012e-05 0
-1.44351e-05 -1.30905e-05 0
7.33586e-06 3.35672e-05 0
-1.62742e-05 9.91186e-06 0
-1.34275e-05 1.40937e-05 0
-2.03273e-05 1.2384e-05 0
7.60281e-06 1.40162e-05 0
-2.66191e-08 6.07457e-05 0
2.35207e-05 2.00204e-05 0
1.08113e-05 1.42462e-05 0
-1.2275e-05 1.73377e-05 0
2.60329e-05 1.82217e-05 0
-2.29177e-05 1.02325e-05 0
-1.01201e-05 8.7425e-06 0
6.52063e-06 1.43324e-05 0
-2.97714e-06 1.35845e-05 0
-6.00062e-06 2.75872e-05 0
-2.93507e-06 2.95557e-06 0
-7.40724e-06 2.57531e-05 0
-2.96748e-05 -1.36414e-05 0
2.28313e-07 2.33463e-05 0
1.15322e-05 2.24591e-05 0
-4.85e-06 1.30147e-05 0
6.72288e-06 1.60943e-05 0
-4.08041e-06 1.47263e-05 0
-1.84219e-06 2.822e-05 0
1.18632e-06 1.94232e-05 0
-1.33498e-05 6.18789e-06 0
-1.22873e-06 1.73295e-05 0
1.49546e-05 3.57843e-05 0
6.86968e-06 1.2996e-05 0
1.32038e-05 -2.07072e-07 0
-1.04378e-05 2.3353e-07 0
-2.86386e-05 8.96364e-06 0
-1.66882e-06 3.11863e-05 0
-1.67443e-05 2.12631e-05 0
1.3861e-07 1.28266e-05 0
1.65688e-05 -9.42908e-07 0
1.35804e-05 4.1649e-05 0
6.22476e-06 3.05625e-05 0
3.11299e-06 2.54442e-05 0
1.95834e-06 3.53163e-05 0
-2.4609e-05 2.27747e-05 0
1.2542e-05 1.90535e-05 0
-6.57252e-14 0 0
1.19007e-05 6.2109e-06 0
1.02768e-06 3.0425e-05 0
1.1394e-05 3.5953e-05 0
-3.82191e-06 1.97395e-05 0
-9.42371e-06 1.994e-05 0
-1.36605e-05 2.42906e-06 0
-7.63436e-06 3.38639e-05 0
2.69348e-05 4.81593e-05 0
-7.59942e-06 1.00631e-05 0
-2.6052e-05 1.74699e-05 0
8.13346e-06 2.59404e-06 0
-7.48865e-06 2.22225e-05 0
-2.29499e-05 1.43364e-05 0
-2.49914e-10 0 0
1.30363e-05 1.09187e-05 0
-3.47902e-06 1.03251e-05 0
8.87394e-06 7.65306e-06 0
-1.8821e-05 5.72783e-06 0
-1.13632e-05 1.2143e-05 0
2.65137e-05 1.13676e-05 0
2.4016e-05 2.39914e-05 0
-1.52494e-05 3.22811e-05 0
4.55617e-06 8.57657e-06 0
-1.23933e-05 1.62484e-06 0
-1.1272e-05 -1.03081e-05 0
-5.29879e-06 1.61964e-06 0
-1.458e-05 -7.06425e-06 0
-3.12453e-10 0 0
-7.56309e-06 -5.57441e-06 0
-4.49601e-06 1.45187e-05 0
1.13423e-05 1.85312e-05 0
-9.87315e-06 9.19152e-06 0
2.11474e-05 3.146e-05 0
3.18958e-05 2.12219e-05 0
-1.65558e-05 4.96305e-05 0
7.42961e-06 3.91409e-05 0
-1.03145e-05 1.05484e-06 0
6.43652e-06 9.41226e-06 0
4.85183e-07 6.6858e-05 0
-1.48645e-05 2.14294e-05 0
1.99954e-05 -2.87179e-06 0
1.75505e-05 -3.08316e-05 0
1.70796e-06 -8.91527e-06 0
-1.0784e-05 -7.29149e-06 0
6.50229e-06 -1.66116e-05 0
5.69351e-06 -3.08434e-05 0
-3.65279e-06 -7.30715e-06 0
-1.4412e-05 2.23409e-05 0
1.02269e-05 2.41074e-05 0
-1.75211e-05 2.63903e-05 0
1.2067e-05 7.04273e-06 0
1.60161e-05 2.42742e-07 0
2.00445e-05 6.96207e-06 0
2.04189e-05 -7.97517e-06 0
1.35357e-05 -5.18407e-05 0
3.5855e-05 2.70852e-05 0
2.86264e-07 -5.32852e-05 0
3.23571e-05 -1.96638e-06 0
1.04409e-05 -9.22168e-06 0
1.9481e-05 3.60124e-05 0
-8.57141e-06 -9.84132e-06 0
1.78028e-05 -2.673e-05 0
1.73149e-05 -1.41928e-05 0
1.93909e-05 2.13763e-05 0
5.45469e-06 -2.62247e-05 0
2.76368e-05 1.69635e-05 0
6.77583e-06 -2.141e-05 0
4.27961e-06 -1.77121e-05 0
1.63241e-05 4.67123e-05 0
2.82122e-05 -8.00647e-07 0
-1.41206e-05 4.31334e-05 0
-7.95834e-06 -1.46804e-05 0
1.78914e-05 6.66752e-06 0
-3.80583e-06 2.07156e-05 0
1.88388e-05 1.29764e-05 0
1.83069e-05 1.11008e-05 0
1.10962e-05 1.38799e-05 0
-2.49503e-05 2.75732e-05 0
1.10075e-05 1.44732e-05 0
-3.33786e-06 -1.54055e-05 0
2.14599e-05 -3.3789e-05 0
-4.49053e-06 1.24294e-05 0
3.65431e-05 -4.65335e-06 0
2.73262e-05 -2.08207e-05 0
-6.31813e-06 2.35828e-06 0
1.59035e-07 -6.4965e-06 0
-1.14908e-05 -4.24415e-06 0
-3.3436e-06 -1.29146e-05 0
1.57067e-05 -3.69364e-05 0
-7.75601e-06 -1.60629e-05 0
-9.80455e-06 6.86719e-06 0
-2.12124e-06 -5.65455e-06 0
9.82696e-06 -1.45513e-05 0
2.18858e-05 2.0129e-05 0
9.84589e-06 -1.70223e-05 0
1.46443e-05 -2.16901e-05 0
-1.72358e-05 -1.85189e-05 0
-1.43871e-06 1.08569e-05 0
9.24604e-06 -2.547e-05 0
-1.1895e-05 -3.02831e-05 0
2.28609e-05 -4.79315e-07 0
1.1879e-05 8.33879e-06 0
8.30788e-06 -4.90657e-06 0
1.91424e-05 -3.39389e-05 0
3.10658e-05 -3.25407e-06 0
1.23838e-06 -2.80849e-06 0
3.47343e-05 -1.54342e-05 0
1.23735e-05 1.36107e-05 0
1.24512e-05 1.29577e-05 0
6.22907e-06 2.80589e-06 0
1.58571e-05 -4.54481e-07 0
-1.70737e-05 7.87266e-06 0
3.78373e-05 -3.96582e-06 0
-6.18785e-07 -6.1626e-06 0
5.00315e-06 2.76455e-06 0
2.15158e-05 7.83189e-06 0
2.29442e-05 2.25974e-05 0
7.11403e-06 -2.08938e-05 0
1.56053e-05 1.00097e-05 0
5.26886e-05 7.48703e-06 0
3.25057e-06 -1.99742e-05 0
1.85147e-05 1.64479e-05 0
-1.71859e-05 1.233e-05 0
1.26485e-05 -1.71508e-05 0
4.4297e-07 9.16158e-06 0
9.81126e-06 1.85998e-05 0
2.3231e-06 -1.35174e-05 0
3.50368e-06 1.00884e-05 0
3.14606e-05 5.63589e-06 0
-1.73445e-05 -2.7145e-05 0
-9.36368e-06 -1.91072e-05 0
2.20783e-05 -1.56113e-05 0
-5.39085e-06 -5.18906e-06 0
8.20646e-06 1.11954e-05 0
-2.02955e-05 1.18344e-05 0
-2.10471e-06 -1.41188e-06 0
7.40437e-06 -1.01524e-05 0
1.72017e-05 -4.41017e-06 0
-1.66141e-05 -2.47939e-05 0
5.34159e-06 -9.70544e-06 0
3.02402e-05 -2.96594e-05 0
6.29341e-06 -3.15076e-06 0
7.50336e-06 2.01342e-05 0
-4.31743e-06 -1.82599e-05 0
7.89037e-06 -1.12631e-05 0
5.9755e-06 -4.25934e-05 0
-1.77636e-14 5.00041e-10 0
1.80526e-05 -3.82961e-06 0
6.90505e-06 -1.31894e-05 0
1.91863e-05 2.39296e-09 0
3.46904e-05 6.57816e-06 0
-5.81557e-06 -5.9403e-06 0
-8.98867e-06 -4.51218e-06 0
1.68497e-05 -1.58798e-05 0
1.98941e-05 -1.65182e-05 0
2.1986e-05 -1.18827e-05 0
8.53357e-06 -2.18117e-05 0
1.81865e-06 2.41471e-05 0
1.04331e-05 -2.16467e-05 0
-1.54799e-06 -1.84925e-05 0
2.36459e-05 -3.99679e-08 0
1.34051e-05 2.40305e-05 0
3.45475e-05 5.22217e-08 0
2.96883e-05 1.06489e-05 0
1.57262e-05 -1.20643e-05 0
6.08837e-06 -1.84229e-05 0
3.19744e-14 1.25018e-10 0
3.89466e-13 2.81194e-10 0
-1.31743e-06 1.26882e-05 0
-5.30395e-06 3.06159e-05 0
-1.23955e-05 -2.69294e-05 0
-8.85128e-06 -2.51554e-05 0
6.90077e-06 -3.9218e-06 0
6.56547e-06 1.12597e-05 0
-3.6303e-06 3.21946e-06 0
-1.34859e-05 -3.04517e-05 0
1.06433e-05 7.32638e-06 0
-2.22895e-06 3.1938e-05 0
2.87045e-05 5.36476e-06 0
-1.12953e-05 -1.98268e-05 0
2.79864e-05 5.13204e-05 0
-1.35978e-05 -1.0468e-05 0
-1.07017e-05 4.19251e-05 0
-9.42163e-07 7.22056e-06 0
6.07611e-06 9.22575e-06 0
-2.34883e-05 -2.64701e-05 0
-1.0963e-05 1.11696e-05 0
5.78836e-06 7.05639e-06 0
1.03288e-05 -7.00035e-07 0
-1.96565e-05 5.91936e-06 0
-1.0245e-05 -2.32928e-06 0
-1.35321e-05 -7.58163e-06 0
1.333e-06 2.14135e-05 0
2.6377e-06 2.76292e-05 0
1.12124e-05 2.90705e-05 0
1.63009e-05 1.50387e-06 0
-1.85456e-05 -1.29908e-05 0
-1.43143e-07 1.47167e-05 0
-1.22742e-05 1.74147e-06 0
-1.90153e-05 -6.27522e-06 0
-4.69755e-06 2.30996e-05 0
1.77737e-05 5.37296e-05 0
-3.26316e-06 -3.93281e-05 0
1.32314e-07 -1.65037e-05 0
9.56325e-06 1.73893e-06 0
-2.62443e-05 -1.33871e-05 0
-2.44817e-05 -2.04304e-05 0
1.80743e-05 4.36009e-06 0
-1.03743e-05 5.28356e-05 0
1.19957e-07 2.155e-05 0
6.55874e-06 3.22891e-05 0
-4.79087e-06 2.08545e-05 0
-1.8785e-13 0 0
-2.3777e-05 1.30012e-05 0
1.87373e-10 0 0
2.12443e-06 6.33164e-05 0
-6.43842e-06 -1.17831e-06 0
-8.08539e-06 1.04263e-05 0
-4.54738e-06 2.95512e-05 0
-4.02634e-06 -4.92134e-06 0
9.11349e-06 2.78272e-05 0
9.68709e-06 9.38998e-06 0
1.91622e-05 2.0242e-05 0
1.68498e-06 9.19922e-06 0
-7.60314e-06 5.13308e-06 0
-1.53794e-05 -1.32596e-06 0
7.50479e-06 4.53206e-06 0
3.09804e-06 -6.17688e-07 0
-4.32304e-06 4.2532e-05 0
-1.09994e-05 -1.88291e-05 0
-2.55125e-06 2.23661e-05 0
1.11966e-05 1.34455e-05 0
2.04281e-05 3.85678e-05 0
-6.24244e-06 -6.79735e-06 0
-3.20656e-06 -4.28569e-06 0
-7.14963e-06 -2.03155e-05 0
-8.79594e-06 2.01507e-05 0
2.09883e-05 5.33476e-05 0
1.81846e-05 6.2863e-05 0
-1.94221e-05 8.6307e-06 0
-4.81085e-06 4.62307e-05 0
3.38873e-07 1.75847e-06 0
-5.03821e-06 2.5443e-05 0
-1.94491e-05 6.75492e-06 0
-8.69147e-06 -6.48749e-06 0
2.41844e-05 -7.06038e-06 0
2.94699e-05 3.24385e-05 0
1.5677e-05 -2.02165e-06 0
-3.15618e-06 -9.70176e-06 0
1.53071e-05 3.06112e-05 0
-6.16494e-06 -1.55317e-05 0
-3.3626e-05 -5.97411e-06 0
1.12443e-05 -1.26424e-05 0
1.35201e-05 -1.72576e-05 0
-3.57118e-06 -1.82321e-05 0
-9.73158e-06 -1.15346e-05 0
1.4579e-05 -1.34804e-05 0
-1.48321e-05 -2.62442e-05 0
-5.10455e-06 2.93623e-06 0
4.80654e-06 8.98584e-06 0
2.04944e-05 -5.4262e-06 0
2.1458e-05 -3.13681e-05 0
2.45332e-05 -3.59182e-05 0
-5.10357e-06 -3.38248e-05 0
1.43243e-05 -8.68457e-06 0
-2.14598e-07 -4.89004e-06 0
-4.68228e-06 5.82113e-06 0
-4.55745e-06 1.24792e-06 0
4.90205e-05 -6.55737e-06 0
5.2689e-06 -1.71989e-05 0
2.44073e-06 -1.58785e-05 0
-1.03096e-05 -5.31786e-06 0
-1.83844e-05 -5.9865e-07 0
6.1824e-08 -1.49271e-05 0
7.556e-07 -2.2531e-05 0
-1.17375e-05 -2.98931e-05 0
-4.08882e-06 -1.96535e-05 0
3.06983e-06 -3.23488e-06 0
1.9833e-06 -2.80656e-05 0
-1.43335e-05 -2.22601e-05 0
-2.00119e-05 -1.47509e-05 0
-1.20188e-05 4.05168e-05 0
7.8215e-06 8.24893e-07 0
-5.49022e-06 -2.55759e-05 0
-5.80655e-06 8.78348e-07 0
2.86251e-05 1.41115e-05 0
-1.78958e-06 -1.29297e-05 0
-6.09167e-06 -1.64782e-05 0
-9.64479e-06 2.48697e-05 0
2.79754e-05 -5.26266e-06 0
4.30797e-06 1.43293e-05 0
-3.66344e-06 -4.17892e-06 0
1.44635e-05 -4.01159e-06 0
4.36639e-05 -1.41717e-05 0
1.55191e-05 -5.46563e-06 0
4.42026e-05 -1.46997e-05 0
-1.20951e-05 -2.95197e-05 0
1.35597e-05 9.53185e-06 0
1.18388e-05 9.54728e-08 0
-1.03173e-05 -1.92427e-05 0
-9.47119e-06 -3.18502e-05 0
-2.46658e-05 -2.9842e-06 0
-2.51181e-05 -1.96294e-05 0
2.46761e-05 5.44219e-07 0
5.02606e-07 1.59168e-05 0
3.57e-05 4.07806e-05 0
5.43928e-06 -1.68284e-05 0
-1.53238e-05 7.2853e-06 0
-5.33977e-06 -2.9498e-05 0
9.18709e-06 -5.40416e-06 0
-2.60154e-05 -3.09299e-05 0
-9.71416e-07 -3.4238e-05 0
3.80117e-05 -4.75465e-07 0
-2.22463e-05 -1.66015e-05 0
1.41087e-06 1.30474e-05 0
4.77081e-06 -6.3209e-06 0
4.70696e-07 -1.44745e-05 0
-7.94398e-06 -1.027e-05 0
6.32262e-06 -5.15905e-05 0
3.41328e-06 1.92962e-05 0
-2.39529e-05 4.77724e-05 0
-5.26597e-06 4.42888e-05 0
-1.36685e-05 -1.04552e-05 0
-1.90593e-06 -1.02793e-05 0
2.52494e-05 -6.89441e-06 0
-3.91449e-06 -3.42342e-05 0
-5.66708e-06 -1.1686e-06 0
-1.01505e-05 -5.87662e-05 0
2.39103e-05 -8.44456e-06 0
4.41756e-06 9.08596e-06 0
1.20599e-05 2.2692e-05 0
1.13387e-05 -7.19862e-06 0
1.18206e-05 -2.14607e-05 0
2.43274e-05 3.5342e-06 0
1.89196e-05 -7.04624e-06 0
-5.34988e-06 1.1418e-05 0
-6.47677e-06 1.33451e-05 0
-4.88915e-06 -2.02435e-05 0
-1.75873e-05 -1.58099e-05 0
-9.51256e-07 8.26503e-07 0
1.64375e-06 1.50087e-05 0
-4.38862e-06 -6.94205e-06 0
-2.63134e-06 1.98564e-05 0
4.56716e-06 -1.21224e-05 0
-1.41276e-05 -2.51758e-05 0
2.78294e-06 -1.20076e-06 0
-1.06534e-05 -1.23721e-05 0
-5.85871e-08 2.09207e-05 0
1.25189e-05 1.40936e-05 0
1.364e-05 2.35719e-05 0
8.45795e-06 1.54002e-05 0
-5.28792e-06 1.40435e-05 0
4.84514e-06 3.86905e-05 0
1.67431e-06 1.8435e-05 0
-1.53182e-05 -3.71927e-05 0
-1.4576e-05 3.99742e-05 0
-3.17742e-07 7.79887e-06 0
-1.798e-05 3.6478e-06 0
5.56374e-06 1.23431e-05 0
-4.58813e-07 -3.92306e-06 0
1.77629e-06 1.03645e-05 0
6.7286e-06 1.89996e-05 0
-2.53089e-05 -3.11908e-05 0
4.35265e-06 -1.62956e-05 0
2.08664e-05 6.81784e-06 0
1.1546e-05 -2.37076e-05 0
-3.27842e-05 -4.50642e-05 0
2.75709e-05 -1.09533e-05 0
4.18081e-05 7.59139e-06 0
-2.29025e-06 -1.72261e-06 0
6.52653e-06 -1.11291e-05 0
8.89703e-06 -2.61923e-05 0
-2.11659e-06 -4.40087e-05 0
-1.05053e-05 2.70075e-05 0
-3.31615e-06 -1.81279e-05 0
-2.50524e-06 1.99721e-05 0
3.02566e-05 1.09897e-05 0
1.59113e-05 -1.34206e-06 0
6.4571e-06 -8.70152e-06 0
2.11519e-05 -9.11346e-07 0
2.28855e-05 -1.01195e-05 0
1.4465e-05 7.31423e-06 0
2.53181e-06 1.59288e-05 0
1.92367e-05 1.2132e-05 0
8.96733e-06 -1.0257e-06 0
4.37055e-06 -4.09269e-07 0
-8.839e-06 -2.1791e-06 0
-2.33465e-05 -2.71744e-05 0
-1.20569e-05 3.12576e-05 0
1.45115e-05 -1.50035e-05 0
1.80484e-05 -1.71673e-05 0
-8.35628e-06 -1.18643e-05 0
-2.42996e-05 -2.81426e-05 0
-1.8796e-05 -2.64962e-05 0
-1.83758e-05 -9.40299e-06 0
1.26382e-07 1.42192e-05 0
9.79861e-06 3.06586e-05 0
2.76188e-05 -8.03179e-07 0
-8.50908e-08 5.69242e-06 0
1.43641e-05 -1.99581e-05 0
-1.93367e-06 -1.22674e-05 0
1.37156e-05 3.59204e-05 0
-2.01028e-05 1.49041e-06 0
1.82673e-06 4.95038e-06 0
2.90988e-06 -2.89856e-06 0
-8.9333e-06 -1.91383e-05 0
1.00403e-06 -1.33855e-05 0
-5.51133e-06 -2.97506e-05 0
-7.14859e-06 -1.52424e-05 0
2.72897e-05 -1.52026e-05 0
-2.31977e-05 -1.69383e-05 0
-6.29164e-06 -2.60899e-05 0
-9.5942e-06 1.93059e-06 0
2.39341e-05 -5.1934e-06 0
3.02759e-06 3.79425e-05 0
3.21354e-05 -1.42608e-05 0
-3.60619e-06 -1.71578e-05 0
-1.08583e-05 -1.17323e-05 0
8.15202e-06 2.40918e-05 0
-4.99844e-06 2.66505e-07 0
2.11964e-05 5.19758e-06 0
-2.10074e-06 1.11077e-05 0
-1.93238e-05 -4.54426e-05 0
3.2236e-05 3.76275e-05 0
1.84622e-05 -6.95988e-06 0
-1.20333e-05 2.6673e-05 0
-1.83538e-05 -3.48614e-05 0
4.98781e-05 -1.74138e-05 0
-1.52319e-05 -2.47836e-05 0
1.51512e-05 1.58373e-06 0
1.33472e-05 -5.5913e-05 0
1.20843e-05 -2.17445e-06 0
5.17238e-06 -2.7976e-05 0
-6.07866e-06 1.4912e-05 0
-8.63013e-06 2.35069e-05 0
-1.94598e-05 -4.31758e-06 0
1.8437e-05 4.85034e-05 0
-7.11646e-06 -3.0471e-06 0
-4.59929e-05 1.53297e-05 0
-2.76213e-05 -1.00209e-05 0
1.98617e-05 -1.98279e-05 0
1.55272e-05 -1.85762e-05 0
-4.02548e-06 5.85328e-06 0
1.2571e-05 9.75627e-06 0
-1.01289e-05 3.98828e-06 0
3.96768e-05 8.33338e-06 0
7.24427e-06 1.89489e-05 0
-6.38901e-06 -1.32812e-05 0
-1.71381e-06 1.82734e-05 0
-1.72021e-05 -2.82304e-07 0
-2.39904e-07 -1.90847e-06 0
2.08759e-05 1.44944e-05 0
1.39608e-05 1.58095e-05 0
-1.36994e-05 1.02e-06 0
-2.53113e-06 1.63414e-06 0
1.46844e-05 -3.37199e-06 0
-7.87831e-06 -4.04637e-06 0
-2.72503e-06 -1.60184e-05 0
5.34727e-06 1.13744e-05 0
1.2202e-05 -2.27883e-06 0
-1.63912e-05 -1.92872e-06 0
1.55091e-05 1.0028e-05 0
3.32638e-05 8.67959e-06 0
-3.23746e-06 -1.94606e-05 0
1.05677e-05 -2.38535e-05 0
1.59185e-05 -5.64513e-06 0
9.82069e-06 1.90789e-05 0
9.09809e-06 8.09948e-06 0
-2.06289e-05 -2.92351e-05 0
2.87868e-05 2.74071e-07 0
2.35014e-05 9.30698e-06 0
8.1501e-06 1.55591e-05 0
-1.4349e-05 -1.3841e-05 0
2.40253e-05 5.82207e-06 0
-3.02413e-06 4.90053e-07 0
-1.52593e-06 5.5868e-06 0
1.07052e-07 -3.9939e-08 0
-1.16527e-05 -2.98669e-05 0
-3.05575e-06 2.38825e-05 0
-2.2018e-05 -3.78052e-05 0
-7.92566e-06 -2.24278e-05 0
2.19173e-06 -4.3075e-05 0
-3.65025e-06 -7.67307e-07 0
5.48952e-05 2.42752e-05 0
-2.05818e-05 1.64793e-06 0
-7.58535e-06 1.71649e-05 0
1.18528e-05 2.32246e-06 0
-4.03765e-06 1.72197e-06 0
1.01112e-05 4.80986e-05 0
7.31092e-07 -1.78665e-05 0
-3.44881e-05 1.79122e-05 0
-1.82506e-05 -3.22196e-05 0
2.23379e-06 -1.93616e-05 0
1.02785e-06 2.18065e-05 0
-5.71357e-07 1.2807e-05 0
8.92101e-06 -1.89824e-05 0
-4.65699e-06 -8.41402e-06 0
-1.35719e-05 -1.68857e-06 0
2.86193e-05 -1.87783e-05 0
4.26466e-06 1.7984e-05 0
1.81889e-05 -9.06828e-06 0
1.49535e-05 6.72404e-06 0
1.89238e-05 -2.05065e-05 0
-1.17169e-05 3.48658e-05 0
1.15183e-05 -2.55913e-05 0
3.47857e-05 -2.06628e-05 0
7.5387e-06 2.21445e-05 0
1.13044e-05 -8.99495e-06 0
-2.97094e-07 9.49549e-06 0
4.8639e-06 -9.54335e-06 0
-1.50197e-05 -1.7846e-06 0
-1.0852e-05 -2.0752e-05 0
7.6918e-06 -1.1355e-05 0
3.76253e-07 5.58518e-05 0
1.01818e-05 -1.14609e-05 0
-4.55256e-06 3.97065e-05 0
-9.30314e-06 -1.76276e-05 0
4.12142e-06 -2.36789e-05 0
-7.11352e-06 1.83185e-05 0
5.90784e-06 1.268e-05 0
-3.16622e-06 -1.33674e-05 0
2.78162e-05 2.80924e-05 0
5.87364e-06 -4.54748e-06 0
-7.10248e-06 -1.23448e-05 0
1.20744e-06 -8.22363e-06 0
3.75252e-05 8.91628e-06 0
-2.11601e-05 -1.04088e-05 0
1.49839e-05 1.51384e-05 0
1.2709e-05 9.53493e-06 0
2.74422e-05 -8.21404e-06 0
-1.33044e-06 4.8327e-06 0
-3.79167e-06 -1.08291e-05 0
7.46203e-06 4.85241e-06 0
-1.55031e-05 3.11643e-05 0
-2.87711e-05 3.19667e-05 0
-1.52635e-05 -5.13238e-06 0
1.28007e-05 5.09892e-06 0
2.4554e-05 1.01453e-06 0
-1.53624e-05 -1.63112e-05 0
-8.09788e-06 9.87176e-06 0
-1.30322e-05 8.97444e-06 0
7.69374e-06 -2.09134e-05 0
-8.10179e-06 1.07841e-05 0
1.05324e-06 -1.0309e-05 0
-1.28638e-05 -3.75927e-06 0
9.26174e-06 1.12516e-05 0
-2.61948e-05 -1.66504e-05 0
-2.54547e-05 -2.76042e-05 0
1.81413e-06 -1.81799e-05 0
-2.90271e-06 -1.13436e-05 0
3.37342e-06 -4.30471e-05 0
1.6595e-05 1.71728e-05 0
-2.61221e-05 -2.59008e-05 0
1.73249e-05 -1.21952e-05 0
-7.92669e-06 9.43615e-06 0
1.34431e-05 1.33976e-05 0
-5.43908e-06 -1.84039e-07 0
-9.68939e-06 -1.7243e-05 0
1.26363e-05 9.94066e-06 0
-1.18547e-05 -1.51452e-05 0
3.2628e-05 -1.80634e-05 0
1.31135e-05 -5.48924e-06 0
-3.24328e-05 -2.01129e-05 0
-1.24487e-05 1.38098e-05 0
7.01876e-07 1.14574e-05 0
4.97717e-06 -3.46817e-05 0
2.02885e-06 5.6522e-06 0
-1.49926e-05 1.15799e-05 0
-3.15622e-06 -2.67358e-05 0
-9.65315e-06 3.4506e-05 0
1.01572e-06 -1.66541e-05 0
1.3595e-05 1.22801e-05 0
9.63489e-06 1.52183e-05 0
-1.578e-05 -1.06252e-05 0
1.75e-05 1.49928e-05 0
-1.05243e-05 1.59826e-05 0
-7.61696e-06 6.06348e-06 0
5.66571e-06 -1.57018e-05 0
-8.53033e-06 -2.18245e-06 0
1.32279e-05 4.81694e-05 0
-1.3738e-05 -1.22698e-06 0
4.29601e-06 5.05848e-06 0
-2.59357e-05 1.57505e-05 0
1.05589e-05 -8.39495e-07 0
1.39692e-05 -1.54228e-05 0
-1.93446e-05 -2.22267e-06 0
-1.07033e-05 -5.25199e-06 0
7.42214e-06 -4.05907e-05 0
-1.71764e-05 3.06629e-06 0
-1.04443e-05 1.39845e-05 0
-2.97395e-05 -3.18983e-05 0
2.63662e-05 4.57536e-05 0
1.26602e-05 -1.23772e-05 0
-1.21473e-05 -2.23225e-05 0
-9.78002e-06 2.37527e-06 0
-4.15427e-05 4.58226e-05 0
2.78591e-06 4.32347e-06 0
-1.53407e-05 5.89944e-07 0
3.66966e-06 4.98958e-05 0
8.94515e-06 3.97568e-05 0
-1.90167e-05 -2.13813e-05 0
7.16702e-06 2.12206e-05 0
-1.49593e-07 2.14647e-05 0
-1.74239e-05 -1.37617e-05 0
-1.42966e-05 6.63455e-05 0
-2.95697e-05 -5.78107e-06 0
1.48872e-05 3.60447e-05 0
-3.71063e-05 4.15837e-05 0
3.38511e-05 2.10563e-05 0
-6.32227e-06 4.49591e-06 0
5.78724e-07 2.4293e-05 0
-1.14672e-06 5.41322e-05 0
9.38145e-06 1.89008e-05 0
-2.49949e-10 0 0
6.70491e-06 1.53664e-05 0
-3.54805e-06 -1.92167e-05 0
1.87418e-10 0 0
-5.95336e-06 1.96612e-05 0
-2.75283e-06 -7.45054e-06 0
-3.17567e-05 1.81308e-05 0
-3.1256e-10 0 0
1.85497e-06 -8.28657e-06 0
-1.00659e-05 1.99313e-06 0
-4.85152e-06 2.91933e-05 0
9.64848e-06 8.95453e-06 0
1.87644e-10 0 0
-8.58702e-07 2.34446e-05 0
-1.14637e-05 2.5468e-05 0
-1.6432e-05 -7.98723e-06 0
-8.53706e-06 4.40803e-05 0
1.16471e-05 8.46619e-06 0
1.7214e-05 8.94564e-06 0
-9.6102e-06 1.1745e-05 0
6.47812e-06 1.5369e-05 0
-8.42845e-06 1.84492e-06 0
-1.80214e-05 -1.52642e-06 0
-2.89938e-05 -1.41405e-05 0
-9.56813e-07 2.63873e-05 0
8.95613e-06 2.13735e-06 0
-1.13853e-05 3.5314e-05 0
3.48709e-05 2.20525e-05 0
4.32491e-05 1.33404e-05 0
-1.26441e-05 1.82958e-05 0
3.65662e-06 2.83979e-05 0
-5.87787e-06 -2.40631e-06 0
-5.38526e-06 3.95187e-05 0
-3.03838e-05 1.27336e-05 0
-1.08098e-05 -2.37224e-06 0
1.00657e-05 3.99342e-05 0
-1.76215e-05 4.32491e-05 0
2.88079e-07 3.0454e-05 0
7.44753e-06 -3.60775e-06 0
-4.69507e-06 4.04913e-05 0
-9.84751e-06 1.32012e-05 0
1.29082e-05 2.16217e-05 0
-1.72248e-05 1.31537e-06 0
1.79994e-05 7.48069e-06 0
-1.49259e-05 -8.138e-06 0
7.13744e-06 -3.07912e-05 0
9.00735e-06 -1.87982e-05 0
1.31462e-05 1.47317e-05 0
3.07467e-06 -3.16349e-05 0
1.86212e-05 -2.48108e-05 0
3.59767e-05 -2.54377e-05 0
9.69328e-06 -2.14083e-06 0
2.08886e-06 -2.77675e-05 0
-6.94082e-06 -4.69054e-05 0
2.43191e-05 -3.37574e-05 0
6.61392e-06 2.05084e-07 0
1.29683e-05 -1.60411e-05 0
4.28593e-05 8.53049e-06 0
-1.49032e-05 -3.08172e-05 0
-2.92846e-05 -3.6644e-05 0
1.03161e-05 1.45839e-05 0
1.01588e-05 -3.22791e-06 0
3.60268e-05 1.46251e-05 0
2.89731e-06 4.02249e-05 0
2.88216e-06 -4.31545e-06 0
4.6088e-06 2.20883e-06 0
2.43935e-06 5.48952e-05 0
1.29865e-05 1.40465e-06 0
-8.29356e-06 -1.69037e-06 0
1.18705e-05 -1.38075e-05 0
1.70372e-05 -1.07618e-05 0
1.13078e-05 -2.98453e-05 0
3.58133e-05 2.98757e-05 0
6.7338e-06 -1.24904e-07 0
3.72428e-07 -9.82403e-07 0
2.63081e-05 -2.78031e-05 0
-2.42601e-05 -2.13492e-07 0
5.40814e-06 -2.9407e-05 0
2.80158e-05 -5.68307e-06 0
-1.15183e-05 -1.88528e-05 0
1.3376e-05 7.1998e-06 0
9.69626e-06 2.4549e-06 0
-1.6362e-06 8.44796e-06 0
-1.21778e-05 6.04079e-06 0
1.78279e-05 7.15484e-06 0
1.61114e-05 -1.92276e-05 0
6.0358e-06 4.9744e-06 0
8.34009e-06 -1.97612e-05 0
-2.43811e-06 2.45722e-05 0
2.74188e-05 3.60317e-05 0
1.04138e-05 3.13742e-05 0
2.58548e-05 -1.37452e-05 0
-2.94926e-06 -2.86884e-05 0
-9.91115e-06 -2.28946e-05 0
-2.81074e-06 -3.74712e-06 0
-1.71944e-05 -1.31782e-05 0
2.17178e-05 -1.42628e-05 0
3.13649e-05 8.24059e-06 0
1.843e-05 -2.19208e-05 0
-1.05307e-05 2.95992e-06 0
-6.27625e-06 -1.5255e-05 0
3.13056e-05 2.29142e-06 0
2.1988e-05 -6.3373e-06 0
1.866e-05 -1.64401e-06 0
-2.59745e-05 -2.89906e-05 0
2.19123e-06 2.04402e-05 0
1.60957e-05 -2.53322e-06 0
5.6647e-06 1.25891e-05 0
2.10268e-05 8.51356e-06 0
2.54051e-05 -1.4817e-05 0
-4.80746e-06 -2.693e-05 0
2.86951e-05 -4.19434e-05 0
1.13443e-05 1.13978e-05 0
-1.03459e-05 1.02639e-05 0
2.45725e-05 -2.00273e-05 0
-1.27368e-05 -4.48295e-05 0
2.32187e-05 3.43371e-05 0
3.6735e-06 1.69975e-05 0
1.27484e-06 -8.19547e-06 0
-1.20107e-05 -2.84326e-05 0
1.24868e-05 1.38041e-05 0
1.44845e-05 -3.58913e-06 0
-1.12047e-06 -1.48322e-05 0
-3.34656e-06 -1.11201e-06 0
3.90435e-05 2.16666e-05 0
1.75923e-05 1.23758e-06 0
2.7991e-05 -1.28478e-06 0
3.43186e-05 4.78444e-06 0
-2.44778e-05 -4.34228e-05 0
3.45796e-05 4.1582e-06 0
2.60398e-05 3.09361e-05 0
3.25159e-06 4.13438e-06 0
1.49907e-05 5.59903e-06 0
1.67273e-05 -3.19597e-05 0
7.49127e-06 -3.43957e-05 0
7.84482e-06 1.74831e-05 0
1.43452e-05 -9.83419e-06 0
4.09865e-05 5.21311e-06 0
-1.54415e-05 -1.80074e-06 0
1.43509e-05 -1.6431e-05 0
1.62793e-05 2.34045e-07 0
2.46903e-05 2.62129e-05 0
1.59848e-06 1.4532e-05 0
-1.57597e-06 1.86454e-05 0
-4.53974e-06 -2.00694e-05 0
8.41608e-06 2.19018e-05 0
-8.69404e-06 -3.89709e-06 0
3.47184e-06 2.45746e-05 0
5.13636e-06 -1.51203e-05 0
3.91568e-06 3.2558e-06 0
3.06539e-06 1.01921e-05 0
-1.38749e-05 -1.18547e-06 0
3.51589e-05 -1.43572e-05 0
1.57838e-05 -3.74992e-05 0
5.23964e-06 6.99928e-06 0
-1.14138e-05 7.02635e-07 0
1.14761e-05 2.26044e-05 0
2.7153e-05 -2.62863e-05 0
4.1505e-06 -8.18655e-06 0
1.92658e-05 -2.75136e-05 0
8.89714e-06 -2.19537e-05 0
1.99263e-05 8.17801e-06 0
1.69606e-05 2.76495e-05 0
1.48683e-05 2.88424e-05 0
2.99534e-05 -1.42875e-05 0
1.64627e-05 3.09313e-05 0
2.25217e-05 2.33511e-05 0
3.32747e-06 -4.50491e-06 0
-1.30883e-05 -4.41614e-06 0
1.60766e-05 -2.64234e-05 0
-6.86428e-06 -2.92854e-05 0
1.55417e-05 -1.10995e-05 0
1.73684e-05 -4.65751e-06 0
3.58615e-06 -3.90748e-05 0
2.30452e-06 2.42806e-05 0
6.11487e-06 2.19294e-05 0
2.8829e-05 -1.86026e-05 0
1.85832e-05 -8.26809e-06 0
-2.88866e-05 -2.49788e-05 0
-5.16374e-06 -3.11494e-06 0
-2.13052e-05 -4.97691e-05 0
4.93054e-06 -4.25821e-05 0
1.9937e-05 -7.41592e-06 0
3.62821e-13 4.99966e-10 0
2.59919e-05 -3.37835e-05 0
1.35106e-05 -3.3208e-05 0
1.47122e-05 -1.19804e-05 0
1.29287e-05 1.99349e-05 0
2.0021e-05 1.57207e-06 0
8.23144e-06 -2.23281e-05 0
6.27731e-06 1.12764e-05 0
1.4732e-05 -5.40066e-06 0
3.02433e-06 -2.00376e-05 0
-2.15664e-05 1.2027e-05 0
1.97608e-05 -1.88001e-05 0
1.64398e-05 6.94726e-06 0
7.24129e-06 -3.59852e-05 0
2.43042e-06 1.56359e-05 0
-3.92734e-06 -3.01097e-05 0
-4.47832e-06 -1.98395e-05 0
-9.5341e-06 -3.47319e-05 0
-1.78629e-05 -4.52339e-07 0
1.29402e-05 -3.17079e-05 0
2.01986e-05 -4.11781e-05 0
1.06161e-05 -2.78277e-05 0
3.29228e-06 -2.00394e-07 0
1.28591e-05 2.30052e-05 0
9.57298e-07 -1.69103e-05 0
4.07961e-06 -1.73337e-05 0
3.18086e-07 -4.72363e-06 0
4.56057e-06 -1.75861e-05 0
2.50843e-06 -1.90868e-06 0
2.04835e-05 2.52206e-06 0
2.52137e-05 -1.16367e-05 0
1.72883e-05 1.07831e-05 0
-1.37454e-05 -4.04093e-05 0
1.62615e-05 2.15963e-06 0
-5.16395e-06 -3.41376e-06 0
1.48576e-05 1.91598e-05 0
-6.83772e-06 -3.54631e-05 0
3.85192e-05 1.00383e-05 0
3.24475e-05 5.16289e-05 0
1.59896e-05 2.19349e-06 0
4.52971e-13 4.99978e-10 0
3.38796e-05 -1.28568e-05 0
2.68446e-05 8.06821e-06 0
1.81209e-05 9.20239e-06 0
-6.21231e-07 -1.29286e-05 0
3.12682e-05 8.73641e-06 0
-4.04771e-06 -2.85178e-05 0
-1.75073e-06 1.56996e-05 0
1.30542e-05 -9.13783e-09 0
2.41161e-05 -1.48047e-05 0
2.78782e-05 -7.51778e-06 0
-1.17682e-05 -2.32996e-05 0
4.44221e-06 -4.04791e-05 0
-1.69185e-05 2.89383e-05 0
2.76917e-05 3.69418e-05 0
-3.27936e-07 -1.52029e-06 0
3.9819e-05 1.75494e-05 0
-2.71863e-06 3.60522e-06 0
3.64153e-14 5.00033e-10 0
1.33937e-05 -1.56572e-05 0
8.24064e-06 2.65379e-05 0
3.79159e-05 8.3709e-06 0
5.69568e-06 -2.42056e-05 0
1.53969e-05 1.43477e-06 0
1.09442e-05 2.94993e-05 0
2.1607e-05 -2.39e-05 0
1.6076e-13 1.24962e-10 0
8.4206e-06 -3.83952e-05 0
2.36147e-05 1.946e-05 0
2.67086e-05 1.63942e-05 0
2.00803e-05 -1.54304e-06 0
1.0747e-13 1.24995e-10 0
2.30117e-05 -1.57453e-05 0
2.06108e-05 -1.29292e-05 0
2.20773e-05 -8.26977e-06 0
7.43567e-06 -2.08207e-05 0
2.04022e-05 1.07573e-05 0
2.56631e-05 -3.09892e-05 0
2.6226e-07 -8.46437e-06 0
1.98161e-05 1.51898e-05 0
2.93118e-05 -2.21157e-06 0
1.58911e-05 -1.43598e-05 0
3.39593e-05 7.07855e-06 0
-2.55351e-13 -2.18709e-10 0
-9.58863e-06 -1.18773e-05 0
3.05977e-13 1.25106e-10 0
9.1958e-06 4.2186e-06 0
-1.75415e-13 3.13054e-11 0
3.52883e-05 4.08805e-05 0
1.22569e-13 2.81163e-10 0
2.68945e-05 2.22097e-05 0
4.29149e-05 3.36982e-06 0
7.7608e-06 -5.91321e-06 0
6.79962e-06 -1.66759e-05 0
9.34644e-06 -6.65348e-06 0
-2.34152e-06 -3.21762e-06 0
-1.96331e-06 -3.20679e-05 0
8.35105e-06 3.60604e-05 0
2.05263e-05 -1.81336e-07 0
-2.02792e-05 7.00649e-06 0
7.74542e-06 -1.24166e-05 0
1.77538e-05 -1.12244e-05 0
-1.04861e-05 1.69183e-05 0
1.6528e-05 -2.47331e-05 0
9.11605e-06 3.87693e-06 0
6.53364e-07 -1.48752e-05 0
-4.62033e-07 1.61942e-05 0
1.53926e-06 -1.95241e-05 0
1.37264e-06 2.07264e-05 0
3.53596e-06 -3.80795e-06 0
-2.30477e-05 -3.63448e-07 0
4.55395e-06 2.97516e-06 0
-8.3871e-06 -1.5366e-05 0
3.551e-06 1.60935e-05 0
-2.34296e-06 7.5131e-06 0
3.52057e-05 -8.9628e-06 0
7.63088e-06 9.87384e-06 0
1.55298e-05 3.95416e-05 0
2.97231e-06 1.16164e-05 0
9.86754e-06 3.05548e-06 0
9.2663e-07 1.97576e-05 0
3.14061e-05 7.96766e-08 0
3.28251e-06 -1.15055e-05 0
6.12393e-06 -1.07755e-07 0
1.29098e-05 6.09313e-05 0
-1.24324e-05 -3.63362e-05 0
1.78246e-05 2.01824e-05 0
-3.2689e-07 1.17027e-05 0
7.32246e-06 -1.91679e-06 0
2.02041e-05 -6.04052e-06 0
-1.01701e-07 -1.16858e-05 0
2.28102e-06 -1.1491e-05 0
-8.81493e-06 1.8367e-05 0
-4.58016e-05 5.02944e-06 0
-2.42942e-05 1.32505e-05 0
4.82633e-05 3.32715e-05 0
1.51607e-05 2.36091e-06 0
1.49169e-05 -2.34339e-06 0
8.63406e-06 -7.29388e-07 0
2.25536e-06 -8.61248e-06 0
-3.18297e-06 -1.95734e-05 0
2.91194e-06 3.64738e-05 0
1.14935e-05 4.05913e-06 0
3.10275e-06 3.91648e-07 0
3.8734e-06 -2.80069e-05 0
-1.30312e-06 2.16827e-05 0
7.86595e-06 8.22892e-06 0
7.8142e-06 3.43013e-05 0
1.30719e-05 -3.54395e-05 0
5.02408e-06 -8.2532e-06 0
4.84989e-06 -1.58125e-05 0
2.72884e-05 1.76567e-05 0
9.64494e-06 1.21189e-05 0
6.61789e-06 -1.69031e-05 0
5.97646e-06 1.3651e-05 0
2.34646e-05 -1.05402e-05 0
1.06164e-05 8.84029e-06 0
1.53644e-06 1.6951e-05 0
-9.94907e-06 -3.28176e-05 0
-3.47562e-06 4.27486e-06 0
3.27417e-05 -1.0355e-05 0
3.19052e-05 -2.68871e-05 0
2.37733e-05 -1.10012e-05 0
-8.70168e-06 5.11163e-06 0
4.17956e-06 3.67167e-05 0
1.44683e-05 1.35018e-05 0
2.54575e-05 -2.34192e-05 0
1.73844e-05 3.65773e-05 0
3.16056e-05 5.37528e-05 0
1.14774e-05 1.10594e-05 0
5.35838e-06 1.13593e-05 0
-2.29383e-05 9.24462e-07 0
6.98044e-07 6.1833e-05 0
3.30083e-06 -1.89465e-05 0
3.10924e-05 1.17281e-05 0
1.70301e-05 7.56506e-06 0
1.82962e-05 -8.09356e-06 0
2.43268e-05 6.82475e-06 0
6.01719e-05 1.78518e-05 0
4.13459e-05 -2.80104e-05 0
6.57928e-06 -1.47853e-05 0
-3.89643e-06 -2.0544e-05 0
1.04221e-05 5.23096e-05 0
2.66089e-05 1.23546e-05 0
5.74958e-06 4.31549e-06 0
7.358e-06 -2.38475e-05 0
-1.36732e-05 -2.06582e-05 0
-4.37197e-06 3.63207e-05 0
7.13239e-06 1.12125e-06 0
4.04597e-05 1.42181e-05 0
7.36868e-06 2.81025e-05 0
9.99173e-06 -2.75758e-05 0
2.92503e-06 -2.09402e-05 0
-3.6206e-06 2.89455e-05 0
-7.88581e-08 -4.92833e-06 0
-4.48753e-07 -2.39876e-05 0
-1.0346e-05 6.58768e-06 0
6.56359e-06 4.96017e-05 0
4.9277e-06 -7.94177e-05 0
4.32518e-05 -8.09477e-06 0
6.08143e-06 3.92179e-06 0
-3.48184e-06 -1.60641e-05 0
1.63048e-05 -5.08815e-06 0
1.14738e-05 -1.50325e-06 0
-7.5719e-06 -4.30541e-06 0
1.51612e-05 -9.07986e-06 0
1.10829e-05 1.2217e-05 0
-1.58385e-06 -4.01653e-05 0
2.62332e-05 2.93865e-05 0
2.96508e-05 1.60453e-05 0
3.41389e-05 -1.74385e-05 0
1.73964e-06 -1.01157e-05 0
1.87347e-05 -2.94421e-05 0
5.64346e-06 -7.23367e-06 0
4.88666e-06 1.66685e-05 0
1.24068e-05 1.1039e-05 0
1.00675e-05 -6.26632e-06 0
9.13132e-06 -9.7947e-06 0
9.13683e-06 -3.54113e-05 0
4.49513e-06 -2.26474e-05 0
-1.96884e-05 -4.68308e-05 0
1.41131e-05 -6.03007e-06 0
5.39784e-05 -1.31882e-05 0
8.67274e-06 5.04134e-06 0
-1.86122e-05 -6.04734e-07 0
5.78398e-07 -2.70386e-05 0
-2.38504e-06 2.69151e-05 0
1.79275e-06 2.65175e-06 0
-5.33379e-06 -9.75324e-07 0
-7.11524e-06 1.93013e-05 0
-4.20852e-07 4.88407e-05 0
-8.09793e-06 -3.39378e-06 0
2.86004e-05 2.06237e-05 0
1.30935e-05 4.1141e-05 0
-1.01255e-05 9.67024e-06 0
1.89738e-05 5.52718e-06 0
-1.28056e-05 5.69511e-06 0
-1.51932e-05 -1.30638e-05 0
-1.72267e-05 2.11137e-05 0
-1.27256e-05 1.37337e-05 0
-1.13979e-05 1.177e-05 0
5.04076e-06 3.95321e-06 0
-1.627e-05 2.80806e-05 0
-7.03896e-06 -2.29975e-06 0
-9.96551e-06 1.72329e-05 0
-1.41868e-05 7.1159e-06 0
5.23273e-06 1.14046e-05 0
7.22265e-06 2.65391e-05 0
3.44226e-06 2.84413e-05 0
2.41775e-06 1.95437e-05 0
-1.70903e-05 -4.94344e-07 0
1.32521e-05 1.00657e-05 0
-1.08654e-05 -7.60794e-06 0
-3.4001e-05 -8.77583e-07 0
-3.39554e-05 3.17345e-06 0
1.07763e-06 4.94786e-06 0
2.08642e-05 2.14033e-05 0
-1.62594e-05 -5.1215e-06 0
-3.54896e-06 7.28143e-06 0
-1.66158e-06 1.18811e-05 0
3.27361e-07 1.64377e-05 0
3.80538e-06 9.29855e-06 0
1.85503e-06 -1.73592e-05 0
1.67954e-05 2.20378e-05 0
-1.3141e-05 4.10707e-07 0
-1.60084e-05 1.86661e-05 0
-1.2049e-07 3.38692e-05 0
3.44063e-05 4.21312e-05 0
7.27106e-06 2.91582e-05 0
-3.22238e-06 8.54399e-06 0
2.33353e-06 -1.10836e-05 0
-9.24237e-06 -2.20198e-06 0
-3.40534e-05 2.32683e-05 0
1.15395e-05 1.48623e-05 0
-9.27721e-06 6.9137e-05 0
-2.17113e-05 -1.08074e-05 0
-2.30977e-05 3.71745e-06 0
-1.96562e-05 2.05033e-05 0
1.75812e-05 1.86929e-05 0
-2.0113e-05 -1.50589e-05 0
3.4206e-08 4.61722e-06 0
1.49268e-05 5.18101e-05 0
6.40427e-06 8.86968e-07 0
8.07522e-06 2.71158e-06 0
2.85465e-05 5.85309e-05 0
-2.8525e-05 1.58097e-05 0
-5.30753e-06 2.10411e-05 0
-9.77145e-08 4.18237e-05 0
1.91303e-05 1.96616e-05 0
1.57672e-05 -6.858e-06 0
6.76958e-07 -1.99428e-05 0
-7.99211e-06 -4.17998e-05 0
2.9581e-06 -3.53843e-05 0
-1.14583e-05 -4.62719e-06 0
-1.28509e-05 -3.89982e-05 0
8.49994e-06 8.85753e-06 0
-1.77618e-05 7.8575e-06 0
1.75918e-05 -2.0418e-05 0
-1.90005e-05 -2.48513e-05 0
-1.10782e-06 2.28955e-05 0
-2.3661e-05 -1.97622e-05 0
1.91528e-06 8.94064e-06 0
3.01805e-05 3.23636e-05 0
1.03503e-05 -3.16345e-07 0
-1.11349e-05 -2.49308e-06 0
1.38263e-05 -2.45568e-05 0
-1.33813e-05 -8.26365e-06 0
-8.11454e-06 1.5152e-05 0
-1.08267e-05 1.5276e-05 0
-1.28387e-05 1.39577e-05 0
-2.37342e-05 -6.06069e-07 0
-2.84979e-05 3.97849e-07 0
2.54749e-05 4.59597e-05 0
1.211e-05 -8.87011e-06 0
-1.51159e-05 2.62298e-06 0
-1.41019e-05 -1.87892e-06 0
8.73453e-06 -5.2964e-06 0
1.02552e-05 -4.68237e-06 0
-8.53579e-06 -2.1654e-05 0
-1.25758e-05 6.14799e-06 0
-1.38818e-05 -9.77587e-06 0
-3.122e-05 1.03952e-05 0
-7.70071e-06 2.04832e-05 0
-6.45213e-06 -4.20362e-06 0
-4.68295e-06 2.92714e-05 0
1.80155e-05 -2.725e-06 0
-9.30722e-06 2.41225e-07 0
1.69697e-06 -9.43641e-06 0
-6.76793e-06 3.39226e-06 0
1.37813e-05 -5.59871e-07 0
2.71219e-06 -1.99365e-05 0
-2.00683e-05 -3.36849e-05 0
8.83294e-06 4.14791e-06 0
-6.81907e-06 2.1285e-06 0
2.14496e-05 3.43286e-05 0
1.40755e-05 2.13504e-05 0
1.04333e-05 -1.24816e-05 0
-1.15727e-05 -1.18311e-05 0
3.48299e-06 -1.50485e-05 0
-1.90117e-05 -1.15352e-05 0
3.27481e-05 2.6823e-05 0
9.64403e-06 -1.36206e-06 0
8.5489e-06 -8.33256e-06 0
-7.58084e-06 1.39884e-05 0
8.35627e-07 -1.47884e-05 0
-3.67474e-06 8.63069e-06 0
-2.59548e-06 3.48958e-06 0
3.33447e-06 -9.97135e-07 0
7.78932e-06 -2.70471e-06 0
9.60718e-07 2.9174e-05 0
1.99682e-06 -3.56887e-06 0
1.27932e-05 1.06693e-05 0
-2.1118e-05 2.7624e-06 0
-1.27244e-05 -1.35986e-05 0
-1.24825e-06 -1.32226e-05 0
-1.02103e-05 -2.94293e-06 0
3.64239e-05 1.42109e-05 0
-4.4834e-06 -5.66142e-06 0
2.41593e-05 -6.91488e-06 0
1.21709e-05 -1.56275e-06 0
-1.08496e-05 6.61867e-07 0
-1.07528e-05 2.66978e-05 0
9.3707e-07 1.89907e-06 0
2.08756e-05 2.46769e-05 0
2.52601e-05 1.28354e-05 0
1.29471e-05 2.55471e-06 0
-9.60019e-06 -7.15548e-06 0
2.28079e-05 -1.97293e-05 0
-2.06407e-05 -4.63417e-06 0
-1.35401e-05 -2.22631e-05 0
-4.18064e-05 -2.60168e-05 0
6.42738e-06 -1.68529e-06 0
-5.40977e-06 -2.70115e-06 0
4.36237e-05 3.09586e-05 0
-3.0658e-06 -2.21971e-05 0
-1.67864e-05 -2.44815e-05 0
-5.6268e-06 -1.02879e-05 0
3.86741e-05 2.60777e-05 0
3.12639e-05 -2.88744e-06 0
-9.5234e-06 -2.10559e-05 0
-8.69298e-06 -4.04914e-05 0
-9.06118e-06 -4.74968e-06 0
2.21976e-05 -2.55332e-05 0
-7.45922e-07 -1.53097e-05 0
6.67112e-06 -1.94065e-05 0
6.50564e-06 -1.32281e-05 0
2.13888e-05 2.27054e-05 0
-2.28295e-06 2.15452e-05 0
-1.34991e-05 3.29225e-05 0
2.1055e-05 9.23647e-06 0
-6.86492e-06 1.36543e-05 0
5.88257e-06 4.97201e-06 0
9.22964e-06 -1.79606e-05 0
-2.17865e-05 -2.75891e-05 0
7.51996e-06 -1.59372e-05 0
5.52116e-07 -3.89078e-06 0
9.69638e-06 2.29181e-05 0
9.12053e-06 6.6154e-06 0
2.33428e-05 -2.12404e-05 0
1.51188e-05 -1.33275e-05 0
-6.14469e-06 9.11594e-06 0
-8.74051e-06 8.0868e-06 0
1.67097e-05 2.2796e-06 0
-5.2185e-06 -6.25806e-07 0
-3.13549e-05 -3.98939e-06 0
-1.26068e-05 1.8132e-05 0
2.2437e-05 -1.20976e-05 0
-1.37646e-05 2.27612e-05 0
5.18209e-06 1.43953e-05 0
1.51012e-05 -5.48018e-06 0
-2.91399e-05 -3.25655e-05 0
-5.37027e-06 -2.622e-05 0
1.92599e-06 6.90775e-06 0
-2.28757e-05 2.28417e-06 0
1.60711e-05 8.85207e-06 0
-9.70217e-06 -5.27806e-06 0
1.44331e-05 -5.6143e-06 0
1.44182e-05 -7.53707e-06 0
1.88081e-05 -1.30871e-05 0
-8.07666e-06 -3.10088e-05 0
-2.21812e-05 2.59664e-05 0
1.31808e-05 -1.83286e-05 0
2.19624e-05 4.75713e-06 0
-1.64919e-05 -1.04356e-05 0
-1.74028e-05 4.25287e-05 0
-3.49342e-06 5.95907e-06 0
1.27278e-05 2.00068e-05 0
-1.57203e-05 3.07947e-05 0
-1.25111e-05 2.57403e-05 0
1.32248e-05 -5.31401e-05 0
-1.55476e-05 5.18688e-06 0
-8.098e-06 -2.78937e-05 0
1.41702e-05 -9.88592e-06 0
8.62146e-06 -1.7801e-05 0
-1.56412e-07 -9.86123e-06 0
-3.05924e-05 -2.11137e-05 0
-2.90437e-05 -2.55674e-05 0
-2.3191e-05 5.05445e-06 0
-1.5885e-05 1.29923e-05 0
-4.33609e-06 -6.1178e-06 0
-1.89455e-05 3.54676e-05 0
-3.70653e-05 -2.68907e-05 0
9.13659e-06 1.6889e-05 0
2.46106e-05 2.1172e-05 0
8.90034e-06 1.26068e-05 0
-8.39544e-06 8.70965e-06 0
-1.00146e-05 -2.33755e-05 0
1.47233e-05 9.76195e-06 0
-1.37653e-05 -1.09026e-07 0
1.39236e-06 -1.61912e-05 0
3.82632e-06 1.77503e-05 0
1.50773e-05 4.11078e-06 0
-5.35747e-06 -4.54196e-06 0
3.72311e-06 -5.80119e-06 0
4.73342e-06 -1.83654e-05 0
7.6141e-06 2.06794e-05 0
-2.38021e-05 4.84593e-06 0
9.13683e-07 -7.80761e-06 0
5.66131e-06 1.20105e-05 0
4.47151e-06 -1.24977e-07 0
-7.1937e-06 1.4725e-05 0
1.81116e-06 9.73773e-06 0
6.22138e-06 -2.44054e-05 0
-1.97611e-05 4.45816e-05 0
4.81417e-06 7.681e-06 0
7.76544e-07 6.7487e-06 0
1.82437e-05 7.2698e-06 0
1.80882e-05 1.56881e-05 0
-2.09537e-06 4.65166e-05 0
7.52356e-06 -5.75272e-06 0
-1.12931e-05 -1.15217e-06 0
1.55223e-05 2.71887e-05 0
-1.77892e-05 -6.89072e-06 0
2.42286e-05 1.99048e-05 0
-4.12399e-06 -6.09064e-06 0
-1.42343e-06 -1.65918e-05 0
2.60407e-06 8.69799e-06 0
2.57618e-06 8.32785e-06 0
1.5033e-05 -1.17946e-05 0
4.52336e-06 1.72964e-05 0
-1.32675e-05 -2.44524e-07 0
9.98533e-06 2.47311e-06 0
7.2939e-06 9.37591e-06 0
-6.20306e-06 -1.75554e-05 0
-1.60283e-05 2.24877e-07 0
-7.44777e-06 1.22111e-05 0
2.39803e-06 2.02817e-05 0
-1.17971e-05 1.00991e-06 0
-1.59351e-05 1.14499e-06 0
-2.419e-05 -1.64e-05 0
6.12e-06 8.86272e-06 0
-6.17892e-07 -5.71101e-06 0
-1.33212e-05 7.40064e-07 0
1.85315e-06 -1.82913e-05 0
-3.76712e-06 -4.00232e-06 0
-1.37576e-05 1.44931e-05 0
-1.099e-05 3.72748e-05 0
-4.91712e-06 -4.03615e-06 0
-7.88109e-06 -8.3939e-06 0
5.93082e-06 1.08361e-05 0
-9.15303e-06 -3.6091e-06 0
-5.90602e-06 8.41256e-06 0
-4.72941e-08 3.16293e-05 0
-1.42867e-05 -3.14481e-05 0
1.64299e-05 2.56832e-05 0
2.95133e-05 1.93395e-05 0
1.45735e-05 -9.59178e-06 0
-2.73258e-05 -1.32344e-05 0
-7.4644e-06 8.14251e-06 0
-1.89347e-05 -3.82231e-05 0
-5.73104e-06 4.89095e-06 0
1.42376e-05 -2.28868e-05 0
-2.58741e-05 -1.65506e-05 0
-2.34127e-06 -1.84238e-06 0
-1.68049e-05 3.21189e-06 0
-8.8569e-06 -4.992e-06 0
2.83889e-05 1.93765e-05 0
-1.57547e-05 -4.2699e-06 0
-3.61247e-05 -5.44373e-06 0
-1.45359e-05 3.31261e-05 0
2.10455e-05 -2.00351e-05 0
1.06029e-05 -1.28859e-05 0
1.96267e-05 -1.91559e-05 0
-9.17218e-06 -1.58611e-05 0
1.19162e-05 -2.30736e-05 0
-1.38178e-05 -2.12899e-05 0
2.92503e-05 3.38953e-05 0
-4.08417e-07 -2.28468e-05 0
-6.06002e-06 -1.63968e-05 0
-1.78182e-06 -1.8992e-05 0
1.20865e-05 3.82189e-06 0
2.50467e-05 1.05288e-06 0
3.01928e-05 -1.34797e-05 0
-9.94228e-06 -1.79135e-05 0
-1.36833e-05 -1.11433e-05 0
9.75315e-06 -1.42023e-07 0
3.44234e-05 7.13012e-06 0
5.62154e-06 7.56959e-06 0
-1.48854e-06 -1.20063e-05 0
-6.57859e-07 -2.57993e-05 0
1.51366e-05 -4.15709e-05 0
1.18237e-05 -2.01991e-05 0
-4.28312e-06 1.11956e-06 0
2.29163e-06 -9.35923e-06 0
9.67104e-06 4.74477e-06 0
1.06475e-05 4.23943e-06 0
3.62977e-07 1.28982e-05 0
3.44436e-06 -1.01248e-05 0
-4.92893e-07 3.05171e-06 0
-5.02344e-06 1.43162e-05 0
-1.67491e-05 2.28974e-05 0
1.0524e-05 3.71925e-05 0
-1.82457e-05 -1.02652e-05 0
-2.17658e-06 -1.69952e-05 0
1.01924e-05 -1.32514e-05 0
1.87233e-05 -6.2057e-06 0
-1.20726e-05 -6.66893e-06 0
1.38593e-05 2.57613e-06 0
4.63643e-05 3.81945e-06 0
1.55635e-05 8.67897e-06 0
1.82931e-06 2.56363e-05 0
-1.30345e-05 -4.69577e-06 0
1.04642e-05 -1.27276e-05 0
-1.6722e-06 -2.97503e-05 0
-2.35599e-06 1.31038e-05 0
1.68202e-05 -2.61706e-05 0
6.93152e-06 -3.73397e-06 0
7.44778e-06 -3.1375e-05 0
-3.32334e-06 1.84642e-05 0
-1.66496e-05 -3.34515e-05 0
-5.19639e-06 -6.27357e-06 0
7.69711e-06 -4.76778e-06 0
1.21782e-05 -6.75529e-06 0
2.29493e-05 5.33573e-06 0
3.07804e-05 -9.85128e-06 0
8.26649e-06 -1.89057e-05 0
3.63946e-06 -5.00014e-06 0
-9.90333e-06 -6.68631e-06 0
-3.41683e-06 3.25685e-06 0
-1.14748e-05 -6.68362e-06 0
-1.87209e-05 2.43484e-05 0
2.17526e-05 2.18245e-05 0
1.53662e-06 -1.54165e-05 0
1.90094e-05 6.96713e-06 0
-7.39435e-07 -1.95533e-05 0
1.45301e-05 -1.18131e-05 0
6.79655e-06 -1.65841e-05 0
-1.1877e-05 -2.84397e-05 0
2.54911e-06 -3.60538e-06 0
3.37084e-05 1.65197e-05 0
-4.83494e-06 -1.2022e-05 0
7.01705e-06 -1.2801e-05 0
4.28242e-05 5.66796e-06 0
1.11216e-05 -4.09037e-06 0
-3.07345e-06 2.43371e-05 0
-1.4638e-05 -2.20879e-07 0
-1.35987e-05 4.02013e-05 0
-3.41513e-06 1.81665e-05 0
3.73348e-06 -8.84837e-06 0
3.20227e-07 -1.19883e-05 0
-4.94886e-06 1.99235e-07 0
1.19315e-05 -2.68346e-05 0
1.13836e-05 -1.38728e-06 0
-1.05645e-05 -1.36678e-05 0
1.44601e-05 -1.68862e-05 0
5.73832e-06 -4.48278e-06 0
1.02851e-05 2.69346e-05 0
-5.76992e-06 1.19958e-06 0
-6.87055e-06 2.62345e-05 0
2.30085e-05 -3.72568e-06 0
8.83772e-06 -5.63236e-06 0
2.41212e-05 1.7887e-05 0
-2.85512e-05 -1.73039e-05 0
2.98412e-05 4.45447e-05 0
-2.83526e-06 -3.89392e-05 0
3.88711e-06 2.49442e-06 0
1.56732e-05 -1.87016e-05 0
-9.69184e-07 1.48785e-05 0
3.51937e-05 -1.19184e-05 0
-1.11282e-05 -1.18124e-05 0
1.8113e-05 -1.6777e-05 0
2.48087e-06 2.85402e-05 0
1.57493e-06 5.90674e-05 0
-1.44116e-05 -4.51671e-05 0
-4.01846e-06 4.87545e-05 0
2.79038e-06 1.0867e-05 0
3.32572e-05 7.93176e-06 0
-1.50265e-06 -1.30248e-06 0
-1.30175e-05 -3.18772e-05 0
-7.69304e-06 -2.16677e-05 0
-3.57387e-06 -9.20168e-06 0
2.59021e-05 -9.49653e-06 0
1.09156e-05 5.39615e-06 0
1.90965e-05 4.72666e-06 0
-1.53245e-05 -1.73262e-05 0
1.36951e-05 -9.34326e-06 0
-3.63174e-05 -4.29094e-05 0
-1.77538e-05 2.28024e-06 0
2.28694e-05 -2.23814e-05 0
4.39597e-05 -2.08353e-05 0
-2.42221e-05 -1.25966e-05 0
-4.12131e-06 -1.36229e-05 0
-8.2471e-06 -1.78649e-05 0
2.85978e-05 7.62774e-06 0
1.32515e-05 1.45813e-05 0
1.15238e-05 -2.95784e-05 0
-2.07736e-05 -1.98357e-05 0
-1.37877e-05 7.23192e-06 0
1.76553e-05 2.11537e-05 0
9.4787e-06 2.75741e-05 0
2.84277e-05 1.41118e-05 0
-2.02286e-05 -1.51924e-05 0
-2.41995e-06 -1.1057e-05 0
-1.46302e-05 1.08331e-05 0
-1.43807e-05 -2.98209e-05 0
9.79908e-06 4.4312e-05 0
-1.86175e-06 -5.93184e-06 0
-9.5069e-06 1.07284e-05 0
1.95014e-05 -1.08533e-05 0
-3.22031e-06 4.50228e-05 0
5.99702e-06 -1.17111e-05 0
1.19832e-05 -1.3084e-05 0
-7.82935e-06 -1.8399e-05 0
-9.01381e-06 -2.43412e-05 0
8.55374e-06 -1.3831e-05 0
-4.35938e-06 -1.82794e-05 0
5.04034e-06 5.18133e-06 0
7.60491e-06 1.83285e-05 0
3.42863e-06 -1.38358e-05 0
-1.54502e-05 -3.52151e-06 0
-1.29851e-05 2.17174e-06 0
1.70378e-06 -3.19234e-06 0
1.67054e-05 -7.87015e-06 0
-2.6881e-05 2.65175e-06 0
-2.02178e-05 -4.28314e-06 0
7.4683e-06 -2.72809e-05 0
4.442e-06 5.78493e-05 0
3.20451e-06 1.02661e-05 0
-1.47114e-06 2.89992e-05 0
-1.02936e-05 2.9033e-05 0
4.6305e-06 -2.15303e-07 0
1.42796e-06 2.43829e-05 0
-1.85109e-05 -1.55341e-05 0
2.07316e-05 2.7652e-05 0
-7.25996e-06 -7.06916e-06 0
1.05261e-05 -5.10121e-06 0
1.29081e-06 2.84551e-05 0
-1.58385e-05 -1.16694e-05 0
-2.46867e-05 2.10189e-06 0
-2.29155e-05 8.79449e-06 0
6.28687e-06 1.37054e-05 0
1.93609e-06 8.87098e-06 0
-3.93365e-06 -2.13497e-06 0
-8.97358e-06 2.30786e-05 0
-1.17003e-06 2.44252e-05 0
-2.04781e-05 -9.61816e-06 0
1.02484e-06 -5.20174e-06 0
-8.01567e-06 -2.31507e-05 0
2.61618e-05 2.09006e-05 0
-9.28081e-07 -2.36004e-05 0
7.97858e-06 -1.5836e-05 0
2.85001e-05 1.35784e-05 0
9.21276e-06 3.30501e-05 0
5.56608e-06 4.2174e-06 0
2.15577e-05 1.84551e-05 0
-6.78114e-06 -1.75495e-05 0
1.11467e-05 5.40895e-06 0
2.89076e-05 9.56948e-06 0
1.58982e-05 -2.08089e-06 0
2.86953e-05 2.83602e-05 0
7.72882e-06 -1.29513e-05 0
3.7202e-06 -2.60758e-05 0
3.06579e-06 1.43079e-05 0
1.25491e-06 -2.07385e-06 0
6.32305e-06 2.79779e-05 0
4.10747e-06 5.11573e-06 0
1.49308e-05 -1.58291e-05 0
1.25589e-05 1.55015e-05 0
2.61009e-05 -2.3751e-06 0
7.51653e-06 -2.03979e-05 0
1.27713e-05 -2.05384e-05 0
-5.98634e-06 -1.52605e-05 0
1.54205e-05 4.19333e-07 0
6.57562e-06 5.36576e-06 0
1.74122e-05 8.79895e-06 0
2.55003e-05 8.89435e-06 0
4.99956e-06 5.39013e-06 0
-5.55258e-06 3.95243e-05 0
2.49026e-06 2.70786e-06 0
-7.91001e-06 8.94378e-06 0
-3.80191e-06 1.13251e-05 0
-8.41122e-08 -1.26182e-05 0
1.41011e-05 -1.37533e-05 0
-1.43063e-05 -2.28807e-05 0
9.41199e-07 -3.72336e-05 0
7.07183e-06 -3.23749e-05 0
2.56091e-05 5.05208e-05 0
7.65039e-06 -7.8435e-06 0
-1.10095e-06 2.23997e-05 0
-1.4418e-05 -3.18654e-05 0
3.61531e-05 6.20962e-06 0
-1.79036e-06 -1.50292e-05 0
1.06755e-05 3.8752e-06 0
-4.92478e-06 -7.3226e-07 0
7.40193e-06 1.0364e-05 0
3.30168e-06 -9.2253e-06 0
-1.64725e-06 1.09796e-05 0
-8.65376e-06 -9.2974e-06 0
-1.02355e-05 -1.96079e-05 0
1.61971e-05 -1.48781e-05 0
5.65671e-06 1.6797e-05 0
2.80594e-05 -1.04497e-05 0
9.62976e-06 2.52111e-05 0
-9.04404e-06 -1.09139e-05 0
1.08818e-05 -9.49879e-06 0
-6.85341e-06 1.59096e-05 0
-6.52896e-07 -2.33523e-05 0
4.61751e-05 -5.9896e-06 0
1.30563e-05 -1.56767e-05 0
6.01448e-06 -1.06859e-05 0
1.77888e-05 -6.06597e-06 0
2.71037e-05 -1.43902e-05 0
2.85549e-13 1.2492e-10 0
-6.90185e-06 -9.81273e-07 0
6.08514e-06 -2.66246e-05 0
1.6028e-05 -4.24722e-06 0
-4.04205e-06 -5.57725e-06 0
3.74811e-13 2.8129e-10 0
7.89699e-06 -2.29497e-05 0
1.11977e-05 -2.83347e-05 0
1.03726e-05 5.7902e-06 0
2.67673e-05 -9.07442e-06 0
-1.05429e-05 9.44894e-06 0
1.08214e-05 -2.77734e-05 0
2.6031e-05 3.61903e-05 0
8.7188e-06 -5.95152e-06 0
2.18462e-05 5.39556e-05 0
2.46711e-05 -2.78639e-05 0
2.43229e-06 7.17196e-06 0
2.70894e-13 1.25027e-10 0
1.60658e-05 -1.18484e-05 0
1.45826e-05 3.47362e-05 0
-9.1125e-06 2.72933e-05 0
2.64732e-05 -3.95599e-05 0
-7.34563e-06 -3.24718e-05 0
3.55522e-05 2.14306e-05 0
2.34923e-13 3.12548e-11 0
-1.37002e-13 2.81194e-10 0
3.00786e-05 6.81898e-06 0
1.22793e-05 2.43686e-05 0
-2.41585e-13 1.25056e-10 0
-1.47208e-05 -8.69405e-06 0
-7.24544e-06 -1.78863e-05 0
5.29127e-08 2.6406e-05 0
1.65316e-05 -1.67062e-05 0
1.08183e-05 5.40008e-06 0
3.0649e-05 -1.37821e-05 0
1.74185e-05 2.50723e-05 0
-2.04041e-05 -7.9698e-06 0
8.0605e-06 1.7073e-05 0
-9.75728e-06 7.95206e-06 0
2.07011e-05 -2.24343e-05 0
2.77303e-05 3.36422e-05 0
3.59482e-05 -4.59884e-06 0
1.39317e-05 -1.50956e-05 0
1.96944e-06 -4.63487e-06 0
-7.68781e-06 1.02371e-05 0
1.67673e-05 -2.15878e-05 0
1.70974e-05 -5.17486e-06 0
-2.73463e-06 -2.47302e-07 0
2.11439e-05 -2.0837e-05 0
-7.98722e-06 -3.08218e-05 0
-4.35513e-06 -1.39204e-06 0
-8.76126e-06 4.74451e-06 0
2.06833e-05 -1.18103e-05 0
1.36576e-05 -3.02886e-05 0
1.49759e-05 2.1421e-05 0
9.1073e-06 -5.34764e-06 0
-2.06064e-05 -2.87421e-05 0
3.77811e-06 -9.33127e-06 0
2.65665e-06 -6.78185e-06 0
1.72634e-05 -2.6406e-05 0
1.72771e-05 -7.11908e-06 0
-2.21563e-05 -5.29215e-06 0
2.97889e-05 3.69463e-05 0
-6.15183e-07 6.39997e-06 0
-1.79831e-05 -2.00492e-05 0
9.10225e-06 1.03189e-06 0
-1.3731e-06 4.27008e-06 0
3.54956e-05 -2.25113e-05 0
4.22559e-05 1.11212e-05 0
-1.64711e-05 -4.83416e-06 0
-1.57316e-05 1.74606e-05 0
9.87702e-06 -1.80411e-05 0
1.68728e-05 -7.21841e-06 0
-1.77185e-05 3.78544e-05 0
1.42813e-05 -1.77701e-06 0
4.85409e-06 -3.41322e-06 0
-1.55599e-05 1.70732e-06 0
3.70614e-05 9.03725e-06 0
3.00604e-06 -7.59464e-06 0
1.08778e-05 -2.25137e-05 0
2.44395e-06 2.65605e-05 0
-2.26957e-05 -3.89997e-05 0
3.56524e-05 1.34868e-05 0
-1.06898e-05 -4.25793e-05 0
7.44808e-06 8.23179e-07 0
2.30422e-07 -3.2021e-05 0
-1.15336e-05 -5.08852e-05 0
1.61235e-06 -5.13905e-06 0
-1.19294e-05 -1.76571e-06 0
5.76214e-06 1.00494e-05 0
1.53202e-05 3.12335e-05 0
1.06373e-05 4.54266e-05 0
-9.06882e-06 1.4013e-05 0
-1.56913e-06 9.0877e-07 0
1.04473e-05 3.30607e-06 0
8.40602e-06 1.83863e-05 0
7.59611e-06 4.24541e-06 0
-6.80838e-06 -2.50794e-05 0
1.25763e-05 -9.40909e-06 0
2.29072e-05 -6.26311e-06 0
3.38171e-07 2.98303e-05 0
2.62801e-05 -3.97276e-06 0
1.12018e-05 3.84948e-05 0
-1.52266e-06 -2.53023e-06 0
4.66503e-06 8.14659e-06 0
-1.70511e-05 -1.44068e-05 0
8.88769e-06 1.21716e-05 0
-1.37819e-05 -5.26495e-06 0
3.32765e-06 1.56571e-07 0
1.08344e-05 -1.91181e-05 0
1.50936e-05 -4.5895e-06 0
3.41661e-07 6.91075e-06 0
1.55613e-06 -1.01317e-05 0
-9.03255e-06 3.5531e-05 0
-4.87758e-06 -6.80492e-06 0
2.38014e-05 -1.84414e-05 0
1.10806e-05 -2.03872e-05 0
3.26107e-06 7.33851e-06 0
-4.72019e-06 4.45792e-06 0
5.47699e-06 2.6956e-05 0
4.04059e-05 4.78543e-05 0
4.06132e-05 8.75874e-06 0
3.9619e-05 -3.71599e-06 0
1.46114e-05 5.92299e-06 0
1.82578e-05 -5.69505e-07 0
1.70426e-05 2.18506e-06 0
2.99131e-05 8.43962e-06 0
3.45271e-06 1.65554e-05 0
2.27325e-05 -5.75826e-06 0
3.23966e-05 1.64526e-05 0
8.18803e-06 2.1332e-05 0
3.19619e-05 -1.18352e-05 0
-7.4404e-06 -7.77431e-06 0
-2.99078e-07 1.62876e-05 0
1.2111e-05 1.35261e-05 0
6.30799e-06 -1.52325e-05 0
5.03217e-06 -3.61545e-05 0
1.92214e-06 -2.06391e-06 0
-5.62402e-06 -2.07659e-05 0
4.16167e-06 9.86654e-06 0
-6.20036e-06 -2.46514e-05 0
8.19601e-06 -2.0393e-05 0
-6.74583e-06 -1.96374e-05 0
-1.50358e-06 -3.54552e-05 0
3.12107e-06 -2.71535e-05 0
6.14451e-07 -3.67148e-05 0
4.95266e-07 1.31769e-06 0
2.68149e-05 -2.14442e-06 0
-1.10002e-06 1.43008e-05 0
1.60195e-05 -1.63124e-06 0
1.1104e-05 -7.81828e-06 0
8.90656e-06 1.279e-05 0
2.35008e-05 -1.20225e-06 0
-1.26177e-05 -2.40223e-05 0
1.72326e-05 -8.17863e-06 0
7.60999e-06 1.49651e-05 0
-9.0948e-06 -1.21912e-05 0
-4.37277e-06 1.53336e-06 0
1.78377e-05 -2.85207e-05 0
7.08566e-06 -3.15777e-05 0
-5.42054e-06 2.79176e-05 0
2.20963e-05 -8.41987e-06 0
1.47477e-05 4.00682e-05 0
1.64611e-05 3.197e-05 0
1.59478e-05 -3.46089e-05 0
-2.89579e-05 1.37723e-05 0
4.45609e-06 -8.20209e-06 0
-2.69215e-06 -3.74845e-05 0
2.46064e-05 -5.4202e-06 0
1.67254e-05 1.08417e-05 0
1.45806e-05 1.40727e-05 0
-1.76729e-05 -2.05359e-05 0
-2.62755e-06 2.08493e-05 0
2.18087e-06 2.19675e-05 0
4.4366e-06 -2.17149e-05 0
4.28953e-05 1.41124e-05 0
-9.61854e-06 2.48478e-05 0
-9.3814e-07 -1.74306e-05 0
8.20392e-06 -3.97631e-05 0
5.89077e-06 -1.01496e-05 0
5.08598e-06 -4.7675e-05 0
-1.02299e-05 -3.16824e-05 0
1.51558e-05 -2.17148e-05 0
-1.58662e-05 2.91035e-05 0
1.7544e-05 -2.17216e-05 0
1.70582e-05 -1.36117e-05 0
-5.50143e-06 -4.74127e-06 0
-9.87294e-06 -1.62308e-05 0
1.33105e-05 1.69486e-05 0
-4.34933e-06 -1.10504e-05 0
1.8212e-05 -1.84423e-05 0
5.84843e-06 1.79376e-05 0
1.15561e-05 -2.29256e-06 0
-5.6998e-06 4.67059e-05 0
-1.69767e-05 1.41461e-05 0
9.90085e-06 -2.91069e-05 0
1.8948e-05 -1.51632e-05 0
-2.6788e-05 3.09414e-05 0
-6.07114e-06 3.96178e-05 0
-1.01252e-05 -4.48947e-06 0
-4.14511e-05 1.07704e-05 0
2.1406e-05 1.9268e-05 0
-9.2815e-06 3.24169e-05 0
-5.95568e-06 2.20098e-05 0
3.92037e-06 2.44121e-05 0
-8.46086e-06 1.25826e-05 0
1.31371e-05 2.27518e-05 0
1.33541e-05 2.36382e-05 0
-1.09475e-05 -2.16151e-05 0
-2.73488e-05 2.57378e-05 0
-1.51719e-05 -4.62464e-06 0
7.21765e-06 2.49769e-06 0
1.12823e-05 1.08833e-05 0
-3.03414e-06 1.68138e-05 0
8.43151e-06 -1.37489e-06 0
2.45859e-05 6.60864e-05 0
-3.21088e-06 1.91136e-05 0
-1.60243e-05 5.53028e-05 0
-9.74104e-06 2.18057e-05 0
3.53378e-07 1.56809e-05 0
-1.13813e-05 -1.41209e-05 0
-2.49786e-10 0 0
-2.49899e-10 0 0
-1.39952e-05 3.86656e-05 0
-2.25982e-05 2.28125e-05 0
-1.15579e-05 3.24175e-05 0
6.16859e-06 2.64338e-06 0
-1.50102e-05 1.63395e-05 0
-1.42882e-05 1.78294e-05 0
-1.7328e-05 5.28623e-05 0
-6.13953e-14 0 0
2.6421e-06 -1.74199e-05 0
3.91766e-06 3.57675e-06 0
-4.14396e-06 -2.2956e-05 0
-2.45508e-07 3.29264e-06 0
-4.88684e-06 5.04068e-05 0
3.32543e-06 6.54098e-06 0
-1.91054e-05 9.48424e-06 0
7.73478e-06 3.67947e-05 0
2.98427e-06 9.81644e-06 0
2.89896e-06 1.4192e-05 0
-1.71142e-05 1.11464e-05 0
1.62332e-05 3.01168e-05 0
-1.57838e-05 -4.93123e-06 0
1.42532e-05 1.78512e-05 0
-1.32375e-05 7.67976e-06 0
2.00488e-06 1.27745e-07 0
7.81056e-06 4.40353e-06 0
-1.0404e-05 -1.18905e-06 0
8.82749e-06 -2.95242e-06 0
-1.69534e-05 -2.36741e-05 0
-3.12557e-06 -1.66259e-05 0
-3.28946e-06 -1.38487e-05 0
-1.97404e-05 6.6588e-06 0
-5.59138e-06 1.92456e-05 0
5.13691e-06 4.01583e-06 0
-4.71786e-06 1.85469e-05 0
1.44826e-05 3.92043e-05 0
1.70575e-06 7.73575e-07 0
3.29877e-05 1.67157e-05 0
5.01157e-06 5.06636e-06 0
9.63769e-06 2.23673e-06 0
2.0355e-05 2.07839e-05 0
-1.84204e-05 1.13884e-05 0
-1.21482e-05 -7.98196e-06 0
1.35614e-05 2.36261e-05 0
3.90812e-05 2.26938e-05 0
-2.21153e-05 -6.69881e-07 0
3.40537e-05 -1.12717e-05 0
2.11628e-07 3.79472e-05 0
-1.79447e-05 1.3298e-05 0
7.89025e-06 2.44071e-06 0
-1.74419e-05 -7.74964e-06 0
-1.47473e-05 -1.1993e-05 0
1.88863e-06 2.43892e-05 0
-3.25405e-05 -1.71124e-05 0
-6.36295e-06 -6.65385e-06 0
-2.90628e-05 -1.42816e-05 0
-6.74452e-06 -7.28575e-06 0
-7.6611e-06 -1.06622e-05 0
-2.03877e-06 -1.06484e-05 0
2.016e-06 -2.88706e-05 0
-2.5649e-05 -3.09758e-05 0
-5.0404e-06 1.00184e-05 0
1.85754e-05 1.98015e-06 0
-5.4054e-06 1.74621e-05 0
-1.65099e-05 -4.05017e-05 0
-6.14451e-06 -3.69791e-06 0
-8.73733e-06 -2.0745e-05 0
6.62379e-06 -2.08556e-05 0
1.64205e-06 -1.89893e-05 0
8.08329e-06 -2.14895e-05 0
-2.16442e-06 -1.18594e-06 0
1.73045e-05 7.60879e-06 0
2.58043e-05 4.99995e-05 0
-4.239e-07 7.43752e-06 0
-9.47439e-06 5.21975e-06 0
3.38965e-06 2.67981e-06 0
-5.8895e-06 4.30739e-05 0
-4.38319e-06 2.57178e-06 0
-1.26322e-05 2.26776e-05 0
2.51946e-05 3.74544e-05 0
-1.6376e-05 5.15635e-05 0
-3.08342e-05 -1.39863e-05 0
7.60478e-06 -4.26531e-07 0
-1.00575e-05 1.18244e-05 0
-3.23272e-05 -8.09483e-06 0
-2.46236e-05 9.06246e-07 0
1.34401e-05 3.42924e-05 0
6.0373e-06 -3.05396e-06 0
-8.83557e-07 -2.24354e-05 0
3.11478e-06 -1.21173e-05 0
-2.57271e-05 4.027e-06 0
-1.93199e-06 4.62774e-06 0
2.209e-06 -2.35884e-05 0
-1.12934e-06 8.54054e-06 0
-1.66141e-05 2.76243e-06 0
2.39458e-06 1.0168e-05 0
-2.13962e-05 -2.91574e-05 0
1.64351e-05 2.10808e-05 0
1.44534e-05 2.73777e-06 0
-1.27229e-06 -4.30366e-06 0
1.07298e-05 8.2659e-05 0
2.5325e-06 8.3724e-06 0
-1.61204e-05 -1.39458e-05 0
-8.39796e-06 4.32816e-05 0
2.67208e-06 2.83813e-05 0
-1.03812e-05 -1.96527e-05 0
2.38482e-05 -3.01767e-05 0
-4.79498e-06 2.13275e-05 0
-9.65505e-06 -1.7198e-05 0
-8.64479e-06 -6.88505e-07 0
-2.52415e-05 3.01906e-05 0
-6.28123e-07 5.80494e-06 0
-1.00181e-05 -1.9088e-05 0
-2.93436e-06 1.41626e-05 0
-3.0145e-05 9.3905e-06 0
1.67268e-06 -1.30859e-05 0
1.33873e-05 2.21629e-05 0
-2.70722e-05 -4.27134e-05 0
-6.32509e-06 -8.22502e-06 0
2.51964e-05 2.86042e-05 0
1.59015e-05 -1.10914e-05 0
1.90959e-05 1.73294e-05 0
-4.81204e-06 1.21379e-06 0
6.19626e-06 -3.55788e-06 0
-1.06949e-05 -1.86248e-06 0
-1.47877e-06 -2.05533e-05 0
-1.08885e-05 1.84332e-05 0
-2.57292e-06 6.68573e-06 0
2.28912e-05 1.68568e-06 0
-2.54544e-05 2.53525e-06 0
-1.90836e-06 -9.61725e-06 0
3.39952e-05 3.74687e-06 0
5.59649e-06 3.5901e-05 0
2.71249e-06 -3.63104e-05 0
1.37231e-06 1.66082e-05 0
1.48203e-05 2.67481e-05 0
-4.9242e-06 1.59861e-05 0
-7.3802e-06 -8.02112e-06 0
-7.60663e-06 -1.54822e-06 0
3.09403e-05 -4.57926e-06 0
3.58499e-05 2.41917e-05 0
2.51801e-05 3.94636e-05 0
-7.28373e-06 -3.96788e-05 0
-9.02193e-06 -1.65805e-05 0
-1.24454e-06 -6.17053e-08 0
5.9607e-06 1.20104e-05 0
1.43096e-05 -2.05376e-05 0
-1.94405e-05 4.43537e-06 0
-6.09227e-06 2.622e-06 0
-2.38661e-05 1.30058e-05 0
-3.25169e-05 -1.04326e-05 0
-3.35496e-06 1.39351e-05 0
4.001e-06 -1.11181e-06 0
-3.08141e-05 2.42031e-05 0
-5.4781e-06 -3.22142e-06 0
-1.37513e-05 -1.26049e-06 0
-4.50886e-06 1.1502e-05 0
2.04701e-05 1.04267e-06 0
-3.33395e-07 1.68265e-06 0
5.58518e-07 -2.19574e-06 0
-2.37802e-05 -4.1033e-06 0
3.48083e-07 1.89859e-05 0
9.36404e-07 2.05337e-05 0
-2.24604e-05 3.19782e-05 0
-2.93551e-05 9.68646e-06 0
8.78945e-07 5.80713e-06 0
1.32429e-05 5.72311e-05 0
7.84153e-07 1.63388e-06 0
4.40855e-06 2.24428e-05 0
2.51567e-05 -1.2661e-05 0
-2.5437e-05 8.9286e-06 0
-9.16391e-06 7.47024e-06 0
-1.19242e-06 -7.97293e-06 0
1.47552e-06 -8.77209e-06 0
1.66609e-05 2.20632e-05 0
-2.51177e-05 -3.99867e-06 0
-1.96812e-05 3.93716e-08 0
5.56139e-06 1.4064e-05 0
2.21528e-06 -1.65501e-05 0
3.70775e-06 1.67326e-06 0
-2.49077e-06 -3.34568e-05 0
9.97342e-06 7.38637e-06 0
3.43147e-06 -1.67626e-05 0
1.12723e-06 -2.06019e-05 0
-6.65505e-06 1.6476e-05 0
-1.31588e-05 1.63776e-06 0
-2.90526e-05 1.38142e-05 0
1.852e-05 5.09204e-06 0
-1.47264e-05 -4.80828e-06 0
1.02702e-05 -7.35229e-06 0
2.37677e-06 -4.51862e-06 0
-1.43086e-06 -9.40996e-06 0
1.55465e-06 -7.61203e-06 0
-2.13449e-05 -4.54392e-05 0
-3.34676e-06 -3.28704e-05 0
-1.96549e-05 -8.39615e-07 0
2.24089e-05 2.47904e-05 0
-1.1771e-05 1.43021e-06 0
6.43032e-06 3.30045e-06 0
1.01043e-05 -5.6295e-06 0
1.30502e-05 1.48267e-05 0
-8.40698e-06 -4.87149e-06 0
2.18934e-05 1.18314e-05 0
-4.53296e-06 3.05479e-05 0
-6.67085e-06 -9.076e-06 0
2.33257e-06 -3.56654e-06 0
-1.61076e-05 2.76487e-06 0
-3.58696e-05 -2.63099e-05 0
-2.03439e-05 1.76308e-05 0
8.30881e-06 -8.94125e-06 0
-2.26452e-05 -8.94614e-06 0
1.97686e-05 9.63351e-06 0
7.62315e-06 -1.66841e-05 0
2.45299e-05 3.9054e-05 0
1.98519e-06 -1.41207e-05 0
-4.67461e-06 -3.08439e-05 0
-1.78802e-06 2.36332e-07 0
-1.1892e-05 -2.16232e-05 0
4.81696e-07 2.37025e-05 0
2.16952e-05 8.97014e-06 0
-7.13464e-07 -1.81163e-05 0
1.32821e-05 -1.88764e-06 0
8.29272e-06 -1.96023e-05 0
1.82795e-05 1.42971e-05 0
-4.07619e-06 1.60123e-05 0
-1.5212e-05 3.01254e-05 0
1.31171e-05 4.49867e-05 0
-3.11291e-07 -3.28703e-05 0
-5.30168e-06 -2.47903e-05 0
2.10435e-06 -1.59371e-05 0
-2.35097e-06 -1.47193e-05 0
-2.89599e-06 -1.25334e-05 0
-1.87133e-05 -1.52087e-05 0
-2.38633e-05 -1.72553e-05 0
-1.24295e-05 3.60123e-06 0
9.03166e-06 7.51567e-06 0
-1.10132e-05 -3.7992e-06 0
-1.93635e-05 -1.42535e-05 0
-9.05325e-06 2.75582e-05 0
-2.9205e-06 2.11623e-05 0
1.75236e-05 -2.97066e-05 0
-8.90555e-06 -1.18668e-05 0
-1.47414e-05 5.1505e-06 0
1.34238e-06 2.27376e-05 0
-1.76105e-05 -2.32534e-05 0
9.62712e-06 8.06765e-06 0
-1.69309e-05 2.61035e-06 0
5.67515e-06 1.06073e-05 0
-1.87498e-05 -2.43227e-05 0
1.04494e-05 -5.70456e-06 0
-1.16737e-05 -4.28198e-06 0
1.88769e-05 5.2925e-06 0
-1.80516e-05 -1.10377e-05 0
7.1141e-06 3.52849e-05 0
-1.11619e-05 -1.09198e-05 0
8.53791e-06 7.93537e-06 0
1.27834e-05 7.68073e-06 0
-3.67797e-06 2.29983e-05 0
1.84827e-05 1.18884e-05 0
-4.23394e-06 -9.57777e-06 0
-1.31264e-06 -1.12653e-05 0
2.83548e-05 -1.93802e-06 0
5.90193e-06 -1.07219e-05 0
6.6169e-05 2.40312e-05 0
2.53875e-05 9.38488e-06 0
1.88942e-05 5.5384e-06 0
1.44868e-06 -8.32556e-06 0
1.04848e-05 -1.18638e-05 0
-8.42431e-06 -1.5708e-05 0
1.65792e-05 1.61756e-05 0
6.8402e-06 2.86095e-06 0
7.63912e-07 1.03209e-05 0
1.16608e-05 4.41775e-06 0
1.95166e-05 -3.41011e-05 0
4.12832e-06 -1.02316e-05 0
-7.94337e-07 -3.92356e-05 0
4.2369e-05 2.19274e-05 0
1.61366e-05 -2.68165e-05 0
9.18478e-06 2.44907e-05 0
3.69573e-06 8.61665e-06 0
-6.95789e-06 -3.01291e-05 0
1.54481e-05 -1.63684e-05 0
2.60993e-05 2.08905e-05 0
2.11378e-05 1.77498e-05 0
-9.91962e-06 -1.29339e-05 0
-1.27593e-05 9.55757e-06 0
2.57147e-05 3.08912e-06 0
-2.59187e-06 -2.67053e-05 0
1.11359e-06 -3.85873e-05 0
-1.76334e-05 -3.94691e-05 0
-3.34818e-06 7.43822e-06 0
3.76572e-05 -2.43462e-05 0
1.33018e-05 1.97245e-05 0
3.61232e-06 -4.45386e-06 0
1.47205e-05 -2.39057e-06 0
3.54041e-06 -1.62988e-05 0
9.24608e-07 -7.58113e-06 0
6.70318e-06 1.9463e-07 0
7.74185e-06 -6.74755e-06 0
1.75099e-05 4.4414e-06 0
-2.23157e-05 -2.20736e-05 0
-2.10389e-06 -8.48646e-06 0
3.76063e-06 1.18167e-06 0
1.99754e-06 3.58378e-06 0
1.92163e-05 -3.15229e-05 0
-8.6113e-06 8.52099e-07 0
5.27568e-06 -5.68207e-06 0
-1.77424e-05 4.08228e-06 0
-5.32716e-06 -1.52689e-05 0
1.60754e-05 -1.83099e-05 0
1.43567e-05 -2.3851e-05 0
-2.10986e-05 -3.03421e-05 0
-1.00879e-05 3.57645e-05 0
8.16212e-06 -1.28413e-05 0
1.44191e-05 1.34709e-05 0
1.32806e-05 -2.43759e-05 0
-1.22083e-05 5.45294e-06 0
-1.56932e-05 -1.72976e-05 0
3.12893e-05 -4.82334e-06 0
1.89334e-05 3.64453e-06 0
1.37081e-05 1.29671e-05 0
1.01485e-05 -1.74895e-05 0
1.75744e-05 -2.12454e-05 0
1.47973e-05 2.3779e-06 0
1.99342e-05 3.00673e-06 0
1.39871e-05 3.62371e-05 0
5.93465e-06 6.93089e-06 0
3.78599e-05 -1.76891e-05 0
-1.62939e-05 -1.41345e-05 0
5.28636e-06 2.07995e-05 0
-1.56692e-05 1.75278e-05 0
3.2574e-06 -7.4293e-06 0
4.35079e-06 -1.30898e-05 0
1.50251e-05 3.0129e-05 0
1.9399e-05 6.51443e-06 0
7.58466e-06 -9.49561e-06 0
2.30686e-05 -5.22271e-06 0
-5.84818e-06 -7.16106e-06 0
2.99567e-05 -1.88989e-05 0
2.85999e-05 3.41947e-05 0
2.40271e-05 1.22061e-05 0
2.38319e-05 6.47302e-06 0
-6.11096e-06 6.15171e-06 0
2.59857e-06 -1.77638e-05 0
1.92982e-06 -2.3631e-05 0
1.10414e-05 1.35157e-05 0
3.30358e-05 -2.01978e-06 0
3.83131e-06 8.26749e-06 0
-3.69717e-05 1.45171e-05 0
1.5719e-05 3.25371e-05 0
-6.38374e-06 3.31582e-05 0
1.89643e-05 1.62602e-06 0
3.17868e-06 -1.93499e-05 0
2.99303e-05 1.42124e-05 0
1.94672e-06 -6.13049e-06 0
-1.03457e-05 -1.55061e-05 0
6.09892e-07 -1.3323e-05 0
4.60215e-06 3.42701e-06 0
8.40508e-06 2.53635e-05 0
1.39868e-05 1.21942e-05 0
1.02969e-05 3.64037e-06 0
1.21424e-05 3.76707e-05 0
2.49832e-05 2.93177e-05 0
8.38204e-06 -8.59685e-06 0
-9.97104e-06 5.14939e-06 0
-3.83134e-07 1.19434e-05 0
1.10575e-05 3.22084e-06 0
3.81209e-05 5.60407e-06 0
2.02903e-06 5.54026e-06 0
1.51147e-05 -1.58023e-05 0
3.85113e-05 1.38682e-05 0
6.66304e-08 7.75236e-06 0
-1.87928e-07 4.87342e-06 0
3.77742e-05 9.56037e-07 0
-5.39556e-06 -1.45404e-05 0
5.29291e-06 1.19147e-05 0
-1.26018e-06 -1.45769e-05 0
1.54972e-06 3.54461e-07 0
9.20967e-06 4.09262e-06 0
1.89423e-05 1.60845e-05 0
2.87843e-05 -1.07006e-05 0
-5.82865e-06 1.86668e-05 0
1.20603e-05 -2.10876e-05 0
1.17643e-05 -2.9788e-05 0
-5.53393e-06 4.87842e-06 0
2.53919e-05 2.76765e-05 0
5.03967e-07 -2.19916e-05 0
-1.05749e-05 -2.67128e-05 0
-1.79659e-05 3.93784e-06 0
1.11874e-05 1.47906e-05 0
1.37324e-05 4.12753e-05 0
-9.02268e-06 -2.48281e-05 0
-2.13399e-05 -2.02769e-05 0
1.01855e-05 7.123e-06 0
-2.37148e-06 2.43037e-05 0
3.01953e-06 -4.20545e-07 0
2.96725e-05 -2.65119e-05 0
2.00022e-05 -2.40531e-06 0
8.4261e-06 2.44028e-05 0
-7.5474e-06 1.89987e-05 0
-7.07336e-06 1.47379e-05 0
5.35565e-06 4.16072e-05 0
-2.67648e-05 3.57973e-06 0
-1.99488e-05 -1.76146e-07 0
-2.65733e-06 7.61433e-06 0
2.55407e-06 -1.09317e-05 0
2.17993e-05 1.00935e-05 0
3.85428e-06 2.44912e-05 0
3.04658e-05 2.29287e-05 0
3.31248e-05 -1.03471e-07 0
-4.37093e-06 3.95639e-05 0
1.66195e-05 2.86291e-05 0
2.59251e-05 -1.7446e-05 0
8.76769e-06 5.66418e-06 0
-1.76963e-05 1.05747e-05 0
-1.03943e-06 -5.50899e-05 0
1.50062e-05 8.85409e-06 0
2.78275e-05 -1.96376e-05 0
-8.00079e-06 -1.3534e-05 0
3.96297e-05 -1.98491e-05 0
-9.35971e-06 -6.1594e-06 0
-2.19339e-05 2.62937e-06 0
3.2239e-05 2.78721e-05 0
1.84335e-05 -2.25457e-05 0
2.62735e-05 -2.49239e-06 0
-1.35625e-05 -2.15398e-05 0
1.65951e-05 2.97899e-06 0
7.3651e-06 -1.289e-05 0
1.15771e-05 -6.02951e-06 0
-1.09297e-05 -3.65583e-05 0
1.45705e-06 -5.56336e-06 0
1.54434e-05 4.06212e-05 0
2.61931e-05 1.10921e-05 0
-2.02979e-05 -1.56441e-05 0
2.64098e-05 -1.77367e-05 0
2.26884e-05 -1.66766e-05 0
2.82769e-06 -2.12231e-05 0
-5.79318e-07 -4.04036e-06 0
1.85028e-05 -6.39348e-06 0
-1.13912e-05 -2.07736e-05 0
1.25713e-05 -7.81067e-06 0
2.2868e-05 -8.47001e-06 0
3.18666e-06 -5.79671e-06 0
-1.90954e-05 -1.78078e-05 0
1.0219e-05 -3.41216e-05 0
-4.18618e-06 -3.84148e-05 0
-1.51682e-05 -5.27857e-06 0
1.45773e-05 -1.4947e-05 0
6.72901e-06 -9.24405e-06 0
-8.65144e-06 -1.67506e-05 0
9.78566e-06 -5.10818e-06 0
8.81548e-06 3.45404e-06 0
-5.56844e-06 6.37106e-06 0
-6.71974e-06 2.9872e-05 0
4.3345e-07 1.57497e-05 0
2.94463e-06 -2.77387e-05 0
-1.42273e-05 3.53668e-06 0
-1.97755e-05 2.10355e-06 0
-1.31015e-05 2.72564e-05 0
-2.98996e-05 -1.55398e-05 0
1.09815e-05 1.07539e-05 0
3.37163e-06 1.48705e-05 0
-1.58528e-05 9.92058e-06 0
-3.66202e-06 1.18868e-05 0
1.76195e-05 6.28591e-05 0
1.41575e-05 1.17074e-05 0
-1.21286e-07 4.90074e-05 0
2.09232e-05 1.02767e-05 0
-6.28343e-06 8.90938e-06 0
-2.28581e-05 -1.13724e-05 0
-9.32288e-06 -3.91554e-05 0
-2.52755e-05 1.39711e-05 0
1.51288e-05 5.94101e-05 0
-2.51404e-05 -1.20827e-05 0
8.66986e-06 2.76221e-05 0
-2.49977e-10 0 0
-1.42989e-05 1.98274e-05 0
2.4523e-06 1.2642e-05 0
7.40873e-06 1.30601e-05 0
7.72726e-06 1.10286e-05 0
-1.2431e-07 1.16853e-05 0
4.78681e-06 4.15262e-05 0
-1.88488e-05 1.12147e-05 0
-2.08943e-05 -5.96332e-06 0
-1.04515e-05 1.45397e-05 0
4.60337e-07 -1.22477e-05 0
1.2548e-06 2.34397e-05 0
-2.19023e-05 1.16436e-06 0
-2.62711e-06 1.2439e-05 0
6.53495e-06 6.29757e-06 0
1.21391e-05 1.9956e-05 0
-1.30923e-05 1.3704e-06 0
-8.59356e-07 -1.57641e-05 0
9.76826e-06 4.19363e-06 0
6.28174e-08 1.70134e-05 0
1.36299e-05 3.59403e-05 0
-1.62853e-06 2.11917e-05 0
4.67447e-07 -2.80276e-08 0
1.88067e-05 2.0129e-05 0
-7.25143e-06 8.21153e-06 0
1.1228e-05 2.08928e-05 0
1.49562e-05 3.47683e-05 0
6.71482e-06 1.71463e-05 0
-2.63992e-06 4.95819e-06 0
-7.24794e-06 2.15234e-05 0
-1.11799e-05 -4.42524e-06 0
-6.09428e-06 -9.46001e-06 0
-6.97206e-06 6.1585e-06 0
2.34676e-06 1.49877e-05 0
-3.12782e-05 2.33113e-05 0
6.13398e-07 1.6173e-05 0
-1.96778e-05 7.54006e-06 0
-1.94582e-05 1.74143e-05 0
-6.29848e-06 -5.76591e-06 0
6.25854e-06 -2.48199e-05 0
1.57808e-06 1.40332e-05 0
3.50732e-06 1.6271e-05 0
4.18231e-05 1.50477e-05 0
1.51336e-05 1.77398e-06 0
1.53844e-05 -5.67128e-06 0
-1.73719e-05 -1.69312e-05 0
2.65268e-05 -1.08362e-05 0
1.33813e-05 -2.95797e-05 0
2.60722e-05 -1.60948e-05 0
8.8475e-06 -4.03431e-05 0
-1.2098e-06 3.09022e-05 0
-1.37216e-05 -2.82445e-06 0
1.79038e-05 -4.77668e-05 0
7.22701e-05 1.07268e-05 0
3.39602e-06 -1.19662e-05 0
-8.17358e-07 6.16721e-06 0
3.02793e-05 5.90394e-06 0
8.5763e-06 -1.78985e-06 0
-7.76106e-06 -9.52883e-07 0
1.36183e-05 -2.75394e-05 0
1.95754e-05 -3.24502e-06 0
2.75705e-05 1.40152e-05 0
-8.13417e-06 -1.53128e-05 0
-8.50532e-06 8.28514e-06 0
1.11209e-07 9.54896e-06 0
1.00808e-13 1.24957e-10 0
2.64831e-05 -2.87376e-05 0
1.23486e-05 -1.49792e-05 0
2.36093e-05 -1.40733e-05 0
4.15678e-05 5.57482e-05 0
1.01848e-05 -6.44779e-06 0
1.15705e-05 1.45285e-05 0
2.2861e-05 1.41252e-06 0
-4.75052e-08 -2.68551e-06 0
-7.28306e-14 -2.18494e-10 0
2.4114e-13 -2.1881e-10 0
-1.04103e-05 6.31103e-06 0
7.58638e-06 2.17634e-05 0
-1.60362e-05 1.22728e-05 0
-3.09522e-06 -2.71312e-06 0
7.19001e-06 4.27483e-06 0
2.5755e-05 1.86305e-05 0
1.23975e-05 -8.61547e-07 0
1.35153e-06 1.43732e-05 0
-6.76247e-06 -1.13345e-05 0
-9.28011e-06 1.54627e-05 0
-3.34675e-06 -9.14849e-06 0
-4.92084e-06 8.60665e-06 0
-2.2185e-05 -2.50101e-05 0
3.04737e-06 -2.24472e-05 0
-4.63566e-07 -2.16729e-05 0
3.13878e-05 4.04849e-05 0
2.18027e-05 1.04006e-05 0
8.87776e-06 2.02231e-05 0
-3.00578e-07 1.00992e-05 0
2.00431e-06 -4.76045e-05 0
-3.87475e-06 -4.24542e-05 0
-1.72854e-05 -1.31654e-06 0
2.07364e-05 1.57948e-06 0
2.29967e-05 -1.16459e-05 0
-4.88738e-06 -1.59267e-05 0
2.13169e-05 -3.37576e-06 0
-3.84267e-06 -1.09795e-05 0
4.37488e-05 9.47181e-06 0
1.53664e-05 3.05869e-05 0
1.59077e-05 -6.63426e-06 0
-1.57422e-05 3.70347e-05 0
2.37772e-07 -1.85889e-06 0
-1.81074e-05 1.56557e-05 0
-1.62648e-05 8.71635e-06 0
8.86889e-06 -1.61675e-05 0
-4.08868e-06 -3.32967e-05 0
-9.49224e-06 -3.02419e-05 0
2.60406e-05 8.91927e-06 0
1.19921e-05 -4.23028e-06 0
1.21981e-05 2.18394e-05 0
-2.4307e-05 2.12421e-06 0
1.35562e-05 3.04322e-05 0
-2.0949e-05 -2.21553e-06 0
1.18642e-05 7.62565e-06 0
2.41749e-05 -2.27096e-05 0
-7.74886e-06 5.88711e-06 0
1.57395e-05 -1.62446e-05 0
2.27464e-05 -1.07916e-05 0
-8.11085e-06 -2.66471e-05 0
1.91124e-05 -6.20455e-06 0
3.16347e-05 2.65098e-05 0
7.83263e-06 1.83096e-05 0
-7.34377e-06 -3.20703e-05 0
-2.80886e-13 3.12844e-11 0
1.66958e-05 4.13637e-06 0
1.2348e-05 -2.34627e-08 0
1.27176e-05 -9.85762e-06 0
6.11838e-06 -1.65262e-06 0
-4.36299e-06 1.65275e-06 0
2.07718e-06 8.21578e-06 0
1.11319e-05 -2.71566e-05 0
-2.01212e-05 5.61932e-07 0
1.20117e-06 7.16403e-06 0
3.10659e-06 2.05507e-06 0
2.80811e-06 -1.5588e-05 0
1.84607e-05 -1.92049e-05 0
1.92875e-05 -4.3126e-05 0
-1.05493e-06 -1.27131e-05 0
7.1434e-06 9.95423e-06 0
1.65759e-05 1.60103e-05 0
-7.1372e-06 5.63303e-06 0
7.77553e-07 -1.21771e-05 0
1.95665e-05 -3.6962e-07 0
2.0517e-06 -3.21847e-05 0
2.32099e-05 -3.78899e-05 0
-3.47594e-06 -2.31194e-05 0
2.17249e-05 -3.18453e-05 0
2.2375e-05 1.52083e-05 0
-1.17203e-05 -1.3638e-05 0
2.54292e-05 1.8344e-05 0
3.11594e-05 5.12037e-06 0
-4.29541e-06 1.18064e-05 0
1.36061e-06 -4.78743e-06 0
-1.41153e-05 2.01144e-05 0
2.12339e-05 4.98824e-05 0
8.46062e-06 -2.97057e-05 0
1.92326e-05 -1.40505e-05 0
1.31575e-05 -8.91896e-06 0
9.59219e-06 -2.3427e-06 0
3.98552e-05 1.78023e-05 0
-5.75281e-06 -2.20871e-05 0
2.98315e-05 7.19093e-06 0
-1.33729e-07 -8.75788e-07 0
1.76932e-05 -2.63e-06 0
2.69342e-06 -1.9147e-05 0
4.4865e-06 3.08291e-05 0
6.88686e-06 6.82059e-06 0
-7.87274e-06 -2.66815e-05 0
8.49062e-06 4.9717e-06 0
2.51039e-05 9.07106e-06 0
6.6109e-06 -2.27092e-05 0
-1.40905e-05 -1.15903e-05 0
1.85626e-05 9.18797e-06 0
1.92698e-05 1.09293e-05 0
4.96357e-06 -1.61372e-05 0
9.98102e-07 4.14944e-05 0
4.48818e-06 -1.10224e-05 0
-2.44713e-06 1.69073e-06 0
-2.09928e-08 5.65615e-06 0
8.62258e-06 1.49689e-05 0
6.81429e-07 -1.25375e-05 0
-3.79883e-05 -1.27882e-05 0
1.17558e-05 -2.92696e-06 0
1.19308e-05 -3.63044e-05 0
3.04295e-06 7.51716e-06 0
3.0281e-05 3.15395e-05 0
3.86484e-05 1.59177e-05 0
3.98563e-06 -2.31767e-06 0
4.94757e-06 -2.64503e-05 0
-1.82812e-06 -2.05433e-05 0
1.30494e-05 7.93865e-06 0
-4.20794e-06 -1.63358e-05 0
2.15163e-05 1.94557e-05 0
8.51152e-06 2.39485e-06 0
4.55777e-06 3.55683e-05 0
-6.64748e-06 9.41087e-06 0
1.4047e-06 -3.67919e-07 0
-1.13702e-05 -1.95259e-06 0
-7.48167e-06 -8.76917e-06 0
-2.54801e-06 -1.78399e-05 0
6.98878e-06 5.33737e-05 0
-1.12892e-05 1.3859e-05 0
9.21464e-06 -2.13522e-05 0
4.21636e-06 1.68306e-05 0
2.11264e-06 1.67875e-05 0
-5.32371e-06 8.63076e-06 0
-9.44356e-07 2.47464e-06 0
-1.85925e-06 1.24804e-05 0
-6.75535e-06 1.12831e-05 0
2.17221e-05 1.67618e-05 0
-2.50146e-10 0 0
-2.55306e-07 4.84537e-05 0
7.79246e-06 4.99203e-05 0
-5.05521e-06 2.03097e-05 0
-3.12895e-10 0 0
3.24585e-05 4.09775e-05 0
-7.54017e-07 2.14594e-05 0
-5.56079e-06 3.01463e-05 0
-8.60728e-06 1.497e-05 0
-2.58304e-05 -9.00428e-07 0
-1.02579e-05 2.92973e-05 0
-1.58023e-05 3.1708e-05 0
-2.04693e-05 -6.38194e-06 0
-8.50619e-06 4.60405e-05 0
1.40075e-05 5.70032e-05 0
-2.97185e-06 4.03391e-05 0
1.66718e-05 4.81365e-05 0
8.13215e-06 -4.48599e-06 0
-2.01981e-05 1.27859e-05 0
9.91e-06 3.47835e-05 0
-1.48722e-05 1.6578e-05 0
-2.84233e-06 4.78979e-05 0
-3.86878e-06 1.06046e-05 0
-3.43848e-06 1.6421e-05 0
-1.50079e-06 1.61218e-06 0
-2.50098e-10 0 0
-6.9752e-06 -1.12706e-05 0
-7.37732e-06 4.2155e-05 0
-3.14563e-07 3.89652e-05 0
-1.14636e-06 8.93676e-06 0
1.87517e-10 0 0
-2.50352e-10 0 0
-8.8924e-06 1.76497e-05 0
-1.28933e-05 -3.13693e-06 0
-9.43151e-06 5.86801e-06 0
-9.53145e-06 4.50656e-05 0
-3.12567e-10 0 0
6.83745e-06 2.87519e-05 0
1.87401e-10 0 0
1.14075e-05 3.88339e-06 0
-3.12188e-10 0 0
6.2052e-06 -1.16244e-05 0
2.37507e-06 2.34839e-05 0
-3.12232e-10 0 0
-4.09965e-06 2.41519e-06 0
1.87795e-10 0 0
-1.39636e-05 6.91053e-06 0
1.0623e-06 1.87758e-06 0
1.87725e-10 0 0
-1.38235e-05 -7.39534e-06 0
-3.12588e-10 0 0
1.37154e-05 4.3395e-06 0
-1.405e-05 4.1224e-05 0
3.54848e-05 4.43196e-05 0
-5.33412e-06 1.42143e-05 0
-1.95409e-05 -8.53344e-06 0
-1.67893e-05 -5.32047e-06 0
7.04274e-06 -4.14424e-06 0
-3.3635e-06 3.26672e-05 0
-5.21303e-06 -3.00773e-05 0
1.70698e-05 -4.25625e-06 0
2.03724e-05 7.03349e-07 0
-2.69021e-07 1.09194e-05 0
-2.60609e-05 -2.27755e-05 0
-1.35858e-05 -1.04145e-06 0
-3.5032e-06 1.63762e-05 0
1.22027e-05 1.92957e-05 0
-2.66275e-05 1.53494e-05 0
-1.0827e-05 1.65791e-05 0
3.57687e-05 -3.24385e-06 0
1.1153e-05 7.08923e-06 0
-2.39519e-06 1.54193e-05 0
-3.35578e-06 1.05526e-05 0
1.05811e-05 3.46875e-06 0
2.0619e-05 4.68005e-05 0
5.40902e-07 1.99494e-06 0
-8.79918e-07 -1.93994e-06 0
-2.71389e-05 -2.4435e-05 0
-1.60816e-05 4.82141e-06 0
-2.46345e-05 1.26161e-05 0
7.4795e-06 5.47276e-05 0
5.40484e-05 1.90406e-05 0
-1.38991e-05 -2.26709e-06 0
-2.24646e-05 -2.32535e-05 0
4.81813e-06 -6.44089e-06 0
6.1092e-06 2.02385e-06 0
2.26053e-05 1.62308e-05 0
-1.18182e-05 7.22532e-09 0
-2.12345e-05 3.01467e-05 0
-8.90082e-06 9.15817e-06 0
-4.44028e-06 1.03845e-05 0
9.35699e-06 -2.38826e-06 0
-2.61548e-05 1.68661e-05 0
-2.20902e-05 2.53251e-06 0
2.87497e-05 -5.27935e-06 0
-1.05225e-05 6.37953e-06 0
1.85627e-06 -4.77212e-06 0
-1.68546e-05 3.44536e-05 0
3.10034e-07 1.7546e-07 0
2.1634e-05 3.33281e-05 0
7.85588e-06 -1.0314e-05 0
-1.5039e-05 5.50204e-05 0
1.94035e-06 8.04863e-06 0
3.84411e-05 1.42789e-05 0
-2.44981e-05 -1.55956e-05 0
-6.70191e-06 2.42284e-05 0
-1.68227e-05 1.06299e-05 0
2.971e-06 4.2679e-05 0
-8.00877e-06 2.57553e-05 0
-6.51666e-07 -1.4436e-05 0
-1.60005e-05 3.73327e-06 0
-1.18449e-05 1.47972e-05 0
2.37226e-05 2.94405e-06 0
-2.87175e-06 -3.37808e-05 0
1.8433e-05 1.65487e-05 0
1.17892e-05 -1.21586e-05 0
-3.21635e-05 -4.17151e-06 0
2.3383e-05 9.9538e-05 0
-3.29554e-06 -4.54452e-06 0
2.99407e-06 1.58033e-05 0
4.52259e-06 2.08605e-05 0
-1.64283e-06 -1.69125e-05 0
9.11999e-06 2.15366e-05 0
-2.432e-05 -3.32695e-05 0
-1.01955e-05 1.59407e-05 0
-1.32231e-06 6.10668e-06 0
-1.6709e-05 2.12442e-05 0
-3.02541e-05 8.74421e-07 0
-2.15012e-05 -3.85495e-05 0
2.18157e-05 1.33345e-05 0
1.09883e-05 -2.01121e-05 0
6.06418e-08 -2.24028e-05 0
7.02728e-06 -4.44424e-06 0
-3.19874e-06 -8.11029e-06 0
-1.1371e-05 -1.76491e-06 0
-7.98071e-06 6.18546e-07 0
6.13268e-06 -3.68895e-06 0
-2.315e-05 -1.23483e-05 0
-5.82446e-06 1.51395e-05 0
7.21964e-06 1.46737e-05 0
-6.70738e-07 -8.45989e-06 0
4.82933e-06 -1.06601e-05 0
-6.61911e-06 -9.14327e-06 0
2.2116e-05 -1.21655e-05 0
-1.17503e-05 2.13469e-05 0
-6.12428e-06 -3.90414e-06 0
4.55771e-06 -6.62168e-06 0
-1.75184e-05 -6.14758e-06 0
1.76813e-05 -9.27489e-06 0
-1.14599e-05 -3.71503e-05 0
6.40285e-06 -5.10759e-06 0
-2.61595e-06 -7.70172e-06 0
6.95263e-08 -1.17458e-05 0
-5.08168e-06 -8.23225e-06 0
-1.81806e-05 -2.43586e-05 0
1.6283e-05 -5.04023e-06 0
5.70421e-06 1.81121e-06 0
-1.53785e-05 1.99611e-05 0
-7.27434e-06 2.93856e-05 0
1.15231e-06 -2.05748e-05 0
-1.71132e-05 1.21492e-07 0
-9.96646e-06 1.81632e-06 0
-2.40434e-05 -4.07389e-05 0
9.27301e-06 -1.93198e-05 0
4.32295e-05 2.79843e-05 0
1.94559e-05 2.46403e-05 0
6.11192e-06 -1.69424e-06 0
-3.95256e-06 5.78025e-06 0
-4.52107e-06 -1.74815e-05 0
1.28111e-05 8.23844e-06 0
-7.30394e-06 3.5014e-06 0
-1.13323e-05 6.97214e-06 0
-9.78971e-06 -2.25002e-05 0
-2.07641e-05 -1.79593e-05 0
-1.90327e-05 2.0066e-05 0
6.49003e-06 8.35543e-07 0
1.10997e-05 9.2845e-06 0
-1.33867e-05 4.44669e-06 0
8.40344e-06 -3.35341e-07 0
-3.77023e-06 1.21204e-05 0
-3.23336e-06 -1.51928e-05 0
-4.01558e-06 2.84506e-05 0
-1.28701e-05 -4.62582e-05 0
8.22398e-06 4.51599e-05 0
-1.64917e-06 -1.32161e-05 0
-1.43844e-05 -3.32694e-05 0
2.95396e-06 -2.1523e-06 0
-1.55877e-05 -5.3828e-06 0
2.78854e-05 7.11426e-05 0
-9.99984e-06 4.35587e-05 0
-6.13814e-06 3.39637e-05 0
-1.43218e-05 3.6769e-06 0
-1.20665e-05 -9.82267e-06 0
-1.32845e-05 1.44509e-05 0
3.2527e-08 7.8245e-06 0
-2.81275e-05 -4.01001e-05 0
-1.99802e-05 -1.5625e-06 0
8.92951e-06 -2.1589e-06 0
2.48838e-05 2.12289e-05 0
-2.67181e-05 -6.43361e-07 0
2.15487e-06 8.22871e-06 0
9.96615e-06 2.91818e-05 0
-4.46545e-07 -6.31336e-07 0
-3.29631e-06 -1.8966e-05 0
-1.83119e-05 -1.11071e-05 0
-7.24177e-06 1.79546e-06 0
-1.12805e-05 1.869e-05 0
1.30293e-05 -1.06615e-05 0
-1.9055e-05 -4.23909e-06 0
5.0712e-06 -1.22233e-05 0
-1.53134e-05 8.52382e-07 0
7.75034e-06 1.90177e-05 0
7.9985e-06 -5.18103e-06 0
8.29656e-06 -1.61468e-05 0
-2.05369e-05 3.94586e-05 0
-1.9722e-05 -1.68574e-05 0
-1.53231e-05 -2.16423e-05 0
1.35544e-05 1.12488e-05 0
-9.90899e-06 -1.01224e-07 0
-1.99698e-05 -3.5985e-05 0
-1.18087e-05 -5.20672e-07 0
-2.6606e-05 -2.96623e-06 0
1.8619e-05 4.4652e-05 0
-1.57289e-05 -1.52382e-05 0
-1.1715e-05 -2.54889e-05 0
-1.3303e-05 -3.59548e-06 0
2.53278e-05 -2.56608e-06 0
-2.84002e-05 2.06439e-06 0
3.90571e-06 5.83424e-06 0
1.10627e-05 -1.09556e-05 0
-1.17524e-05 2.611e-05 0
8.64337e-07 -3.93323e-05 0
-1.25025e-05 -3.2243e-06 0
-1.32036e-05 2.62637e-05 0
-2.61356e-05 -4.57026e-06 0
2.89235e-07 8.80087e-06 0
4.57583e-06 -1.39975e-05 0
6.83728e-06 2.97413e-06 0
-3.05666e-06 -1.35432e-05 0
-1.55509e-05 -3.60498e-06 0
-3.91492e-06 1.98366e-05 0
-1.0777e-06 -7.16673e-07 0
-1.67741e-05 -2.09764e-05 0
-1.45044e-06 3.09977e-06 0
-3.84246e-06 -8.08004e-06 0
1.19307e-06 4.8055e-06 0
-5.68869e-06 8.19273e-06 0
1.32403e-06 -1.63683e-05 0
2.37843e-05 1.03379e-05 0
1.28e-05 1.41169e-05 0
-1.45099e-05 -2.1889e-05 0
3.55562e-05 -1.91223e-06 0
-3.81016e-06 -8.78355e-06 0
-2.6338e-08 -2.85561e-05 0
1.3167e-05 1.47894e-05 0
-1.53464e-05 3.03296e-05 0
6.42547e-06 -6.03348e-06 0
-1.04257e-05 3.0533e-05 0
-3.33233e-06 -1.39548e-05 0
-4.66781e-06 8.98278e-06 0
1.7683e-05 -1.57056e-05 0
-1.17733e-07 4.23459e-06 0
1.81278e-05 6.50306e-06 0
1.02238e-06 9.42733e-06 0
-1.8455e-05 -2.03277e-05 0
1.55493e-05 5.76144e-06 0
-4.02843e-06 1.62994e-05 0
1.94182e-05 -1.70988e-06 0
-1.22741e-05 3.45173e-05 0
1.11476e-05 8.9414e-06 0
-6.70348e-06 -1.91936e-05 0
-1.97412e-05 -2.34066e-05 0
7.38615e-06 -2.36141e-06 0
-1.31269e-05 -2.19622e-05 0
1.49233e-05 7.96337e-06 0
6.87105e-06 9.24843e-07 0
-1.00042e-05 -1.65642e-05 0
-3.04178e-06 -3.75396e-06 0
-7.21667e-06 -1.07513e-05 0
-4.43878e-06 7.70251e-06 0
-1.33949e-05 -1.65876e-05 0
-1.39629e-05 -6.47626e-06 0
2.50488e-05 1.52615e-08 0
2.08429e-06 1.44673e-05 0
-1.00064e-05 1.31072e-05 0
-4.34013e-06 -1.86329e-05 0
3.53842e-06 -6.37068e-06 0
3.2142e-06 -2.19513e-05 0
1.09242e-05 1.01113e-05 0
5.24578e-06 3.47659e-05 0
-1.16496e-05 1.16184e-05 0
8.02523e-06 -4.52953e-06 0
-1.11193e-05 -1.70314e-05 0
-1.35922e-05 -2.92595e-05 0
2.21172e-05 1.94173e-05 0
-7.90203e-06 -2.76722e-05 0
-4.30811e-06 -2.04446e-05 0
2.52329e-05 -7.39634e-06 0
1.07991e-05 -1.56296e-05 0
-4.30526e-06 1.07631e-06 0
1.18932e-06 3.84871e-06 0
-2.12959e-05 -1.44071e-05 0
7.85774e-06 -6.21999e-06 0
-6.72538e-06 -5.03639e-07 0
-6.30592e-06 -2.2557e-05 0
1.67443e-05 -1.95714e-05 0
-1.07017e-06 9.79411e-06 0
-2.4441e-05 4.33871e-06 0
-2.052e-05 7.9044e-06 0
1.09366e-06 2.35439e-05 0
1.24105e-05 1.90924e-05 0
-8.42605e-06 -2.05408e-05 0
-4.58524e-06 -1.59754e-05 0
4.62868e-06 3.14627e-05 0
2.83413e-05 2.07144e-06 0
2.46077e-05 8.20046e-06 0
-2.0411e-05 1.55324e-05 0
-4.50136e-06 -7.09604e-06 0
3.02878e-06 -1.5616e-06 0
1.21842e-05 -1.06733e-06 0
1.82071e-05 1.33762e-05 0
-4.85503e-06 3.3513e-05 0
1.19727e-05 1.02413e-06 0
-1.55026e-05 -1.20864e-05 0
1.66586e-05 -1.60531e-05 0
-3.33215e-05 -1.34481e-05 0
1.71527e-06 -1.34017e-05 0
3.7345e-06 1.9556e-05 0
-9.55467e-07 1.65496e-05 0
-1.19371e-05 -1.93448e-05 0
1.17039e-05 -4.62848e-05 0
1.26285e-05 1.3274e-05 0
-3.06144e-05 -1.09245e-05 0
-1.21327e-05 9.44424e-06 0
1.84804e-05 -2.16177e-06 0
1.32566e-05 -7.89627e-07 0
-1.33766e-05 -1.09694e-06 0
2.02952e-05 5.85614e-05 0
8.03102e-06 -2.87977e-05 0
-3.0034e-05 -1.47142e-05 0
7.22423e-06 9.55861e-06 0
1.00053e-05 -1.22349e-05 0
3.02403e-05 -3.32182e-05 0
-2.67357e-05 9.15593e-06 0
-4.72647e-06 -2.84479e-05 0
-5.54349e-06 3.52872e-06 0
-9.80839e-06 -2.14498e-05 0
2.2011e-05 -2.44531e-05 0
2.15557e-05 6.99364e-06 0
-1.27536e-05 -1.79313e-05 0
1.26205e-05 1.37017e-05 0
2.01079e-05 4.03667e-06 0
-1.37129e-06 -2.06419e-05 0
-2.0642e-05 -9.81495e-06 0
3.04579e-06 1.68937e-05 0
4.16036e-06 2.57117e-06 0
7.52053e-06 -2.54746e-05 0
2.1734e-05 -2.40476e-05 0
2.29652e-06 -1.99139e-05 0
-1.01827e-05 4.55125e-05 0
-4.92959e-06 -5.96839e-06 0
-1.96636e-06 -2.68326e-05 0
9.07536e-06 -2.63736e-05 0
-7.00341e-06 -2.4173e-05 0
2.70116e-06 -1.94066e-05 0
2.98363e-05 -2.26361e-05 0
5.19442e-06 1.17233e-05 0
-2.91746e-07 -7.73459e-06 0
3.90862e-05 3.31156e-05 0
-1.67224e-05 -1.36214e-06 0
8.62502e-06 4.42002e-06 0
-1.70685e-05 2.18415e-05 0
2.91921e-05 3.34162e-05 0
2.89254e-05 1.61563e-06 0
4.6491e-06 1.66535e-05 0
-4.05559e-06 -1.46967e-05 0
-9.37222e-06 1.0185e-05 0
3.73676e-05 5.28603e-05 0
-3.67583e-06 -1.14429e-05 0
2.26687e-06 1.44727e-05 0
-8.78214e-07 1.6335e-05 0
1.17668e-05 -2.25263e-06 0
1.012e-05 1.99854e-05 0
1.65197e-05 -2.31868e-05 0
2.05234e-05 5.15451e-06 0
-4.48742e-06 1.4934e-05 0
1.34778e-05 -7.08899e-06 0
1.91488e-05 -4.45263e-06 0
-6.24827e-06 3.01975e-06 0
8.86661e-06 6.41174e-06 0
1.22175e-06 3.10648e-05 0
6.9812e-06 2.46962e-05 0
1.92709e-05 1.05258e-05 0
1.04814e-05 6.72982e-07 0
1.59053e-05 1.77018e-05 0
6.10399e-06 5.68596e-06 0
6.71762e-06 2.86244e-06 0
8.27017e-06 9.43874e-06 0
1.0156e-05 1.33897e-06 0
2.37608e-05 4.24114e-05 0
7.47371e-06 1.0631e-05 0
2.14918e-05 1.95402e-05 0
-1.48042e-05 7.10779e-06 0
-1.00514e-05 1.41637e-05 0
2.38073e-05 5.25699e-06 0
1.08163e-06 -1.0336e-05 0
-7.63842e-06 -1.30083e-05 0
-1.74181e-05 -1.50817e-05 0
-7.99955e-06 1.18298e-05 0
3.76585e-05 1.04669e-05 0
-1.35348e-05 2.36319e-06 0
8.31923e-06 3.32569e-05 0
4.11394e-06 1.84091e-05 0
4.84906e-05 3.74834e-05 0
7.52224e-06 -1.13571e-05 0
-7.03911e-06 -1.38659e-05 0
-7.00044e-06 -1.37921e-05 0
1.08538e-05 1.21224e-05 0
2.7083e-06 1.35017e-06 0
-1.61463e-05 -2.31387e-06 0
-2.85107e-05 -2.61896e-05 0
1.70446e-05 -2.23695e-05 0
-8.86157e-06 -1.31322e-06 0
1.64137e-05 1.31698e-05 0
-1.32522e-06 -1.94805e-05 0
-1.36619e-05 2.65652e-05 0
-1.74009e-05 -5.11984e-05 0
3.32472e-05 9.45168e-06 0
1.76995e-05 4.75501e-06 0
6.90309e-06 -3.12606e-05 0
9.5244e-06 -1.07366e-05 0
-1.08909e-05 1.58218e-05 0
-1.27807e-05 2.37917e-05 0
1.38041e-05 -5.79419e-06 0
-9.87049e-06 -1.7032e-05 0
2.73228e-05 -4.07408e-06 0
-1.1889e-05 -5.04382e-06 0
2.34627e-06 4.44137e-05 0
6.15544e-06 1.16122e-05 0
1.64721e-05 -4.86095e-06 0
1.28011e-05 9.18185e-06 0
-4.58486e-06 -1.17926e-05 0
-1.35042e-05 -1.01227e-05 0
1.19348e-05 -1.5249e-05 0
-3.44431e-05 1.33782e-05 0
-1.6819e-05 2.3852e-05 0
-8.02572e-06 -6.64387e-06 0
-1.98149e-06 -2.7881e-06 0
-4.40356e-06 1.9045e-06 0
-1.59732e-06 -7.75857e-06 0
-1.18865e-05 1.60783e-05 0
-1.57782e-05 1.02929e-05 0
-8.92474e-06 1.3746e-05 0
-8.43867e-06 -1.15739e-05 0
1.31759e-05 2.9482e-05 0
1.39284e-05 2.73337e-05 0
1.37657e-05 7.62278e-06 0
1.61842e-05 2.82477e-05 0
1.83631e-05 1.84091e-05 0
2.49205e-05 2.47008e-05 0
1.52923e-05 9.86591e-07 0
7.20798e-06 1.11882e-05 0
4.11053e-05 -4.29895e-06 0
-1.48555e-06 7.80071e-06 0
1.83118e-05 -7.62385e-06 0
1.37551e-05 1.87358e-05 0
-1.00563e-05 1.37712e-05 0
3.16062e-05 -4.63441e-06 0
-1.4151e-05 1.36829e-05 0
2.71051e-05 -2.45706e-05 0
1.59343e-05 -1.28713e-06 0
1.48844e-05 2.69178e-05 0
6.55378e-06 1.14766e-05 0
-3.06994e-06 -7.07743e-06 0
-9.7046e-06 -1.30601e-05 0
1.30406e-05 4.18394e-06 0
-2.7919e-06 -7.33563e-06 0
1.13209e-05 1.3553e-05 0
4.85612e-06 1.40881e-05 0
2.56868e-06 4.08493e-05 0
1.91773e-05 2.16458e-05 0
6.09211e-06 3.58203e-05 0
6.80642e-07 5.29514e-05 0
-3.19341e-05 -1.7213e-05 0
-1.04084e-05 2.03579e-05 0
7.42746e-06 1.31616e-05 0
-2.40436e-05 -9.35988e-07 0
-3.43853e-07 4.09867e-05 0
1.33225e-05 4.00607e-05 0
-1.4643e-05 -9.95292e-06 0
-8.78323e-06 7.34574e-06 0
-3.91139e-06 -6.86977e-06 0
1.6515e-05 6.16313e-06 0
-2.23591e-05 3.43225e-05 0
6.58115e-06 1.34365e-05 0
1.21645e-05 1.34857e-06 0
-1.085e-06 -2.85503e-06 0
6.99621e-06 -2.20636e-05 0
2.86493e-06 2.01717e-05 0
1.6191e-06 -3.49346e-06 0
-8.88576e-06 4.5636e-05 0
6.44744e-06 1.34196e-06 0
-2.03723e-06 5.81767e-06 0
-1.57818e-05 1.90195e-05 0
5.21666e-14 0 0
8.31401e-06 1.79189e-05 0
1.98057e-06 2.59375e-05 0
-2.15493e-05 2.77321e-05 0
5.33032e-06 2.42543e-06 0
2.69105e-06 1.12437e-05 0
8.01711e-07 4.3816e-05 0
1.59857e-05 -7.65661e-06 0
-1.57181e-05 -1.25537e-05 0
4.3667e-06 -8.38538e-06 0
8.73222e-06 1.79188e-05 0
-1.51804e-05 2.12743e-05 0
9.17552e-07 5.03283e-06 0
-9.29801e-06 -9.97711e-08 0
-4.13513e-06 9.93714e-06 0
-9.9589e-06 8.34219e-06 0
7.39443e-06 4.69254e-05 0
1.42904e-06 -8.71388e-06 0
-2.50023e-10 0 0
3.55669e-06 8.00742e-06 0
-1.95323e-05 3.06e-05 0
9.3043e-07 4.94098e-05 0
1.30048e-06 1.83875e-05 0
3.07723e-06 1.79269e-05 0
-2.22021e-05 -1.40985e-05 0
-6.53217e-06 -2.59773e-05 0
-1.04276e-05 6.23523e-05 0
-9.39976e-06 1.97918e-05 0
-3.12494e-10 0 0
-2.30188e-05 1.44445e-05 0
3.48294e-07 1.20099e-05 0
-1.33625e-05 1.47847e-05 0
1.60132e-05 2.22666e-05 0
-1.52644e-05 1.12534e-05 0
-8.76326e-06 1.74634e-06 0
-1.47105e-15 0 0
-1.20775e-05 4.95075e-05 0
-2.49988e-10 0 0
-1.393e-05 3.53969e-05 0
-1.80821e-05 -8.28322e-06 0
-8.06362e-06 3.01408e-05 0
2.31709e-05 3.19609e-06 0
4.28202e-05 1.42182e-05 0
-4.06554e-05 2.46064e-06 0
3.34282e-06 3.58079e-05 0
1.87516e-10 0 0
-2.49993e-10 0 0
-7.15885e-06 -5.38927e-06 0
-1.84761e-05 1.64988e-05 0
7.10473e-06 1.6076e-05 0
1.87466e-10 0 0
-1.03739e-05 4.97026e-05 0
-5.09339e-06 2.26305e-05 0
-1.47139e-05 6.18648e-05 0
-3.94041e-06 4.16959e-05 0
3.63199e-05 2.61445e-05 0
3.68114e-06 1.66483e-06 0
1.36681e-06 2.18499e-05 0
2.37692e-05 4.99983e-05 0
2.17315e-05 6.82582e-05 0
1.87452e-10 0 0
4.47085e-06 2.38046e-05 0
-3.12411e-10 0 0
-2.50028e-10 0 0
3.47187e-06 5.21856e-05 0
-3.51252e-06 -3.09693e-06 0
4.4145e-06 -8.69556e-08 0
1.14794e-06 -3.25397e-06 0
1.61468e-05 6.33329e-06 0
2.90759e-05 -1.90474e-05 0
2.32215e-07 -2.95464e-05 0
1.69068e-05 -1.39181e-05 0
4.20373e-05 -1.27186e-05 0
1.004e-05 2.36048e-06 0
-3.30846e-13 -4.68696e-10 0
3.06632e-05 -1.72077e-05 0
-3.62244e-06 1.2446e-05 0
-1.21902e-13 -4.68702e-10 0
6.38398e-06 -2.97597e-05 0
1.45408e-05 -2.49797e-05 0
1.6187e-05 -9.03486e-06 0
8.49739e-06 1.81775e-05 0
1.41005e-05 -2.8468e-05 0
3.87957e-06 -2.74164e-05 0
1.65704e-06 -2.12973e-05 0
8.542e-06 -2.31157e-05 0
2.21025e-05 1.66404e-05 0
2.18978e-05 -1.87601e-05 0
2.73115e-13 -2.18755e-10 0
2.6251e-05 4.75358e-05 0
1.60226e-05 -1.71241e-05 0
2.39485e-05 1.63423e-05 0
-2.59126e-13 1.24934e-10 0
4.46155e-06 -3.40333e-05 0
6.61693e-14 2.81231e-10 0
2.59113e-05 1.5451e-05 0
-9.81029e-06 -2.54643e-06 0
2.56738e-06 1.29507e-06 0
2.40724e-05 1.65574e-06 0
5.7028e-06 8.58135e-06 0
2.40688e-05 -4.26303e-06 0
3.73052e-06 -1.95705e-05 0
3.89775e-05 3.13882e-05 0
3.62101e-05 -2.54882e-05 0
1.46822e-05 -2.45106e-05 0
-3.94943e-06 9.78957e-06 0
5.03992e-06 7.92993e-06 0
9.88319e-06 7.11949e-06 0
1.74752e-05 -1.76113e-05 0
1.99902e-05 -2.98585e-08 0
6.46578e-05 2.12621e-05 0
3.11944e-05 2.85067e-06 0
-4.11267e-06 -4.86953e-06 0
1.7047e-05 -1.55678e-05 0
-9.86854e-06 2.0701e-05 0
1.8932e-05 -1.1992e-05 0
-7.51382e-06 -5.00059e-06 0
-2.26763e-05 2.74592e-06 0
-5.26515e-06 4.00915e-05 0
1.78587e-05 -1.03896e-05 0
1.14506e-06 1.16943e-05 0
2.1061e-06 8.62084e-06 0
1.51296e-05 1.62223e-05 0
1.95085e-05 1.09851e-05 0
-7.7462e-06 -8.38007e-06 0
-2.72414e-05 -7.66436e-06 0
2.36105e-05 -2.89375e-05 0
-2.54369e-06 -2.07172e-05 0
2.08744e-05 -2.77719e-06 0
9.88027e-06 -1.98317e-05 0
1.3605e-05 -8.25633e-06 0
1.64083e-05 -5.08771e-06 0
-1.20023e-05 -1.44411e-05 0
2.52521e-05 -2.84489e-05 0
1.20529e-06 -9.13504e-06 0
-1.65262e-05 -7.61585e-06 0
3.26957e-05 -1.66511e-07 0
-7.15648e-06 5.36326e-06 0
1.84976e-05 4.24409e-06 0
4.87742e-06 -1.34852e-05 0
1.77469e-05 -4.3142e-06 0
-1.86504e-05 -2.18351e-05 0
2.48681e-05 -4.05793e-05 0
-1.85187e-05 2.18056e-05 0
-4.89053e-06 1.16522e-05 0
-4.66528e-06 -9.45719e-06 0
1.51912e-05 -8.05329e-06 0
-9.78378e-07 8.99221e-06 0
1.28163e-06 -3.79961e-05 0
-7.09607e-06 -1.66046e-05 0
-1.44483e-05 -1.15357e-05 0
1.00694e-05 5.17989e-06 0
-1.68015e-06 4.04963e-06 0
1.67556e-05 2.75934e-05 0
5.88919e-06 2.21354e-05 0
-3.50052e-06 9.97928e-06 0
4.42343e-06 2.20546e-05 0
1.55176e-05 1.78503e-05 0
3.22301e-07 -2.94919e-06 0
-4.5225e-06 -1.28036e-06 0
7.14432e-07 6.44358e-06 0
2.45466e-06 -4.16005e-06 0
1.67249e-05 -4.08452e-06 0
-1.42257e-05 -8.85194e-06 0
1.30235e-06 2.02357e-05 0
-5.77135e-06 3.15619e-07 0
1.34331e-05 3.00589e-05 0
-1.22218e-05 6.38866e-06 0
1.31322e-05 4.34986e-06 0
2.13168e-06 -6.87231e-06 0
1.3015e-05 -3.00892e-05 0
8.44001e-07 3.19002e-05 0
-1.40398e-05 -1.35647e-05 0
1.68343e-05 1.3188e-05 0
1.30747e-05 1.06647e-05 0
1.41704e-05 -9.67182e-06 0
4.52127e-06 -1.8039e-05 0
8.19377e-06 -1.32023e-06 0
1.73727e-06 -3.69179e-05 0
-7.16597e-06 -3.51486e-05 0
2.13223e-05 -9.18035e-06 0
2.39443e-05 -3.05869e-06 0
-2.04768e-06 2.74431e-05 0
-1.68298e-05 -1.39236e-05 0
2.52265e-05 1.39442e-05 0
2.9575e-06 1.39047e-05 0
-5.85121e-06 -6.12403e-06 0
5.82268e-06 -5.03143e-06 0
1.17821e-05 -3.01017e-05 0
-6.05154e-06 -8.171e-06 0
1.3164e-05 -1.00819e-05 0
-4.45563e-06 2.80125e-05 0
3.44241e-05 3.75688e-06 0
-4.08303e-06 6.91511e-06 0
3.27514e-07 2.0266e-05 0
1.06348e-05 -2.64654e-05 0
1.74343e-05 2.75021e-05 0
3.48929e-06 -3.74601e-06 0
-1.00203e-05 1.14512e-05 0
1.17242e-05 -3.18557e-05 0
6.57264e-06 7.46601e-06 0
-5.44212e-06 -1.81403e-05 0
-3.03567e-07 -3.27494e-05 0
1.69869e-05 -1.03477e-05 0
-7.12347e-06 5.73506e-06 0
-1.28158e-05 -1.87237e-05 0
-1.22215e-07 -4.87981e-06 0
-5.04693e-06 -5.67526e-06 0
-6.3866e-07 -2.37441e-05 0
1.86684e-06 4.02571e-05 0
1.83961e-06 -2.70802e-05 0
-5.09136e-06 -3.75645e-06 0
1.49834e-05 -6.21709e-06 0
4.29195e-06 -1.40081e-05 0
2.9548e-05 -2.60003e-05 0
2.83923e-05 1.48269e-05 0
2.25614e-05 6.13102e-06 0
8.79163e-06 -1.80668e-05 0
1.79636e-05 1.39279e-05 0
-2.0157e-05 -4.3294e-05 0
1.41641e-05 -1.41545e-05 0
-2.59798e-06 -7.61402e-06 0
4.47952e-05 7.28376e-06 0
3.46058e-06 1.02742e-05 0
1.475e-05 -2.0877e-05 0
-6.81954e-06 -1.16147e-05 0
-9.7552e-06 7.67589e-06 0
-5.02555e-06 4.27812e-06 0
1.81246e-05 -1.22502e-05 0
1.01549e-05 -1.23702e-05 0
2.36104e-05 -2.22866e-05 0
-6.19176e-06 -4.98936e-05 0
3.45057e-13 1.24999e-10 0
-4.86103e-07 1.18636e-05 0
-5.36712e-06 -2.3953e-05 0
3.21834e-05 8.20602e-06 0
5.33861e-07 -6.37299e-06 0
-1.78667e-05 6.30865e-06 0
3.85015e-05 1.00768e-05 0
-3.15303e-14 -4.6874e-10 0
3.75699e-13 -2.18755e-10 0
6.01325e-06 -2.18877e-05 0
-3.55661e-06 -2.15064e-05 0
-7.89241e-06 -2.49573e-05 0
-9.62668e-06 -8.69339e-06 0
5.4735e-06 -2.57588e-05 0
-2.27435e-05 1.02785e-05 0
-2.55723e-05 -5.88329e-06 0
2.81615e-06 2.52224e-05 0
-5.03332e-06 1.17224e-05 0
-1.21693e-05 4.32596e-06 0
4.60835e-06 2.71749e-05 0
-1.45548e-06 1.03443e-05 0
1.40998e-13 0 0
-1.28562e-05 1.68809e-05 0
-1.24561e-05 -2.25049e-05 0
4.29201e-06 6.59613e-05 0
6.7391e-06 -1.44317e-05 0
7.2153e-06 3.04234e-05 0
-2.43256e-05 -7.99695e-06 0
2.03846e-06 -1.5375e-05 0
-1.93999e-05 6.28177e-07 0
-1.29669e-05 1.65272e-05 0
-1.39648e-06 -1.84355e-05 0
-1.31058e-05 -4.86628e-06 0
9.72338e-07 8.73901e-07 0
1.10101e-05 8.47178e-06 0
-3.66032e-06 -1.64034e-06 0
1.36849e-06 1.22046e-05 0
2.9e-05 8.43834e-06 0
-1.77958e-05 8.4998e-06 0
8.81909e-06 2.16515e-05 0
-1.59114e-05 1.06592e-05 0
-1.0165e-05 2.72784e-05 0
-2.15911e-05 -3.22073e-06 0
-1.70183e-05 -8.2091e-06 0
-9.73288e-06 3.42607e-05 0
-1.16396e-05 1.03355e-06 0
3.32962e-06 5.28146e-05 0
2.43686e-06 6.72865e-06 0
-1.47488e-05 -9.27439e-06 0
-3.13177e-05 1.22894e-05 0
-4.61559e-06 1.74859e-05 0
1.88872e-05 1.84441e-05 0
-9.79433e-06 -1.2469e-05 0
-2.03691e-05 3.75564e-06 0
-4.37513e-08 -2.19088e-05 0
-1.87879e-05 -2.28529e-05 0
-1.18412e-05 7.85822e-06 0
-5.20335e-06 -1.59454e-06 0
-9.73518e-06 -1.28549e-05 0
-1.18097e-05 -2.05175e-05 0
-2.11696e-06 1.47916e-05 0
-2.81477e-05 1.20603e-05 0
2.3019e-05 2.507e-05 0
2.37601e-06 8.98681e-06 0
8.22076e-06 2.26241e-05 0
-3.05202e-06 8.75059e-05 0
-1.589e-05 -1.9859e-05 0
2.03472e-05 2.06673e-05 0
-7.75894e-06 2.87559e-05 0
-1.43433e-05 1.60432e-05 0
1.9305e-06 1.23895e-05 0
1.25209e-06 1.22707e-05 0
1.19148e-05 1.26892e-05 0
-1.22534e-05 -1.29484e-06 0
2.45679e-05 4.62137e-06 0
1.0837e-05 1.40691e-05 0
-1.11325e-05 1.07819e-05 0
-2.46461e-05 5.77644e-06 0
-1.08729e-05 9.61978e-06 0
-1.10007e-05 -2.95275e-05 0
4.28447e-06 -1.77528e-05 0
-8.54892e-06 -2.20132e-05 0
-2.11925e-05 7.6734e-06 0
-4.25876e-06 -2.9376e-05 0
4.74557e-05 -4.21715e-06 0
-1.25039e-05 8.08527e-06 0
3.44103e-05 2.01487e-05 0
3.43073e-05 -1.33681e-05 0
1.30557e-05 -1.03568e-05 0
1.72867e-05 6.19097e-06 0
-5.87048e-06 -2.27568e-05 0
3.17245e-05 -1.24591e-05 0
-7.88443e-06 4.79124e-05 0
9.55217e-06 -5.52294e-06 0
2.37612e-05 -3.58316e-06 0
4.42734e-06 1.38067e-05 0
7.96752e-06 -2.49926e-06 0
1.12723e-05 1.06404e-05 0
3.32773e-05 -2.573e-05 0
-3.39872e-06 -6.56305e-06 0
9.67524e-06 4.15292e-06 0
-5.48719e-06 6.28772e-06 0
2.13864e-05 2.08916e-05 0
3.25361e-05 -9.45137e-06 0
-1.02135e-05 -2.0866e-05 0
-1.16021e-06 1.05014e-05 0
5.51258e-06 -2.14088e-05 0
-1.28096e-06 -4.13164e-06 0
-9.08467e-06 -8.62508e-06 0
7.72889e-06 5.69861e-06 0
3.00476e-07 9.78179e-09 0
1.29079e-05 2.16194e-05 0
2.77152e-05 -1.11667e-06 0
1.90217e-05 -6.71312e-06 0
-1.04082e-05 -1.28673e-05 0
3.25369e-05 2.72004e-05 0
2.13155e-06 1.57184e-05 0
4.84807e-05 4.13329e-05 0
-2.82413e-05 1.34505e-05 0
-8.91215e-06 1.03396e-05 0
-6.02082e-06 2.36608e-05 0
-2.03205e-05 2.06573e-05 0
-6.48444e-06 2.51704e-06 0
-2.58971e-06 2.55126e-05 0
1.76629e-05 -4.49644e-07 0
-2.08358e-05 7.28353e-06 0
-7.8116e-06 -9.89932e-06 0
-1.74619e-05 -9.31585e-06 0
-1.20238e-05 -2.6231e-05 0
3.87578e-07 -2.67923e-06 0
1.50873e-05 2.04181e-05 0
-5.40288e-07 3.0918e-06 0
-4.18081e-06 1.54535e-05 0
3.27343e-05 3.35412e-05 0
3.61485e-06 8.73705e-06 0
-5.311e-06 -1.33676e-05 0
-8.76546e-06 7.36395e-06 0
-1.35177e-05 -1.84963e-06 0
1.86196e-05 6.84823e-06 0
-1.92321e-05 1.84039e-05 0
-1.14937e-06 -7.35233e-07 0
-2.64903e-05 -1.9606e-05 0
3.0917e-06 1.5906e-05 0
1.52873e-05 8.13436e-06 0
1.0546e-06 -6.42708e-10 0
2.94404e-05 2.63596e-05 0
-1.33864e-05 6.4714e-06 0
4.34626e-06 1.81658e-05 0
6.42976e-06 -8.02218e-06 0
-1.3679e-06 1.1757e-05 0
-2.35278e-06 -3.03998e-06 0
-3.35235e-06 2.3717e-05 0
1.13804e-05 -1.75278e-05 0
-2.42376e-05 1.90074e-06 0
-1.54359e-05 2.15771e-06 0
5.35572e-06 7.01229e-06 0
7.60271e-07 2.15543e-05 0
-6.8629e-06 -4.97036e-06 0
-2.96115e-06 2.17048e-06 0
-2.36559e-06 -1.13447e-05 0
1.35225e-05 1.1089e-05 0
1.76022e-05 4.88743e-05 0
1.93816e-05 -5.27433e-06 0
2.5324e-05 2.82247e-07 0
-2.41436e-05 2.90412e-05 0
2.64554e-05 7.26473e-06 0
-4.60057e-06 4.75844e-06 0
-1.53388e-05 1.1812e-06 0
5.69303e-07 3.78417e-06 0
2.52714e-05 8.40791e-06 0
-2.28956e-05 1.03397e-05 0
-8.93573e-06 -1.82806e-05 0
3.34005e-06 3.33911e-06 0
-1.68286e-06 -1.79572e-06 0
-4.14806e-06 4.83119e-06 0
-2.51158e-05 -7.97922e-06 0
1.06161e-06 -6.03246e-06 0
2.44777e-05 1.93114e-05 0
6.6387e-08 -1.86698e-05 0
4.36123e-06 3.24412e-05 0
-1.74018e-06 -3.96048e-06 0
1.74535e-05 5.89488e-05 0
-9.83841e-06 -9.94399e-06 0
-1.22805e-05 -3.88386e-06 0
1.37104e-05 9.2235e-07 0
-2.63135e-06 8.50297e-06 0
-2.22826e-05 -2.94137e-05 0
8.20817e-06 -3.20082e-05 0
2.47068e-05 3.67246e-05 0
1.278e-05 -1.58384e-05 0
-1.45619e-05 4.63759e-05 0
-8.78643e-07 -3.774e-05 0
3.05719e-06 1.19449e-05 0
7.98895e-06 1.40453e-05 0
9.67586e-06 -6.23125e-06 0
6.75335e-06 2.69466e-06 0
3.65434e-05 6.92121e-06 0
-6.50906e-06 1.1306e-05 0
-1.85611e-05 -3.19583e-06 0
-1.29597e-05 1.29449e-05 0
4.00556e-05 3.09558e-05 0
2.67303e-09 8.67473e-07 0
8.00033e-06 1.46323e-05 0
6.9643e-06 2.10645e-06 0
2.29763e-05 7.72042e-06 0
2.93307e-05 7.94637e-06 0
-2.62691e-05 1.56003e-05 0
1.12481e-06 -3.27695e-05 0
1.44254e-05 1.78879e-05 0
2.1762e-05 2.57849e-05 0
-9.95384e-06 -1.47335e-06 0
1.83763e-05 2.25511e-05 0
6.2731e-06 -7.90494e-06 0
8.69784e-06 -3.09259e-05 0
-8.62556e-06 7.36046e-06 0
1.24898e-05 3.93273e-05 0
1.24199e-05 -2.11598e-05 0
9.37733e-06 6.14213e-06 0
2.50041e-06 1.72209e-05 0
-1.84256e-05 4.56e-06 0
-1.84068e-05 -5.24533e-07 0
-1.37637e-05 8.43196e-06 0
6.26833e-05 -1.04256e-05 0
1.53914e-05 1.04434e-05 0
9.21381e-06 -4.7113e-06 0
3.62366e-06 5.95248e-06 0
3.48426e-06 -1.39057e-05 0
2.0237e-05 -1.66949e-05 0
7.142e-06 -4.31196e-06 0
-1.09322e-05 1.00013e-05 0
1.35746e-05 1.24545e-05 0
1.53678e-05 -1.35265e-05 0
-2.26406e-05 -1.69742e-05 0
-2.10174e-06 2.09811e-05 0
-1.33739e-05 1.57212e-05 0
-2.77344e-06 8.70163e-06 0
-5.76126e-07 2.4731e-05 0
4.11132e-06 -1.33433e-06 0
1.65337e-05 8.64067e-06 0
-1.29373e-05 -1.67612e-05 0
4.51848e-05 -1.70149e-06 0
-1.55151e-05 2.5498e-05 0
1.97199e-05 -2.09371e-05 0
6.07254e-08 5.84407e-06 0
-1.88596e-05 1.44602e-05 0
-3.61172e-05 -3.5838e-05 0
3.37549e-07 6.72957e-06 0
-1.17473e-06 1.34272e-05 0
1.44323e-05 1.20098e-05 0
-7.85612e-07 6.94104e-07 0
4.41478e-06 7.41223e-06 0
-8.10004e-06 1.21638e-06 0
-2.45788e-05 -1.87936e-05 0
-2.53484e-06 -4.03504e-05 0
-6.26746e-06 -1.32555e-05 0
-3.88798e-06 -2.72665e-05 0
-1.10035e-06 -2.74725e-05 0
-6.5135e-06 3.67675e-05 0
2.80337e-05 4.07643e-05 0
1.87352e-05 2.56819e-05 0
1.41145e-05 -9.78746e-06 0
4.57242e-06 1.55898e-06 0
1.24181e-05 9.25026e-06 0
1.8683e-05 -1.74671e-05 0
3.32282e-06 -1.67379e-05 0
2.66891e-05 4.6768e-06 0
6.09622e-06 2.71087e-05 0
1.66773e-05 1.64953e-05 0
-1.98659e-05 -7.24416e-07 0
-2.05927e-05 -2.56238e-05 0
1.40914e-05 9.84603e-06 0
1.1238e-05 -2.16201e-05 0
1.90598e-05 -5.40749e-06 0
1.36513e-05 1.77653e-05 0
8.88742e-06 -1.00201e-05 0
8.09255e-06 4.45112e-05 0
-4.79007e-06 -1.40262e-05 0
7.58445e-06 -2.50273e-05 0
-1.02606e-05 -1.22332e-05 0
6.41836e-06 -9.87801e-06 0
-2.65499e-05 2.91267e-05 0
-5.84649e-06 -3.38573e-05 0
-6.02362e-06 9.41048e-06 0
-4.05985e-06 -2.58293e-06 0
-6.81826e-06 -9.26074e-06 0
-3.47241e-06 1.14007e-05 0
1.63869e-06 -2.75541e-06 0
2.47435e-05 1.82132e-05 0
8.64758e-06 -2.34211e-05 0
1.74462e-06 1.72312e-05 0
2.52875e-05 6.28296e-06 0
7.93983e-06 -6.48144e-06 0
2.12757e-06 -4.45567e-07 0
3.72274e-06 3.013e-05 0
2.51995e-05 2.46164e-06 0
-7.98154e-07 -1.69306e-05 0
6.79243e-07 -1.21235e-06 0
2.44587e-05 1.10253e-05 0
-8.16645e-06 -1.05389e-06 0
-1.98938e-06 6.48759e-06 0
2.29947e-06 -1.2227e-05 0
1.68975e-05 3.51863e-05 0
-6.91336e-06 -1.21702e-05 0
2.23876e-05 1.8243e-05 0
7.90383e-06 -2.86234e-06 0
2.45149e-05 2.50262e-06 0
-5.27256e-06 2.47499e-05 0
1.30365e-05 1.04259e-05 0
-7.98099e-06 2.34102e-05 0
-7.62158e-06 4.11727e-06 0
-1.54378e-05 -4.07675e-06 0
7.65814e-06 -2.90216e-05 0
-4.28874e-07 -3.80163e-06 0
-8.97574e-06 3.54458e-05 0
6.51644e-06 -5.48422e-06 0
-9.13171e-06 -3.73972e-05 0
4.18965e-06 1.52216e-05 0
-2.94325e-06 -4.30716e-06 0
9.91606e-06 6.9465e-06 0
-5.78414e-06 6.96985e-07 0
-2.23093e-05 -1.15157e-05 0
2.20856e-05 4.38975e-05 0
-1.97658e-05 -8.17922e-06 0
-4.43627e-06 1.00702e-05 0
-4.18088e-06 -2.50161e-05 0
-8.00516e-06 1.47021e-05 0
6.40934e-06 2.9735e-06 0
1.70551e-06 -3.16719e-06 0
4.32736e-07 2.94473e-05 0
-1.35977e-05 -3.21616e-05 0
-1.68515e-05 -1.60563e-05 0
-1.04872e-05 6.23343e-06 0
1.41709e-06 6.28915e-06 0
9.59254e-06 -1.20638e-05 0
-1.17542e-05 1.54861e-05 0
-1.35486e-05 -4.95686e-06 0
-1.47091e-05 4.5461e-06 0
-6.06912e-06 -2.53874e-05 0
1.26321e-05 3.34311e-05 0
1.48157e-05 -1.46387e-05 0
8.06247e-06 -1.50255e-05 0
-1.28383e-05 -7.30018e-06 0
3.3317e-06 -3.39241e-07 0
1.67846e-05 -8.50156e-06 0
-2.39624e-05 -2.28144e-05 0
-2.44593e-06 1.01825e-06 0
-2.53503e-05 -6.31339e-06 0
2.03244e-05 -7.95611e-06 0
6.8682e-06 -9.60479e-06 0
-9.26061e-06 -8.80121e-06 0
-5.8589e-08 -6.84369e-06 0
6.52537e-06 -1.41878e-05 0
-1.07718e-05 3.6133e-05 0
2.2877e-05 -1.36652e-05 0
2.55667e-05 2.52752e-05 0
3.64372e-05 2.03543e-05 0
-1.32173e-05 -2.84121e-05 0
-5.75762e-06 3.17907e-05 0
9.75443e-06 2.55268e-05 0
1.31102e-05 1.04667e-05 0
3.25002e-05 2.89965e-05 0
2.5534e-05 1.04634e-06 0
-1.91598e-05 7.39174e-06 0
-9.27829e-06 2.11492e-05 0
-5.73285e-06 5.22508e-06 0
1.35092e-05 1.35688e-06 0
1.31061e-05 1.4173e-05 0
3.11317e-06 -9.99283e-06 0
-1.23037e-06 -2.14043e-05 0
-1.49289e-05 1.35691e-05 0
1.60554e-05 7.05651e-07 0
-1.53339e-05 1.9227e-05 0
8.77617e-07 1.07328e-05 0
2.41442e-05 8.00539e-06 0
2.43151e-05 3.82507e-05 0
8.1263e-06 -3.15862e-05 0
-5.27372e-06 -3.35033e-05 0
4.31373e-05 2.77136e-05 0
7.71706e-07 3.87538e-05 0
3.35845e-05 -1.78474e-05 0
3.83129e-06 1.24853e-05 0
6.098e-06 -2.91017e-05 0
0 1.24936e-10 0
5.59566e-06 1.75801e-05 0
1.35562e-05 -7.30638e-06 0
9.68021e-07 -4.72639e-05 0
2.83134e-05 -1.79237e-05 0
-1.01563e-05 1.1886e-05 0
1.36632e-05 -5.83823e-06 0
2.93822e-05 -1.02909e-05 0
4.76756e-05 -1.26248e-05 0
0 3.16916e-11 0
1.92939e-05 -3.79198e-06 0
1.17929e-06 -2.61539e-05 0
1.35063e-05 -9.51346e-06 0
2.06107e-05 -1.68125e-05 0
-3.19455e-05 -3.77587e-05 0
1.86256e-05 -1.55807e-06 0
-3.00951e-05 -6.27195e-06 0
3.07485e-05 -3.42099e-05 0
-1.86722e-05 8.34039e-06 0
1.14053e-05 -1.48763e-05 0
1.69952e-05 -2.69839e-07 0
1.07682e-05 -8.34177e-06 0
1.32561e-05 9.56199e-06 0
-2.32605e-06 -2.72098e-05 0
4.29014e-05 -3.02066e-05 0
3.40816e-05 -2.92652e-05 0
1.34265e-05 -2.27732e-05 0
2.42985e-05 -2.5349e-05 0
2.22671e-05 -1.33523e-05 0
1.75669e-05 5.16855e-06 0
2.91941e-05 6.8307e-06 0
2.25797e-05 -3.61961e-05 0
2.35264e-05 4.65248e-06 0
1.81645e-05 -4.38472e-05 0
-4.51273e-07 -2.16072e-05 0
-7.62687e-06 2.0543e-05 0
-6.38724e-06 -1.64057e-05 0
1.92731e-05 5.63545e-06 0
-1.90269e-05 4.0142e-06 0
2.17337e-05 -3.66739e-05 0
-2.12473e-05 -4.20373e-05 0
2.84882e-05 2.85622e-06 0
1.16638e-05 -4.18085e-05 0
1.65168e-06 -9.84099e-06 0
2.73743e-06 1.66263e-05 0
5.14473e-06 -1.00358e-05 0
1.4499e-05 -6.15557e-06 0
1.55357e-05 -1.09194e-06 0
1.08135e-05 -5.19642e-06 0
1.78382e-05 1.32571e-05 0
1.01315e-05 -8.73691e-06 0
-3.22677e-06 9.64855e-07 0
1.65594e-05 1.16095e-05 0
9.72879e-07 -1.32994e-05 0
1.94006e-05 1.52188e-05 0
2.61966e-05 -2.68595e-06 0
1.3233e-05 -3.98169e-06 0
7.95516e-07 3.00472e-05 0
3.43699e-06 5.1333e-06 0
-2.34966e-06 -2.75522e-05 0
1.62431e-06 -1.95423e-05 0
3.6792e-05 1.13968e-05 0
2.71586e-05 -1.39069e-05 0
2.71213e-05 4.8758e-05 0
-2.91158e-05 -1.47477e-05 0
-1.25825e-05 -4.12502e-06 0
-3.07084e-05 -4.11243e-05 0
-1.48819e-05 -5.09208e-07 0
-1.87953e-05 -1.82589e-05 0
8.15392e-06 1.21303e-06 0
1.93213e-05 1.46857e-05 0
-1.64726e-05 -5.29529e-06 0
-6.78327e-06 4.6717e-06 0
-2.46438e-05 -1.6026e-05 0
-7.57249e-06 -2.84697e-05 0
-6.48031e-06 2.17317e-05 0
4.23404e-06 2.43307e-05 0
3.60509e-05 1.21101e-05 0
2.36811e-05 -1.13875e-05 0
1.29379e-05 3.23475e-05 0
1.55793e-05 -8.37057e-06 0
3.05355e-06 2.954e-05 0
-2.54248e-05 2.15549e-05 0
1.54725e-05 -2.58838e-05 0
3.60505e-05 1.01508e-05 0
2.13312e-05 5.56484e-06 0
1.38549e-05 -4.57724e-06 0
9.39153e-06 -2.02845e-05 0
1.21518e-05 -2.53786e-06 0
2.01195e-05 -2.50829e-05 0
1.93513e-05 2.05561e-05 0
-8.98899e-06 -2.09628e-06 0
4.63045e-05 2.24248e-05 0
3.62939e-05 -1.20909e-05 0
-7.33062e-07 -1.20191e-05 0
-5.34424e-06 8.35987e-06 0
-5.21273e-06 -1.05177e-05 0
-6.08413e-07 -2.25216e-05 0
-1.1634e-05 2.24716e-06 0
2.94218e-05 -7.23782e-07 0
1.10723e-05 1.8589e-05 0
3.12845e-06 2.04473e-05 0
-1.47773e-05 -2.45943e-05 0
2.8325e-05 9.16963e-08 0
-8.61004e-07 -5.27324e-06 0
1.15417e-05 2.48414e-07 0
-3.46494e-06 -1.57561e-05 0
-2.54475e-06 5.46159e-06 0
5.44806e-06 1.68094e-05 0
-3.26651e-06 -2.93688e-06 0
7.38009e-06 2.75574e-05 0
1.06143e-05 3.91796e-05 0
-1.76572e-05 1.77056e-05 0
-1.13281e-05 1.63082e-05 0
4.28705e-07 1.45259e-05 0
-1.03265e-05 -3.15577e-05 0
-4.84833e-06 -1.67402e-05 0
-1.6758e-05 -4.03458e-06 0
-3.31471e-05 3.67461e-05 0
-1.42042e-05 1.5183e-05 0
-2.1775e-05 3.4361e-05 0
-1.82169e-05 2.97669e-05 0
-5.64215e-06 3.59284e-05 0
-1.81101e-05 2.79676e-05 0
1.87485e-10 0 0
1.76514e-06 3.57513e-05 0
-6.03781e-06 6.3899e-05 0
-1.38057e-05 8.84949e-06 0
-3.12487e-10 0 0
-2.55102e-08 5.8785e-06 0
-3.12478e-10 0 0
-1.54747e-05 1.81728e-05 0
1.12904e-06 2.38269e-05 0
-6.89956e-06 3.64103e-05 0
2.57349e-05 4.76897e-05 0
-2.49984e-10 0 0
3.13142e-06 5.26618e-05 0
9.00826e-06 1.64045e-05 0
-2.14554e-05 1.28525e-05 0
1.53513e-05 2.58655e-05 0
-3.06407e-05 5.85402e-05 0
-3.12466e-10 0 0
3.75648e-05 6.30287e-05 0
-2.98973e-05 -5.2034e-06 0
1.4906e-05 2.24445e-05 0
2.15865e-05 3.95553e-05 0
2.09723e-05 1.08622e-05 0
-8.48411e-06 -1.28959e-05 0
-2.92305e-05 -3.71166e-05 0
8.79297e-14 3.12557e-11 0
-1.14041e-05 5.88497e-06 0
-1.24911e-05 -2.67631e-05 0
-2.85331e-05 -1.09739e-05 0
2.38904e-05 -1.40757e-06 0
1.13826e-05 -8.7722e-06 0
-4.72839e-06 1.33493e-05 0
-1.29467e-05 -2.85325e-05 0
2.2288e-06 1.25002e-05 0
2.34445e-06 -1.13814e-05 0
-1.00028e-05 1.01905e-05 0
7.00672e-06 -1.02441e-05 0
1.59805e-05 -3.7044e-05 0
-1.09943e-05 -3.29871e-05 0
-2.25963e-05 5.53148e-06 0
-3.91812e-06 2.39976e-05 0
-1.22697e-05 -2.63994e-05 0
5.27984e-06 -1.23453e-05 0
2.11402e-05 -4.46881e-07 0
4.52594e-07 2.82295e-06 0
6.1692e-06 -5.81314e-07 0
4.40436e-06 1.68885e-05 0
8.77296e-06 -1.04403e-05 0
1.9772e-05 -1.02278e-06 0
1.23012e-05 7.58904e-06 0
-4.46806e-06 1.7944e-07 0
-2.61878e-07 -1.55864e-06 0
1.67953e-05 1.61133e-05 0
7.20647e-06 -1.82693e-05 0
4.72931e-06 2.13917e-05 0
-1.48052e-05 6.38315e-06 0
-3.36218e-05 4.15892e-06 0
5.53315e-06 1.401e-05 0
2.48142e-05 -2.13529e-05 0
-8.8039e-06 -3.29924e-05 0
-1.0673e-05 1.88951e-05 0
1.58954e-05 2.85266e-05 0
3.31275e-05 -3.18208e-05 0
2.69339e-05 -1.98459e-05 0
5.30227e-06 1.41195e-05 0
-9.39243e-06 -7.90738e-06 0
-2.02266e-06 -3.18747e-06 0
2.70559e-05 9.49393e-07 0
-1.83828e-06 -1.3588e-05 0
1.21108e-05 -1.45373e-05 0
-8.38268e-07 2.53522e-06 0
-8.98807e-06 4.76408e-06 0
6.22284e-06 2.17174e-05 0
8.18417e-06 -2.71276e-06 0
1.37504e-05 -1.59589e-05 0
2.54328e-06 -1.87298e-05 0
7.43944e-06 -3.30279e-06 0
1.18596e-05 1.77148e-05 0
-1.44513e-05 -2.24646e-05 0
2.2613e-05 2.66564e-05 0
-7.01826e-06 -3.69891e-06 0
1.14838e-06 2.07168e-05 0
1.73812e-05 2.01061e-05 0
1.02822e-05 1.39485e-05 0
2.69464e-05 -2.05222e-05 0
4.77751e-06 3.48751e-06 0
6.36106e-06 -1.32726e-05 0
-7.43672e-06 -2.03554e-05 0
-5.25835e-08 3.48446e-06 0
1.46305e-05 1.52466e-05 0
3.53122e-06 4.92068e-05 0
1.0359e-05 -8.77873e-06 0
2.78912e-06 -1.28694e-05 0
-6.50591e-14 1.25005e-10 0
1.30837e-05 -1.53287e-05 0
3.96063e-05 -7.56696e-06 0
3.57936e-13 1.25014e-10 0
1.91523e-05 -2.65173e-06 0
-2.50234e-10 0 0
-1.78884e-05 2.90422e-05 0
1.02511e-05 4.08591e-05 0
-3.58585e-06 5.58627e-06 0
1.27775e-05 2.85922e-05 0
1.63229e-06 1.62052e-05 0
3.06871e-06 1.40209e-05 0
-6.96709e-06 2.02073e-05 0
6.20958e-06 1.98774e-05 0
-1.17256e-05 -1.7565e-05 0
-2.05933e-05 -2.31629e-07 0
-9.0825e-06 9.32649e-06 0
-8.90348e-06 2.52332e-05 0
-2.16948e-05 1.38302e-05 0
-1.09e-05 -2.45349e-05 0
-1.17589e-05 6.39496e-06 0
-2.50291e-10 0 0
1.87748e-10 0 0
2.62386e-06 2.23234e-05 0
-1.18119e-05 3.93883e-05 0
-7.73866e-07 2.18567e-05 0
-3.12586e-10 0 0
8.81494e-06 2.66616e-05 0
-6.56809e-06 2.09373e-05 0
1.37141e-06 3.83215e-06 0
1.20891e-05 2.81952e-05 0
-5.55585e-06 8.3415e-06 0
4.92605e-06 1.02754e-05 0
3.74048e-05 -4.71054e-06 0
1.70681e-05 1.28433e-05 0
-2.17002e-05 -8.00378e-06 0
-3.54293e-06 -1.7588e-05 0
-1.68351e-05 1.09002e-05 0
6.51906e-07 4.21333e-05 0
-1.1738e-05 2.17837e-05 0
3.17121e-07 8.38971e-06 0
1.18024e-05 2.73396e-05 0
-2.01746e-05 -1.22135e-05 0
-8.99535e-06 -9.23025e-06 0
1.66102e-05 1.88868e-05 0
4.60187e-06 -2.83936e-05 0
-3.37191e-05 -3.19598e-05 0
-2.9475e-05 7.7496e-06 0
1.97401e-05 1.34905e-05 0
-1.69372e-05 1.04531e-05 0
-2.92014e-05 -3.5057e-05 0
-2.51285e-05 -3.83334e-05 0
-1.29138e-05 -4.71522e-05 0
-4.33918e-06 5.7762e-05 0
-9.63814e-06 1.51248e-05 0
1.42364e-05 4.64426e-05 0
2.2012e-05 6.47011e-06 0
5.02211e-05 7.48944e-06 0
1.63763e-06 -2.17646e-05 0
1.07053e-06 -8.97959e-06 0
-2.26173e-06 1.29259e-05 0
-2.65202e-06 -2.94831e-05 0
-3.11338e-05 9.1723e-06 0
3.21527e-06 -4.59058e-05 0
4.1352e-05 4.24365e-05 0
-9.62259e-06 1.62489e-06 0
-1.8801e-05 -2.5692e-05 0
1.03156e-05 5.67233e-06 0
-1.77215e-05 1.28384e-05 0
-6.00155e-06 -1.90133e-05 0
-1.38912e-05 -2.54236e-05 0
6.38197e-05 2.92425e-05 0
-2.58801e-06 1.45267e-06 0
1.26654e-05 -9.11554e-07 0
-4.04152e-06 2.05534e-05 0
2.1389e-05 2.18301e-05 0
-9.54959e-06 4.38224e-05 0
2.99486e-05 1.4347e-05 0
2.33888e-05 8.01899e-06 0
8.31392e-06 3.97246e-06 0
-3.61793e-06 7.021e-06 0
1.64553e-05 2.83119e-05 0
7.01411e-06 3.99995e-06 0
-2.82484e-07 -3.5673e-05 0
1.57171e-05 -7.9296e-06 0
-7.91701e-06 5.88454e-06 0
-2.88553e-05 -1.87596e-05 0
1.44956e-05 1.56575e-05 0
2.38866e-05 3.18813e-06 0
1.02514e-05 1.80774e-05 0
1.40183e-05 2.09369e-05 0
4.40641e-07 1.02944e-05 0
9.53306e-06 -7.7309e-06 0
1.7957e-05 7.41644e-06 0
1.19453e-05 1.8993e-05 0
-1.82832e-05 3.89815e-06 0
-6.52554e-07 -2.23387e-05 0
-1.00916e-05 -1.91272e-05 0
1.74678e-05 3.26731e-06 0
-1.91077e-06 3.41725e-06 0
-1.46988e-05 3.9325e-07 0
-2.84691e-06 1.75322e-05 0
-2.39101e-06 1.15036e-05 0
-1.36407e-05 2.60981e-05 0
3.82673e-06 3.95395e-05 0
5.02143e-06 -2.72666e-05 0
2.33236e-05 2.31715e-05 0
2.84954e-05 -4.24359e-06 0
9.07351e-06 -5.68418e-06 0
-8.09596e-06 -1.92159e-05 0
-1.84967e-05 4.85302e-05 0
-7.35428e-06 -1.36247e-05 0
3.93155e-06 -2.53396e-05 0
-1.01706e-05 5.37074e-06 0
2.05801e-05 2.09134e-05 0
-2.12701e-06 -1.12263e-05 0
3.27565e-05 1.03147e-05 0
3.29927e-05 -3.01695e-06 0
1.04199e-05 -8.03638e-06 0
4.05201e-05 2.30604e-05 0
8.86063e-06 -1.15464e-05 0
1.19226e-05 -1.64453e-06 0
1.96624e-05 -1.13312e-05 0
-1.77882e-06 -7.66119e-06 0
2.41319e-05 5.44088e-07 0
9.74027e-06 -2.03361e-06 0
1.93649e-05 -9.89595e-06 0
3.0457e-05 3.31307e-06 0
-1.84136e-05 -1.90921e-05 0
1.27426e-05 3.23558e-05 0
2.13554e-05 1.55935e-05 0
1.0536e-06 3.19103e-05 0
7.23484e-06 -5.44323e-06 0
1.00562e-05 1.51941e-05 0
8.23145e-07 1.08568e-06 0
-6.22927e-06 2.65783e-05 0
-2.41033e-05 -1.66453e-05 0
3.91356e-06 -2.08313e-05 0
-7.1942e-06 -3.12726e-06 0
1.43822e-06 -1.07268e-05 0
-7.29638e-06 2.20452e-05 0
-1.04003e-05 -1.37574e-06 0
-6.75649e-07 -2.57526e-05 0
3.64523e-05 4.57885e-05 0
1.57089e-05 1.01026e-05 0
-1.62024e-05 3.76216e-06 0
2.06586e-05 -2.76895e-05 0
1.2467e-05 2.37098e-05 0
5.01099e-07 -3.61893e-05 0
1.12324e-05 -3.70354e-05 0
3.09333e-05 -4.53941e-05 0
1.01351e-05 2.70642e-05 0
-2.58371e-05 -1.02275e-05 0
-3.1044e-05 -1.6438e-05 0
2.25676e-05 -1.28404e-05 0
-9.18697e-06 6.66482e-06 0
1.2436e-05 1.47003e-05 0
2.92424e-05 1.20165e-06 0
-1.55223e-05 -4.82332e-05 0
4.68493e-05 -8.9707e-06 0
-7.58473e-06 2.40234e-05 0
-1.85774e-05 -2.79972e-05 0
7.55968e-06 -1.97239e-05 0
-1.27604e-05 -3.66732e-05 0
3.87152e-05 2.05425e-05 0
-3.3299e-06 -7.96483e-06 0
1.46532e-06 -1.65312e-05 0
3.43894e-05 7.59678e-06 0
1.11593e-05 -2.65482e-05 0
2.48415e-05 -1.24552e-05 0
1.35013e-06 -4.23722e-05 0
-1.69029e-06 -1.90711e-05 0
-6.04891e-06 -1.57364e-05 0
1.24653e-05 -3.16273e-05 0
2.57368e-05 6.12143e-06 0
-1.70413e-06 -1.1536e-05 0
-6.39868e-07 -1.50727e-05 0
4.26837e-05 -2.03465e-05 0
1.45202e-05 -5.79318e-06 0
2.44317e-05 -8.25814e-06 0
5.04846e-05 -7.86749e-06 0
7.52392e-06 9.75518e-06 0
9.59248e-06 -7.16864e-07 0
2.6151e-05 -8.02956e-07 0
1.51539e-05 1.53117e-05 0
1.34555e-05 -7.14266e-06 0
1.98197e-05 2.37095e-05 0
3.48019e-06 -1.0632e-05 0
1.90818e-05 1.54666e-05 0
-7.51053e-08 -4.31727e-05 0
-6.9089e-06 -3.03145e-05 0
-1.67369e-06 -1.68541e-05 0
1.90665e-05 -1.78531e-05 0
2.02944e-05 -2.33813e-05 0
1.79097e-05 -2.67237e-05 0
6.30905e-06 -2.64918e-05 0
1.5238e-05 2.75994e-05 0
4.89858e-05 1.45482e-05 0
1.67343e-05 -1.9549e-05 0
5.24604e-06 1.04057e-05 0
2.11506e-05 -1.52058e-05 0
1.76345e-05 -2.46588e-05 0
1.32235e-05 -1.11789e-05 0
2.81624e-05 -2.75541e-06 0
3.43138e-06 -1.90181e-05 0
0 5.00119e-10 0
1.70925e-05 -1.95959e-05 0
1.56173e-05 4.1232e-06 0
1.99456e-05 -1.9646e-05 0
3.16962e-06 1.20847e-06 0
-3.12971e-06 -4.2197e-06 0
2.68836e-05 -1.76375e-05 0
4.26033e-06 -1.75615e-05 0
-1.07992e-05 -6.60552e-06 0
2.14245e-05 1.6263e-05 0
2.59475e-05 -1.88827e-05 0
4.55885e-06 -3.63802e-06 0
3.4329e-05 1.01163e-05 0
6.99581e-06 -2.44854e-05 0
1.09926e-05 -4.07317e-05 0
2.41423e-05 5.17245e-05 0
2.67575e-05 4.58084e-06 0
5.13179e-06 -1.58182e-05 0
2.04968e-05 2.07523e-05 0
7.02039e-06 -3.04228e-05 0
0 1.25088e-10 0
6.31965e-06 -2.35118e-05 0
2.02591e-05 7.50011e-06 0
-1.75486e-06 -1.15476e-05 0
-3.58232e-06 -1.2004e-05 0
-3.91199e-07 -9.40945e-06 0
9.77873e-06 -3.07578e-05 0
-3.12524e-07 4.87259e-07 0
1.8578e-05 6.06915e-06 0
2.74315e-05 -7.30376e-07 0
0 2.81326e-10 0
9.84385e-07 1.85776e-05 0
2.63572e-05 -1.06288e-05 0
2.99231e-05 -1.3936e-05 0
1.09861e-05 6.82064e-06 0
1.50895e-06 -1.47648e-05 0
-1.20194e-07 7.93435e-06 0
9.11828e-06 8.77428e-06 0
2.17766e-05 -1.98895e-06 0
1.80801e-05 1.64368e-05 0
4.06348e-05 6.63975e-06 0
9.64217e-06 1.46329e-05 0
1.08133e-05 -9.93532e-06 0
1.65284e-05 6.61545e-06 0
2.63457e-05 2.7559e-05 0
1.22235e-06 -3.00192e-06 0
3.66416e-05 1.2908e-05 0
4.63427e-05 2.77286e-05 0
8.18276e-06 2.54283e-05 0
3.49104e-05 4.97341e-07 0
1.24277e-05 -8.96935e-06 0
2.06918e-05 1.2448e-07 0
3.4247e-05 1.96995e-05 0
3.28091e-05 -1.86332e-05 0
7.66664e-06 -1.33548e-06 0
-1.49653e-06 2.83977e-05 0
2.26192e-05 4.82003e-05 0
5.40196e-06 6.01399e-06 0
1.65924e-05 2.4582e-05 0
1.37531e-05 -1.26029e-06 0
2.99254e-05 -1.60308e-06 0
1.59232e-05 -3.40718e-05 0
1.29539e-05 -5.42788e-06 0
1.16189e-05 4.05272e-05 0
-3.55479e-06 -2.21536e-05 0
-2.1859e-05 -7.0369e-06 0
6.28606e-06 -1.63776e-05 0
-7.02072e-06 -2.35825e-05 0
0 5.00423e-10 0
3.45535e-07 -9.71897e-06 0
8.58758e-06 -4.53501e-06 0
-8.86094e-06 -1.29791e-05 0
-2.98834e-06 -5.53594e-06 0
4.92402e-06 -1.68499e-05 0
1.68085e-05 2.66418e-05 0
-4.25557e-06 1.20424e-05 0
9.88002e-06 1.75165e-06 0
2.86267e-05 1.30814e-05 0
-4.07722e-06 -6.18358e-06 0
6.60978e-06 -3.97804e-06 0
0 1.25308e-10 0
3.56574e-05 1.18327e-05 0
0 1.24836e-10 0
2.41994e-05 6.41264e-07 0
3.46355e-05 2.68092e-05 0
2.18578e-05 -2.6131e-05 0
0 2.81036e-10 0
3.04106e-05 1.46426e-05 0
1.03595e-05 -6.52882e-06 0
0 3.15514e-11 0
4.57277e-06 1.08518e-05 0
9.9476e-06 -3.53882e-06 0
2.77458e-06 3.13129e-05 0
1.91251e-06 -8.58845e-06 0
-1.2794e-05 -3.29937e-05 0
-2.29941e-05 -1.83946e-05 0
-1.62697e-05 -2.84669e-05 0
1.91734e-05 1.31259e-07 0
7.46762e-06 -4.19025e-06 0
1.42812e-05 -2.11996e-05 0
3.17612e-06 -4.03298e-05 0
7.27182e-06 -1.11406e-05 0
-1.75808e-05 6.54671e-08 0
-7.31424e-06 -1.56977e-05 0
1.9258e-05 -8.50974e-06 0
-2.2026e-05 -1.9625e-05 0
-4.84089e-06 -9.44415e-06 0
6.74067e-06 3.24894e-06 0
1.08547e-05 -3.85986e-05 0
3.46018e-06 8.6138e-06 0
1.68379e-05 5.95732e-06 0
6.94386e-06 3.52669e-05 0
4.08483e-06 1.38604e-05 0
1.23755e-05 -6.5133e-06 0
-3.02524e-07 2.68162e-05 0
-2.94719e-06 -1.8811e-05 0
2.86078e-05 2.10653e-05 0
4.77493e-06 8.37114e-06 0
9.73262e-06 -1.41213e-06 0
9.27309e-06 -5.72511e-07 0
2.58194e-06 -7.93131e-07 0
8.75873e-06 1.0075e-05 0
3.30034e-06 7.6412e-06 0
2.62723e-05 1.00248e-05 0
1.66754e-05 -1.802e-06 0
9.43029e-06 -1.00949e-05 0
1.39404e-05 -2.11307e-05 0
-8.68679e-06 -2.49025e-05 0
1.05327e-05 2.99859e-05 0
-4.66411e-07 -2.39523e-05 0
2.71705e-05 7.41188e-06 0
1.88188e-06 2.09611e-05 0
1.38318e-05 -7.5965e-06 0
-1.29924e-05 -1.4839e-05 0
5.54192e-06 -2.57636e-05 0
2.61809e-05 -1.15142e-05 0
-1.70586e-05 -2.88203e-05 0
3.36825e-05 -3.6065e-06 0
-1.01475e-05 -2.47329e-05 0
9.84859e-06 -1.41772e-05 0
4.42516e-06 3.99623e-06 0
1.06572e-05 -7.59337e-06 0
-2.57847e-05 1.04584e-05 0
2.18822e-05 -1.20517e-05 0
2.31053e-05 -1.2875e-06 0
1.52945e-05 -1.53799e-05 0
1.47254e-05 -1.19275e-05 0
-1.94059e-05 5.75298e-06 0
-1.7209e-05 -1.76812e-05 0
1.90371e-05 -2.3095e-05 0
1.9153e-05 3.62801e-05 0
1.64718e-05 -4.5993e-05 0
1.34334e-05 -8.03575e-06 0
5.28429e-06 1.94839e-05 0
-4.01447e-06 -1.28258e-05 0
7.33496e-06 -8.59878e-06 0
-4.26693e-06 -4.05601e-05 0
1.01635e-05 -2.07121e-05 0
3.19603e-05 -9.79693e-06 0
1.33803e-05 1.47393e-05 0
-1.08531e-06 -2.14472e-06 0
-3.22706e-06 2.70355e-05 0
8.22069e-06 8.51396e-06 0
4.08575e-06 1.24702e-05 0
-6.76433e-06 2.17607e-05 0
2.15091e-06 -7.6238e-06 0
1.67503e-05 -2.36566e-05 0
5.91167e-06 4.30261e-05 0
1.26186e-05 1.85295e-06 0
1.05414e-05 2.08529e-05 0
-1.87224e-05 -2.48884e-05 0
1.60328e-05 1.02318e-05 0
1.71228e-05 6.45461e-06 0
-5.54906e-06 1.53042e-05 0
1.44987e-05 3.42681e-05 0
-8.98824e-06 2.97506e-05 0
-7.14676e-06 1.47491e-05 0
7.26498e-06 1.31952e-05 0
-7.12827e-06 3.53934e-05 0
2.16818e-05 3.73239e-05 0
2.91158e-05 5.28989e-06 0
1.48746e-05 1.94618e-06 0
2.79302e-05 1.50326e-05 0
-1.48351e-05 -2.50932e-07 0
6.53326e-06 -2.26439e-05 0
-3.94394e-06 -1.75849e-05 0
1.04757e-05 -2.07443e-05 0
1.34101e-06 1.19278e-05 0
-6.79887e-06 1.25575e-05 0
-9.26446e-06 -2.72361e-05 0
6.45207e-06 3.56756e-05 0
2.89194e-05 7.00473e-06 0
-1.35881e-05 -1.40501e-05 0
3.25133e-05 6.53988e-06 0
-9.51039e-06 3.15701e-06 0
4.57503e-05 1.90646e-05 0
1.56125e-06 -1.00415e-07 0
2.5605e-05 1.52077e-05 0
1.22745e-05 -1.27128e-05 0
-1.05633e-05 -1.72096e-06 0
-6.82937e-06 3.18013e-07 0
-8.5367e-06 1.5802e-05 0
-2.24395e-05 1.37358e-05 0
2.0138e-05 1.80325e-05 0
-1.67207e-05 -1.95102e-05 0
2.49304e-05 5.23671e-06 0
-2.69416e-05 2.08651e-05 0
-1.89349e-05 7.23188e-06 0
-4.36076e-06 -1.32056e-05 0
1.2979e-05 8.62229e-06 0
3.26917e-06 -9.76472e-06 0
6.67366e-06 -1.98418e-06 0
1.27985e-05 -2.68365e-05 0
-2.55157e-05 -2.12287e-05 0
-4.48204e-06 -1.46438e-05 0
5.6699e-06 -2.72497e-05 0
-1.55793e-05 -8.2496e-06 0
-5.182e-06 3.85685e-06 0
1.17589e-05 -1.63927e-06 0
-5.28289e-06 3.68331e-06 0
7.94453e-06 3.08217e-06 0
1.70942e-05 -2.01213e-05 0
-8.16436e-07 -1.90315e-05 0
3.70449e-05 4.6469e-06 0
-1.78554e-05 6.31955e-06 0
-1.03022e-05 -1.0722e-05 0
4.30223e-06 1.8019e-05 0
-2.55413e-05 3.74748e-05 0
6.65089e-06 -3.01628e-06 0
-1.79199e-05 -7.1035e-06 0
1.87852e-05 -1.34751e-05 0
-1.24576e-06 2.42019e-05 0
-6.2389e-06 -9.89399e-06 0
2.1916e-05 -1.50469e-05 0
1.39495e-06 5.08454e-05 0
7.18432e-06 -2.14741e-05 0
-2.7185e-06 -3.18073e-06 0
-1.21951e-05 -2.96274e-05 0
-6.36038e-06 -8.8072e-06 0
5.48115e-06 6.8361e-08 0
1.79387e-05 -9.58747e-06 0
-1.60603e-06 -1.35775e-05 0
-8.446e-06 -1.87677e-05 0
-1.11474e-06 -1.293e-05 0
1.13798e-05 -9.37292e-06 0
0 1.24985e-10 0
8.64032e-06 -5.18279e-06 0
0 -4.6874e-10 0
8.77244e-06 6.90167e-06 0
4.62187e-07 -4.62316e-06 0
5.85746e-06 -2.8852e-05 0
2.29127e-05 4.51412e-06 0
0 -2.18805e-10 0
1.49214e-05 -7.49516e-06 0
1.87432e-10 0 0
-1.6177e-05 7.96575e-05 0
-2.27811e-05 1.14776e-05 0
-8.44795e-06 1.12561e-05 0
5.65623e-07 1.98071e-05 0
3.10408e-05 1.21038e-05 0
-1.56985e-05 4.30121e-05 0
-8.6452e-06 2.98509e-05 0
1.04205e-07 1.85056e-05 0
-8.48178e-06 -1.5667e-05 0
2.10816e-05 2.62815e-05 0
-1.48821e-05 1.06105e-05 0
-4.84462e-06 1.1832e-05 0
-1.37486e-05 1.82454e-05 0
-4.1581e-06 2.16103e-05 0
1.65576e-05 2.40041e-05 0
-1.73172e-06 -5.9069e-06 0
-2.18004e-06 1.5462e-05 0
-2.39667e-06 -1.17806e-06 0
-3.47602e-06 -1.29987e-05 0
-2.25654e-05 -2.3966e-05 0
-3.42769e-05 -1.71747e-06 0
-2.86334e-05 1.45504e-05 0
-2.10022e-05 8.92213e-06 0
3.07026e-05 5.17781e-05 0
1.31933e-05 2.52206e-06 0
8.95639e-06 2.11986e-05 0
-2.48756e-05 -1.43163e-06 0
-4.33979e-06 2.60959e-05 0
-1.85437e-05 4.00235e-05 0
-1.59894e-05 3.01484e-05 0
3.1764e-05 2.03335e-05 0
-2.55596e-05 2.09619e-05 0
-1.71108e-06 1.79506e-05 0
-2.39973e-05 1.46032e-06 0
-3.18392e-07 1.73117e-05 0
8.81452e-06 4.24483e-05 0
-1.88503e-05 1.21432e-05 0
-6.57111e-06 1.97709e-05 0
3.67758e-05 3.83597e-05 0
-1.56357e-07 1.66142e-05 0
8.43326e-06 6.7853e-06 0
3.42859e-06 1.19528e-05 0
1.88916e-06 1.35955e-05 0
1.34822e-06 1.43899e-05 0
2.35367e-13 1.24982e-10 0
1.63678e-06 -3.48568e-05 0
-1.53355e-05 -7.38691e-06 0
1.45222e-05 1.38153e-05 0
1.42674e-05 1.03126e-05 0
2.01899e-05 -1.50975e-06 0
3.99701e-06 1.98396e-06 0
-1.1833e-05 4.51227e-05 0
1.79529e-05 9.62135e-06 0
2.08357e-05 -4.47307e-06 0
6.60379e-06 -2.35982e-05 0
3.17792e-05 -2.41208e-06 0
1.59839e-06 -1.309e-05 0
3.19538e-05 8.35915e-06 0
4.89386e-13 -2.1875e-10 0
2.63482e-05 1.76431e-05 0
9.67226e-06 6.29274e-06 0
2.28032e-05 1.75609e-06 0
2.5181e-05 -1.28504e-05 0
-2.39364e-13 -4.6875e-10 0
6.24325e-06 -2.11617e-05 0
3.57048e-13 2.81248e-10 0
7.8807e-05 -8.28271e-07 0
-1.36238e-05 -3.06755e-05 0
-1.29408e-05 -1.2032e-05 0
2.33076e-05 2.97966e-05 0
8.87192e-06 2.4261e-05 0
-1.09465e-05 3.41226e-05 0
-3.12026e-10 0 0
1.21542e-05 3.88664e-05 0
-3.53427e-06 5.42202e-05 0
1.8724e-10 0 0
-1.7767e-05 5.88185e-06 0
-1.55077e-05 -8.60356e-06 0
1.48353e-05 3.43923e-05 0
-2.60636e-05 6.86728e-06 0
-4.01033e-06 -2.01132e-05 0
-1.81388e-05 1.61009e-05 0
2.07617e-05 2.29361e-05 0
1.27919e-05 2.40665e-05 0
-1.40707e-05 1.20145e-05 0
7.85648e-06 2.15921e-05 0
4.85868e-06 1.69418e-05 0
-2.49461e-05 3.28004e-06 0
-1.91297e-05 4.26245e-05 0
9.52918e-06 3.51991e-05 0
1.87454e-10 0 0
4.12307e-06 3.34612e-05 0
1.54301e-06 2.58552e-05 0
-8.54671e-06 -4.45627e-06 0
-7.42318e-06 1.23495e-05 0
-4.25281e-06 -3.53976e-06 0
-1.93378e-06 -4.04023e-06 0
-7.9615e-06 1.87193e-06 0
-5.06504e-06 1.99124e-05 0
8.16839e-06 3.93135e-05 0
3.78351e-06 4.93355e-06 0
7.79894e-06 1.64671e-06 0
9.49259e-06 -1.86177e-05 0
-1.7289e-05 -1.28943e-05 0
-3.12469e-05 -6.49599e-06 0
4.34244e-06 -1.26144e-05 0
1.0638e-05 5.74979e-05 0
-1.09549e-05 -3.1661e-05 0
1.16814e-05 8.03176e-06 0
8.14495e-07 -3.12549e-05 0
2.07658e-05 -2.49483e-05 0
2.9417e-06 1.87621e-05 0
-6.33211e-06 -1.82216e-06 0
2.25677e-05 1.70938e-05 0
1.41706e-05 -6.6087e-06 0
-2.98213e-06 2.7561e-05 0
-3.29453e-05 -2.65123e-05 0
-5.79994e-06 1.13714e-05 0
-3.79253e-06 -2.71937e-06 0
-1.219e-05 2.89168e-05 0
1.18055e-05 -1.81722e-05 0
5.81564e-05 2.12608e-05 0
-2.71508e-06 1.45523e-06 0
1.71435e-05 -9.83938e-06 0
-1.73612e-05 -2.04635e-05 0
1.17333e-05 2.89054e-06 0
3.29818e-05 -5.15463e-06 0
7.33159e-06 7.97675e-06 0
2.32731e-06 2.65344e-05 0
-6.82201e-06 -4.89742e-06 0
-8.12968e-07 6.74093e-07 0
-1.67108e-05 -1.32295e-05 0
-4.31277e-06 -5.73762e-06 0
1.03749e-05 6.73044e-06 0
-1.04206e-05 -2.67447e-05 0
2.80628e-06 3.85434e-07 0
3.84963e-06 -1.56522e-05 0
-1.25041e-05 3.39655e-06 0
-7.70017e-07 1.9351e-05 0
6.47679e-07 -1.28411e-06 0
3.03298e-05 4.27069e-05 0
-8.43406e-06 -3.31225e-06 0
-3.28292e-05 -5.18065e-06 0
6.37388e-06 1.79085e-05 0
1.34632e-06 3.44569e-05 0
3.00398e-05 -2.54409e-05 0
9.5956e-06 1.70648e-05 0
1.56328e-05 9.27123e-06 0
2.65812e-05 3.68206e-05 0
-4.31825e-06 4.24474e-05 0
-9.00366e-07 4.96871e-06 0
5.29528e-06 3.29485e-05 0
2.12855e-05 3.27169e-05 0
1.81488e-05 -1.85536e-05 0
-9.1948e-07 2.07028e-06 0
1.02508e-05 2.15017e-06 0
1.16234e-05 8.02061e-06 0
-6.92213e-06 2.11335e-05 0
-6.51935e-06 2.47644e-05 0
-2.42926e-06 1.71954e-05 0
2.66985e-06 2.31967e-05 0
-1.37615e-06 2.88904e-05 0
1.88876e-05 3.76171e-05 0
1.98181e-06 -5.35457e-06 0
-1.05363e-05 -1.39987e-05 0
-4.86672e-06 1.10615e-05 0
2.98425e-06 -7.12244e-06 0
1.99846e-07 1.6274e-05 0
2.83497e-06 -2.40321e-05 0
1.35338e-05 3.12589e-06 0
3.29077e-05 7.23939e-06 0
-1.68296e-06 -1.00704e-05 0
-5.67757e-06 -8.53636e-06 0
2.18931e-05 -2.10254e-05 0
-6.32911e-06 -3.39724e-06 0
-1.97726e-05 -1.1523e-05 0
-1.44237e-05 -8.99937e-06 0
2.15945e-05 -1.32393e-05 0
4.42181e-06 -2.42995e-06 0
-6.79668e-06 -1.37947e-05 0
2.5259e-05 -5.39563e-06 0
8.66192e-06 1.9512e-05 0
3.30026e-05 9.7461e-06 0
6.94915e-06 1.29234e-05 0
1.95815e-06 -2.50506e-06 0
-7.06273e-06 -3.94913e-05 0
2.66351e-05 9.03893e-08 0
-8.09742e-06 -5.83279e-07 0
1.57144e-05 8.33448e-06 0
2.12506e-06 7.73241e-06 0
1.52773e-05 5.17567e-06 0
1.15497e-05 -7.28564e-06 0
-2.39011e-05 -5.67799e-06 0
1.17856e-05 1.09444e-05 0
3.38748e-06 -2.605e-05 0
1.329e-05 -1.76026e-05 0
1.29478e-05 5.13515e-06 0
-3.10793e-06 -3.64485e-06 0
-2.27864e-06 3.59361e-06 0
-1.66131e-05 -1.13576e-07 0
-3.7747e-07 1.49857e-05 0
3.06967e-05 1.4174e-05 0
5.25883e-06 -1.54614e-05 0
2.07392e-06 8.60306e-06 0
-2.43521e-05 6.19366e-06 0
-5.18906e-06 -8.68014e-06 0
-1.60988e-05 -5.07213e-06 0
-8.1034e-06 -1.86298e-06 0
-1.35407e-05 1.55109e-05 0
-1.84647e-06 -1.32038e-05 0
2.44976e-05 -1.32435e-05 0
1.65866e-05 -6.51053e-06 0
2.40345e-05 -1.91073e-05 0
-7.53658e-06 -1.49705e-05 0
-1.07294e-05 -8.97762e-06 0
4.69602e-06 2.58193e-05 0
5.61577e-07 3.55579e-06 0
-1.06824e-05 2.37436e-05 0
-1.269e-05 6.32894e-06 0
-1.21507e-05 -2.61453e-06 0
8.36529e-06 -8.9923e-06 0
2.94432e-05 3.75715e-05 0
1.65774e-06 -2.1318e-05 0
2.03819e-06 1.82625e-06 0
2.19122e-05 2.05673e-05 0
-4.84434e-06 -2.51436e-05 0
3.45272e-06 -1.67167e-06 0
1.13994e-05 3.46641e-05 0
-7.92451e-06 -4.95758e-06 0
-5.30564e-07 -1.14247e-05 0
-1.67505e-06 -2.24909e-05 0
1.66264e-05 -2.15817e-05 0
1.78455e-05 -2.47208e-05 0
1.79325e-05 -2.34812e-06 0
-1.24356e-05 -1.55632e-05 0
8.02873e-06 -1.11136e-05 0
2.4418e-05 -3.11168e-05 0
2.5516e-05 -6.64581e-06 0
2.41011e-05 5.28845e-06 0
1.17058e-05 -3.22367e-05 0
1.56078e-05 -1.18545e-05 0
1.61271e-05 2.74481e-05 0
4.95336e-06 -7.23381e-06 0
7.58289e-07 1.08067e-05 0
1.43503e-05 1.09599e-06 0
1.24918e-05 6.13623e-06 0
3.7192e-06 8.26925e-06 0
-1.14794e-06 -1.40495e-05 0
2.7369e-06 -1.00302e-05 0
-9.2936e-06 2.77315e-05 0
1.11291e-05 1.93237e-05 0
1.50886e-05 -2.43157e-05 0
3.29637e-05 -1.15775e-05 0
1.98737e-05 1.87585e-05 0
1.08239e-05 1.48191e-05 0
-9.74928e-07 -2.63216e-06 0
1.55226e-05 3.82992e-06 0
1.09563e-05 2.07515e-05 0
8.53037e-06 1.34233e-05 0
-1.4135e-05 -1.12892e-05 0
0 1.24972e-10 0
0 -2.18604e-10 0
1.81151e-05 -2.99971e-05 0
3.92084e-06 -2.52867e-05 0
-1.75509e-05 -3.19333e-05 0
8.44327e-06 1.38162e-05 0
2.51608e-05 1.78664e-06 0
0 3.11033e-11 0
1.99805e-05 1.89925e-07 0
2.36626e-05 -4.60623e-06 0
5.3553e-06 -4.51238e-06 0
2.06815e-05 -6.65881e-06 0
3.9532e-05 -8.94496e-07 0
0 -2.19056e-10 0
3.32881e-05 -7.06151e-06 0
0 -4.68848e-10 0
1.13482e-05 4.91592e-05 0
-3.68011e-06 -4.13987e-05 0
-1.86674e-05 -5.60381e-05 0
2.26614e-05 -2.44925e-06 0
9.58996e-06 -1.62924e-05 0
1.94354e-05 1.76978e-05 0
-1.05717e-06 -2.76218e-05 0
2.62219e-05 -2.0222e-05 0
2.30777e-05 -1.48197e-05 0
1.89736e-05 3.30104e-06 0
-4.23982e-06 -2.17226e-06 0
2.34232e-05 3.0502e-05 0
7.05455e-06 -2.71351e-06 0
1.92475e-05 -1.64858e-05 0
-2.26673e-05 -2.94591e-05 0
-1.23701e-05 -4.65959e-06 0
2.1323e-05 -4.98304e-06 0
3.46927e-06 -2.49362e-05 0
2.92829e-06 -8.437e-06 0
1.12102e-06 -3.89213e-07 0
-5.59338e-06 -1.17168e-05 0
0 1.25028e-10 0
0 -4.68785e-10 0
5.91046e-06 -8.13745e-07 0
8.79827e-06 4.08781e-06 0
3.28769e-06 -1.76783e-06 0
-9.90315e-06 -3.15199e-05 0
4.9989e-06 2.28248e-05 0
0 -2.18752e-10 0
1.17751e-05 9.67469e-06 0
-2.62672e-05 -3.48053e-05 0
1.48331e-05 8.97372e-06 0
-7.82071e-06 -4.85308e-05 0
-1.39365e-05 -8.18528e-06 0
4.36651e-06 7.69441e-06 0
1.2168e-05 1.16946e-05 0
1.36407e-05 -2.82512e-05 0
6.73362e-06 -1.71525e-05 0
2.33034e-05 -3.24279e-05 0
-1.74001e-05 1.44595e-05 0
6.58736e-06 -3.55893e-06 0
-1.84767e-05 -1.15617e-05 0
-1.68444e-05 1.37929e-05 0
2.14427e-06 1.1586e-06 0
3.36144e-05 3.97167e-05 0
-3.00324e-06 1.75629e-05 0
4.60763e-06 -2.58557e-06 0
-1.43853e-05 4.95437e-05 0
-1.14964e-07 3.53535e-05 0
1.24146e-05 2.36045e-05 0
-3.0973e-05 3.31723e-05 0
-1.75038e-05 -2.54166e-07 0
-5.30581e-06 4.05932e-06 0
-1.43898e-05 -4.15777e-06 0
4.45855e-05 5.50646e-06 0
-1.38508e-05 3.79395e-05 0
5.15845e-05 3.85315e-05 0
3.21872e-05 5.71135e-06 0
1.45138e-06 2.11672e-05 0
2.33262e-06 5.91049e-06 0
-8.32769e-06 1.20274e-06 0
-3.04146e-06 -9.81402e-08 0
-2.15823e-05 5.19502e-05 0
-8.43588e-06 -1.16963e-07 0
1.48891e-05 -1.59949e-05 0
-2.49993e-10 0 0
-1.15519e-05 -7.88965e-06 0
-1.62008e-05 4.48829e-05 0
-9.20957e-06 3.87575e-05 0
-1.20132e-05 1.29168e-05 0
-1.09586e-05 2.65764e-05 0
-2.97773e-06 3.23892e-06 0
-5.25628e-06 7.61891e-06 0
-1.18219e-05 3.04683e-06 0
-3.12496e-10 0 0
-8.98499e-06 3.66143e-05 0
1.87509e-10 0 0
8.1456e-06 3.58067e-05 0
-2.50007e-10 0 0
-1.91992e-05 1.02482e-05 0
2.11689e-06 1.38161e-05 0
4.01206e-05 1.95156e-05 0
-2.84102e-05 -4.3672e-07 0
4.26138e-06 2.53169e-05 0
9.85276e-06 1.17577e-08 0
3.07502e-06 9.79308e-06 0
-2.07695e-05 -4.3003e-06 0
-7.7689e-06 4.04326e-06 0
-2.56832e-05 -7.66739e-06 0
-6.68995e-06 -2.40039e-06 0
-1.0866e-05 8.32222e-06 0
-1.6619e-05 -9.47426e-06 0
-1.16402e-05 6.00937e-06 0
-2.92465e-05 1.07966e-05 0
-1.90979e-05 -2.16095e-05 0
-9.1504e-06 5.86296e-05 0
1.46918e-05 3.67272e-05 0
-1.03056e-05 3.34763e-05 0
5.1854e-06 3.96728e-06 0
1.32359e-05 -1.98309e-05 0
-1.13243e-14 3.12411e-11 0
3.72829e-06 -3.55662e-05 0
5.41789e-14 2.81262e-10 0
6.68014e-06 -1.39496e-05 0
-7.90492e-07 -3.34506e-05 0
3.95901e-06 1.25284e-05 0
2.83433e-05 -4.70754e-06 0
-8.88178e-16 3.12526e-11 0
8.36933e-06 2.30639e-06 0
1.69911e-05 7.05655e-06 0
3.26823e-05 -4.66773e-06 0
2.52031e-05 1.86456e-05 0
2.12261e-05 -1.78089e-05 0
-5.18835e-07 -5.1011e-06 0
-1.39411e-05 6.92335e-05 0
-1.70962e-05 5.74439e-06 0
9.63094e-06 3.12273e-06 0
1.69658e-05 7.71044e-06 0
-5.77965e-07 2.73655e-05 0
-1.25301e-05 3.42702e-05 0
7.59358e-07 1.62443e-05 0
-7.07758e-06 2.31678e-05 0
3.90067e-06 3.6346e-05 0
-2.4977e-10 0 0
-3.12323e-10 0 0
-7.80483e-09 1.58767e-05 0
-4.54949e-06 2.52355e-05 0
1.87758e-10 0 0
-2.8583e-06 8.05541e-06 0
-1.66254e-05 3.66287e-05 0
-2.49759e-10 0 0
-8.94211e-06 1.07627e-05 0
2.77558e-05 5.39667e-05 0
-2.96186e-06 3.91603e-05 0
9.59278e-07 4.90468e-06 0
1.1014e-05 1.16313e-05 0
5.82413e-06 -1.40976e-05 0
-9.50977e-06 -5.59175e-06 0
-9.17696e-06 -2.05706e-05 0
-3.28559e-06 2.49709e-06 0
2.47868e-06 -1.63614e-05 0
-1.64634e-05 -1.05143e-05 0
1.45597e-05 1.63605e-05 0
-5.7143e-06 7.34315e-06 0
-1.37393e-05 1.28322e-06 0
-4.11537e-06 5.34952e-06 0
1.47593e-05 8.20775e-06 0
3.61547e-05 -3.29637e-05 0
2.7738e-05 -2.65881e-06 0
-9.04945e-06 -2.17798e-05 0
1.32415e-05 2.59423e-05 0
3.45063e-05 -2.22071e-06 0
1.89701e-05 1.52706e-05 0
2.43502e-07 2.71065e-06 0
1.38196e-05 -2.41397e-05 0
-4.13635e-06 2.61531e-05 0
9.57562e-06 6.53348e-06 0
1.50566e-05 5.1797e-06 0
-1.83223e-05 -1.38585e-05 0
-9.59737e-06 2.4401e-05 0
1.16805e-05 -3.08055e-05 0
-1.42725e-05 1.88564e-05 0
1.75202e-05 -1.25204e-05 0
2.43978e-05 7.30916e-06 0
5.53189e-06 1.29604e-06 0
-4.26578e-06 -4.12038e-06 0
1.22701e-05 6.00166e-06 0
2.39888e-05 1.88926e-05 0
2.04064e-05 -2.35925e-05 0
-2.18262e-06 -1.85209e-06 0
7.26475e-08 3.76437e-05 0
1.20978e-06 -4.14376e-05 0
-1.32153e-06 3.5947e-06 0
2.65093e-05 -8.51438e-06 0
1.16882e-06 5.55778e-06 0
8.92702e-07 -2.27966e-05 0
-6.99596e-06 2.88865e-06 0
-4.52842e-06 -2.78187e-05 0
-7.93565e-06 -4.7012e-06 0
-1.03674e-06 -1.71066e-05 0
-8.12846e-06 -2.9017e-06 0
6.95512e-06 2.78189e-05 0
2.83982e-05 1.99526e-05 0
-7.7421e-06 -4.40814e-06 0
-6.71624e-06 -1.14003e-05 0
5.14635e-06 1.02094e-05 0
-2.85747e-06 1.67831e-05 0
8.36881e-06 1.39011e-05 0
2.274e-05 1.67869e-05 0
1.49685e-05 2.24399e-05 0
-5.94829e-06 -1.97634e-05 0
-1.87053e-05 -1.79664e-06 0
-1.36883e-05 -1.75202e-05 0
-6.28792e-06 -3.2435e-05 0
1.44977e-05 -7.55609e-06 0
2.1595e-05 -1.63673e-05 0
3.91342e-05 7.47743e-06 0
1.48626e-05 2.40239e-05 0
-5.37216e-06 7.2862e-06 0
2.46e-05 -3.38355e-05 0
2.6736e-05 2.01281e-06 0
9.23808e-06 3.31482e-05 0
2.16733e-05 -1.6704e-05 0
7.2478e-06 -2.46283e-05 0
3.32864e-05 -4.46136e-06 0
2.05332e-05 1.49216e-05 0
9.19785e-06 -2.00392e-05 0
1.30795e-07 -3.99242e-05 0
1.59781e-05 2.34558e-06 0
2.81745e-05 1.19926e-05 0
9.01861e-06 1.01512e-06 0
0 -4.68899e-10 0
1.08643e-05 1.8804e-05 0
0 1.25023e-10 0
3.10968e-05 -1.28353e-05 0
-8.34946e-06 -2.10346e-05 0
-5.37622e-06 1.37622e-05 0
2.04129e-06 -1.83982e-05 0
2.31917e-05 -2.83532e-05 0
6.61941e-06 2.17148e-06 0
-2.75857e-06 -1.72597e-05 0
2.65907e-05 8.74419e-07 0
1.09124e-05 1.65378e-05 0
-2.31605e-06 2.83232e-06 0
1.75448e-06 1.55557e-05 0
-2.02513e-06 2.31908e-06 0
1.33517e-05 9.50071e-06 0
-1.16915e-05 3.33147e-05 0
-2.57293e-05 3.90445e-05 0
8.72458e-08 5.11822e-06 0
-5.00001e-06 3.38244e-06 0
-8.11894e-06 -2.57233e-05 0
7.26367e-06 -1.0533e-05 0
6.65254e-06 3.77982e-05 0
-1.00197e-05 5.78603e-06 0
-2.96295e-05 -3.24431e-05 0
6.59297e-08 -1.52194e-05 0
-1.28678e-05 5.78979e-06 0
2.40891e-05 -2.47674e-05 0
-5.9327e-06 -2.39857e-06 0
8.08075e-06 -1.40958e-05 0
1.0429e-05 4.67892e-06 0
-5.59251e-06 -1.53373e-05 0
1.4154e-05 2.32206e-06 0
1.68333e-05 7.31569e-06 0
-5.96131e-06 -7.18824e-06 0
7.72631e-07 1.94215e-05 0
-1.96303e-05 -1.16348e-07 0
-1.39571e-05 1.68625e-05 0
3.51195e-06 1.26868e-05 0
-7.76364e-06 -2.99165e-05 0
1.65893e-06 -5.18972e-05 0
-1.26009e-05 -4.09614e-06 0
6.55601e-06 1.78923e-05 0
5.44429e-06 -1.22037e-05 0
2.852e-05 1.82266e-06 0
-1.36802e-05 -1.78736e-06 0
6.43378e-07 2.4688e-05 0
-3.94631e-06 -3.19883e-05 0
2.02346e-06 -2.51574e-05 0
1.31692e-06 2.08139e-05 0
1.48217e-05 6.66698e-06 0
1.66469e-05 -1.90298e-05 0
2.63519e-06 -6.81053e-06 0
1.95886e-05 -2.46154e-05 0
2.9659e-05 7.00116e-06 0
-1.13191e-06 -4.92234e-06 0
2.32665e-05 -1.41605e-05 0
-2.63989e-06 1.13902e-05 0
1.98055e-05 1.84103e-05 0
1.23277e-05 -1.5575e-05 0
7.48085e-06 6.5259e-06 0
7.7507e-06 4.46361e-06 0
3.14564e-05 2.49953e-05 0
-9.23115e-06 3.51549e-05 0
8.22181e-06 -2.0619e-05 0
5.36337e-07 -1.45977e-05 0
7.93736e-06 -3.33733e-07 0
0 1.2498e-10 0
0 2.81269e-10 0
9.05131e-06 5.90171e-05 0
-1.57654e-05 -1.8029e-05 0
4.66392e-06 4.93953e-06 0
0 1.25014e-10 0
3.22012e-05 -1.91818e-05 0
0 2.81269e-10 0
-5.95566e-06 -4.41763e-05 0
1.03276e-05 9.10942e-06 0
0 3.12876e-11 0
5.15828e-05 3.04663e-05 0
-1.50657e-05 -2.41102e-05 0
-2.78868e-06 9.15321e-06 0
-2.49994e-10 0 0
3.67366e-06 7.86014e-06 0
-6.65768e-06 1.8162e-05 0
-1.91113e-05 2.39992e-05 0
-1.06405e-05 7.76705e-06 0
-1.66797e-05 2.61641e-05 0
-3.12514e-10 0 0
-6.96576e-06 1.19069e-05 0
-6.44273e-06 -3.86688e-05 0
-1.01562e-05 -3.06155e-05 0
-4.26475e-06 -3.62649e-05 0
7.75295e-06 2.18748e-05 0
7.80821e-06 -6.99913e-06 0
2.03361e-05 -3.30869e-06 0
-1.42636e-05 -1.38648e-05 0
-1.45307e-06 -9.40956e-06 0
-3.56449e-05 4.75615e-06 0
-5.03819e-13 1.24998e-10 0
-3.48813e-05 -2.6738e-05 0
-6.43398e-06 3.83682e-05 0
-2.50874e-10 0 0
-1.29067e-05 -3.1413e-05 0
-9.21954e-07 2.07833e-05 0
-3.12174e-10 0 0
-1.44965e-05 9.47028e-06 0
1.33663e-05 3.10788e-05 0
-2.15208e-06 1.4443e-05 0
1.87814e-10 0 0
-4.26798e-07 2.92634e-05 0
-1.07102e-06 -3.42139e-05 0
1.94935e-06 -1.46013e-05 0
-1.50346e-05 -3.23606e-05 0
5.54437e-06 -2.7269e-05 0
-1.59116e-05 -8.40693e-06 0
8.08516e-06 -1.41494e-05 0
7.26733e-06 -1.37387e-05 0
2.17268e-05 -1.04049e-05 0
2.09132e-05 9.39495e-06 0
2.0922e-05 -3.54328e-05 0
5.92005e-06 -4.43753e-05 0
2.0435e-05 -2.09527e-05 0
-9.983e-06 -2.68529e-05 0
1.50992e-05 5.98418e-06 0
4.83035e-06 -1.11113e-05 0
-8.75479e-06 4.24484e-06 0
-1.3888e-05 1.37336e-06 0
6.97439e-06 6.76713e-07 0
1.54188e-05 1.63356e-06 0
3.72364e-06 3.38069e-05 0
-2.99213e-05 -7.26129e-06 0
1.393e-05 -1.70433e-05 0
-1.07687e-05 3.40497e-05 0
2.24136e-05 -1.55269e-07 0
-4.51008e-06 -2.18899e-05 0
2.93894e-05 3.77789e-06 0
-4.99094e-06 1.64608e-05 0
-1.02238e-06 -2.17391e-05 0
9.32094e-06 -6.23669e-08 0
2.26231e-05 -3.01978e-05 0
-3.25139e-06 9.47486e-06 0
7.81936e-06 4.41529e-06 0
1.72151e-06 -6.43576e-06 0
1.0948e-05 2.24363e-06 0
-4.68017e-06 -1.47937e-05 0
-6.82673e-06 -1.96177e-05 0
6.55556e-06 -1.16612e-05 0
-9.45836e-06 -1.87341e-05 0
1.88267e-06 -1.09575e-05 0
-2.02229e-05 -3.22483e-06 0
2.38317e-06 -1.39266e-05 0
-7.21263e-06 -2.70242e-05 0
-2.34539e-05 -2.30602e-05 0
-8.12038e-06 -1.98326e-05 0
3.10042e-05 1.13861e-06 0
-1.31791e-06 -1.65698e-05 0
-3.23774e-07 1.53241e-05 0
2.22329e-05 1.61318e-05 0
1.22985e-05 8.59195e-06 0
1.32611e-05 2.09733e-05 0
1.42039e-05 -8.01088e-06 0
-1.84108e-05 -1.54281e-05 0
3.64098e-06 6.97329e-06 0
-1.81409e-05 -1.67246e-05 0
2.2171e-05 1.03701e-05 0
2.92138e-05 5.38572e-05 0
1.23976e-05 2.85262e-05 0
1.91535e-05 -1.31638e-05 0
3.85333e-05 -3.2187e-05 0
1.74675e-06 3.70934e-05 0
4.68597e-05 2.95212e-06 0
1.0375e-05 3.2528e-06 0
-2.0067e-05 1.74896e-05 0
3.81742e-06 -6.64223e-06 0
7.60369e-06 -1.54751e-05 0
1.30042e-05 -1.60757e-05 0
-1.25937e-05 -2.51571e-05 0
2.89162e-05 2.518e-05 0
6.69804e-06 -2.03178e-05 0
6.11502e-06 -6.26469e-06 0
1.70847e-05 -2.76744e-06 0
-2.78515e-06 1.85376e-06 0
1.24275e-05 1.89304e-05 0
-1.83395e-05 -1.66593e-05 0
-2.09145e-05 -9.29332e-06 0
-1.14407e-05 -1.61031e-05 0
8.92079e-06 -2.66878e-06 0
-2.46905e-05 -1.86562e-05 0
-6.89722e-06 -2.07663e-06 0
9.09709e-06 9.95275e-07 0
-4.18274e-06 1.16938e-05 0
-1.21752e-05 -1.44306e-05 0
-8.43275e-06 -4.08548e-07 0
2.72297e-05 -3.19829e-06 0
9.12904e-06 -2.44705e-05 0
5.82107e-06 3.24595e-05 0
-1.22996e-06 5.28317e-06 0
7.50947e-06 1.00655e-05 0
2.50117e-06 1.39759e-05 0
1.78751e-05 5.36862e-06 0
2.44407e-06 4.72417e-05 0
-1.91553e-05 -2.87613e-06 0
1.86507e-05 -6.06453e-05 0
4.72781e-06 3.49726e-05 0
2.55163e-05 6.79552e-06 0
3.79699e-06 4.8278e-06 0
4.30151e-05 2.3785e-06 0
-3.33543e-05 -1.72682e-06 0
9.69892e-06 -4.46115e-05 0
-1.06942e-05 4.66872e-06 0
1.96178e-05 -9.0397e-06 0
1.20553e-05 5.05419e-06 0
-1.32743e-05 2.78303e-06 0
1.67802e-05 2.1325e-05 0
3.12368e-05 -2.07512e-06 0
-1.89784e-05 -1.90841e-06 0
1.92652e-05 1.58884e-05 0
-2.62507e-06 1.10011e-05 0
2.34069e-05 7.17912e-06 0
-2.39588e-05 3.37588e-05 0
2.4657e-06 -1.40417e-05 0
-2.25934e-05 3.3138e-06 0
-8.19049e-06 -2.63973e-06 0
-5.48032e-06 2.72871e-05 0
2.00316e-06 -1.53006e-05 0
3.03988e-05 1.5445e-05 0
6.12634e-06 -3.84083e-06 0
4.9554e-06 3.22869e-06 0
-5.29405e-06 9.66984e-06 0
-5.09009e-06 5.25743e-05 0
-2.27365e-06 8.99697e-06 0
8.33569e-06 3.68014e-06 0
-7.46691e-06 4.14915e-06 0
-4.70402e-06 1.32973e-05 0
-5.24623e-06 -3.12033e-05 0
-8.42161e-06 8.36333e-06 0
-8.71081e-06 -1.23383e-05 0
1.05228e-05 9.93214e-06 0
-4.96165e-06 3.94987e-06 0
6.94182e-06 1.20248e-05 0
-5.80054e-06 1.31999e-05 0
-8.90799e-06 -3.08501e-06 0
1.78924e-05 3.16067e-05 0
2.21724e-06 2.59901e-05 0
1.1713e-05 1.01134e-05 0
-1.02227e-05 1.60063e-05 0
1.24507e-05 2.95461e-05 0
5.57062e-06 3.02398e-06 0
-3.04756e-06 8.76713e-06 0
1.42671e-06 1.72917e-05 0
-8.37526e-07 3.32909e-05 0
-1.40008e-05 -3.09759e-05 0
5.23385e-06 1.51192e-05 0
-2.28888e-05 -1.85883e-05 0
-1.25765e-05 2.54814e-06 0
5.46315e-06 -1.28494e-05 0
-1.33919e-05 -1.1226e-05 0
-2.67991e-06 -1.04071e-05 0
-6.71893e-06 3.02707e-05 0
-3.25196e-06 1.63507e-05 0
8.67831e-06 -3.73647e-05 0
-4.51801e-07 -3.92173e-06 0
5.22305e-07 -3.4103e-05 0
-1.11365e-05 1.08357e-05 0
2.09166e-05 8.58551e-06 0
-3.04356e-06 3.91654e-06 0
-1.03451e-05 -1.65093e-05 0
-2.12529e-06 3.64527e-06 0
1.56824e-05 1.14253e-06 0
-1.33068e-05 -4.07161e-05 0
1.17882e-05 3.25107e-05 0
-2.41621e-05 -1.8748e-05 0
-1.33298e-05 6.73708e-06 0
1.78694e-05 3.05e-05 0
-1.44327e-05 -1.28304e-06 0
3.59946e-05 1.09236e-05 0
-2.08989e-05 -1.40804e-05 0
-1.2028e-05 -3.70187e-06 0
3.06799e-05 2.37871e-06 0
-8.05018e-06 2.52083e-05 0
1.10723e-05 -4.97745e-06 0
-1.26558e-05 7.04469e-06 0
-1.20334e-05 -9.45751e-06 0
1.20677e-05 -1.86053e-05 0
1.44668e-05 -8.98844e-06 0
-4.01796e-06 9.33102e-06 0
1.19304e-06 1.84683e-05 0
1.14432e-05 -1.81081e-05 0
1.90154e-05 -8.25226e-06 0
-1.99147e-05 -2.02949e-05 0
-5.61169e-06 2.00383e-05 0
-5.64669e-06 1.86562e-05 0
1.29745e-05 1.25746e-05 0
1.03648e-05 -2.96126e-06 0
1.45642e-05 -3.6802e-05 0
2.47916e-05 -2.62521e-05 0
1.78462e-05 -2.37597e-05 0
3.21465e-05 -9.48539e-06 0
-2.19999e-06 3.54369e-05 0
9.34502e-06 6.62853e-06 0
2.73716e-05 7.11091e-06 0
8.17093e-06 -6.73922e-06 0
2.45999e-06 -6.93815e-06 0
1.75306e-05 -1.15302e-05 0
1.3929e-05 -3.91821e-06 0
-2.74796e-06 -9.47448e-06 0
-1.30979e-06 -1.26489e-05 0
3.33573e-05 -5.68379e-06 0
-7.54465e-06 -1.64674e-05 0
2.70613e-05 -7.82933e-06 0
-3.56325e-06 -2.52777e-05 0
-9.17703e-06 -3.13987e-06 0
9.18198e-06 -2.29905e-05 0
3.76305e-06 -2.23405e-05 0
8.27669e-06 -8.94065e-06 0
5.33289e-06 -1.45326e-05 0
8.73978e-06 -5.65398e-06 0
-8.69991e-06 -1.76303e-05 0
3.13364e-05 3.01818e-05 0
6.24027e-06 -1.77235e-05 0
3.2659e-05 4.81012e-05 0
9.29896e-06 2.50748e-06 0
3.95279e-06 1.13814e-05 0
-2.19508e-05 1.22119e-05 0
2.7444e-06 -1.15367e-05 0
-2.56588e-06 -2.03876e-05 0
1.72142e-05 9.79085e-06 0
-1.85123e-05 -2.28734e-05 0
-1.83019e-05 -1.21377e-05 0
-1.17025e-05 -2.00986e-05 0
-1.09419e-05 3.36114e-05 0
-3.67092e-06 -1.01257e-06 0
1.45931e-05 -2.54132e-06 0
1.62361e-05 4.41641e-05 0
-1.49936e-05 1.6642e-05 0
-1.17744e-05 -8.05092e-06 0
-1.14491e-05 2.14031e-05 0
-9.28546e-07 -1.84887e-05 0
1.75437e-07 -1.56405e-05 0
-3.76483e-06 -6.87599e-06 0
5.05805e-06 -4.35056e-06 0
-2.01667e-05 3.18242e-05 0
7.04536e-06 -3.57278e-06 0
-1.08869e-05 -2.03205e-05 0
1.57836e-06 1.12815e-05 0
-2.42188e-06 -1.63248e-05 0
3.33312e-06 -3.88191e-05 0
-7.9749e-07 -9.57335e-07 0
6.48228e-06 -6.70903e-06 0
-1.59337e-05 -3.71637e-05 0
1.40238e-05 -5.79405e-06 0
-8.17229e-06 -2.285e-06 0
2.70322e-05 1.81535e-05 0
-3.1817e-06 -5.27109e-06 0
-3.68936e-07 -4.81363e-06 0
-9.3346e-06 -1.19663e-05 0
2.00641e-06 -6.83527e-06 0
-1.05872e-05 -2.80088e-05 0
-6.27884e-06 -1.05498e-05 0
1.03188e-05 -1.97308e-05 0
1.54681e-05 -8.73949e-06 0
3.39193e-05 -3.6234e-07 0
3.21781e-05 2.55048e-05 0
5.49076e-06 -2.62823e-05 0
8.20184e-06 -1.59148e-06 0
1.25219e-05 -2.69828e-05 0
2.46076e-05 9.09871e-06 0
-2.36182e-05 -5.8535e-06 0
1.27718e-05 3.5041e-05 0
3.37459e-05 8.84423e-06 0
1.129e-05 -2.57841e-05 0
-1.18492e-05 -4.58662e-05 0
-8.23872e-06 8.16913e-06 0
0 4.99984e-10 0
0 3.1214e-11 0
1.27689e-06 -1.75383e-05 0
-1.87355e-05 3.70514e-06 0
-2.7829e-06 1.78712e-06 0
-2.86756e-05 -1.46071e-05 0
-4.05369e-06 -2.49155e-05 0
2.41019e-05 3.00303e-05 0
0 1.24958e-10 0
3.56737e-05 -1.114e-05 0
0 3.11954e-11 0
2.22036e-05 -1.12023e-05 0
2.67571e-05 4.0149e-05 0
1.13556e-06 -2.5964e-05 0
1.01557e-05 -2.83809e-05 0
-1.5176e-06 -4.48792e-06 0
2.42743e-05 1.17803e-05 0
1.07877e-05 1.31612e-05 0
2.73654e-05 -1.7413e-05 0
4.22214e-05 2.20509e-05 0
3.07319e-05 -2.81122e-05 0
-1.34242e-05 -3.3506e-05 0
1.29257e-05 2.80035e-05 0
1.36615e-05 1.65505e-05 0
1.47729e-06 2.82147e-05 0
-7.29791e-06 2.92111e-05 0
-5.48621e-06 -6.32049e-06 0
2.45632e-06 3.07425e-06 0
-3.02453e-05 -1.94755e-05 0
-3.12498e-10 0 0
-1.79153e-05 9.82506e-07 0
6.94144e-06 3.57956e-07 0
-5.24739e-06 -5.84565e-06 0
-9.1028e-06 1.41534e-05 0
1.8749e-10 0 0
1.93511e-05 2.6611e-05 0
2.64899e-05 1.07859e-05 0
2.9348e-05 4.68938e-06 0
2.85856e-05 -1.67694e-05 0
4.30853e-06 5.79364e-06 0
1.53211e-13 3.12504e-11 0
9.69098e-06 1.96679e-06 0
-3.43059e-13 2.81249e-10 0
5.32665e-05 3.47356e-06 0
4.5548e-05 2.46937e-06 0
2.34823e-05 1.15439e-05 0
2.10536e-05 -2.8697e-05 0
2.10731e-05 1.82672e-05 0
7.27855e-06 2.77414e-05 0
-5.4623e-13 1.25e-10 0
-1.08854e-06 1.05651e-05 0
8.657e-07 -9.45148e-06 0
4.96629e-06 -3.67272e-07 0
6.71438e-06 2.41668e-05 0
-2.09387e-07 -3.9804e-06 0
-3.12864e-10 0 0
-1.67129e-05 3.2542e-05 0
-6.94823e-06 2.25935e-05 0
-1.0685e-05 2.58568e-05 0
-1.26073e-05 5.79693e-06 0
2.36962e-05 2.97565e-05 0
1.87841e-10 0 0
2.71907e-05 -1.34607e-05 0
-1.00056e-05 6.16658e-05 0
-1.02932e-05 -1.94117e-05 0
-2.40586e-05 -1.1987e-05 0
-1.01098e-05 1.37192e-05 0
-2.72427e-05 -2.02773e-05 0
-1.57776e-05 9.56409e-06 0
-1.73634e-05 -4.21028e-05 0
-1.68928e-06 -7.5168e-06 0
7.88092e-06 7.1506e-06 0
-9.07998e-06 -4.28314e-06 0
-1.44387e-06 -4.21883e-06 0
1.6704e-05 1.05695e-05 0
-7.72118e-06 -2.37274e-05 0
-1.96285e-05 9.68495e-06 0
1.13948e-05 4.10421e-05 0
-1.07895e-05 3.29756e-05 0
2.45685e-06 -1.70226e-05 0
-2.31619e-05 1.14064e-06 0
2.09877e-05 1.59243e-05 0
3.58034e-06 7.05013e-06 0
-6.51412e-06 7.6565e-06 0
-2.58459e-05 -9.28401e-06 0
1.78085e-05 2.32864e-05 0
2.15501e-06 1.78738e-05 0
1.16613e-05 1.33987e-05 0
6.52644e-06 1.18926e-05 0
1.40713e-05 -1.22599e-05 0
-1.42674e-05 -5.74118e-06 0
-2.14221e-05 2.13992e-05 0
-4.07766e-06 -2.93193e-05 0
1.39342e-08 1.02531e-05 0
8.62202e-06 -4.42877e-06 0
1.82025e-06 -3.50311e-05 0
1.12993e-05 1.35041e-05 0
-6.09863e-06 3.08195e-05 0
1.25293e-05 6.52337e-06 0
-3.73882e-05 -6.78923e-06 0
-6.91448e-07 -1.38805e-06 0
2.35855e-05 1.37864e-05 0
-6.53655e-06 3.12839e-05 0
-8.99465e-06 -1.17075e-05 0
-2.00218e-05 -2.01087e-05 0
-1.24725e-05 -5.12488e-06 0
-3.70518e-06 2.55225e-05 0
-9.13415e-06 -1.14241e-05 0
1.68964e-06 9.13148e-06 0
1.58114e-05 -4.07649e-06 0
-7.53295e-06 -1.65123e-05 0
-1.87438e-06 -1.95465e-05 0
1.38205e-05 8.36044e-06 0
-2.60534e-06 -8.44908e-06 0
9.29943e-06 7.26478e-06 0
4.12435e-05 1.37863e-05 0
3.97491e-05 5.54308e-06 0
1.47686e-05 -3.54526e-05 0
-1.88325e-05 3.10632e-06 0
-1.09167e-05 -4.21181e-05 0
4.0076e-07 -1.74374e-05 0
1.31383e-05 9.64951e-06 0
1.71029e-05 1.89059e-05 0
-2.03646e-05 -1.77568e-05 0
1.38884e-06 -3.52591e-06 0
1.28494e-05 -4.08938e-06 0
-1.49413e-05 3.64852e-05 0
-1.23063e-05 1.50306e-05 0
9.64134e-06 -1.2778e-06 0
3.43994e-05 -1.73051e-05 0
1.03349e-05 -4.54246e-05 0
-5.96729e-06 -1.7365e-05 0
-1.7172e-05 2.47942e-05 0
-2.21193e-05 8.52107e-06 0
7.24593e-06 -1.34636e-05 0
1.50789e-05 1.01876e-05 0
-1.30255e-05 -1.20864e-05 0
9.67017e-06 -1.4553e-05 0
1.50469e-05 -1.272e-05 0
1.55625e-05 -1.85948e-06 0
4.36122e-05 -6.60912e-06 0
-2.10245e-05 -1.85631e-05 0
-7.63301e-06 -1.26422e-05 0
1.19012e-05 -1.92003e-05 0
4.68319e-05 6.64987e-06 0
-3.42831e-05 -1.53425e-05 0
1.60835e-05 2.48501e-05 0
2.8295e-05 -4.76545e-06 0
-1.12928e-05 -1.77732e-05 0
-5.80928e-06 6.15895e-06 0
1.57082e-05 -6.33259e-06 0
-2.33759e-05 -2.63282e-05 0
6.86482e-06 -5.69329e-06 0
3.41214e-05 -3.13835e-05 0
-3.40375e-06 -1.61926e-05 0
7.37881e-06 9.61714e-06 0
-8.14796e-07 3.41866e-05 0
3.61219e-06 -3.73433e-05 0
-4.27074e-06 -1.73778e-05 0
5.89616e-06 -3.67629e-05 0
-6.92761e-06 -2.28276e-06 0
2.52425e-06 -2.98256e-06 0
-1.44576e-07 -1.74516e-05 0
9.92262e-06 4.17087e-06 0
9.02909e-06 2.78215e-05 0
3.09341e-06 6.25528e-06 0
4.06958e-05 -2.67789e-06 0
-1.11594e-05 -2.17678e-05 0
-1.05752e-05 1.12858e-06 0
1.4046e-05 1.16142e-05 0
-9.36122e-08 -6.47919e-06 0
2.22434e-05 -2.36406e-05 0
1.98828e-05 6.23212e-06 0
-7.30366e-06 -4.31511e-06 0
-7.28681e-06 -1.06489e-05 0
1.60489e-05 -8.0917e-06 0
1.33003e-05 -1.45283e-05 0
9.23472e-07 -1.1262e-05 0
-1.36587e-05 1.0158e-05 0
2.68267e-05 -9.6009e-07 0
-6.25852e-06 -1.46965e-05 0
8.19951e-06 1.05312e-06 0
4.80122e-08 -6.04234e-06 0
3.26754e-05 1.28938e-05 0
1.875e-06 -2.71276e-05 0
-2.4685e-05 4.83012e-06 0
8.23944e-06 1.37705e-05 0
3.04206e-06 -8.9527e-06 0
-8.91876e-06 -5.03722e-06 0
-1.21977e-07 -1.88865e-05 0
-6.61626e-06 -4.60009e-06 0
-2.07755e-06 -1.99816e-05 0
1.47858e-05 -2.04811e-06 0
2.45102e-06 -2.00411e-05 0
-1.15861e-06 -3.02249e-06 0
1.61429e-05 1.13415e-05 0
4.45958e-06 7.64216e-06 0
4.33706e-05 1.68152e-05 0
1.48665e-05 -1.23657e-05 0
1.67952e-05 2.07333e-05 0
2.35547e-05 -1.03258e-05 0
2.19281e-05 4.0299e-05 0
5.63534e-06 -1.15245e-05 0
-2.74173e-05 -3.31054e-05 0
-1.03216e-05 -2.06604e-05 0
2.06403e-05 -1.99969e-05 0
-2.59187e-06 -2.13787e-06 0
1.12996e-05 -1.40776e-05 0
9.96598e-07 2.79354e-06 0
-5.29761e-06 -4.08963e-05 0
4.62128e-07 5.51474e-06 0
1.40746e-05 3.02836e-06 0
-6.12409e-06 1.90501e-05 0
-2.3615e-05 -3.10752e-06 0
1.20949e-05 9.12823e-06 0
4.69466e-06 1.85978e-05 0
1.08115e-06 -1.49496e-05 0
3.14847e-05 -1.59659e-05 0
1.77589e-05 6.24682e-06 0
1.42013e-05 7.09425e-06 0
9.52885e-06 3.9182e-05 0
-7.68497e-06 4.03684e-05 0
1.76007e-05 4.36872e-05 0
2.13244e-05 2.39563e-05 0
-2.32209e-05 -1.66651e-05 0
2.21104e-05 -1.80177e-05 0
4.29295e-06 3.45395e-05 0
-4.07254e-07 1.05543e-05 0
3.0084e-05 -1.15581e-05 0
1.83535e-05 4.56317e-06 0
3.47469e-05 1.75251e-05 0
1.31443e-05 -5.15137e-06 0
3.20232e-05 7.3959e-06 0
5.84617e-06 2.82043e-06 0
1.72691e-05 -9.09585e-06 0
-8.61202e-06 -3.49782e-05 0
1.01329e-05 -8.16243e-06 0
-3.09804e-06 -1.05765e-05 0
4.10466e-06 1.46342e-05 0
6.04207e-06 4.97636e-06 0
-9.45451e-06 -3.54197e-05 0
2.5546e-05 2.58141e-05 0
6.92702e-06 -1.68961e-05 0
1.11811e-05 4.20517e-06 0
2.4223e-05 -2.51158e-05 0
1.97173e-05 1.38257e-05 0
-7.51692e-06 -7.9786e-06 0
1.68171e-05 -1.3314e-05 0
1.15141e-06 -9.69413e-06 0
8.84902e-07 3.52028e-05 0
3.50465e-07 -9.91435e-06 0
1.74233e-05 5.25244e-06 0
4.08131e-05 1.68544e-05 0
-2.01215e-05 4.95111e-06 0
-5.19231e-06 1.10297e-05 0
2.99497e-05 3.54162e-05 0
6.03752e-06 -6.93715e-06 0
1.39609e-05 1.31134e-05 0
-3.88911e-06 -2.15898e-05 0
1.49886e-05 -6.34184e-06 0
-1.14048e-05 -5.16425e-05 0
1.05546e-05 1.04075e-05 0
-1.3441e-05 -2.31375e-05 0
2.88565e-05 -1.26615e-05 0
5.89662e-07 -2.8207e-06 0
-9.39917e-06 -1.64594e-05 0
-5.4022e-06 1.19921e-05 0
-2.29577e-05 1.11128e-05 0
-3.00691e-06 -1.06568e-05 0
-1.80974e-05 1.35903e-05 0
1.20284e-05 -7.07151e-06 0
1.52623e-05 -2.29792e-05 0
-1.36334e-05 5.02739e-06 0
3.10324e-06 -9.31831e-09 0
1.69744e-05 1.34162e-06 0
7.29113e-06 -5.00815e-06 0
7.78502e-06 5.12384e-05 0
-2.64084e-06 2.55525e-05 0
-9.9122e-06 4.80071e-06 0
3.90348e-06 -2.9091e-05 0
-3.61508e-05 -3.93637e-05 0
-1.28586e-05 -4.60458e-06 0
5.17391e-05 1.60432e-05 0
-1.34821e-05 2.63498e-06 0
-2.05649e-05 -8.49452e-06 0
-5.26132e-06 -1.98109e-05 0
-1.04236e-05 -1.67455e-05 0
7.77891e-07 -1.14364e-06 0
-2.759e-05 -9.60028e-06 0
2.49978e-05 1.60352e-05 0
-1.60908e-05 1.95261e-05 0
7.53453e-06 4.83855e-05 0
1.0576e-05 1.05582e-05 0
1.78656e-05 -1.49374e-05 0
9.87538e-06 2.49853e-05 0
1.20745e-05 -1.69964e-05 0
-1.02247e-05 -2.77805e-05 0
1.97344e-05 -1.21867e-05 0
-1.96138e-06 -1.41174e-05 0
3.37788e-05 -3.72512e-06 0
-1.05858e-05 2.81948e-06 0
1.81051e-05 4.5129e-06 0
6.23947e-06 -2.28804e-05 0
1.68206e-07 1.84699e-05 0
6.18426e-06 -4.42913e-06 0
-9.59644e-06 -1.59804e-05 0
2.68124e-06 2.37873e-05 0
3.88964e-06 -1.97565e-05 0
-2.457e-05 -4.76111e-06 0
-1.46175e-05 -2.68208e-05 0
1.8643e-05 1.28442e-06 0
8.99577e-06 1.23323e-05 0
3.32226e-05 1.69042e-06 0
-1.51329e-05 -2.54792e-05 0
-2.05033e-05 3.3625e-06 0
-2.80122e-06 -5.53611e-06 0
8.51836e-06 -1.94442e-05 0
7.32605e-06 -2.63936e-05 0
-7.26459e-06 2.23366e-05 0
1.80645e-05 9.23125e-07 0
-7.87334e-06 -8.06859e-06 0
-1.23468e-05 3.91358e-06 0
-2.67997e-06 1.60768e-05 0
1.39503e-05 8.63411e-06 0
-1.39464e-05 2.34442e-05 0
-2.24764e-06 8.71663e-06 0
2.275e-05 -3.83854e-05 0
-4.43084e-06 -2.17184e-05 0
3.91957e-06 2.22169e-05 0
-8.5457e-06 -6.64716e-06 0
-5.44951e-06 -1.20837e-06 0
-1.91261e-05 -1.44025e-05 0
2.35754e-05 2.18798e-05 0
-3.14706e-06 -1.11669e-05 0
1.58984e-05 -1.32842e-05 0
7.01309e-06 1.86526e-05 0
-1.3627e-05 1.5141e-05 0
2.47937e-05 -8.67148e-07 0
1.52833e-05 -9.79987e-07 0
1.89996e-06 -3.77752e-06 0
1.20551e-05 2.91637e-05 0
-2.24486e-06 -1.02613e-05 0
-8.70803e-06 9.22477e-06 0
1.07524e-05 2.78874e-06 0
1.67114e-06 -4.7534e-05 0
5.64921e-06 4.92467e-06 0
-2.41185e-07 1.83194e-06 0
-1.44173e-05 -1.28274e-06 0
1.16012e-05 -1.67832e-06 0
1.17309e-05 2.08496e-05 0
-2.24934e-05 1.17449e-05 0
-1.07681e-05 -1.97253e-05 0
1.50823e-05 2.52029e-05 0
6.76951e-06 5.53088e-06 0
-2.6775e-05 -2.4195e-05 0
1.95832e-05 1.00398e-05 0
-1.10057e-05 1.9756e-05 0
1.75134e-05 -3.93999e-06 0
-4.07733e-05 -1.38074e-05 0
7.01648e-06 -1.28981e-05 0
2.18803e-05 -1.44551e-05 0
1.55193e-05 -1.67325e-05 0
9.50293e-06 -2.99753e-05 0
2.74736e-06 -1.77494e-05 0
4.71384e-05 -1.45811e-05 0
6.85118e-06 2.23541e-05 0
-1.84702e-06 1.59117e-05 0
1.57036e-05 1.30724e-05 0
0 1.25254e-10 0
1.63433e-06 -1.91345e-06 0
6.66203e-06 -8.52668e-06 0
2.27836e-05 -1.80042e-05 0
1.97181e-05 -1.3295e-05 0
2.74463e-05 7.00562e-06 0
0 3.10458e-11 0
-4.77079e-06 -2.73989e-05 0
-7.34349e-06 2.56456e-05 0
2.46048e-05 -1.59954e-05 0
1.26491e-05 -5.47067e-06 0
4.95009e-06 1.41844e-05 0
-1.15687e-05 6.62969e-06 0
-1.41613e-06 -2.49324e-06 0
-1.53041e-05 -3.31885e-05 0
-7.15521e-07 -1.90181e-05 0
1.55206e-05 5.05773e-05 0
1.97286e-05 -5.85071e-06 0
2.42028e-05 1.51936e-05 0
-6.78751e-06 1.18387e-05 0
2.53646e-05 2.63118e-05 0
-1.46322e-05 -8.78315e-06 0
8.99771e-06 3.47552e-07 0
2.25086e-06 1.6208e-06 0
1.29506e-05 1.32094e-06 0
2.065e-05 -6.56751e-06 0
-9.5914e-06 -2.96045e-05 0
-6.44955e-06 -3.41922e-05 0
9.94293e-06 -3.41912e-06 0
-1.02789e-05 -4.20616e-05 0
7.15746e-06 2.15892e-05 0
3.10547e-05 2.27237e-05 0
1.65415e-05 -1.05871e-05 0
6.65188e-06 1.0339e-05 0
0 1.24986e-10 0
-3.1028e-07 -3.8988e-05 0
4.74858e-07 -6.28992e-06 0
-4.05344e-06 -2.49584e-05 0
1.15884e-05 -3.48852e-05 0
-2.77231e-06 -4.1635e-05 0
6.23969e-06 -2.55247e-05 0
-8.74045e-06 -3.2169e-05 0
1.24461e-05 -2.59084e-05 0
6.0658e-07 1.25034e-07 0
1.8451e-05 3.50914e-06 0
1.4395e-05 2.97368e-05 0
1.2518e-05 -9.67837e-06 0
2.20588e-07 1.56526e-05 0
0 1.25014e-10 0
-1.06056e-05 -2.29296e-05 0
1.56719e-05 1.90747e-06 0
2.31278e-05 2.03511e-05 0
7.95929e-06 -2.05005e-05 0
7.17878e-06 1.07823e-07 0
-7.01722e-06 1.13941e-05 0
0 -2.18715e-10 0
-2.26927e-05 -9.57438e-06 0
0 -4.68735e-10 0
1.06058e-06 -1.13074e-05 0
3.14798e-05 1.07977e-05 0
0 2.81243e-10 0
-3.51245e-06 -1.06687e-05 0
2.51551e-06 -1.46574e-05 0
1.01432e-05 -4.60349e-06 0
2.02764e-05 2.57876e-05 0
2.51383e-05 -5.53477e-06 0
-2.80751e-05 -1.82408e-05 0
-4.08231e-06 7.42079e-06 0
1.18761e-05 4.28578e-05 0
-3.53194e-06 3.54431e-05 0
4.5456e-06 -2.55729e-05 0
-4.2504e-08 1.72544e-06 0
-1.3176e-05 -3.48729e-05 0
-1.80165e-05 -1.18266e-05 0
4.85471e-05 3.84216e-05 0
2.11768e-05 5.48963e-06 0
3.52696e-05 3.3298e-06 0
-8.05439e-06 -2.70489e-05 0
6.31594e-06 -2.96899e-05 0
1.43815e-05 -2.23366e-05 0
4.62001e-06 -8.23682e-06 0
-1.55463e-05 -7.88599e-06 0
1.76931e-05 -9.34298e-06 0
1.26735e-05 2.06671e-06 0
1.78605e-05 -1.28201e-05 0
-1.14329e-05 -2.05519e-05 0
0 2.81108e-10 0
1.32084e-05 1.16533e-05 0
1.41367e-05 -1.78419e-06 0
-6.03588e-06 -3.45922e-05 0
-1.39974e-05 1.86629e-05 0
7.13142e-06 3.32554e-05 0
3.30264e-07 -9.89127e-06 0
3.42403e-06 -4.56372e-06 0
-1.02241e-05 3.3218e-05 0
1.61694e-05 -9.45433e-06 0
8.54117e-06 -2.85162e-06 0
1.93823e-05 2.03902e-05 0
-1.47674e-06 -3.47179e-05 0
4.48145e-05 4.19025e-05 0
-1.53655e-05 -5.62762e-07 0
1.96944e-05 -4.99623e-06 0
1.90865e-05 -1.9582e-05 0
2.74453e-07 -2.98458e-06 0
7.16761e-06 -1.34294e-05 0
5.52964e-06 1.43448e-05 0
9.08913e-06 -6.49672e-06 0
1.5577e-06 9.25884e-06 0
-9.08291e-06 1.39535e-07 0
2.78098e-05 1.13965e-06 0
-6.13069e-06 -4.70229e-05 0
-6.89886e-06 -1.14567e-05 0
-3.8743e-05 1.55805e-05 0
-1.50883e-06 -2.90628e-05 0
6.38266e-06 4.08584e-05 0
-6.75754e-06 -1.64536e-05 0
2.78486e-05 1.42781e-05 0
3.47925e-06 -3.01065e-06 0
1.7378e-05 -2.8804e-06 0
5.99346e-06 -2.94333e-05 0
3.04995e-05 1.65091e-05 0
-1.4849e-05 2.77375e-07 0
-1.59656e-06 2.50411e-06 0
3.14573e-05 2.81773e-05 0
2.33243e-05 -1.474e-05 0
1.5436e-05 5.08426e-06 0
-1.80191e-06 -1.88361e-06 0
1.13792e-06 9.04267e-06 0
1.15824e-05 2.47504e-05 0
-5.25577e-07 1.38032e-05 0
3.16447e-05 1.90226e-05 0
-1.65955e-05 -2.53569e-05 0
2.75887e-05 6.17932e-06 0
1.1224e-05 -1.79325e-05 0
5.49067e-06 5.75563e-06 0
-6.89471e-06 -9.37511e-06 0
1.73412e-05 -2.20383e-05 0
2.8323e-05 -6.21875e-06 0
-1.55586e-05 -2.25302e-05 0
2.19988e-05 2.35473e-05 0
-5.21979e-06 -1.73081e-05 0
2.53003e-05 2.87381e-05 0
-1.66259e-05 -3.00786e-06 0
9.18025e-06 1.79561e-05 0
-8.46913e-06 -8.51497e-07 0
2.32786e-05 1.00478e-05 0
-2.33736e-05 2.8713e-05 0
-8.26013e-06 1.89527e-05 0
-8.81444e-06 -1.54061e-05 0
1.29704e-05 6.05327e-06 0
9.17283e-06 -1.50973e-05 0
1.54912e-05 2.09432e-05 0
2.4288e-05 4.74642e-05 0
-9.74085e-06 1.85647e-05 0
9.6538e-06 -9.31086e-06 0
-1.15938e-05 -1.22113e-05 0
8.38146e-06 -1.55336e-06 0
3.12432e-07 9.93983e-06 0
9.49056e-07 -8.53115e-06 0
-5.50406e-06 3.88567e-07 0
-1.52902e-05 -1.60588e-05 0
-7.5158e-07 2.65023e-05 0
-5.09743e-06 -3.00967e-05 0
2.75626e-05 3.94504e-06 0
1.04475e-05 1.84894e-05 0
-5.08339e-06 2.99837e-06 0
-5.11706e-06 2.71327e-05 0
-6.27667e-06 3.35778e-06 0
-4.40894e-06 3.07812e-05 0
-1.30003e-05 4.81912e-06 0
-6.46019e-06 -5.9626e-07 0
-1.26109e-05 -3.42616e-06 0
-7.15768e-06 -8.58709e-08 0
4.45247e-06 -1.05519e-05 0
-2.25343e-06 3.34578e-05 0
9.46363e-06 7.72145e-06 0
-1.65653e-05 -4.5035e-06 0
-7.12336e-06 -1.66832e-05 0
-1.17029e-05 -2.96035e-05 0
1.737e-06 -1.42906e-05 0
-6.97124e-07 -1.53026e-05 0
-1.15699e-05 -7.62503e-06 0
-1.17488e-05 5.35609e-06 0
-1.85996e-05 2.85382e-05 0
-1.23956e-05 7.04554e-06 0
4.1758e-06 1.6164e-06 0
1.05718e-06 -1.90903e-05 0
-8.50989e-07 1.69741e-05 0
-2.50449e-06 1.07839e-05 0
-5.38821e-06 -2.64246e-05 0
-1.50319e-05 -3.32028e-07 0
-1.08767e-05 -2.03405e-05 0
-1.40009e-05 7.03342e-06 0
3.97957e-05 7.15432e-05 0
6.00541e-09 1.00935e-05 0
-1.58557e-05 1.21564e-05 0
-2.93791e-05 5.55001e-05 0
1.87497e-10 0 0
-2.49823e-10 0 0
-1.90005e-05 1.87544e-05 0
-1.62392e-05 1.81444e-05 0
-2.41543e-06 2.09903e-06 0
-5.2575e-06 -1.09307e-05 0
-2.39973e-05 -2.91876e-06 0
-1.10604e-05 -4.15597e-06 0
-3.40172e-13 -2.1875e-10 0
2.97169e-05 -1.87742e-05 0
5.19584e-14 -4.6875e-10 0
-2.50389e-10 0 0
-3.12645e-10 0 0
-1.13535e-05 1.02167e-05 0
1.96089e-05 3.49539e-05 0
1.86983e-10 0 0
4.53586e-05 3.22956e-05 0
4.64391e-06 3.21692e-06 0
-3.01115e-05 -1.58235e-05 0
1.98246e-05 5.67883e-06 0
1.72363e-05 1.92086e-05 0
1.79428e-06 1.39225e-05 0
-6.83838e-06 1.02561e-05 0
-1.13396e-05 2.62371e-05 0
-1.56683e-05 -4.13011e-06 0
-7.21605e-06 -1.47092e-05 0
-2.19325e-05 -1.56135e-05 0
2.20495e-05 -2.4155e-07 0
-3.34326e-05 -1.46945e-05 0
1.31849e-05 1.75439e-05 0
-8.35467e-06 -5.56175e-07 0
1.09469e-05 1.81273e-05 0
3.77042e-06 3.61189e-06 0
2.48687e-05 3.39986e-05 0
1.45085e-06 -1.38793e-05 0
-2.52641e-06 8.529e-07 0
-2.5481e-05 -2.60005e-05 0
-2.04532e-05 8.79393e-06 0
-1.65697e-05 -3.92803e-05 0
1.00405e-05 7.29394e-06 0
-7.54506e-06 1.38766e-06 0
-6.57137e-06 -1.98105e-05 0
-6.71073e-06 2.88131e-05 0
3.16396e-05 2.05047e-05 0
4.11234e-05 -1.78422e-05 0
4.17662e-06 -3.60536e-05 0
5.00865e-06 1.81535e-05 0
7.87113e-06 1.82125e-05 0
2.62823e-05 1.00336e-05 0
6.72641e-06 -2.04571e-05 0
2.17849e-05 -7.64535e-06 0
2.92551e-07 4.40721e-05 0
2.16212e-05 -8.84063e-06 0
-2.48533e-05 -1.08664e-05 0
1.65267e-05 -3.78691e-05 0
8.83328e-06 -1.74111e-06 0
3.94515e-05 -1.12462e-05 0
2.14054e-08 -8.20099e-06 0
4.29677e-06 -2.19084e-05 0
-2.49149e-05 -1.90549e-05 0
1.60999e-06 1.15104e-05 0
-7.48151e-06 -8.70447e-06 0
-2.00641e-06 -1.81756e-06 0
-2.65347e-06 -3.36925e-05 0
3.93862e-06 1.90444e-05 0
2.07147e-05 2.25991e-05 0
1.11019e-05 -5.14158e-06 0
1.80131e-07 -3.46707e-06 0
-5.0648e-06 1.01495e-05 0
-1.83229e-05 -1.51111e-05 0
2.31595e-05 3.15094e-05 0
2.09974e-06 -1.18255e-05 0
5.79839e-07 4.57963e-05 0
-1.22969e-05 -1.98531e-05 0
-2.78257e-05 -4.24444e-06 0
-1.85586e-05 -6.3456e-06 0
2.19303e-05 -5.83805e-06 0
-3.19804e-06 -6.34953e-06 0
1.07785e-06 8.56449e-06 0
-1.0066e-05 2.2987e-05 0
-2.59567e-05 -3.43982e-06 0
-7.25746e-06 3.89688e-06 0
5.36279e-06 -8.36138e-06 0
5.21488e-07 1.15244e-05 0
1.44038e-05 4.04693e-06 0
-2.14753e-05 2.04125e-05 0
-3.7993e-06 6.28492e-06 0
-2.61814e-06 2.44783e-05 0
2.01523e-05 2.77101e-05 0
-1.8247e-05 6.79231e-06 0
1.52232e-05 4.94164e-05 0
-2.2219e-05 1.4485e-05 0
2.0159e-05 6.35492e-06 0
-1.44702e-05 -1.25656e-06 0
-1.78502e-05 -1.86082e-05 0
-1.70288e-06 -2.12362e-05 0
9.3287e-06 2.59753e-05 0
-1.56987e-05 3.41226e-06 0
-8.51131e-06 4.61793e-06 0
1.34608e-05 2.86941e-05 0
-3.23003e-06 -1.74864e-05 0
-8.09857e-06 1.28036e-05 0
-8.4587e-06 -3.25984e-05 0
-6.71491e-07 1.12124e-05 0
5.23941e-05 -5.03056e-05 0
8.49575e-06 1.60652e-05 0
7.51047e-06 3.61567e-05 0
3.38249e-05 5.04838e-05 0
-3.37003e-06 -2.04634e-06 0
4.19655e-05 -7.67336e-06 0
-1.41714e-05 -1.70188e-05 0
1.05031e-05 2.55534e-05 0
-6.56419e-06 -2.63447e-06 0
1.00335e-05 2.30025e-05 0
4.41947e-05 3.03714e-05 0
-2.05289e-05 -6.79068e-06 0
-7.64295e-06 3.13296e-05 0
-1.23909e-05 -1.12177e-05 0
1.27162e-05 3.56787e-05 0
2.33043e-05 5.42408e-06 0
-3.75362e-05 -7.70538e-07 0
-2.97523e-06 2.24555e-05 0
2.27963e-06 7.38554e-06 0
1.75316e-05 -2.51968e-06 0
-1.92803e-05 1.36151e-06 0
-7.65767e-07 -2.67519e-05 0
-5.03999e-07 -3.99693e-06 0
-1.37491e-05 -2.41846e-05 0
-2.73955e-06 2.86305e-05 0
-1.74875e-05 1.64106e-06 0
-7.9815e-06 8.9064e-06 0
1.72194e-05 2.68742e-05 0
-2.6721e-05 9.46149e-06 0
9.06786e-06 2.10296e-05 0
-2.727e-05 -3.67852e-06 0
-2.85318e-05 3.12302e-05 0
-2.0628e-05 -7.03814e-07 0
-8.26481e-06 7.24456e-06 0
2.05452e-05 -1.92155e-05 0
-2.99755e-05 -3.89519e-05 0
-3.23537e-06 2.44162e-07 0
-3.74543e-05 2.16555e-05 0
-3.00075e-06 2.1905e-05 0
-3.59266e-07 2.01046e-05 0
-7.64797e-06 1.03463e-05 0
-1.85224e-05 -1.73992e-05 0
-6.12189e-06 -9.5254e-08 0
-1.59508e-05 3.80975e-05 0
-1.10098e-05 1.03168e-05 0
3.40177e-06 4.71114e-06 0
-1.15148e-05 -3.81141e-06 0
5.83e-06 1.38154e-06 0
1.53116e-05 1.50638e-05 0
2.67557e-06 9.34348e-06 0
-3.44538e-06 2.90372e-05 0
-5.80664e-06 2.50153e-05 0
2.33724e-05 3.88363e-05 0
-1.6565e-05 -1.68567e-05 0
1.14832e-05 2.13147e-05 0
3.25318e-06 -1.27886e-05 0
3.41188e-05 -1.25982e-05 0
2.0434e-05 2.97015e-05 0
-1.13958e-05 3.98262e-06 0
-1.4058e-05 3.71027e-06 0
3.98656e-06 1.35207e-05 0
1.70457e-05 7.0904e-06 0
1.13311e-05 -2.06358e-05 0
5.37313e-06 -8.48215e-07 0
2.13869e-05 2.03968e-05 0
-1.91606e-05 5.17264e-06 0
-8.70988e-06 -4.83101e-06 0
1.43011e-05 -9.67605e-06 0
-1.45582e-05 1.85718e-06 0
2.53445e-05 6.82395e-06 0
1.47727e-05 3.40015e-05 0
5.75117e-07 3.32756e-05 0
1.68867e-06 9.11344e-07 0
4.8951e-05 5.92198e-06 0
4.25154e-06 -1.31255e-07 0
0 1.24929e-10 0
9.25134e-06 -2.81271e-05 0
2.11136e-06 -2.66073e-05 0
2.51722e-05 2.03035e-05 0
0 2.81115e-10 0
2.13956e-05 8.00763e-06 0
5.5248e-06 6.5394e-06 0
-6.45123e-07 -5.93804e-07 0
-2.56246e-06 -1.566e-05 0
1.52829e-05 -2.65195e-05 0
2.28301e-05 -4.44177e-06 0
-7.07324e-06 1.15765e-05 0
1.84374e-05 -1.47278e-05 0
-1.96274e-06 -1.54083e-05 0
3.34523e-06 -5.29868e-06 0
6.99705e-06 -9.9668e-06 0
2.61944e-05 4.45521e-06 0
-5.52535e-06 -1.63807e-05 0
5.49363e-06 -1.11436e-05 0
5.68561e-06 1.98733e-05 0
1.16361e-05 9.78735e-06 0
3.81672e-05 4.20698e-06 0
1.14492e-05 1.12531e-05 0
2.84602e-05 1.29936e-05 0
-1.74034e-05 2.13042e-05 0
-3.39651e-06 6.19654e-05 0
5.86285e-05 -1.03287e-05 0
7.3604e-07 -3.11177e-06 0
2.39956e-05 -5.32585e-06 0
-2.34943e-05 -4.33447e-05 0
-8.84452e-06 -1.3287e-05 0
2.99951e-05 2.25078e-05 0
-2.03811e-05 -7.11964e-07 0
1.83683e-05 1.81117e-05 0
9.85518e-06 -8.40589e-06 0
-1.48894e-05 4.93493e-06 0
9.22303e-06 -5.8171e-06 0
-2.99078e-06 -1.05577e-05 0
1.76765e-05 6.76496e-06 0
6.01221e-06 -2.80152e-05 0
3.32422e-06 -2.13946e-06 0
6.74172e-06 1.72932e-05 0
-1.37164e-05 -3.56164e-05 0
-1.51688e-05 6.47322e-07 0
-1.28327e-05 -1.32078e-05 0
1.88289e-06 1.3541e-05 0
6.66283e-06 1.09302e-05 0
0 3.12371e-11 0
-1.76259e-05 3.02616e-05 0
5.69719e-05 -3.35241e-06 0
8.70617e-06 -8.66195e-06 0
-1.2759e-05 -1.76194e-05 0
4.0307e-06 -1.89461e-05 0
9.03948e-06 1.11998e-05 0
-3.54692e-07 2.17896e-05 0
-2.42536e-06 -1.22195e-06 0
-4.47299e-06 5.15325e-05 0
-1.34718e-05 -1.07418e-05 0
-1.93633e-06 -8.07289e-06 0
-2.23515e-05 -3.70565e-05 0
1.6857e-05 9.49626e-06 0
1.29856e-05 -2.52764e-06 0
-1.0637e-05 -1.76037e-05 0
4.34586e-05 5.50427e-05 0
-2.11327e-06 -1.34378e-06 0
-2.35174e-05 4.21069e-06 0
6.23846e-06 -1.93836e-05 0
2.09184e-05 -7.19637e-06 0
-2.39544e-05 5.18192e-05 0
8.08591e-06 3.8708e-05 0
-1.85344e-05 2.32922e-05 0
3.34114e-06 3.72026e-06 0
-1.56374e-05 1.1595e-05 0
-1.58069e-05 1.45185e-05 0
-2.49993e-10 0 0
1.65065e-05 -1.10312e-05 0
7.40497e-06 8.97644e-06 0
-9.22772e-06 3.33767e-05 0
2.86093e-06 -1.9363e-06 0
-4.18141e-07 1.37073e-05 0
1.6158e-06 1.647e-05 0
-1.02954e-05 2.63573e-05 0
3.11285e-05 3.29573e-05 0
9.46297e-06 3.69378e-05 0
-2.36425e-05 -2.78321e-05 0
-1.01411e-06 -9.34819e-06 0
-9.15937e-06 2.22478e-05 0
-1.13559e-05 1.44932e-05 0
9.2723e-06 -1.04438e-05 0
-3.12623e-10 0 0
1.88069e-10 0 0
1.21627e-05 1.03609e-06 0
9.30481e-06 7.43461e-05 0
1.32464e-06 9.53204e-06 0
2.35068e-05 1.70179e-05 0
1.05309e-05 -2.61656e-05 0
8.97339e-06 1.08054e-05 0
4.12081e-06 -2.15098e-05 0
8.69628e-06 -3.44727e-06 0
-7.86547e-07 1.64693e-06 0
-1.2793e-05 1.26343e-05 0
-5.70248e-06 1.94297e-05 0
3.05217e-05 -3.64582e-06 0
1.74359e-05 -1.76601e-05 0
-2.57794e-13 1.24806e-10 0
-3.52503e-06 -2.51585e-05 0
-1.90039e-05 -2.24485e-05 0
1.40746e-05 -3.76361e-05 0
-9.61491e-06 -1.36446e-05 0
4.9664e-06 -2.91021e-06 0
8.24158e-06 -1.40468e-05 0
-1.53109e-06 -2.34796e-06 0
4.04371e-06 -2.63507e-06 0
4.59156e-07 -1.61001e-05 0
-1.06439e-05 -2.04779e-05 0
4.13134e-06 -6.12689e-06 0
-7.58967e-06 -2.90025e-05 0
3.34962e-06 -2.16252e-05 0
5.6064e-06 -7.65166e-06 0
9.33613e-06 -6.88749e-06 0
-4.85625e-06 1.51617e-05 0
9.10153e-06 1.62188e-06 0
1.04853e-05 -1.47908e-05 0
6.96167e-06 9.24651e-06 0
1.74083e-13 1.24599e-10 0
-9.31294e-06 3.36239e-05 0
1.66857e-06 3.4772e-06 0
9.91514e-06 -2.56496e-05 0
5.31364e-06 1.38174e-05 0
-4.96141e-06 8.62346e-06 0
-2.36515e-05 2.11984e-05 0
-1.8326e-05 -2.34563e-05 0
5.48825e-06 1.17195e-05 0
-2.34241e-05 9.03556e-06 0
5.18028e-06 -1.60113e-05 0
-3.93803e-06 -1.33775e-05 0
-4.65453e-06 -1.90566e-05 0
-6.6911e-06 -1.18708e-05 0
-1.49415e-05 -6.32109e-06 0
2.79995e-06 2.1495e-06 0
3.42927e-06 9.89006e-06 0
2.75989e-05 3.57473e-05 0
2.65116e-05 -6.48519e-06 0
3.87399e-06 -2.62306e-05 0
3.38255e-05 -8.72636e-06 0
1.88963e-05 -5.07885e-06 0
-7.05097e-06 1.65304e-06 0
2.1781e-05 7.22983e-06 0
-5.1289e-06 -3.00881e-06 0
-3.61875e-07 1.37756e-05 0
1.62066e-05 1.49338e-05 0
-6.68039e-06 -9.30017e-06 0
-2.16578e-05 -4.47678e-05 0
-4.77271e-06 -2.41596e-05 0
-3.84633e-06 -1.69827e-05 0
7.5445e-06 -2.12109e-06 0
6.93686e-06 -1.85383e-05 0
-9.57116e-06 2.6123e-06 0
-2.05136e-06 -7.30896e-06 0
-1.16625e-05 -8.62805e-06 0
-4.13436e-05 -2.52225e-05 0
-3.02929e-06 -4.01215e-05 0
-1.26163e-05 1.68855e-06 0
9.32324e-06 4.89871e-05 0
2.5749e-05 7.1962e-06 0
-1.51489e-05 -1.84612e-05 0
-3.57669e-05 4.14438e-05 0
8.75913e-06 -1.13428e-05 0
1.53347e-05 -1.27946e-05 0
3.20512e-06 -2.1573e-06 0
-1.79783e-05 -9.27964e-06 0
-1.73536e-05 1.44369e-05 0
-1.09888e-05 -1.48322e-06 0
-5.10518e-06 2.20701e-05 0
-1.59805e-05 -6.38772e-06 0
1.01127e-06 -3.63069e-06 0
-1.9758e-05 3.37317e-05 0
1.85519e-06 9.07459e-08 0
-2.00071e-06 5.49233e-06 0
1.24354e-05 -5.09025e-06 0
-1.44401e-05 -3.35568e-06 0
-6.38018e-06 -1.30036e-05 0
-6.1913e-07 3.14651e-05 0
6.45988e-06 2.35912e-05 0
5.22222e-06 -1.07017e-05 0
2.68743e-05 7.13852e-06 0
-1.66407e-05 8.03505e-06 0
-2.45701e-05 -2.18637e-05 0
-1.3163e-05 1.66687e-05 0
-1.31586e-05 -2.52848e-06 0
4.62613e-06 -3.18672e-06 0
1.12641e-05 -5.00002e-07 0
-4.49502e-06 -2.57077e-06 0
-5.74873e-06 -3.23198e-05 0
-3.00687e-06 1.31682e-05 0
1.73777e-05 3.94457e-06 0
-9.07263e-07 -4.10109e-06 0
1.732e-07 -3.20747e-05 0
-1.27083e-05 2.62686e-05 0
-1.87967e-06 4.60777e-06 0
2.09601e-05 1.15278e-05 0
-1.72439e-06 3.32812e-05 0
-6.80067e-06 -4.67016e-06 0
-1.57022e-05 -1.8755e-05 0
-2.97551e-05 3.4538e-06 0
-9.83192e-06 -2.93093e-05 0
-2.925e-06 4.26904e-05 0
1.46583e-05 3.86599e-05 0
-9.57212e-07 -1.99515e-06 0
-1.6191e-05 1.01984e-05 0
7.63749e-06 -1.28595e-05 0
5.25283e-06 -1.67628e-06 0
-6.83782e-06 -9.05014e-06 0
1.3146e-05 1.17538e-05 0
-1.20863e-05 -3.21907e-05 0
-1.44038e-05 8.73529e-06 0
7.55735e-06 1.64478e-05 0
-8.61226e-06 -2.7855e-05 0
-1.05994e-05 -3.47084e-05 0
-1.58132e-05 1.51303e-05 0
9.27661e-07 -9.43405e-06 0
1.60453e-05 -5.17093e-06 0
-2.41183e-05 1.45082e-05 0
-2.10381e-07 1.04074e-05 0
9.17802e-06 5.62511e-05 0
1.04077e-05 1.11704e-05 0
8.80183e-07 -1.72609e-05 0
-1.19808e-07 -4.68153e-07 0
-7.494e-06 -1.80782e-05 0
-2.2587e-06 -1.44863e-05 0
1.08025e-05 -9.62527e-06 0
-1.08309e-05 1.61752e-05 0
4.96777e-06 -1.10526e-05 0
4.15864e-06 1.75618e-05 0
-9.55767e-06 -3.27716e-06 0
2.30826e-05 -6.09671e-06 0
1.42216e-05 -5.56812e-07 0
1.57539e-06 3.32116e-05 0
-1.04237e-05 -1.21185e-05 0
-8.50207e-06 3.18521e-05 0
-1.46092e-05 -1.84338e-05 0
1.26449e-05 1.93157e-05 0
-9.55687e-06 -2.38183e-06 0
-1.99939e-06 6.02812e-06 0
4.2106e-06 -4.12518e-06 0
-2.19999e-05 -1.66601e-05 0
-1.25453e-05 -2.42365e-05 0
-2.25525e-05 1.60547e-05 0
-3.59758e-05 -9.14784e-06 0
-3.21197e-05 1.03201e-05 0
-2.07039e-05 -1.18e-05 0
-2.30499e-05 1.96481e-05 0
-5.84616e-06 5.22218e-06 0
1.15088e-05 1.91858e-05 0
-2.10312e-05 -2.15816e-05 0
-1.52366e-05 1.92713e-05 0
3.42913e-05 -3.26886e-05 0
5.62361e-06 4.13502e-05 0
-2.80284e-05 -1.06694e-05 0
-8.56279e-06 1.02736e-05 0
-2.65225e-05 1.75606e-05 0
-6.54643e-06 2.0845e-05 0
-2.08303e-05 -4.88407e-06 0
-1.15788e-05 8.90141e-06 0
-1.89741e-06 -2.05964e-05 0
-3.13757e-05 -2.00502e-05 0
-1.3966e-05 2.09687e-05 0
2.76346e-05 7.11045e-06 0
9.9846e-06 1.05922e-05 0
-6.31632e-06 8.00748e-06 0
2.0776e-06 7.59755e-06 0
-7.54292e-06 -4.43514e-06 0
8.74139e-06 -1.93311e-05 0
9.31883e-06 -4.99557e-06 0
-9.25623e-06 -3.45546e-06 0
-1.78377e-05 -8.74372e-06 0
-2.39348e-05 -1.67854e-05 0
9.21577e-06 2.73759e-05 0
-1.25564e-06 4.47739e-07 0
5.7855e-06 -1.52435e-05 0
-3.86041e-06 1.06795e-05 0
-1.66077e-05 8.1871e-06 0
2.43044e-05 -5.61811e-06 0
6.52359e-06 2.46411e-06 0
-1.43179e-05 3.02463e-05 0
2.68941e-06 -2.67708e-05 0
-2.13691e-05 -2.34473e-05 0
-5.70857e-06 -1.88786e-05 0
-5.40682e-06 3.35578e-05 0
-4.93344e-06 1.30335e-05 0
5.61735e-06 6.76198e-06 0
5.27392e-06 3.44951e-06 0
-2.6282e-05 -5.30067e-06 0
1.15173e-06 -4.10928e-05 0
-9.86558e-06 -3.93387e-06 0
2.448e-05 -3.55143e-07 0
-2.34989e-05 -1.57039e-05 0
8.57413e-06 3.32057e-05 0
1.09436e-05 2.17994e-05 0
6.44886e-06 -6.625e-06 0
1.84721e-05 -1.06344e-05 0
1.67904e-05 2.30778e-05 0
1.83223e-06 -1.7533e-05 0
2.60183e-05 -1.35963e-05 0
-2.66141e-05 1.46183e-05 0
1.86048e-05 2.36826e-05 0
-2.06761e-06 -7.17359e-06 0
7.66284e-06 1.86844e-05 0
3.11587e-06 -1.65244e-06 0
-8.20771e-06 -6.63736e-06 0
2.45903e-05 -1.31027e-05 0
1.88032e-06 -8.29743e-06 0
6.13368e-06 -2.86403e-06 0
2.02691e-05 -1.74468e-05 0
1.04694e-05 -9.49507e-06 0
-1.10509e-05 -7.79937e-06 0
-2.55485e-06 -2.6455e-06 0
2.49464e-05 3.42159e-06 0
2.73366e-05 5.84429e-06 0
-1.21164e-05 -1.03098e-05 0
-2.14095e-06 -3.9965e-06 0
3.04045e-05 2.03426e-05 0
-2.98297e-06 -3.00816e-05 0
-2.16263e-06 3.59238e-07 0
8.16554e-06 3.92578e-05 0
-2.62696e-06 6.675e-06 0
-4.65901e-06 -5.0692e-06 0
-6.95996e-06 2.30609e-05 0
-1.16096e-05 9.67385e-06 0
-1.48084e-05 3.20858e-06 0
-1.88972e-06 3.58777e-06 0
4.77903e-06 3.64058e-05 0
-2.25443e-05 1.90857e-05 0
-2.628e-05 1.82819e-05 0
3.33658e-05 2.0935e-05 0
0 -4.68874e-10 0
1.25579e-05 -2.80162e-05 0
2.51976e-05 2.6873e-05 0
-6.26747e-06 -4.22192e-05 0
5.63734e-06 2.94848e-06 0
7.97653e-06 -1.30217e-06 0
8.95542e-06 4.28144e-06 0
7.82992e-06 3.61521e-05 0
-1.66438e-05 -2.51705e-05 0
1.58507e-05 5.84978e-06 0
2.3361e-05 1.69477e-06 0
1.97734e-05 1.49076e-05 0
2.50144e-05 -1.9245e-05 0
7.6018e-06 -1.26272e-05 0
2.07209e-05 2.08522e-06 0
-1.26284e-05 -2.16207e-05 0
1.44739e-05 -3.6426e-05 0
-1.04689e-05 -8.35875e-06 0
2.31515e-05 -4.67761e-06 0
-1.31239e-05 1.21723e-06 0
7.77736e-06 1.7809e-06 0
6.3332e-06 2.44822e-06 0
2.48644e-05 1.79257e-05 0
1.66067e-05 -2.03439e-05 0
7.52949e-06 1.39147e-05 0
-2.09394e-06 -1.88503e-06 0
3.75767e-05 -1.22653e-05 0
1.9188e-05 -1.89843e-05 0
1.86764e-06 -8.5871e-06 0
8.7859e-06 2.94555e-05 0
1.05354e-05 -2.54076e-05 0
1.0224e-05 5.28194e-06 0
-1.0911e-05 -4.76574e-06 0
2.53892e-05 -9.81093e-06 0
-3.53836e-07 -4.88457e-06 0
2.04746e-05 1.38615e-05 0
1.32145e-05 5.52763e-05 0
2.98772e-05 1.84982e-05 0
6.49821e-06 -1.09978e-05 0
-2.38444e-06 -1.67135e-06 0
2.74569e-05 -7.88898e-06 0
9.8245e-06 6.53544e-06 0
2.02246e-05 1.39748e-06 0
2.23438e-05 -2.79028e-05 0
-3.62438e-06 -1.08627e-05 0
-8.86947e-06 1.37916e-05 0
1.975e-05 1.66525e-05 0
6.07969e-06 -1.54427e-05 0
-2.08258e-05 -3.11358e-05 0
-1.54044e-07 -5.32957e-06 0
6.81514e-06 -7.07206e-07 0
1.3083e-05 -2.50102e-05 0
4.53517e-05 1.34792e-05 0
-1.06619e-05 -3.05119e-05 0
1.04205e-05 9.27675e-06 0
1.64972e-06 1.65352e-06 0
2.51085e-05 -1.11713e-05 0
1.09737e-05 -3.41925e-05 0
2.79965e-05 -3.04257e-05 0
1.70858e-05 6.6179e-06 0
-1.06353e-05 2.89062e-06 0
1.84203e-05 1.44302e-05 0
2.16207e-06 2.71501e-05 0
-7.63247e-06 -1.62388e-05 0
-9.55214e-06 -2.56921e-05 0
-2.29778e-06 -9.78125e-06 0
6.28684e-06 -4.14437e-05 0
-1.21923e-05 2.64577e-05 0
-2.10676e-05 -1.47137e-05 0
5.18164e-06 -2.28832e-05 0
2.7134e-05 5.4912e-06 0
2.17953e-05 2.59918e-05 0
4.37462e-06 -8.05474e-06 0
5.04629e-05 5.52193e-06 0
2.21684e-06 -1.15287e-05 0
0 1.24835e-10 0
3.96549e-05 -2.78206e-06 0
2.87372e-05 -8.77207e-06 0
-1.23131e-05 -3.63896e-06 0
2.23155e-05 -5.83934e-06 0
2.86679e-05 2.95815e-06 0
1.04222e-05 4.12146e-05 0
-1.09395e-05 -4.36754e-05 0
-2.13843e-05 2.63815e-07 0
3.96885e-05 6.00884e-05 0
2.53949e-05 -9.88285e-06 0
-1.80539e-05 -1.83936e-05 0
1.39986e-05 5.57806e-05 0
4.66593e-05 2.50273e-05 0
2.23897e-06 -1.43362e-05 0
6.62791e-06 1.22485e-05 0
9.67409e-06 -2.06825e-05 0
-6.81945e-06 -1.32367e-05 0
-2.14439e-05 -2.95665e-06 0
1.68269e-05 -1.69221e-05 0
3.39198e-05 -5.62259e-07 0
6.45037e-06 -1.42644e-05 0
-2.0607e-07 1.0115e-05 0
2.02372e-06 -1.66584e-05 0
-1.5402e-05 3.78425e-05 0
1.87501e-10 0 0
-1.91164e-05 8.07352e-06 0
1.43765e-06 -4.49268e-06 0
5.0122e-06 9.14995e-06 0
9.34485e-06 -8.48152e-06 0
2.03823e-06 1.5691e-06 0
-1.65011e-05 -3.51416e-05 0
1.18204e-05 7.93467e-06 0
-1.3993e-05 2.73642e-05 0
2.60931e-05 1.56345e-05 0
2.93759e-05 -4.2375e-06 0
4.88793e-07 -2.05657e-05 0
1.22695e-05 -3.67498e-05 0
6.01297e-13 3.14559e-11 0
2.87667e-05 -4.10594e-05 0
-3.58194e-06 -7.42031e-06 0
3.08681e-05 3.25465e-05 0
1.28311e-05 -6.6417e-06 0
-3.16788e-05 -2.75933e-05 0
-2.90417e-06 -3.31278e-05 0
6.29237e-06 3.20096e-05 0
-1.60703e-05 1.37376e-05 0
3.09507e-06 -4.0393e-06 0
-7.0242e-06 4.90018e-05 0
-2.35166e-06 -3.51315e-06 0
-8.79161e-06 -8.68516e-06 0
2.11612e-05 2.80497e-05 0
-1.77054e-07 2.94134e-05 0
-5.86781e-06 4.29908e-06 0
-2.00364e-05 -3.76548e-05 0
-1.91659e-05 -2.09529e-06 0
-6.95622e-06 -5.83909e-06 0
-5.94209e-06 -6.21751e-06 0
-1.53035e-05 -1.67382e-05 0
4.30428e-06 -3.34876e-06 0
1.20646e-05 -3.97175e-05 0
-2.32995e-06 -9.04663e-06 0
-1.86452e-05 -6.53813e-06 0
-1.93091e-05 -4.15455e-06 0
1.38894e-06 7.24411e-06 0
5.74581e-06 9.02142e-06 0
6.80283e-06 1.97554e-06 0
-1.29428e-06 9.11885e-06 0
-1.15026e-05 -1.01047e-05 0
-6.67154e-06 -1.14123e-05 0
3.72285e-06 1.6983e-05 0
-2.71829e-05 -3.62792e-06 0
-5.38994e-06 1.95721e-05 0
-1.26358e-05 -1.28149e-05 0
5.38087e-06 -1.91957e-05 0
-6.3763e-06 -1.38078e-05 0
2.96309e-07 -1.54387e-05 0
-5.06708e-06 -1.6041e-05 0
-4.92501e-06 -3.08366e-05 0
-1.75984e-05 -1.7061e-05 0
-3.49889e-06 4.7261e-05 0
-7.55619e-08 -2.2983e-05 0
4.74706e-06 -1.60649e-05 0
-1.83744e-05 -1.90589e-05 0
-7.51033e-06 -1.49029e-05 0
3.06507e-05 -8.82979e-06 0
2.87235e-05 2.34121e-05 0
4.5076e-06 -1.20463e-05 0
1.52277e-05 5.65143e-06 0
1.76442e-05 -2.73798e-05 0
1.04148e-05 5.34207e-06 0
1.36671e-05 -3.1066e-05 0
2.63878e-05 2.18512e-05 0
1.90629e-05 2.80341e-06 0
-2.97636e-05 -9.59832e-06 0
-2.65208e-05 9.59599e-06 0
7.70099e-06 3.93812e-05 0
8.16898e-06 7.95085e-06 0
-1.3777e-05 1.01033e-05 0
1.75572e-05 -1.05355e-05 0
1.95532e-05 1.17711e-05 0
7.01611e-06 2.93507e-05 0
-8.5916e-06 8.13697e-06 0
-3.08224e-05 -3.56829e-05 0
9.18088e-06 -1.60642e-05 0
-1.4273e-05 -2.88675e-06 0
-1.78427e-06 -2.62875e-05 0
-1.02151e-05 1.63806e-05 0
-3.00628e-05 -1.22529e-05 0
-1.8345e-05 8.53181e-06 0
-2.16849e-06 -9.04719e-06 0
3.57979e-05 -1.03158e-05 0
-9.41618e-06 6.19224e-06 0
2.1171e-05 -5.70885e-06 0
9.52022e-07 -1.62787e-05 0
2.06959e-05 -2.41853e-06 0
3.28464e-05 3.63359e-05 0
-1.74617e-05 2.15116e-05 0
-3.34983e-05 -3.80284e-05 0
-3.71016e-06 -1.77078e-05 0
1.97229e-05 -1.43026e-05 0
3.79661e-06 1.92917e-05 0
9.25088e-06 -1.56145e-06 0
1.21614e-05 -3.57315e-05 0
-5.656e-06 -3.53173e-05 0
5.85348e-06 -1.8977e-05 0
1.42756e-05 -6.18369e-06 0
2.92783e-05 -1.87779e-05 0
2.42098e-06 -4.80285e-06 0
9.36343e-06 -9.14703e-07 0
1.96792e-05 -4.73359e-06 0
-4.23971e-06 -2.49483e-05 0
3.76482e-06 -2.72533e-05 0
3.69442e-06 -2.07196e-05 0
1.51119e-05 1.05033e-06 0
1.18282e-06 -1.05077e-05 0
-3.99242e-06 1.32441e-05 0
1.6549e-06 1.67339e-05 0
-1.43608e-05 -2.49774e-05 0
2.90802e-06 1.77952e-05 0
9.44966e-06 6.19228e-06 0
4.67222e-06 -1.62152e-05 0
1.01191e-05 -2.50483e-05 0
-2.03918e-05 -5.54897e-06 0
1.44907e-05 -1.0783e-05 0
-1.2479e-05 4.51182e-06 0
-8.02936e-06 -8.19849e-06 0
-2.05643e-05 -3.16103e-05 0
1.04869e-05 -1.39964e-05 0
-1.2144e-05 1.72562e-06 0
-4.50605e-07 -2.08868e-05 0
-2.65027e-05 -1.21019e-05 0
-7.69525e-06 3.4588e-06 0
2.37605e-05 2.09923e-05 0
1.44242e-05 1.97738e-06 0
-1.30139e-05 -1.52313e-05 0
-1.43895e-05 4.68685e-05 0
1.07716e-05 -2.64338e-05 0
5.22467e-06 4.98169e-06 0
1.06992e-05 -8.14987e-06 0
1.50308e-05 -2.82426e-06 0
1.61411e-05 3.47914e-05 0
-1.18436e-05 2.28343e-05 0
-2.67543e-05 -1.51495e-05 0
2.27007e-05 2.151e-05 0
6.57788e-06 -1.22938e-05 0
1.14149e-05 -2.36519e-05 0
-6.09713e-06 8.57292e-07 0
1.63248e-06 -2.08231e-06 0
4.55976e-06 -1.30322e-06 0
-3.72349e-06 -2.88303e-06 0
-2.88216e-05 -4.01737e-06 0
2.44664e-05 1.38845e-06 0
9.61056e-06 9.54966e-06 0
-3.47186e-06 -1.49912e-05 0
-8.66463e-06 1.0926e-05 0
-1.64235e-05 -8.21588e-06 0
7.88713e-06 -1.86496e-05 0
-1.24993e-05 7.81676e-06 0
1.09968e-05 -1.5033e-05 0
-1.15692e-05 -1.48648e-05 0
1.20312e-06 -3.25781e-06 0
-3.09769e-06 3.07836e-05 0
-2.93405e-06 -2.36416e-05 0
5.57571e-06 -2.0843e-06 0
-1.05955e-05 -5.75941e-06 0
7.52509e-06 2.27951e-05 0
3.01702e-05 -1.53804e-05 0
-1.77754e-05 2.18654e-05 0
3.15511e-07 -1.88729e-05 0
4.17002e-06 -7.78815e-06 0
-1.19292e-05 5.43298e-06 0
-7.59542e-06 -1.51279e-05 0
3.97279e-06 -2.26012e-05 0
1.73134e-05 -3.7277e-05 0
-3.75466e-06 1.18913e-05 0
2.67992e-05 2.52455e-06 0
2.41103e-05 1.72504e-05 0
1.13814e-05 -4.74011e-07 0
-3.96791e-06 1.52509e-05 0
1.27013e-05 -1.38824e-06 0
8.5659e-06 8.35253e-06 0
-1.3806e-05 1.14342e-05 0
-2.73798e-05 3.04075e-05 0
-3.8985e-06 -5.87676e-06 0
-8.82496e-06 2.25566e-06 0
-2.60927e-05 -1.34401e-05 0
1.38713e-05 1.665e-05 0
-1.5576e-05 -1.71078e-05 0
-8.2848e-06 2.2035e-05 0
-2.6853e-05 1.65229e-05 0
-8.47204e-06 -4.66898e-06 0
2.9126e-05 4.08031e-06 0
-2.18645e-05 6.09648e-05 0
2.43524e-05 5.07009e-07 0
-2.00401e-05 -1.74876e-05 0
-1.05479e-05 1.99806e-05 0
-7.70424e-06 2.45986e-06 0
-1.37628e-05 4.52941e-05 0
3.49646e-06 -1.14572e-05 0
-1.35066e-06 1.69356e-05 0
-1.60716e-05 -2.19817e-05 0
-3.66648e-06 -2.24966e-06 0
-6.54637e-06 -1.45696e-05 0
1.72106e-05 6.47298e-05 0
1.27261e-05 -4.14682e-05 0
3.6469e-05 4.03023e-05 0
-1.34685e-05 -3.11797e-06 0
-1.04036e-05 6.21212e-06 0
6.68749e-06 -8.07391e-06 0
2.50924e-05 2.60762e-06 0
2.39514e-05 2.0983e-05 0
-4.50054e-07 3.0689e-05 0
-2.22727e-05 -8.00948e-06 0
3.02994e-06 2.7102e-05 0
3.62153e-05 3.84588e-05 0
-1.94907e-05 3.82694e-08 0
1.00802e-05 -9.9257e-06 0
-4.85839e-06 1.92229e-05 0
-1.24841e-05 -1.01068e-05 0
-9.02292e-06 1.76184e-05 0
-1.50783e-06 4.56534e-05 0
-4.14938e-06 4.151e-05 0
-1.68809e-05 -5.05719e-06 0
2.32269e-05 2.03962e-06 0
-2.22311e-06 -4.88833e-06 0
-6.31519e-06 -3.2534e-06 0
2.57633e-05 2.56013e-05 0
9.88614e-06 -3.19006e-06 0
-8.41966e-06 -1.75584e-05 0
1.74966e-05 9.70452e-06 0
5.34286e-06 -1.34079e-05 0
-9.55907e-06 3.63653e-05 0
2.76183e-05 -6.62215e-06 0
7.97067e-07 -1.06686e-05 0
1.08369e-06 -2.14463e-05 0
9.53596e-06 -3.27923e-06 0
-4.52759e-06 2.64109e-05 0
2.47003e-06 4.46116e-06 0
-1.02365e-06 4.43812e-05 0
-5.74605e-06 1.23451e-05 0
-3.18278e-05 1.31761e-05 0
1.62895e-05 2.17137e-05 0
-1.99493e-05 -1.13561e-05 0
9.10703e-06 3.53315e-05 0
-1.96748e-05 -1.01159e-05 0
-3.67203e-06 9.76401e-06 0
-1.4064e-05 3.26624e-06 0
1.91295e-05 9.52154e-06 0
-1.9162e-05 2.3956e-06 0
8.13815e-06 1.91534e-05 0
1.40983e-05 2.61392e-06 0
-1.06696e-05 -9.72482e-06 0
-2.97669e-05 1.21108e-05 0
2.50139e-05 1.89493e-05 0
3.34173e-06 5.91189e-06 0
-3.36452e-06 5.05799e-06 0
1.26748e-05 -4.99969e-06 0
-4.6174e-06 1.20858e-07 0
-1.94153e-05 -2.03965e-05 0
1.10121e-05 -2.19846e-05 0
2.39644e-05 2.37978e-05 0
1.06394e-05 8.31446e-06 0
-9.42772e-06 8.3417e-06 0
-2.44464e-05 -6.75298e-06 0
8.5809e-06 -1.0375e-05 0
-2.39299e-05 1.22563e-05 0
-2.3967e-05 1.41929e-05 0
2.55648e-06 -6.82681e-06 0
-8.9256e-07 -2.41817e-05 0
9.41159e-06 1.2495e-05 0
-8.96603e-06 2.03205e-06 0
-1.7865e-05 -5.13726e-06 0
5.52015e-06 -7.59532e-06 0
4.41231e-06 4.06639e-05 0
8.04207e-06 1.69599e-05 0
-6.92494e-06 -1.11507e-05 0
1.19421e-06 1.13341e-05 0
4.71681e-06 -7.38089e-06 0
3.01647e-05 1.5358e-05 0
-3.1354e-05 -1.97e-05 0
-8.81029e-06 8.64713e-06 0
-1.23038e-05 -8.84577e-06 0
1.0744e-05 5.49602e-07 0
-6.49781e-06 -1.47611e-05 0
-4.77263e-06 7.43821e-06 0
-1.14132e-06 9.71725e-06 0
1.13535e-05 1.03399e-05 0
1.30299e-05 1.90268e-05 0
2.18525e-05 2.295e-05 0
-1.73644e-06 -3.74276e-06 0
1.75258e-06 -3.2504e-05 0
1.03306e-05 2.88306e-05 0
1.54778e-06 -1.30589e-05 0
1.65881e-05 7.35781e-06 0
-1.23144e-05 -5.87135e-06 0
1.9455e-06 1.41606e-05 0
1.45167e-06 1.8451e-06 0
3.28508e-06 -2.57576e-05 0
2.14335e-05 -1.74747e-05 0
2.00061e-05 1.29738e-05 0
-9.85811e-06 -7.07311e-06 0
2.78656e-05 1.52453e-05 0
3.292e-06 8.72509e-06 0
-4.0894e-07 -8.56608e-06 0
-7.1883e-06 -1.10355e-05 0
8.92411e-06 -2.11553e-05 0
1.50197e-05 -2.47045e-05 0
-1.02967e-05 -7.94346e-06 0
-4.65872e-06 -2.42961e-05 0
-9.63068e-07 9.44259e-06 0
1.67552e-05 -2.83107e-05 0
1.72692e-05 1.40324e-05 0
7.16403e-06 -1.19041e-05 0
8.41466e-06 1.72562e-06 0
3.43422e-06 -2.48814e-05 0
-3.36708e-06 -8.40295e-06 0
2.15691e-05 1.59057e-05 0
-3.73425e-07 6.13836e-06 0
3.18303e-06 1.23548e-05 0
1.41461e-05 -6.36859e-06 0
5.95069e-06 -3.86581e-06 0
8.95255e-06 5.41872e-06 0
1.80194e-06 -7.85982e-06 0
-1.12746e-05 -7.9527e-06 0
-2.9403e-06 6.98967e-06 0
1.91841e-05 1.25901e-05 0
1.2574e-05 -2.40465e-06 0
2.80186e-05 1.27823e-05 0
3.23615e-05 3.20036e-05 0
5.80038e-06 4.40947e-05 0
1.5885e-05 1.68673e-05 0
6.69793e-06 -1.96435e-05 0
-8.3568e-06 -4.13561e-05 0
-2.41096e-05 9.94076e-06 0
-1.7719e-05 -1.73717e-05 0
1.25133e-05 -7.84324e-06 0
1.76812e-06 1.73685e-06 0
-4.68863e-06 -1.35185e-05 0
2.86458e-05 2.99231e-05 0
1.30154e-05 -2.39465e-05 0
-1.84065e-06 1.09895e-05 0
4.07275e-05 -6.56384e-06 0
4.03785e-06 6.59407e-06 0
1.32141e-05 -1.40589e-05 0
1.47519e-05 -2.9911e-05 0
-1.34606e-05 -1.58927e-05 0
-1.52631e-05 -6.86717e-06 0
7.13517e-06 -6.36757e-06 0
3.21838e-05 -5.07151e-06 0
8.48497e-06 7.95839e-06 0
2.8523e-05 3.92531e-05 0
2.02426e-05 -1.48464e-05 0
5.82644e-06 -3.44837e-06 0
1.2497e-05 -1.13037e-05 0
0 -2.18714e-10 0
0 1.25032e-10 0
-2.16197e-05 4.70912e-06 0
2.79763e-05 8.67444e-07 0
0 -4.68784e-10 0
1.02024e-05 1.00562e-05 0
3.10193e-05 2.57667e-05 0
1.70528e-05 1.21339e-05 0
1.49233e-05 8.87931e-05 0
-9.28337e-06 -1.57723e-06 0
-1.41266e-06 5.2085e-05 0
2.73554e-07 1.85615e-05 0
1.23162e-05 1.63469e-05 0
1.22697e-05 2.85135e-05 0
5.55394e-06 8.46005e-06 0
8.41565e-06 4.01022e-05 0
1.89822e-05 9.17656e-06 0
1.07602e-05 7.1479e-06 0
-1.53275e-05 -8.03863e-06 0
-1.46355e-05 3.18006e-05 0
2.64705e-05 7.70927e-06 0
-9.60045e-06 -2.27059e-05 0
2.32797e-05 7.79826e-07 0
6.93349e-06 2.79501e-05 0
-1.17661e-05 8.81567e-06 0
2.84814e-05 1.1734e-05 0
7.12765e-06 -6.27713e-06 0
-1.53771e-05 -5.31168e-06 0
4.01046e-06 8.11978e-06 0
8.59693e-06 -8.7896e-06 0
-1.83302e-05 -1.59329e-05 0
-2.10214e-05 -6.75143e-06 0
-1.40909e-05 -1.89538e-06 0
-6.21124e-06 -1.14246e-05 0
-2.52409e-05 -2.92901e-05 0
3.97445e-06 7.95994e-06 0
7.48042e-06 -9.92195e-06 0
-1.1746e-05 2.0242e-05 0
-1.98405e-05 -1.7086e-05 0
-1.20499e-05 -8.28402e-06 0
-4.77358e-06 -3.70984e-05 0
-2.21459e-05 -3.84336e-05 0
7.20673e-06 1.12135e-05 0
7.00672e-06 1.92596e-05 0
8.42022e-06 5.23138e-06 0
1.22433e-05 -1.36475e-05 0
1.88728e-05 1.22227e-05 0
3.7766e-06 -1.51897e-05 0
7.80523e-06 -3.705e-05 0
-1.20103e-05 -2.54491e-05 0
6.83142e-06 -1.13359e-07 0
9.29289e-06 6.26364e-06 0
-1.7978e-05 5.27385e-06 0
2.70025e-05 -1.96485e-06 0
-8.13529e-06 -2.88237e-05 0
4.7211e-06 5.39724e-05 0
-4.10826e-06 -2.13774e-05 0
0 1.25006e-10 0
0 1.25e-10 0
4.21581e-05 -5.84825e-06 0
1.06644e-05 1.04935e-05 0
0 -2.18789e-10 0
3.31909e-05 -1.71145e-05 0
0 -4.68752e-10 0
1.5291e-05 1.27139e-05 0
1.42757e-05 -6.54168e-06 0
3.11464e-05 -1.6267e-05 0
-3.12498e-10 0 0
-2.41773e-06 7.65986e-05 0
-7.23573e-06 6.27725e-05 0
-2.49999e-10 0 0
3.97075e-05 3.35223e-05 0
7.20413e-08 -5.91492e-07 0
-2.04769e-05 -2.71927e-06 0
1.77426e-06 3.37358e-06 0
2.85113e-06 1.41012e-05 0
4.76985e-07 -7.82129e-06 0
5.60913e-06 2.58636e-05 0
-6.36712e-06 -2.65809e-05 0
4.41345e-05 6.49776e-05 0
-2.06438e-07 -5.13392e-07 0
6.11345e-06 1.23021e-05 0
-9.41672e-07 -4.49577e-06 0
5.35369e-06 2.10463e-05 0
-6.83938e-06 1.88009e-05 0
-2.1143e-06 1.19558e-05 0
-6.57243e-06 1.77028e-05 0
-6.2665e-06 -2.31219e-05 0
4.81948e-06 -1.67952e-05 0
-1.85847e-05 -5.00073e-07 0
1.18789e-05 -2.18154e-05 0
-4.39218e-06 -1.27559e-05 0
1.75468e-05 -2.28335e-08 0
7.2492e-06 4.98029e-06 0
-1.01729e-05 3.7803e-05 0
-3.78696e-05 -1.21635e-05 0
1.69845e-05 2.52094e-05 0
1.33428e-05 3.99858e-06 0
3.37799e-05 2.3944e-05 0
1.35053e-05 -8.55429e-06 0
1.44497e-05 2.93317e-05 0
7.56533e-06 2.90547e-05 0
3.91775e-05 1.95845e-05 0
1.19691e-05 1.86205e-05 0
-1.59393e-05 -8.42225e-06 0
2.81533e-06 2.13392e-05 0
-4.18652e-06 7.10187e-06 0
8.91317e-06 1.2253e-05 0
-1.69255e-05 -1.14581e-05 0
5.74235e-06 -1.29387e-05 0
-1.9445e-05 -2.15339e-05 0
1.01702e-05 4.89454e-06 0
2.24384e-05 4.09793e-05 0
2.00912e-05 1.83254e-05 0
3.36902e-06 3.1848e-06 0
3.22016e-05 5.95109e-06 0
-5.01195e-06 -2.54897e-05 0
2.83329e-13 2.81235e-10 0
-6.55384e-06 1.0208e-05 0
7.15092e-05 3.31366e-05 0
9.50351e-14 -4.68377e-10 0
3.62529e-05 -3.25539e-05 0
-3.29779e-06 1.94502e-05 0
-1.31543e-05 -5.67497e-06 0
-5.4641e-06 2.17361e-05 0
6.53555e-06 -2.02846e-05 0
5.21226e-06 1.84364e-05 0
7.43296e-06 2.4758e-05 0
1.61939e-05 1.90674e-05 0
1.32185e-05 1.21402e-05 0
4.49478e-06 1.35885e-05 0
1.73371e-06 -2.14821e-05 0
-1.07355e-05 -7.41287e-07 0
8.1433e-06 -2.08066e-05 0
6.69531e-06 1.47987e-05 0
-1.57652e-06 -3.26718e-05 0
-4.28976e-06 -5.91377e-06 0
1.07592e-05 1.91253e-06 0
-1.44384e-05 -1.58306e-05 0
-5.77967e-06 -5.36508e-06 0
1.91137e-06 1.11507e-06 0
2.11805e-05 -6.04431e-06 0
-4.90843e-06 9.61434e-06 0
5.07335e-07 -1.30596e-05 0
-3.10737e-06 2.06473e-06 0
-4.5871e-07 -4.27997e-06 0
-2.46952e-05 -1.75142e-05 0
1.78038e-05 -2.32109e-06 0
-9.91503e-06 3.68313e-07 0
-1.44943e-06 5.09603e-06 0
-1.28963e-05 2.92433e-05 0
6.69254e-06 1.98393e-05 0
4.32726e-06 -2.23657e-05 0
2.03037e-05 -4.27012e-06 0
4.83381e-07 -1.4513e-05 0
1.61851e-05 -2.43073e-06 0
-5.93908e-06 2.71824e-05 0
9.72821e-06 -2.04755e-05 0
5.20291e-06 -1.49829e-05 0
7.96759e-06 -8.92278e-06 0
1.06688e-05 4.64187e-06 0
4.73231e-06 -1.48981e-05 0
2.68696e-05 2.04059e-05 0
2.77723e-05 1.08905e-05 0
2.81075e-05 1.79971e-05 0
3.70837e-05 2.19729e-05 0
-1.87454e-06 -1.7071e-05 0
3.5737e-05 -1.17117e-05 0
1.7963e-05 -1.13881e-05 0
-8.16261e-06 3.5475e-06 0
3.17522e-05 1.17652e-05 0
1.29312e-06 -2.08181e-06 0
9.80311e-06 1.30502e-05 0
4.24451e-06 -6.42881e-06 0
3.15308e-05 3.32017e-06 0
-1.50364e-05 -2.42039e-08 0
3.11178e-05 2.02893e-06 0
2.70356e-05 1.49495e-05 0
-4.28016e-07 -5.87077e-05 0
-4.39226e-07 -1.70184e-05 0
-1.83612e-05 -6.71541e-06 0
2.22089e-05 -6.49736e-06 0
-9.40258e-06 2.12335e-06 0
-1.56761e-05 2.11149e-05 0
-9.7621e-06 2.35186e-05 0
-2.74003e-05 -5.84842e-06 0
-2.6487e-05 -1.79745e-05 0
-1.50894e-05 1.81732e-06 0
-1.94308e-05 -1.41235e-05 0
-1.91144e-06 -3.47274e-06 0
-1.20055e-05 1.42357e-05 0
2.39326e-06 3.91442e-05 0
2.91761e-05 2.99809e-05 0
-2.71945e-05 3.52233e-05 0
-3.46412e-05 4.5493e-06 0
1.71532e-05 8.24241e-06 0
-2.68715e-05 1.82695e-05 0
-2.55708e-05 2.53901e-05 0
-1.16814e-05 3.02619e-05 0
-9.01336e-06 1.3704e-05 0
1.49609e-05 1.16156e-05 0
-2.52494e-05 -7.48676e-07 0
-3.44041e-05 -8.89413e-06 0
-3.50448e-05 4.33262e-06 0
-4.24695e-06 -1.11506e-07 0
-6.56406e-07 5.89449e-05 0
-2.32777e-06 2.44656e-05 0
-5.84348e-06 -1.23177e-05 0
2.24148e-06 1.10445e-05 0
-1.32255e-05 2.15887e-05 0
1.05696e-05 3.11236e-05 0
-5.41795e-06 2.68773e-05 0
-1.22589e-05 6.62016e-06 0
-1.87506e-05 2.16429e-05 0
2.30873e-05 -1.18664e-05 0
2.07908e-06 -1.30742e-05 0
1.34193e-05 1.37994e-05 0
-9.36975e-07 2.23881e-05 0
2.13995e-06 5.99453e-06 0
-6.09825e-06 6.42935e-06 0
-1.99289e-07 1.18305e-05 0
2.33915e-05 -2.20752e-05 0
-1.07033e-05 -1.57225e-05 0
-1.54261e-05 -3.25806e-07 0
2.98399e-05 5.72636e-06 0
-2.74243e-06 1.54029e-05 0
4.4948e-06 3.2525e-05 0
-2.57981e-06 -1.00906e-05 0
1.77663e-05 7.75132e-06 0
2.71183e-06 1.27862e-05 0
-3.11836e-06 8.79241e-06 0
-2.58226e-08 1.45449e-05 0
1.82507e-05 2.3895e-05 0
1.3465e-05 7.84218e-06 0
1.02271e-05 -2.9011e-06 0
-3.57882e-06 7.64538e-06 0
-1.51323e-05 4.10907e-07 0
1.36862e-05 3.85414e-05 0
1.03721e-05 9.64945e-07 0
-2.60872e-06 -1.35859e-05 0
-1.30443e-05 -3.61856e-05 0
1.55314e-05 1.84264e-06 0
1.22844e-05 -1.66719e-05 0
-1.22483e-07 -9.35441e-06 0
-2.69385e-06 -1.14969e-05 0
-1.93551e-05 -1.47817e-06 0
-1.37769e-05 -3.6114e-05 0
-1.47656e-05 2.97334e-06 0
5.47122e-06 1.82621e-05 0
2.63578e-06 1.64584e-05 0
2.44241e-05 1.39403e-05 0
2.75519e-05 6.41839e-06 0
1.66939e-05 1.10909e-06 0
-1.65646e-05 7.17252e-06 0
8.14952e-06 1.98475e-05 0
1.11162e-05 1.74575e-05 0
7.66342e-06 3.18027e-06 0
-6.05252e-06 -1.17477e-05 0
1.08665e-06 -9.13196e-06 0
-8.03874e-06 3.07284e-05 0
2.30166e-05 1.58609e-05 0
5.60204e-06 -1.8091e-05 0
-2.36432e-05 -2.42704e-06 0
1.0954e-05 5.92733e-06 0
-2.3165e-05 -2.11498e-05 0
-5.3808e-06 2.01111e-05 0
4.88847e-06 9.65678e-06 0
-5.2426e-06 -1.04138e-05 0
8.53697e-06 3.07949e-06 0
3.98895e-06 1.20572e-05 0
1.72084e-05 1.75955e-05 0
2.03931e-06 -8.39579e-06 0
7.56239e-06 -8.36263e-06 0
-1.735e-05 -1.70593e-05 0
1.35523e-05 -1.31131e-05 0
6.87251e-06 1.03821e-05 0
-2.61539e-06 2.74615e-06 0
-1.1573e-05 1.85194e-06 0
4.48855e-06 2.00325e-06 0
2.47929e-07 4.25717e-06 0
9.46969e-06 3.10781e-05 0
7.70124e-06 1.42584e-06 0
1.3127e-05 1.8897e-05 0
2.70123e-06 -1.012e-06 0
-3.36842e-06 -1.21346e-05 0
1.68063e-05 1.3193e-05 0
4.80078e-06 2.64651e-06 0
-1.31204e-05 -1.37429e-05 0
1.12992e-05 -2.514e-05 0
-4.61643e-06 -2.09645e-05 0
1.19205e-05 -1.04272e-05 0
-1.14639e-05 3.48967e-06 0
1.16777e-05 4.84219e-06 0
1.57259e-05 -3.29111e-05 0
3.5421e-06 2.09025e-05 0
8.14861e-06 9.91738e-06 0
2.00532e-05 4.89147e-05 0
-1.9959e-06 -3.35296e-05 0
1.1619e-05 -4.98973e-06 0
-1.14896e-05 2.93044e-05 0
1.76572e-05 9.88468e-06 0
1.61942e-05 2.45587e-05 0
7.98876e-06 -2.09877e-06 0
2.81013e-05 2.39229e-05 0
1.9135e-05 8.40928e-06 0
1.3221e-05 -5.34009e-06 0
3.48808e-05 -2.51653e-05 0
1.71334e-05 -2.05041e-05 0
-1.51586e-05 2.29789e-07 0
1.40702e-05 1.62982e-05 0
-1.17412e-05 -1.77763e-05 0
2.27213e-05 -2.02745e-06 0
3.30511e-06 -1.58351e-06 0
7.86875e-07 1.98065e-05 0
-5.26035e-06 1.0498e-06 0
-1.9889e-06 -3.68061e-05 0
3.33905e-06 2.13419e-05 0
1.32794e-05 3.03567e-05 0
-2.89057e-05 1.57947e-05 0
1.33458e-05 -2.00782e-05 0
-1.0619e-05 3.7499e-05 0
2.63019e-05 -2.2405e-05 0
4.73445e-06 -1.90002e-05 0
-1.40205e-05 -2.79135e-05 0
3.41216e-06 1.82186e-05 0
9.1824e-06 -1.91807e-05 0
-1.64897e-05 -6.03158e-06 0
-8.91754e-07 3.00539e-05 0
9.88651e-06 1.17369e-05 0
2.27368e-05 4.19061e-06 0
1.38072e-05 -9.67703e-06 0
2.67049e-05 -1.26329e-05 0
2.52691e-06 -1.52211e-05 0
1.86354e-05 2.0226e-05 0
5.16246e-06 -7.40524e-06 0
3.9758e-06 -3.08155e-06 0
2.08725e-05 9.68424e-06 0
1.47147e-05 -3.2198e-05 0
-5.29031e-06 -8.9991e-06 0
1.26986e-05 -4.19893e-05 0
-1.15912e-05 -1.11166e-05 0
4.11451e-05 -2.09447e-05 0
1.51622e-05 -1.18958e-05 0
-1.2493e-05 -1.77641e-05 0
-4.10065e-06 2.21486e-06 0
-9.94834e-06 -1.79638e-05 0
1.97884e-05 -1.85194e-05 0
1.9548e-05 4.314e-06 0
2.53274e-05 1.88346e-07 0
1.23191e-05 -3.68621e-05 0
8.57545e-08 3.81879e-06 0
-1.15959e-05 -1.53026e-05 0
3.1631e-05 -2.11102e-05 0
1.68914e-05 -1.07023e-05 0
-4.47167e-06 6.25085e-06 0
2.14745e-05 1.28034e-05 0
1.14632e-05 -1.16947e-05 0
6.42189e-06 -5.14822e-06 0
2.01719e-05 -1.03041e-05 0
-1.20745e-05 -1.90929e-05 0
4.77266e-07 -5.00113e-06 0
1.04486e-05 3.63202e-06 0
8.2461e-06 -1.38014e-05 0
2.20461e-05 9.60729e-06 0
1.49721e-05 1.33679e-05 0
8.13372e-06 -2.42674e-05 0
1.84923e-05 -1.13063e-05 0
2.5763e-06 2.84234e-05 0
2.50987e-05 -8.62549e-08 0
1.14809e-05 -2.62881e-05 0
1.13636e-05 3.34949e-05 0
-1.39445e-06 -1.43499e-06 0
1.71153e-05 -9.4084e-06 0
-1.81283e-05 2.77792e-05 0
3.98472e-05 2.28863e-05 0
2.45036e-06 3.14768e-05 0
1.20586e-05 -1.29692e-06 0
-1.18843e-05 -3.70843e-05 0
-5.19269e-07 -3.03406e-06 0
3.04669e-05 -4.03053e-06 0
6.74933e-06 2.70449e-05 0
3.54892e-05 3.06144e-05 0
-1.15432e-06 5.31963e-06 0
2.67901e-05 -5.80501e-06 0
-1.88057e-05 -2.86744e-05 0
9.06451e-06 -6.09893e-06 0
2.75262e-05 2.11711e-05 0
5.84177e-06 -3.16617e-05 0
5.11213e-05 8.74964e-06 0
-4.74626e-06 -1.2174e-05 0
9.62672e-06 8.74718e-06 0
-1.36382e-05 -2.54822e-05 0
8.48765e-06 1.05017e-05 0
-2.03956e-06 -4.178e-05 0
1.69098e-06 1.74585e-06 0
2.47976e-05 8.89985e-06 0
5.01782e-06 8.46811e-06 0
-3.02535e-05 -2.18757e-05 0
3.06912e-06 3.08771e-05 0
-3.96154e-05 -6.73331e-06 0
-2.8846e-07 -2.50691e-05 0
1.43359e-05 1.40752e-05 0
-2.0418e-05 1.17547e-05 0
-1.09858e-05 -9.37245e-06 0
6.87628e-06 1.85519e-05 0
4.52445e-06 -2.71585e-06 0
-6.96222e-06 -2.11738e-05 0
1.16615e-07 1.30925e-05 0
-2.31932e-05 -1.92314e-05 0
7.76705e-06 2.00051e-05 0
-1.12341e-05 3.88662e-06 0
-3.38369e-06 1.96387e-05 0
-1.21856e-05 -2.7243e-06 0
-3.30426e-06 1.93188e-05 0
-1.65991e-05 9.67305e-07 0
1.17558e-05 5.14927e-05 0
1.6962e-05 1.14989e-05 0
-3.69519e-06 -2.12734e-05 0
-2.97593e-05 -1.65034e-05 0
6.11277e-06 -3.68281e-06 0
2.45096e-05 -8.4721e-06 0
2.45347e-05 8.98783e-06 0
6.41835e-06 -2.69423e-05 0
3.0653e-05 1.72744e-05 0
1.22836e-05 1.94075e-05 0
1.54818e-05 -7.65787e-06 0
-2.00424e-05 1.16802e-05 0
1.72468e-05 1.05041e-05 0
2.048e-05 8.5305e-06 0
-1.1229e-05 -1.2929e-05 0
1.52915e-05 1.28468e-05 0
-1.20765e-05 1.71414e-05 0
-2.81677e-06 8.94532e-06 0
-1.26132e-05 1.6904e-05 0
-3.27397e-07 1.47408e-05 0
-1.29425e-05 -2.2809e-06 0
1.95805e-05 2.33287e-06 0
2.33659e-05 -1.01539e-05 0
-9.22587e-06 -2.03978e-05 0
-4.81468e-06 -2.08129e-05 0
2.14107e-06 7.88302e-06 0
1.03493e-05 5.32274e-06 0
8.98509e-06 -3.5813e-06 0
1.63582e-05 5.38117e-06 0
9.5835e-06 -1.99065e-05 0
-8.73524e-06 4.26271e-06 0
-1.15827e-05 8.12414e-06 0
-1.46789e-05 -4.26968e-06 0
-1.71453e-05 2.55863e-05 0
-3.125e-10 0 0
-2.01555e-06 2.18238e-05 0
-3.63462e-06 3.06826e-05 0
5.47117e-08 1.18465e-05 0
1.875e-10 0 0
2.55364e-05 -3.71691e-05 0
1.45807e-05 1.27703e-06 0
2.93008e-05 2.63205e-06 0
5.42956e-06 1.09464e-05 0
5.08375e-06 -1.61547e-05 0
-1.02241e-05 3.03862e-05 0
-1.14918e-05 -4.01974e-05 0
5.1402e-06 1.06679e-05 0
4.47533e-06 1.16961e-05 0
-4.80167e-06 2.25925e-05 0
-1.15214e-05 8.85511e-06 0
7.35321e-06 9.88946e-07 0
-1.16306e-05 3.62109e-05 0
7.58272e-06 -1.055e-05 0
1.8074e-05 3.00161e-05 0
-1.98827e-05 3.08295e-06 0
1.89295e-05 6.64651e-06 0
1.23487e-05 1.00589e-05 0
1.65327e-05 5.37308e-06 0
2.12709e-05 -1.21758e-05 0
-8.9706e-06 3.91339e-05 0
-1.68266e-05 -3.30949e-06 0
2.9595e-06 -5.92481e-06 0
-1.85086e-05 2.77675e-05 0
1.57403e-06 2.50936e-05 0
1.12056e-05 5.60254e-05 0
-1.47474e-07 -9.68857e-06 0
-1.73364e-06 -1.23465e-05 0
2.14444e-05 -2.68699e-06 0
-2.23001e-05 2.65545e-05 0
1.28342e-05 1.13257e-05 0
-1.24072e-05 2.696e-05 0
3.8575e-06 4.13869e-05 0
3.29579e-05 -7.36017e-06 0
-1.73263e-05 -9.4316e-06 0
3.34597e-05 1.96801e-05 0
3.58623e-05 -1.31896e-05 0
6.05152e-05 3.58866e-05 0
-7.20658e-06 2.76604e-06 0
1.95172e-05 -4.80113e-06 0
8.54613e-06 -5.27128e-08 0
6.61693e-14 1.24988e-10 0
9.15258e-06 -2.41055e-05 0
1.29296e-05 -2.44963e-05 0
1.88369e-05 1.44444e-05 0
2.05665e-05 -6.80552e-06 0
1.71418e-13 -4.68948e-10 0
-8.62214e-06 -1.49518e-05 0
1.06983e-05 1.50899e-05 0
2.11135e-05 1.74257e-06 0
6.67191e-06 -2.87503e-05 0
1.72686e-05 2.3745e-05 0
-1.70306e-05 -1.10605e-05 0
1.01073e-05 8.33836e-06 0
-1.02705e-05 -1.51967e-05 0
4.10648e-05 -9.66093e-06 0
-2.628e-05 -1.93443e-05 0
1.78885e-06 -2.34726e-05 0
1.07969e-05 -2.50366e-07 0
-1.41929e-05 -1.64567e-05 0
1.109e-05 1.88449e-05 0
-2.89438e-05 -1.27472e-05 0
-1.15979e-05 -2.00864e-06 0
6.42661e-06 2.84828e-05 0
1.38936e-05 1.49865e-05 0
-3.59739e-06 2.00605e-05 0
-1.72498e-05 -2.86093e-05 0
3.19918e-06 -2.32424e-05 0
-1.94633e-05 -2.10276e-05 0
4.67878e-05 2.30617e-05 0
-1.31622e-05 -2.98013e-05 0
-9.58663e-06 3.54425e-06 0
-3.16324e-05 1.73013e-05 0
-1.59999e-08 2.58465e-05 0
-1.99778e-05 -2.453e-05 0
6.33428e-06 3.83663e-05 0
-9.30075e-06 3.68214e-06 0
1.38243e-06 -1.59118e-05 0
1.82535e-06 -1.44741e-05 0
4.3143e-05 1.40545e-05 0
2.52021e-06 2.80339e-06 0
4.71384e-06 5.75482e-06 0
1.18621e-05 -3.69132e-05 0
-7.58744e-06 2.71497e-05 0
2.91826e-05 7.03509e-06 0
1.26406e-05 1.03503e-06 0
-2.51083e-05 1.36677e-06 0
1.98994e-05 -7.56087e-06 0
1.98308e-05 -2.34548e-05 0
-6.53333e-07 -2.2471e-05 0
1.55078e-05 -5.12332e-06 0
1.87491e-06 1.71451e-06 0
3.51928e-05 4.93565e-05 0
2.64736e-05 1.86061e-05 0
5.07957e-05 1.36711e-05 0
-9.81555e-07 -2.52722e-05 0
2.73703e-06 3.35131e-06 0
1.22719e-05 -1.91315e-05 0
3.75166e-05 -6.89463e-08 0
5.26851e-06 -2.57676e-05 0
7.86108e-06 1.37174e-07 0
-1.90514e-13 1.24273e-10 0
9.37267e-06 9.96942e-06 0
1.0001e-05 3.26213e-06 0
9.75935e-06 1.38173e-05 0
7.18771e-06 3.7712e-05 0
2.53832e-06 -6.00263e-06 0
-6.12482e-06 -4.35296e-06 0
-2.19771e-05 3.02023e-05 0
3.13772e-05 -1.88386e-06 0
-3.38653e-06 -1.72284e-05 0
-2.40451e-05 1.5327e-05 0
-6.79992e-06 7.716e-06 0
-2.12388e-05 -2.38962e-06 0
-1.24254e-05 1.32002e-05 0
-3.43741e-06 1.90751e-05 0
2.58591e-06 5.30111e-05 0
-9.30052e-09 4.96453e-05 0
-9.29791e-07 2.53359e-08 0
-1.00561e-05 -1.59815e-05 0
-6.26607e-06 -1.22663e-05 0
4.39265e-06 4.07608e-08 0
-3.058e-06 1.06942e-05 0
-5.71837e-06 2.34587e-05 0
-6.28377e-06 1.63054e-05 0
2.05985e-06 -1.26853e-05 0
-2.37228e-05 1.35128e-06 0
-1.12018e-05 1.24126e-05 0
1.3449e-05 4.64071e-05 0
-1.31137e-05 8.15842e-06 0
-8.18467e-06 -2.27546e-06 0
7.31569e-06 2.51236e-05 0
-4.64607e-06 4.60795e-06 0
4.3224e-06 -1.55396e-05 0
1.48396e-05 1.71518e-05 0
-5.72133e-06 7.20241e-07 0
1.41476e-05 1.66622e-05 0
4.0185e-07 3.87945e-06 0
2.95369e-05 4.47461e-06 0
4.90319e-05 6.48182e-05 0
2.56923e-06 4.96528e-05 0
7.32254e-06 -1.49196e-05 0
1.20257e-06 2.29216e-05 0
-1.22151e-05 1.10299e-05 0
1.29199e-05 -2.00195e-05 0
-2.134e-05 -1.16642e-05 0
8.71029e-07 -2.35825e-06 0
-1.85675e-05 -2.52587e-05 0
-8.91031e-06 -1.03066e-05 0
-1.60147e-05 -2.95644e-05 0
5.98563e-06 3.5048e-06 0
6.06501e-06 2.37922e-05 0
-2.36786e-07 -2.11566e-05 0
1.88647e-06 -3.57752e-07 0
8.17413e-06 1.41277e-06 0
2.3131e-07 -1.19704e-05 0
-3.4956e-06 1.82206e-06 0
2.97872e-07 1.9009e-05 0
1.10077e-05 7.74046e-06 0
9.8216e-06 -7.33143e-06 0
2.25285e-05 -1.50594e-05 0
-4.21063e-07 -7.55774e-07 0
-4.41958e-06 -1.52021e-05 0
-6.53517e-06 -3.58537e-05 0
7.29439e-06 -3.26575e-05 0
-3.04911e-06 -3.73376e-06 0
-2.32885e-05 9.8718e-06 0
-1.06084e-05 2.60989e-05 0
-1.48649e-05 1.5634e-05 0
1.95023e-05 -5.58024e-06 0
2.93113e-05 1.69671e-05 0
1.56729e-05 2.3532e-05 0
1.04734e-05 4.53052e-05 0
-7.54632e-06 8.08254e-06 0
5.12757e-06 -5.01483e-07 0
5.19474e-06 -1.76239e-05 0
-2.20152e-05 -7.21017e-06 0
1.85991e-05 -2.26323e-05 0
3.53829e-06 -8.21524e-06 0
-2.21609e-05 -3.07254e-05 0
-7.20957e-06 7.34084e-06 0
6.11546e-06 -9.89264e-06 0
-1.44285e-05 2.32904e-06 0
-4.43554e-05 -3.80695e-05 0
-2.03009e-05 4.74915e-07 0
-1.6319e-05 1.23992e-05 0
7.0951e-06 -2.19663e-05 0
-4.48007e-06 -8.63224e-06 0
1.9488e-05 1.03002e-05 0
3.23541e-06 4.28598e-06 0
-4.45399e-06 3.05395e-05 0
-2.44373e-05 3.73577e-05 0
-2.92702e-06 5.26762e-06 0
-8.42785e-06 3.73934e-05 0
7.26722e-08 6.64542e-06 0
-1.58643e-06 -1.50802e-05 0
-8.87801e-06 -1.40208e-05 0
5.41572e-06 -4.37816e-05 0
1.4466e-05 5.61512e-06 0
-2.32822e-05 3.34145e-05 0
-9.66323e-06 2.8764e-05 0
-4.6827e-06 3.5085e-05 0
-2.41101e-05 1.18032e-06 0
5.34813e-07 -2.48265e-05 0
-1.8995e-05 -2.71142e-05 0
8.4662e-06 1.41088e-05 0
-8.206e-06 2.53424e-05 0
1.78329e-06 1.49574e-05 0
1.5021e-05 1.99773e-05 0
-1.83618e-06 4.23271e-06 0
-1.28228e-05 -2.94115e-05 0
3.91995e-05 -4.26796e-08 0
-2.99532e-05 -1.29182e-05 0
1.57508e-05 3.65814e-05 0
7.38892e-06 2.97987e-05 0
-9.82835e-06 1.51923e-05 0
-4.52729e-06 1.79123e-05 0
-1.8381e-05 6.73515e-06 0
2.72243e-06 2.31769e-05 0
-8.43292e-06 5.65451e-06 0
1.09147e-05 2.19555e-05 0
-9.54553e-06 4.45438e-05 0
7.69945e-06 -5.66078e-06 0
-7.80766e-06 2.34191e-05 0
2.37395e-05 1.48568e-05 0
-1.83685e-05 1.83553e-05 0
5.80007e-06 4.29702e-05 0
9.10064e-06 -3.44652e-06 0
7.59979e-06 6.51887e-06 0
2.19672e-05 1.16247e-05 0
-1.71493e-05 1.05544e-05 0
-3.06856e-06 -2.41528e-06 0
-1.38281e-06 -1.07605e-05 0
7.20124e-07 1.874e-07 0
-8.81782e-06 7.83951e-06 0
-8.81291e-06 -3.77903e-06 0
1.37632e-05 1.44334e-05 0
-1.26633e-05 4.95363e-06 0
-2.52568e-06 -7.0972e-06 0
-2.11547e-05 1.49553e-05 0
9.63171e-06 1.80546e-05 0
2.96177e-05 1.09605e-05 0
2.90679e-06 9.57322e-06 0
1.54054e-05 4.35452e-06 0
6.54335e-06 -3.215e-06 0
1.79667e-06 -1.38931e-06 0
5.31244e-06 5.5114e-05 0
1.78386e-05 -5.34187e-06 0
3.26185e-06 -1.06297e-06 0
3.95578e-06 -3.09154e-05 0
-1.12924e-06 -1.89332e-05 0
4.78941e-06 -3.53308e-05 0
1.30709e-06 -1.06484e-06 0
1.33312e-05 -1.80735e-05 0
4.00737e-05 -3.28802e-05 0
2.55291e-05 4.48068e-06 0
3.11004e-05 -1.0453e-06 0
3.65456e-05 -1.63692e-05 0
-7.13241e-06 -1.0975e-05 0
5.09322e-05 -3.07386e-05 0
4.52947e-05 -2.02021e-05 0
2.26158e-05 -4.75304e-06 0
1.14689e-05 -2.85164e-06 0
3.91339e-05 1.53485e-05 0
1.87937e-05 -3.20496e-05 0
-1.41116e-05 -4.31113e-05 0
4.07854e-05 1.45079e-05 0
1.68266e-06 -2.30225e-05 0
1.6239e-05 -1.73509e-05 0
9.70369e-06 -1.01076e-05 0
-2.61322e-05 -8.72251e-06 0
-2.57868e-06 -6.02426e-06 0
1.41482e-05 -2.55384e-05 0
-7.69402e-06 -5.17121e-06 0
2.89559e-05 -2.28568e-05 0
-8.58665e-06 6.8207e-06 0
3.1636e-05 -2.94616e-05 0
2.49861e-05 -2.76908e-06 0
-7.09402e-06 6.0182e-06 0
-1.3243e-05 3.73156e-06 0
7.05743e-06 2.11909e-05 0
-7.52808e-06 -9.15579e-06 0
3.48492e-06 -1.04282e-05 0
1.63527e-05 2.63801e-05 0
-7.93069e-06 4.19275e-05 0
-1.64926e-05 -2.26548e-05 0
0 5e-10 0
1.79321e-05 -3.00265e-06 0
-1.69436e-05 -5.81553e-06 0
1.55382e-06 4.39023e-05 0
2.34301e-05 3.97942e-05 0
-2.30025e-05 1.07898e-05 0
1.24287e-05 -1.78798e-05 0
-3.44227e-06 8.50716e-06 0
-8.10954e-06 -1.57351e-05 0
-1.60298e-05 -2.17578e-06 0
2.09696e-05 1.63292e-05 0
-2.32014e-06 7.0396e-06 0
-6.50287e-07 1.68142e-05 0
-2.47699e-05 1.40828e-05 0
-1.36914e-05 -1.28732e-05 0
-9.91241e-06 2.02028e-05 0
0 1.25e-10 0
-2.5e-10 0 0
-1.63698e-05 -4.97765e-06 0
1.65936e-05 2.02034e-05 0
3.31533e-06 3.22489e-05 0
7.77455e-06 1.21118e-05 0
3.01566e-05 1.76803e-05 0
1.82451e-05 8.89475e-07 0
9.72626e-07 9.19378e-06 0
-3.92213e-07 -2.22736e-05 0
3.45531e-07 2.26385e-06 0
2.39648e-06 1.21587e-05 0
1.7728e-05 2.89228e-06 0
1.78652e-05 -2.8051e-06 0
-3.81559e-06 -2.55322e-05 0
2.73266e-06 -2.92494e-05 0
-2.38122e-05 -6.85995e-06 0
-5.04529e-06 1.68515e-05 0
2.25442e-05 -1.70593e-05 0
-1.23441e-06 1.90139e-05 0
1.26876e-06 -2.43192e-06 0
2.40149e-05 7.73419e-05 0
-5.01562e-07 4.22409e-06 0
3.89342e-06 8.77945e-06 0
2.51366e-05 3.08228e-05 0
4.15877e-06 4.11101e-05 0
1.67541e-05 1.6898e-05 0
1.75877e-05 -1.54836e-05 0
-9.04788e-06 -6.00725e-06 0
-8.32689e-06 -1.95217e-05 0
2.49734e-06 2.3438e-05 0
1.6277e-05 1.59765e-05 0
4.59205e-08 -8.49642e-06 0
-1.28813e-05 2.56126e-05 0
3.47114e-07 4.39302e-06 0
1.11199e-05 2.1604e-05 0
2.8686e-05 5.05064e-06 0
-1.0871e-05 1.41279e-05 0
2.38513e-05 -9.81737e-06 0
-4.93696e-06 -4.80978e-06 0
-1.84301e-05 -1.63127e-05 0
-2.4926e-05 1.8994e-05 0
-8.65817e-06 -6.06784e-06 0
3.26967e-05 9.33263e-06 0
1.68383e-05 3.07266e-05 0
-1.01962e-05 -2.30553e-05 0
1.16245e-05 2.33686e-05 0
-1.43361e-05 2.96108e-05 0
-1.25602e-05 8.01026e-06 0
-9.11688e-06 1.52001e-05 0
1.50927e-05 -1.31859e-06 0
1.62655e-05 -2.76619e-06 0
-1.87493e-05 1.99899e-05 0
-1.13346e-05 5.1867e-05 0
-2.41754e-06 9.03241e-07 0
-3.81933e-06 -9.38283e-07 0
-8.36837e-06 -2.33002e-07 0
8.95003e-06 3.83055e-05 0
1.77314e-05 1.9178e-05 0
-9.0413e-06 -2.09053e-06 0
-2.20119e-05 1.6835e-05 0
-1.38254e-05 1.31147e-06 0
1.15652e-05 1.05674e-05 0
-6.97946e-06 1.05161e-05 0
-2.04227e-06 1.17776e-05 0
-1.41764e-05 -5.22287e-06 0
7.97443e-06 1.32954e-05 0
-1.34817e-05 2.83637e-05 0
-1.43786e-05 1.80528e-05 0
1.45001e-05 2.66947e-05 0
-1.1054e-05 2.08381e-05 0
-2.47472e-05 1.06794e-05 0
1.59143e-05 1.40269e-05 0
-9.18604e-06 -3.88656e-05 0
-9.09565e-06 1.7411e-05 0
-3.53748e-06 7.22759e-06 0
9.61769e-06 -1.7721e-05 0
1.05276e-05 4.09775e-06 0
-6.39586e-06 -7.98771e-06 0
-1.06467e-05 -4.88087e-05 0
3.40219e-06 -1.10644e-05 0
-3.18294e-05 -1.067e-05 0
3.3434e-06 3.83068e-05 0
-1.11423e-05 5.90444e-06 0
1.5785e-05 3.981e-06 0
-8.83804e-06 -1.5284e-05 0
1.2768e-05 6.69933e-06 0
1.89876e-05 1.06645e-05 0
4.54357e-06 5.94249e-06 0
1.3448e-05 2.84173e-05 0
1.48653e-05 3.69947e-05 0
4.31271e-06 1.90865e-05 0
-7.96654e-06 1.07735e-05 0
-4.957e-06 1.91761e-05 0
7.57764e-06 8.41883e-05 0
-1.05554e-05 -2.66632e-05 0
-1.20445e-05 1.01358e-05 0
1.27083e-05 -1.53547e-05 0
3.14885e-06 1.39855e-05 0
-1.67269e-06 2.52749e-05 0
-1.01995e-06 1.36822e-07 0
4.41694e-05 2.05503e-05 0
1.79567e-05 1.82572e-05 0
9.79167e-07 1.70749e-05 0
9.46961e-06 9.9733e-06 0
-1.60025e-05 1.25242e-05 0
3.75932e-06 1.13142e-05 0
-2.7695e-06 3.05771e-05 0
-4.30087e-06 9.47098e-06 0
-4.1349e-06 -6.62201e-06 0
-9.15989e-06 1.40376e-05 0
-1.58438e-05 2.9587e-05 0
-1.30505e-05 2.21482e-05 0
9.19351e-06 1.55337e-05 0
-5.86386e-07 -5.61633e-06 0
1.80985e-06 -2.84654e-06 0
2.8067e-06 1.22567e-05 0
8.07205e-06 1.66649e-05 0
7.17192e-06 2.33565e-05 0
3.7905e-06 4.88516e-05 0
-5.03378e-06 1.83183e-05 0
1.55409e-05 3.29701e-05 0
2.7079e-05 2.0894e-05 0
-6.53154e-06 1.49096e-05 0
2.58995e-06 9.41425e-06 0
1.26041e-05 3.39055e-05 0
8.20693e-06 5.47904e-05 0
-1.55211e-06 7.53109e-06 0
1.14999e-05 4.89446e-05 0
9.48202e-06 -1.29372e-05 0
2.34903e-05 7.28818e-05 0
3.40981e-05 1.60972e-05 0
-7.01361e-06 -2.13333e-06 0
8.24958e-06 6.37636e-06 0
-1.65423e-05 3.54566e-06 0
1.19553e-05 2.6446e-05 0
6.44125e-06 -7.67229e-07 0
1.98382e-06 8.11008e-06 0
-5.80861e-07 -1.61494e-05 0
1.06504e-05 1.58134e-05 0
-1.76276e-05 2.3367e-05 0
3.10671e-06 7.57193e-06 0
1.14704e-05 2.09641e-05 0
-3.75315e-06 4.44079e-05 0
4.20128e-06 1.20196e-05 0
2.50368e-05 1.77374e-05 0
2.91523e-06 3.1361e-05 0
2.92336e-05 -3.8854e-06 0
4.32554e-07 8.32633e-06 0
1.64065e-05 2.12556e-05 0
1.17442e-05 3.42625e-06 0
7.2947e-06 1.8099e-05 0
4.41724e-06 2.62453e-05 0
-1.3653e-05 1.12356e-05 0
-1.27287e-05 1.11155e-05 0
-2.49774e-10 -1.90958e-14 0
2.26924e-05 -4.43575e-06 0
-6.96649e-06 -4.08922e-06 0
7.18159e-06 3.47011e-05 0
-3.12147e-10 4.13891e-13 0
6.45897e-06 3.30139e-05 0
1.19994e-05 2.51562e-05 0
1.41823e-05 5.48026e-05 0
-2.30753e-05 -2.5383e-06 0
-1.47545e-05 1.13101e-05 0
2.72747e-05 7.42203e-06 0
1.45721e-05 3.81557e-05 0
-2.01802e-06 8.30039e-06 0
5.2265e-06 -7.94854e-06 0
2.20297e-05 2.34931e-05 0
2.50419e-05 2.58618e-05 0
1.21417e-05 -2.27524e-05 0
-6.14492e-07 4.72729e-06 0
2.49639e-06 -1.34027e-06 0
6.28935e-07 -2.46277e-05 0
3.11631e-06 2.54648e-05 0
2.77367e-06 3.19372e-05 0
-6.68409e-06 9.83133e-06 0
1.19549e-05 3.42253e-05 0
-1.63523e-05 2.32113e-05 0
1.92993e-05 1.66629e-05 0
2.72804e-05 1.73629e-05 0
1.67243e-05 1.96735e-05 0
-5.26913e-06 4.45824e-05 0
-3.16809e-05 2.47592e-05 0
-2.59262e-05 1.47328e-05 0
3.0224e-05 1.95566e-06 0
1.03716e-05 3.3714e-05 0
1.87526e-10 -5.87974e-13 0
-1.56803e-05 2.69582e-05 0
-1.16961e-06 2.27359e-05 0
-1.73197e-05 1.56468e-05 0
2.25926e-05 1.98763e-05 0
3.47999e-07 1.26344e-05 0
-1.11223e-05 3.63742e-05 0
-5.17242e-06 -1.56732e-06 0
2.63131e-05 8.71413e-07 0
2.28465e-06 2.17395e-05 0
2.93699e-05 3.18571e-05 0
-2.20468e-05 4.9068e-06 0
5.09801e-06 1.25957e-06 0
-7.19052e-06 -3.78219e-06 0
2.5511e-06 4.60909e-05 0
-1.79474e-05 2.88712e-08 0
-1.49839e-06 1.48399e-05 0
1.54091e-05 -5.33194e-06 0
1.08508e-05 -1.01263e-05 0
-9.25447e-06 3.5048e-06 0
6.14671e-06 9.18663e-06 0
-4.911e-07 1.92862e-06 0
-8.29066e-06 -1.3859e-05 0
-1.41085e-05 -1.25571e-05 0
-1.27319e-05 2.48874e-06 0
-1.15966e-05 -3.01993e-06 0
-2.25919e-05 1.96086e-05 0
-1.78864e-05 -9.45611e-07 0
-2.19096e-05 2.40108e-05 0
-2.38437e-05 1.17348e-05 0
-1.02658e-05 -1.28029e-05 0
-1.2761e-05 2.65158e-05 0
-1.69738e-05 5.80503e-05 0
3.90958e-06 -3.47732e-06 0
-1.02908e-05 -2.10824e-05 0
1.79918e-06 2.91306e-06 0
-1.32754e-05 2.91273e-05 0
4.5439e-06 4.78165e-06 0
-2.04569e-05 -9.24253e-06 0
-1.03021e-05 -2.29389e-05 0
-2.84043e-05 -2.69898e-05 0
-1.83379e-05 -5.83674e-06 0
2.89527e-05 3.6914e-05 0
-1.77307e-05 2.9669e-07 0
-4.90433e-06 -2.87127e-06 0
-1.81871e-05 7.29192e-06 0
-1.81826e-05 5.72017e-06 0
8.40137e-06 4.30217e-06 0
5.68801e-06 -1.49313e-07 0
5.18123e-06 -4.66034e-06 0
-1.49364e-05 1.35173e-05 0
3.61973e-06 1.40769e-06 0
2.6637e-05 2.46318e-06 0
2.95721e-05 -2.16008e-06 0
-4.98443e-07 -8.0148e-06 0
2.45715e-05 9.34974e-06 0
1.48066e-05 1.05253e-05 0
2.1119e-06 -3.35595e-05 0
5.0364e-06 1.06668e-05 0
1.12984e-05 -1.55393e-05 0
6.36772e-06 5.55492e-06 0
8.6369e-06 1.42634e-05 0
1.29432e-05 -1.10125e-05 0
7.5852e-07 9.75978e-06 0
-1.53088e-05 -2.94188e-05 0
2.33302e-05 -1.0681e-05 0
3.61256e-05 2.30905e-05 0
1.50739e-05 6.34327e-06 0
-1.39104e-05 -1.11186e-06 0
1.06117e-06 9.31887e-06 0
2.96932e-05 2.81002e-06 0
1.20867e-05 -3.48111e-07 0
-1.70109e-06 -2.45684e-05 0
8.17777e-06 -1.90618e-05 0
2.15052e-06 2.02449e-05 0
2.99144e-06 -8.4941e-07 0
2.07514e-05 -2.26448e-05 0
-7.0192e-06 -1.48568e-05 0
-1.34218e-05 1.88842e-05 0
5.04023e-06 2.24112e-06 0
1.22338e-05 1.52135e-06 0
1.65649e-05 8.32407e-06 0
-1.28371e-05 -2.65867e-05 0
2.01172e-13 3.11764e-11 0
2.92961e-05 -3.40478e-05 0
3.93463e-13 1.25305e-10 0
1.36219e-05 -2.53422e-05 0
-1.03564e-06 2.3264e-06 0
1.49658e-13 2.81076e-10 0
2.14268e-05 3.61133e-05 0
2.77179e-05 1.25356e-05 0
4.92939e-14 -2.18196e-10 0
1.36909e-05 1.61557e-05 0
-6.26868e-06 -2.11855e-05 0
3.11082e-05 5.03422e-06 0
-3.84993e-06 -5.44336e-06 0
-9.12727e-07 -3.73483e-05 0
1.38119e-06 -1.31382e-05 0
-2.57014e-05 1.04823e-05 0
-1.36674e-05 3.51324e-05 0
4.05883e-06 2.31944e-05 0
-1.98802e-05 2.44153e-05 0
3.92512e-06 3.59195e-06 0
5.67244e-06 2.19962e-05 0
2.93857e-05 2.43259e-06 0
-1.73991e-05 -2.97047e-05 0
-4.99546e-06 4.7017e-05 0
-2.15502e-05 5.02358e-05 0
-3.71259e-13 2.11386e-13 0
-7.98072e-06 1.302e-05 0
-2.12514e-05 -5.79473e-07 0
9.88362e-07 2.65454e-05 0
1.24432e-06 1.03412e-05 0
-3.94636e-06 2.20747e-05 0
3.16543e-05 2.99955e-05 0
-1.66682e-05 2.90764e-05 0
1.16778e-05 2.96027e-05 0
-1.43495e-05 3.65961e-05 0
-6.448e-07 1.67958e-05 0
-2.37808e-05 5.52798e-06 0
7.23488e-06 6.5762e-06 0
-6.20558e-06 1.98274e-05 0
-8.40826e-06 1.91938e-05 0
1.56821e-06 5.63671e-05 0
2.25909e-05 -1.07158e-05 0
3.6637e-06 1.51908e-05 0
-1.88434e-05 2.9478e-05 0
1.12285e-05 1.92288e-05 0
-1.20195e-05 1.57643e-05 0
-1.64137e-05 -1.13786e-05 0
-6.39488e-14 -4.60076e-13 0
-8.86973e-06 2.36616e-05 0
2.66656e-05 9.71724e-06 0
-5.49556e-06 4.77499e-06 0
2.54316e-06 2.94303e-06 0
2.07815e-05 3.35645e-05 0
-2.26765e-05 -3.54137e-06 0
-2.49986e-10 -1.69642e-13 0
1.73655e-05 5.48216e-05 0
1.14338e-05 3.45828e-05 0
-1.09365e-05 2.50404e-05 0
-1.04957e-05 1.31078e-05 0
-3.12682e-10 3.79252e-13 0
4.51306e-06 4.80727e-06 0
1.86073e-05 1.37761e-05 0
-1.23349e-06 1.79845e-05 0
4.49388e-05 2.77763e-05 0
2.7421e-05 1.2108e-05 0
-3.07623e-05 2.3143e-07 0
2.5566e-05 -6.11458e-06 0
1.17341e-05 1.24902e-05 0
1.83269e-06 -1.08027e-06 0
-8.33407e-06 -1.83592e-05 0
-3.61194e-05 1.04519e-05 0
1.49458e-05 9.5818e-06 0
1.67112e-05 1.79751e-05 0
-1.32627e-05 -3.36388e-06 0
-2.58382e-06 9.68374e-06 0
-8.88624e-06 -3.5903e-05 0
2.6073e-05 2.61996e-05 0
1.83818e-05 4.55571e-06 0
-1.68649e-05 -4.15888e-06 0
-1.01678e-05 -4.18518e-06 0
-1.73223e-05 7.71202e-06 0
7.61431e-06 -1.91087e-05 0
-7.1697e-06 1.0469e-05 0
-1.24889e-05 3.04484e-05 0
-1.22659e-05 2.1189e-06 0
-6.22876e-06 1.91075e-05 0
-1.60242e-05 4.96107e-06 0
1.88492e-05 1.69881e-05 0
1.12631e-05 5.09355e-06 0
-1.61086e-06 -2.17719e-05 0
-1.41028e-05 2.22658e-07 0
2.49795e-05 1.71693e-05 0
1.19729e-05 4.76444e-06 0
-1.85746e-05 -1.18323e-05 0
1.18583e-05 2.1815e-05 0
9.39702e-06 1.40188e-05 0
4.81094e-06 1.45956e-05 0
1.29181e-05 8.55088e-06 0
-3.95899e-06 2.25209e-05 0
2.68326e-05 3.14167e-05 0
1.95364e-07 3.20412e-05 0
6.62414e-07 1.46666e-05 0
-1.01667e-05 -2.15397e-05 0
-1.53628e-06 -5.57186e-06 0
-9.39684e-06 -1.66515e-05 0
-4.50272e-06 1.7716e-06 0
-7.69613e-06 2.05429e-05 0
-1.48276e-05 -5.65675e-06 0
-2.42163e-05 -2.06415e-05 0
1.83892e-06 -2.32978e-05 0
-1.8714e-06 -1.90486e-05 0
-8.06062e-07 -9.27004e-06 0
-1.33743e-05 3.94954e-06 0
-5.53024e-06 6.50055e-06 0
-7.92433e-07 -5.63237e-06 0
-7.5944e-06 7.40745e-06 0
-4.69926e-06 -1.78699e-05 0
-1.7944e-05 2.78192e-06 0
1.0398e-05 4.63184e-06 0
3.03729e-05 -4.56127e-06 0
9.91094e-06 2.28048e-05 0
3.14795e-06 -5.4052e-06 0
4.2785e-06 -8.18368e-06 0
7.54142e-06 8.77024e-06 0
5.72078e-06 1.70106e-05 0
1.54299e-05 -7.33013e-06 0
5.54006e-06 8.6584e-06 0
-1.10781e-06 -1.12629e-05 0
-1.3763e-05 -4.47619e-06 0
-2.05569e-05 3.35655e-05 0
-4.84639e-06 9.00871e-06 0
8.01645e-06 6.90121e-06 0
-8.17162e-06 -1.74064e-05 0
-1.003e-05 -3.1587e-05 0
1.85463e-05 3.29692e-05 0
1.20158e-05 6.94382e-06 0
1.3245e-05 5.47066e-06 0
-1.38505e-05 -1.59321e-05 0
3.46574e-05 5.23331e-05 0
2.27983e-05 1.70086e-06 0
8.6647e-06 6.28292e-06 0
-1.96011e-05 1.08798e-05 0
-2.8544e-05 1.69876e-05 0
-2.29403e-05 -2.30382e-05 0
1.01129e-05 6.42745e-05 0
5.18341e-06 -2.66315e-05 0
1.22391e-05 5.63879e-05 0
-2.72594e-06 -2.06991e-05 0
0 5.00571e-10 0
1.40768e-05 -9.16649e-06 0
-1.50731e-05 5.14039e-06 0
1.501e-05 -3.25967e-05 0
-1.06659e-05 4.12973e-05 0
-4.84145e-06 -5.66597e-06 0
-7.46026e-07 -2.71518e-05 0
2.21005e-05 -2.53454e-06 0
-2.40018e-06 -1.51596e-05 0
0 1.25419e-10 0
1.37054e-05 -2.16447e-05 0
1.79426e-05 -8.68508e-06 0
-6.80971e-06 1.43678e-06 0
0 3.10836e-11 0
0 2.81092e-10 0
9.12694e-06 1.04419e-05 0
3.69561e-05 1.33969e-05 0
3.76553e-06 -1.35799e-05 0
-5.97646e-06 -2.49558e-06 0
-1.14808e-05 -8.03347e-06 0
-6.80506e-06 2.58989e-06 0
1.72355e-05 -1.29974e-05 0
2.41859e-05 6.05323e-06 0
0 1.24707e-10 0
2.65917e-05 8.26924e-06 0
5.36079e-06 -1.49904e-05 0
2.97133e-05 -2.64766e-05 0
7.63053e-06 1.64e-06 0
2.72758e-05 6.62906e-06 0
0 -2.18948e-10 0
2.35717e-05 4.1097e-06 0
-1.793e-05 -8.8567e-06 0
6.62384e-06 9.9732e-06 0
2.72502e-05 9.47241e-06 0
0 -4.68827e-10 0
4.11532e-05 -2.21884e-05 0
2.63656e-05 -2.06763e-05 0
1.38434e-05 -1.77736e-06 0
-2.3679e-05 1.93268e-05 0
-1.04985e-05 2.40268e-05 0
-3.42882e-06 -1.22736e-05 0
-8.57183e-06 1.48435e-05 0
0 1.24999e-10 0
1.875e-10 0 0
1.3061e-05 -5.77065e-05 0
1.27052e-05 1.23594e-05 0
1.66888e-05 1.05555e-05 0
2.11479e-05 -2.69132e-05 0
0 2.8125e-10 0
-3.28283e-07 -2.78701e-05 0
9.49677e-06 -3.01435e-05 0
6.73711e-06 2.31166e-05 0
0 -2.1875e-10 0
-9.00081e-06 1.31144e-05 0
-1.73511e-05 4.41179e-06 0
6.70285e-06 -8.43705e-07 0
1.27821e-05 1.661e-05 0
-3.29799e-06 2.57402e-08 0
4.24006e-06 9.85049e-06 0
-4.28134e-06 4.73755e-06 0
1.30898e-05 -3.05182e-05 0
-3.26761e-05 -1.85373e-05 0
1.45184e-05 -6.67893e-07 0
-1.41026e-05 -2.50972e-06 0
3.63217e-05 2.05276e-05 0
-1.24717e-05 -1.12213e-05 0
-1.15558e-05 1.13008e-05 0
1.19809e-05 4.75315e-06 0
2.87775e-05 2.2789e-05 0
-1.08802e-13 -4.64961e-13 0
-8.82916e-06 2.2701e-05 0
2.57278e-05 3.46206e-05 0
3.62962e-07 2.89047e-05 0
1.55561e-05 5.00972e-05 0
1.12858e-05 -8.5811e-06 0
1.8016e-05 5.45018e-06 0
3.39364e-06 2.55221e-05 0
2.37222e-05 2.36912e-05 0
-3.19012e-06 3.05783e-05 0
-2.50167e-10 3.95683e-13 0
-1.20022e-05 1.27925e-05 0
5.14366e-06 3.53503e-05 0
-9.96255e-06 -3.94234e-06 0
-3.12573e-10 3.4861e-13 0
2.20505e-05 1.30469e-05 0
2.13138e-05 4.45347e-06 0
-8.04117e-06 2.34262e-05 0
1.04156e-05 1.90504e-05 0
3.10887e-05 9.36025e-06 0
1.14875e-05 4.50696e-07 0
-2.21798e-05 3.66569e-05 0
2.2605e-06 -1.01725e-05 0
-3.2971e-06 -1.4937e-05 0
9.90722e-06 -1.47183e-05 0
-1.54364e-05 -3.78348e-07 0
1.58095e-05 2.50389e-05 0
1.90389e-05 1.05743e-06 0
-1.48908e-06 -1.0993e-05 0
-2.04113e-05 -7.79035e-06 0
-1.55232e-05 -5.38082e-05 0
-5.43007e-06 -9.45889e-06 0
-1.23933e-05 7.06297e-06 0
2.40802e-05 -8.34602e-06 0
1.02684e-05 2.27303e-05 0
1.10229e-05 2.54566e-06 0
-2.2452e-05 -2.18629e-05 0
-3.19127e-05 -3.10978e-05 0
1.47775e-06 -1.9728e-06 0
-3.5038e-06 -2.4205e-05 0
3.67561e-05 6.45939e-06 0
8.18925e-06 2.47219e-05 0
2.25094e-05 -1.41324e-05 0
1.88851e-05 -9.94526e-06 0
1.24577e-05 1.70082e-05 0
1.00081e-05 5.75217e-06 0
7.22427e-06 6.85487e-07 0
-1.81965e-05 -2.036e-05 0
8.47297e-06 -2.49715e-05 0
2.57572e-13 3.14722e-11 0
2.22062e-05 2.27954e-05 0
1.00052e-05 -2.9254e-05 0
3.47556e-06 -1.93221e-05 0
-2.33839e-06 6.04303e-06 0
2.08497e-06 -1.11413e-05 0
1.77676e-05 3.75563e-06 0
-2.15797e-06 -3.75987e-06 0
7.39613e-07 3.95952e-06 0
2.45577e-06 2.75747e-05 0
-3.5267e-06 9.34549e-06 0
-3.07796e-07 7.32058e-06 0
-2.96237e-05 7.25054e-05 0
1.09609e-05 8.1719e-06 0
5.80914e-06 -5.39818e-07 0
-3.62927e-06 2.10676e-05 0
-1.39183e-05 4.42596e-06 0
9.32117e-06 6.22391e-06 0
-1.60292e-05 -3.18021e-06 0
8.72417e-06 -1.48228e-05 0
-1.21601e-05 2.10758e-05 0
-6.65248e-06 1.5017e-05 0
8.81349e-06 1.72027e-05 0
-3.51278e-06 1.55252e-05 0
-9.20408e-06 2.46715e-05 0
-8.92958e-06 1.64045e-05 0
1.87385e-10 -2.12275e-13 0
-9.62322e-06 -1.36409e-05 0
1.26967e-05 2.70404e-05 0
1.40065e-06 4.19167e-06 0
5.99889e-06 6.44542e-06 0
-2.49852e-10 1.83409e-13 0
8.40527e-06 2.10874e-05 0
6.3505e-06 4.91912e-05 0
-6.34364e-06 2.58198e-05 0
1.63371e-06 6.07276e-07 0
-8.02868e-06 6.38174e-06 0
4.1111e-06 1.84758e-05 0
-3.12605e-10 9.76996e-15 0
1.87294e-10 3.90799e-14 0
1.22941e-06 7.79577e-06 0
5.3929e-07 1.96554e-05 0
1.57652e-13 6.03073e-13 0
-5.01339e-07 -1.21273e-05 0
-3.29258e-05 -2.46319e-05 0
1.43801e-06 3.60097e-06 0
2.84501e-05 1.50416e-05 0
-1.20239e-06 8.81438e-06 0
-2.69061e-05 -2.28224e-05 0
-1.66223e-05 -2.3002e-06 0
7.49287e-06 -7.74866e-06 0
-6.98071e-06 -3.26906e-06 0
-2.56933e-05 1.02981e-05 0
3.85371e-05 6.03879e-05 0
1.70879e-05 3.22873e-05 0
-5.43074e-06 4.28762e-06 0
3.64646e-06 -1.79985e-05 0
5.72005e-06 -2.64927e-05 0
-6.06564e-06 3.32849e-05 0
3.95818e-06 3.30382e-05 0
8.84229e-06 1.09439e-05 0
1.12818e-06 1.86382e-05 0
1.28174e-05 -2.88521e-06 0
-1.15877e-05 -1.49854e-05 0
1.21371e-05 4.55209e-06 0
1.49852e-06 -9.64524e-06 0
-1.34557e-05 -1.66302e-05 0
6.24492e-06 -1.11654e-05 0
-1.64906e-05 4.11016e-06 0
9.57107e-06 1.21452e-05 0
4.56279e-06 1.80947e-05 0
1.23001e-05 8.83242e-06 0
4.70604e-06 -2.30196e-05 0
-1.96161e-05 1.02615e-05 0
1.62494e-05 2.15302e-05 0
-3.10707e-05 -2.27559e-05 0
-2.71446e-05 -6.59955e-06 0
-2.08282e-05 -2.01642e-05 0
7.53637e-06 2.12239e-05 0
-2.15203e-05 3.66126e-05 0
-2.62942e-05 2.06873e-05 0
1.78553e-05 2.31609e-05 0
2.41526e-06 3.34748e-05 0
-1.56712e-05 -2.14666e-05 0
-2.41233e-05 1.80916e-05 0
-2.82936e-06 -3.47267e-05 0
1.40307e-05 8.39124e-06 0
-2.09388e-05 1.57118e-05 0
-6.07844e-06 3.91383e-06 0
-1.20335e-05 -1.32691e-05 0
2.01946e-05 -1.14128e-05 0
9.87911e-06 -1.01933e-05 0
1.68225e-05 2.15701e-05 0
-1.16462e-05 -2.67435e-05 0
-1.90284e-05 6.56587e-06 0
-7.3995e-06 3.67827e-05 0
-1.33581e-05 1.62397e-05 0
-5.6704e-06 -1.65996e-05 0
6.86112e-06 -1.39149e-05 0
-2.13108e-05 4.16938e-06 0
5.94999e-06 2.34932e-05 0
-1.16528e-05 1.31326e-05 0
5.77228e-07 1.39499e-05 0
-3.1293e-06 5.48478e-05 0
-1.09337e-05 2.24114e-05 0
1.33789e-06 -4.34204e-05 0
6.67721e-06 -1.84706e-06 0
-1.29944e-05 6.93339e-06 0
-3.08701e-06 -5.66008e-06 0
-6.49063e-06 8.46766e-06 0
-8.30569e-06 3.60593e-05 0
1.55806e-07 4.12205e-05 0
1.88164e-05 2.40796e-06 0
-1.40229e-05 4.27213e-05 0
-6.15321e-06 7.58751e-06 0
2.64504e-05 8.02202e-05 0
-1.42444e-05 1.90983e-05 0
1.32162e-05 2.07425e-05 0
1.71428e-05 2.77534e-07 0
2.11309e-05 -1.36452e-05 0
6.95578e-06 2.76947e-05 0
-1.82008e-05 -2.73792e-06 0
-1.79661e-05 4.20141e-05 0
-1.17336e-05 7.06149e-06 0
7.7163e-06 1.47033e-05 0
-2.42682e-06 4.38982e-05 0
4.25726e-06 1.454e-05 0
1.12437e-05 7.91091e-06 0
-6.99859e-06 -1.30536e-05 0
9.51053e-06 -6.12325e-06 0
1.41492e-05 6.68488e-07 0
-1.96218e-05 4.45838e-05 0
3.68622e-06 1.366e-06 0
3.70848e-06 -1.68436e-05 0
-3.84294e-05 -2.19002e-06 0
-2.23277e-05 3.36911e-05 0
-4.44218e-06 2.3812e-05 0
-1.43458e-05 9.80423e-06 0
2.84224e-05 3.50583e-05 0
-2.08915e-05 -1.83415e-06 0
1.22975e-06 3.70812e-05 0
-4.23634e-06 1.22674e-05 0
-1.19609e-05 3.61862e-06 0
7.70466e-06 1.44917e-05 0
-1.40216e-05 1.08462e-05 0
-9.20498e-06 -1.76236e-06 0
5.02668e-05 6.08534e-05 0
1.72638e-05 3.04076e-05 0
-2.60209e-05 3.79993e-05 0
1.03854e-05 5.77203e-06 0
-2.51047e-06 7.07564e-06 0
-8.17353e-06 5.31036e-06 0
1.51155e-05 3.76163e-06 0
-2.59927e-05 3.04878e-05 0
1.48751e-05 1.38595e-05 0
4.13364e-06 -9.22493e-06 0
1.62604e-05 1.69103e-05 0
8.67796e-06 5.85025e-05 0
9.89781e-07 4.2473e-05 0
-1.22595e-05 4.16342e-05 0
-2.22592e-05 1.20066e-05 0
9.33384e-06 2.66917e-05 0
1.55041e-05 -2.2075e-05 0
-3.47124e-05 -1.66315e-05 0
-1.18756e-05 -3.00367e-05 0
6.51885e-06 -2.06657e-05 0
-4.7768e-06 -4.19706e-05 0
4.01985e-05 -1.46032e-05 0
8.16966e-06 -2.17481e-06 0
2.81167e-05 9.0316e-06 0
1.55281e-05 -1.14522e-05 0
1.14576e-05 -1.13377e-05 0
2.73953e-05 2.54829e-05 0
-8.27848e-06 1.34123e-05 0
2.96827e-05 4.95286e-06 0
6.18079e-07 -7.86539e-06 0
4.54392e-05 3.93875e-07 0
9.39034e-06 -1.89163e-05 0
1.53151e-06 2.61588e-05 0
-5.54436e-06 1.39439e-05 0
2.72495e-06 -2.0803e-06 0
-1.42969e-05 1.6438e-05 0
0 4.99992e-10 0
0 3.12523e-11 0
1.1121e-05 -3.42533e-05 0
2.41018e-05 9.06447e-07 0
2.22651e-05 -2.56318e-05 0
8.81799e-06 1.13796e-05 0
0 3.12523e-11 0
4.211e-05 7.26787e-06 0
0 2.81256e-10 0
7.24484e-09 -7.28021e-06 0
3.57253e-05 2.01708e-06 0
6.21359e-06 2.4542e-05 0
-7.42128e-06 2.19668e-05 0
-1.48661e-05 -5.1451e-06 0
-3.125e-10 0 0
0 -4.6875e-10 0
1.42608e-06 1.30752e-05 0
-8.34329e-06 -1.48016e-05 0
-6.57243e-06 2.68017e-06 0
-2.88486e-06 1.39229e-06 0
-3.87648e-06 2.14096e-05 0
1.59887e-05 6.34588e-06 0
-4.34744e-06 -4.29347e-06 0
-2.23113e-06 1.58787e-05 0
5.82572e-06 4.01673e-06 0
4.89836e-06 -4.87913e-06 0
5.45562e-06 -2.38028e-05 0
4.1993e-05 7.58345e-06 0
8.91977e-07 -5.91948e-06 0
2.00522e-05 -1.14919e-05 0
4.84821e-06 3.94058e-06 0
5.06313e-06 -1.25199e-05 0
-2.17592e-05 -1.42328e-05 0
1.79879e-05 2.78969e-05 0
-2.68883e-06 2.25661e-05 0
-1.59842e-06 3.44285e-05 0
-1.29891e-06 -1.88091e-05 0
1.53624e-06 1.81596e-05 0
1.99685e-05 3.60455e-05 0
-2.2328e-05 -1.00246e-05 0
-3.29781e-06 3.68109e-05 0
-3.06922e-06 2.91873e-05 0
4.60261e-07 3.30208e-05 0
5.27918e-06 4.34364e-06 0
-1.1127e-05 3.17712e-05 0
-3.96573e-06 6.64295e-05 0
-1.95641e-05 2.12008e-05 0
1.22788e-05 5.53598e-05 0
-1.00933e-05 -3.06009e-06 0
-8.11367e-06 -2.48497e-05 0
-1.99494e-05 1.59095e-05 0
1.70904e-05 3.0507e-05 0
3.44643e-06 4.04106e-05 0
-6.05901e-06 4.45345e-06 0
-1.86411e-05 2.41629e-05 0
7.91303e-06 -1.49589e-05 0
-5.19191e-06 1.77736e-05 0
9.26384e-06 4.36732e-05 0
-5.36226e-06 -2.88002e-06 0
-2.45619e-05 5.00024e-06 0
1.25149e-06 8.21822e-06 0
-1.49173e-05 -1.36737e-05 0
-6.92048e-07 2.55907e-05 0
2.37357e-05 2.57656e-05 0
2.03865e-06 1.07231e-05 0
1.71494e-06 -3.245e-05 0
8.21944e-06 1.05252e-05 0
3.72598e-05 2.55745e-05 0
-3.52959e-06 2.36933e-05 0
-1.08875e-06 -1.08496e-06 0
4.31768e-07 -1.95448e-05 0
-1.42543e-05 -8.61107e-06 0
1.75231e-05 2.99748e-05 0
3.91467e-06 3.65833e-05 0
5.20043e-08 -4.30014e-06 0
1.9702e-05 3.76986e-05 0
1.44012e-05 7.83969e-06 0
-3.8244e-06 -1.94075e-05 0
-2.28521e-06 4.03719e-06 0
6.40534e-06 3.35891e-05 0
1.77157e-05 4.21809e-06 0
2.72656e-05 2.11114e-05 0
-1.91072e-05 2.76977e-05 0
1.38285e-06 1.83538e-05 0
-3.15072e-05 -6.77896e-06 0
-1.56703e-05 -1.36608e-05 0
7.1131e-06 5.07423e-05 0
1.13562e-05 7.73592e-06 0
-7.67215e-06 1.58174e-05 0
5.68823e-06 1.57899e-05 0
2.14734e-05 1.21121e-05 0
3.48495e-05 6.12223e-06 0
-9.46823e-07 1.25114e-05 0
-1.42249e-05 1.12977e-05 0
1.33742e-05 2.16314e-05 0
1.8768e-10 -1.1191e-13 0
1.37786e-05 8.02772e-05 0
3.88297e-05 5.57118e-06 0
1.08587e-05 2.6862e-05 0
4.60256e-06 1.75482e-05 0
4.6988e-06 2.43113e-06 0
-1.72638e-05 1.13679e-06 0
-4.1013e-06 1.22442e-05 0
-2.35434e-05 -2.26441e-05 0
8.05068e-06 3.35732e-05 0
7.89786e-06 2.11242e-05 0
4.39981e-06 8.05707e-05 0
-1.89333e-05 -5.50263e-06 0
-5.03962e-06 -1.18255e-05 0
-7.43845e-06 1.36779e-05 0
-1.10215e-05 1.71707e-05 0
3.6454e-05 -4.09677e-06 0
1.72649e-05 1.85843e-05 0
-1.58939e-05 1.54282e-05 0
-1.77731e-06 -1.7665e-07 0
-1.48063e-06 2.93512e-05 0
-8.92994e-06 -8.036e-06 0
-1.46312e-06 -3.41781e-06 0
3.63628e-06 2.65412e-05 0
-1.12278e-05 -1.76181e-05 0
-1.11554e-05 -3.19335e-05 0
3.92952e-05 4.41835e-05 0
5.42577e-05 3.77626e-06 0
7.23419e-06 -2.49013e-05 0
-9.22484e-06 -1.15746e-05 0
-2.18777e-06 -8.90833e-06 0
2.3796e-05 8.50984e-06 0
1.13203e-05 1.92203e-05 0
1.63988e-05 -1.55861e-05 0
3.44874e-05 3.83978e-05 0
-3.4815e-06 -8.03016e-06 0
-4.5654e-06 -7.27887e-06 0
-1.30114e-05 -2.3418e-05 0
-9.30367e-14 2.81448e-10 0
4.65877e-06 -5.4886e-06 0
2.6505e-05 4.30267e-05 0
-7.63862e-06 8.35733e-06 0
5.59347e-06 5.54856e-05 0
-2.11266e-06 3.90906e-05 0
4.30359e-06 -2.04225e-06 0
-2.49396e-10 -3.41505e-13 0
9.76109e-06 2.69201e-05 0
1.15044e-05 6.51907e-06 0
1.00542e-06 5.92134e-06 0
-2.08775e-05 1.21053e-05 0
-3.44868e-06 -1.13362e-05 0
3.569e-05 1.00507e-05 0
7.923e-06 1.26111e-05 0
1.84917e-05 6.07477e-05 0
-1.42737e-05 1.3666e-05 0
8.07269e-07 1.06227e-05 0
2.5376e-05 3.96201e-05 0
-4.51921e-06 2.30575e-05 0
5.18975e-06 2.58987e-05 0
6.0473e-06 1.27356e-05 0
3.23442e-05 2.29157e-05 0
-6.94655e-07 -2.25671e-05 0
1.37442e-05 2.24955e-05 0
1.26899e-05 8.27781e-06 0
4.07618e-06 -2.42319e-05 0
1.03815e-05 -5.13456e-06 0
-2.14585e-05 -1.31367e-05 0
-1.23886e-06 -3.31236e-05 0
-5.79256e-06 -2.56981e-05 0
-7.53618e-06 1.14104e-06 0
-6.92382e-06 3.19103e-05 0
8.23516e-06 -1.80414e-05 0
2.42275e-05 3.32287e-05 0
3.89245e-06 7.31995e-05 0
-8.62848e-06 -2.39079e-06 0
-7.03625e-06 1.58442e-05 0
-4.19789e-06 -4.43587e-06 0
-1.76151e-05 2.29792e-05 0
2.92849e-06 1.62626e-05 0
-1.39275e-07 3.42442e-06 0
-1.85845e-05 -1.04034e-05 0
5.78302e-06 -1.39096e-05 0
-2.1762e-05 -1.52588e-05 0
5.75142e-06 2.82002e-05 0
-1.27964e-05 5.17018e-05 0
-3.75266e-05 5.85401e-06 0
-1.7444e-05 2.74301e-05 0
3.61349e-05 5.97481e-06 0
3.0493e-05 4.08297e-05 0
2.11453e-05 2.56712e-05 0
3.94171e-06 3.80313e-05 0
-1.86898e-05 9.82649e-07 0
-9.00017e-06 2.77522e-06 0
-2.92808e-06 1.92361e-05 0
-1.03738e-05 1.22288e-05 0
4.09519e-05 2.79248e-05 0
-5.50934e-06 5.12863e-05 0
8.09813e-06 5.95413e-06 0
3.27061e-05 1.23335e-05 0
-4.05686e-06 -1.52812e-07 0
1.021e-06 2.21005e-05 0
-2.52622e-05 1.20635e-05 0
-2.60125e-05 -1.0443e-06 0
-1.47337e-05 5.71755e-06 0
-4.32993e-08 1.96765e-05 0
-7.22814e-06 2.93252e-05 0
-1.37765e-05 2.34828e-05 0
-6.09848e-06 -8.87531e-06 0
-1.41776e-05 -1.33017e-05 0
2.35314e-05 -7.15722e-06 0
2.93322e-05 2.62519e-06 0
2.25744e-06 2.24872e-05 0
-1.12956e-05 1.57544e-05 0
2.46185e-05 1.93228e-05 0
1.99528e-06 2.71576e-05 0
1.15867e-05 1.72312e-06 0
-1.2406e-05 -2.06692e-05 0
-3.98151e-05 3.14668e-05 0
-9.68604e-06 6.28834e-06 0
-1.36586e-06 1.34086e-05 0
9.45196e-06 3.21527e-06 0
-2.1726e-05 -7.78882e-06 0
-1.64991e-05 6.61318e-07 0
-5.89044e-06 3.55359e-05 0
2.78164e-05 2.65671e-05 0
1.12629e-05 1.56916e-05 0
-3.49823e-06 -6.70485e-06 0
1.97553e-05 6.56589e-05 0
1.96246e-05 1.38806e-05 0
3.48587e-05 -3.59459e-06 0
-1.65123e-06 -1.24128e-05 0
-5.00361e-06 1.28792e-05 0
-2.52395e-06 -1.28354e-05 0
6.82198e-06 -3.21256e-08 0
5.56555e-05 1.38705e-05 0
4.3138e-05 1.73005e-05 0
1.33891e-05 -1.16379e-05 0
-1.31462e-05 -3.88655e-05 0
-8.41652e-06 -2.08675e-05 0
-1.12234e-05 -2.47873e-07 0
2.3074e-06 7.44417e-06 0
3.57029e-06 3.28383e-05 0
-2.1522e-05 -1.07873e-05 0
4.52859e-05 1.37148e-05 0
-2.03516e-05 -1.66336e-07 0
1.35103e-05 4.51695e-05 0
-1.11173e-05 1.94485e-05 0
-2.12137e-06 8.19274e-07 0
9.44015e-06 5.59484e-06 0
5.53277e-06 -1.71575e-05 0
-2.34221e-07 9.49747e-06 0
0 1.25452e-10 0
3.98384e-06 -3.05841e-06 0
-1.65924e-05 1.09236e-05 0
-9.35228e-06 5.75401e-05 0
1.18541e-05 -3.88451e-05 0
1.17203e-05 -4.24599e-07 0
-4.63861e-06 2.85714e-06 0
1.12231e-05 3.67601e-06 0
9.26113e-06 4.29342e-05 0
-7.7456e-06 7.73229e-06 0
6.61073e-06 1.87613e-05 0
-9.08144e-06 6.14775e-05 0
-1.50221e-05 1.65612e-05 0
-1.58387e-05 3.25592e-05 0
2.18509e-05 1.68939e-05 0
-1.73328e-06 2.60953e-05 0
6.74188e-06 2.03746e-06 0
1.51225e-05 3.93151e-05 0
1.60762e-05 2.66027e-05 0
1.43951e-05 8.87714e-06 0
-4.99124e-08 1.27499e-05 0
1.97281e-05 1.15863e-05 0
-1.29461e-05 4.3072e-05 0
-2.98091e-05 3.35907e-05 0
1.49255e-06 2.01689e-05 0
6.59019e-07 8.10977e-06 0
2.92611e-06 2.76802e-05 0
-8.87674e-06 1.91014e-05 0
-1.37386e-05 2.1026e-05 0
-1.49446e-05 3.69941e-05 0
-7.75361e-06 9.74994e-06 0
-9.67174e-06 2.82309e-05 0
-1.36843e-05 2.34919e-05 0
-1.11101e-05 -2.50999e-06 0
6.72855e-06 2.90462e-05 0
-1.51893e-05 4.33875e-06 0
1.79111e-07 4.85346e-05 0
1.74668e-06 4.60934e-05 0
5.4117e-06 2.59629e-06 0
1.45113e-05 6.8655e-06 0
-7.14196e-06 1.75344e-05 0
-2.02004e-05 3.7673e-05 0
-1.05012e-05 5.50281e-05 0
-4.30576e-06 6.53575e-07 0
1.3905e-05 4.97677e-05 0
1.21094e-05 1.75591e-05 0
-2.02882e-05 4.79496e-05 0
-2.09295e-06 8.45011e-06 0
4.83502e-14 1.9984e-13 0
2.26089e-05 1.22925e-05 0
-5.89571e-07 4.61569e-05 0
-1.55515e-05 -9.09738e-06 0
2.1817e-05 1.37995e-05 0
-7.35233e-06 8.86436e-06 0
7.93146e-06 5.16117e-05 0
-4.88018e-06 2.08771e-05 0
4.04706e-05 2.22963e-05 0
-3.97734e-06 -3.74599e-06 0
2.52047e-05 2.80472e-05 0
-1.50265e-05 6.20804e-07 0
-2.8053e-05 -1.03934e-06 0
-6.36568e-06 1.35449e-05 0
6.93228e-06 1.64739e-05 0
1.09086e-06 1.8205e-05 0
1.1794e-05 2.0874e-05 0
-1.49892e-06 6.19976e-05 0
-5.02476e-06 1.78513e-05 0
-1.13144e-05 1.65501e-05 0
-7.18584e-06 1.18034e-05 0
1.66054e-05 2.16616e-05 0
2.97804e-05 3.40013e-05 0
1.82188e-06 -8.37146e-06 0
2.9545e-06 1.607e-05 0
1.69495e-05 4.15114e-05 0
2.13482e-05 2.61792e-05 0
-6.6607e-07 -2.06732e-06 0
-2.49952e-10 2.03393e-13 0
-1.40842e-05 2.2555e-05 0
-3.57555e-06 5.3568e-05 0
1.43842e-05 9.20411e-06 0
1.2211e-05 2.07485e-05 0
-1.36039e-05 -2.09256e-05 0
-3.16201e-06 1.5694e-05 0
-2.12538e-05 -6.49234e-06 0
8.2278e-06 2.33616e-05 0
2.50866e-06 -1.15435e-05 0
-3.12403e-10 -1.99396e-13 0
-1.39875e-06 1.63996e-05 0
2.76129e-05 2.02714e-05 0
-2.5139e-05 -2.12535e-06 0
1.98131e-05 4.93651e-06 0
-3.37832e-05 8.02154e-06 0
1.87578e-10 2.4869e-14 0
-2.49916e-10 -1.80744e-13 0
-3.38382e-05 1.65854e-05 0
1.87385e-10 -2.96652e-13 0
-1.33043e-05 9.68082e-07 0
-2.75855e-05 -2.73952e-06 0
-2.49842e-10 3.59712e-14 0
9.78782e-06 5.03146e-06 0
-8.81856e-06 9.0516e-06 0
3.12795e-05 1.0829e-05 0
-1.8524e-05 -1.13999e-05 0
-3.12336e-10 -3.55271e-14 0
-1.95773e-05 1.39184e-05 0
1.16618e-05 2.60917e-05 0
1.198e-05 4.29344e-05 0
-1.78323e-06 6.16403e-05 0
-2.90616e-06 4.05341e-05 0
1.925e-05 4.62425e-05 0
2.41316e-05 2.87526e-05 0
-2.50047e-07 2.58347e-06 0
3.69045e-05 -1.10017e-06 0
8.5659e-06 -1.15883e-06 0
3.47014e-06 -9.46572e-06 0
-1.39049e-05 -8.45041e-06 0
-6.00975e-06 3.64267e-05 0
-6.45687e-06 1.103e-05 0
-1.2719e-05 1.08123e-05 0
4.23692e-06 -7.38975e-06 0
-3.25354e-05 1.91512e-05 0
-5.30165e-06 -3.49414e-06 0
9.16409e-06 1.52588e-05 0
3.16413e-05 7.0946e-06 0
-1.2755e-06 -9.15187e-06 0
-1.33657e-05 -1.5505e-05 0
2.13607e-13 -3.75699e-13 0
6.12006e-06 2.02567e-05 0
1.2524e-05 1.06781e-06 0
-2.33234e-05 3.69171e-06 0
-4.53631e-06 2.01523e-05 0
-1.03248e-05 1.18086e-05 0
6.05101e-06 -8.5721e-06 0
-3.52043e-06 2.1047e-05 0
-6.74746e-07 -5.21923e-06 0
1.82742e-05 2.62874e-05 0
5.02285e-06 -2.61592e-05 0
3.94961e-05 1.19932e-05 0
-2.55994e-05 6.97238e-06 0
-6.30262e-06 -6.14564e-06 0
1.78838e-05 -4.75569e-06 0
6.62925e-06 1.88365e-05 0
-3.53539e-05 -2.42777e-06 0
-2.58702e-05 -1.37937e-05 0
-1.24205e-05 3.16135e-05 0
9.67754e-06 -2.96471e-06 0
-2.17265e-05 1.84701e-05 0
-6.3143e-06 8.36144e-06 0
1.21552e-05 -1.36802e-05 0
9.38363e-06 4.83168e-06 0
-1.64574e-06 -2.02911e-05 0
2.29594e-13 4.99951e-10 0
-1.91716e-06 -3.65954e-05 0
1.46108e-05 -5.32685e-06 0
1.42815e-05 2.92245e-06 0
8.04521e-06 1.51279e-06 0
-4.49593e-06 -9.48933e-06 0
-1.84733e-05 -2.05206e-05 0
3.41148e-05 -3.99889e-07 0
1.50541e-05 -1.37771e-05 0
2.40508e-05 -5.86402e-06 0
-5.21361e-13 1.25608e-10 0
1.44542e-05 -8.72467e-06 0
-1.0236e-05 -7.29023e-06 0
7.52161e-06 5.11977e-06 0
8.11714e-06 -3.02603e-06 0
-1.61134e-07 -1.37078e-05 0
2.63345e-13 -4.69216e-10 0
2.99857e-05 -1.70445e-05 0
1.33227e-15 1.2506e-10 0
1.6076e-05 -2.31525e-05 0
7.38348e-06 4.60417e-05 0
-5.21472e-06 -3.44126e-06 0
7.62186e-06 1.59026e-05 0
-2.95656e-06 1.03328e-05 0
7.1905e-06 4.23774e-05 0
-3.42067e-06 2.29956e-05 0
-6.43967e-06 2.90417e-05 0
-9.82372e-07 1.67208e-05 0
4.51737e-06 6.26633e-06 0
1.13315e-05 1.55143e-05 0
8.32419e-06 -2.55863e-05 0
1.04114e-05 1.79578e-05 0
8.62669e-06 4.4191e-05 0
-3.34724e-06 1.18826e-05 0
-2.30426e-06 8.51242e-06 0
-6.44455e-06 -5.95543e-06 0
1.30201e-05 -1.00788e-06 0
9.55878e-08 1.02933e-06 0
4.78352e-06 -1.35201e-06 0
-2.93371e-05 -1.31936e-05 0
1.60272e-05 -5.92985e-06 0
-1.73e-05 8.25253e-06 0
-2.66418e-05 3.65856e-05 0
-9.71144e-06 1.61513e-05 0
-1.95809e-05 3.29719e-05 0
-8.72799e-06 -1.93441e-06 0
3.95187e-06 -7.88703e-06 0
-8.92196e-06 -2.43683e-05 0
-4.77546e-07 2.97526e-06 0
-1.27393e-05 1.77355e-05 0
1.45765e-06 2.06959e-05 0
1.01229e-05 5.03219e-05 0
-3.02082e-05 9.63413e-06 0
-2.31299e-06 -8.50774e-06 0
1.2732e-05 -6.32539e-06 0
3.21473e-05 2.93277e-05 0
-3.05192e-06 -5.67009e-06 0
9.7354e-06 1.70197e-05 0
1.90896e-05 9.07524e-06 0
-1.52222e-05 -2.58054e-05 0
1.8464e-05 4.61082e-06 0
5.66508e-06 -9.95611e-06 0
-1.58901e-07 -6.4173e-06 0
-5.86301e-06 -2.62487e-05 0
2.16931e-05 3.38545e-05 0
-1.06923e-05 4.14605e-05 0
4.28889e-06 1.93948e-05 0
3.78538e-05 -1.65249e-05 0
2.90448e-05 -8.90105e-06 0
0 -4.68487e-10 0
1.7679e-05 1.633e-05 0
1.04629e-05 1.63536e-05 0
2.46135e-05 5.43674e-05 0
1.75467e-06 8.93253e-06 0
-9.36132e-06 1.11139e-05 0
-5.74584e-06 2.01227e-05 0
-7.03635e-06 3.74474e-05 0
-8.65982e-06 2.73151e-05 0
-2.50144e-05 3.42351e-06 0
5.05474e-06 -1.40633e-05 0
1.25443e-05 1.45558e-05 0
1.81396e-05 3.98267e-05 0
-2.55148e-06 -1.7572e-06 0
-8.77633e-06 -3.74331e-06 0
-1.38685e-05 5.48715e-05 0
-1.2946e-05 -4.1368e-06 0
-2.50046e-10 -9.32587e-15 0
-2.59009e-05 -2.78679e-06 0
-1.97356e-05 2.55218e-05 0
-9.6467e-06 1.53258e-05 0
-2.49828e-10 4.84945e-13 0
1.87566e-10 4.44089e-14 0
1.04838e-07 7.32407e-05 0
3.15541e-06 1.84915e-05 0
1.87576e-10 5.61329e-13 0
-6.34722e-06 2.16509e-05 0
2.06183e-05 2.75067e-05 0
-3.12463e-10 2.0961e-13 0
1.32635e-05 3.75837e-06 0
-4.41123e-06 3.00786e-05 0
-1.09926e-05 3.95797e-05 0
-9.93388e-06 2.71548e-05 0
-1.79228e-05 2.21926e-05 0
-1.85169e-05 5.32788e-05 0
4.12588e-06 3.03296e-05 0
5.06317e-06 1.95846e-05 0
-6.53824e-06 2.24925e-05 0
1.29454e-05 -3.67737e-06 0
-1.576e-05 -1.28364e-06 0
-3.01339e-05 1.29074e-05 0
-7.74133e-06 1.48891e-05 0
-1.25585e-05 4.33584e-05 0
-1.71747e-05 7.13396e-06 0
-1.83984e-06 3.424e-05 0
-1.326e-05 1.00956e-06 0
-5.46774e-06 1.22057e-05 0
-3.23075e-14 1.27898e-13 0
1.22562e-06 -1.14099e-05 0
-2.49986e-10 -3.57048e-13 0
2.39823e-05 2.07261e-06 0
-5.43364e-06 1.92794e-05 0
-2.10246e-05 2.34132e-05 0
-2.13381e-05 -3.84268e-06 0
-1.75773e-05 2.22129e-06 0
1.2226e-05 -2.13502e-05 0
-1.63517e-05 1.95481e-05 0
-1.36696e-05 2.5906e-05 0
-7.58493e-06 2.38816e-05 0
-3.84938e-06 2.99763e-05 0
5.46605e-06 6.53104e-06 0
1.54084e-06 1.03273e-06 0
-4.43499e-06 -9.41914e-07 0
-6.77823e-06 2.11097e-06 0
-1.00628e-05 5.13007e-05 0
-6.68416e-06 3.33499e-06 0
-1.34399e-06 -1.73636e-05 0
5.92757e-06 8.14451e-05 0
-6.77647e-06 1.89783e-05 0
-1.13591e-05 4.6683e-06 0
-2.86879e-05 4.13889e-06 0
-1.57595e-05 1.51106e-05 0
-1.39033e-05 1.60622e-05 0
-1.02742e-06 1.47024e-05 0
-4.50024e-06 4.04678e-05 0
1.27298e-05 3.42783e-05 0
1.2212e-05 3.81353e-05 0
1.01012e-05 3.89144e-05 0
-3.12389e-10 3.2685e-13 0
6.03085e-06 4.23642e-05 0
6.54548e-06 8.41829e-07 0
-1.16685e-05 3.732e-05 0
7.01066e-06 2.21612e-05 0
-3.45765e-06 1.00836e-05 0
-1.05033e-05 -1.77008e-05 0
-1.4841e-08 2.01062e-05 0
-2.97514e-05 -1.50023e-05 0
1.27053e-05 1.34527e-06 0
7.10924e-06 -6.07717e-06 0
3.22421e-06 2.22606e-05 0
1.07257e-05 3.43761e-05 0
-3.59683e-06 3.30885e-05 0
1.35296e-05 2.66755e-05 0
2.84556e-06 4.59996e-05 0
-1.64648e-05 3.96547e-05 0
-5.07231e-06 9.90458e-06 0
-3.16261e-06 -2.62903e-06 0
3.0831e-06 2.32701e-06 0
2.96602e-05 2.71383e-05 0
-1.3613e-05 2.16208e-05 0
5.65359e-06 -8.90619e-06 0
-9.95316e-06 -6.77295e-07 0
2.65544e-06 4.55423e-06 0
1.62361e-05 1.74688e-06 0
3.98062e-07 4.49437e-06 0
6.77612e-06 4.84257e-06 0
-3.08038e-05 3.61642e-06 0
-1.99147e-05 -1.25237e-05 0
-6.69098e-06 -1.13436e-05 0
1.26363e-05 1.14801e-06 0
-2.08181e-05 9.27169e-06 0
-1.14264e-05 -6.25041e-06 0
9.68969e-06 -9.90556e-07 0
1.47475e-05 4.77472e-05 0
-1.51099e-05 1.49466e-06 0
-2.32313e-05 2.57701e-05 0
-1.35307e-05 9.94052e-06 0
1.38418e-06 1.295e-05 0
2.3048e-06 1.11903e-05 0
-1.39332e-06 2.19044e-05 0
9.31492e-06 2.12961e-05 0
-1.56206e-05 1.16047e-05 0
2.65825e-07 2.1515e-05 0
-6.94646e-06 2.79318e-05 0
2.71335e-05 4.54215e-05 0
1.43953e-05 2.67967e-05 0
-3.12521e-10 1.44329e-13 0
-1.37295e-05 2.90988e-05 0
-1.10463e-05 -4.28284e-06 0
-6.03999e-06 -2.00664e-06 0
-3.24781e-06 9.03271e-06 0
1.1114e-05 5.34832e-05 0
1.49579e-05 1.80255e-05 0
-1.19634e-05 3.43793e-05 0
-5.9484e-06 4.8479e-06 0
1.36304e-05 6.45007e-06 0
-1.39515e-05 4.76045e-05 0
1.17169e-05 1.87821e-05 0
-2.49682e-10 -2.74447e-13 0
-6.47579e-06 2.57444e-05 0
-8.48908e-06 1.08049e-05 0
-1.98921e-05 3.06664e-08 0
1.06514e-05 3.1101e-05 0
2.06894e-05 3.31503e-05 0
-3.12793e-10 5.40012e-13 0
-2.06931e-06 1.30717e-05 0
-7.06987e-06 2.46968e-05 0
-1.3187e-06 3.27371e-05 0
-1.55541e-05 1.25297e-05 0
1.47289e-06 1.29829e-05 0
8.03929e-06 2.65309e-05 0
-7.17096e-06 1.359e-05 0
-2.79907e-06 2.51707e-05 0
8.9687e-06 -1.66811e-05 0
1.87718e-10 -1.75859e-13 0
-2.50131e-10 4.06342e-13 0
6.91498e-06 1.05399e-05 0
-6.29034e-06 2.22017e-05 0
5.60694e-06 -1.19727e-05 0
6.2048e-06 4.25537e-05 0
-8.16406e-06 1.56438e-05 0
1.8714e-10 -1.94511e-13 0
-1.24516e-05 4.38195e-05 0
2.14122e-05 4.1193e-05 0
2.5913e-05 1.5421e-05 0
-3.12027e-10 8.34888e-14 0
3.11461e-05 2.89625e-05 0
-4.33597e-06 -2.34683e-06 0
-2.36255e-05 3.79475e-06 0
7.88552e-06 2.86472e-05 0
1.62918e-05 5.13396e-05 0
-1.33852e-05 -2.78296e-06 0
-2.05406e-05 1.52739e-05 0
-1.41859e-05 -4.66404e-05 0
-2.76327e-05 -2.01801e-05 0
-1.24025e-05 6.78282e-06 0
-2.49885e-10 -3.69038e-13 0
-1.32337e-05 1.52851e-05 0
-3.12831e-10 4.2677e-13 0
5.263e-06 2.56902e-05 0
-7.12896e-06 1.5954e-05 0
-2.14051e-13 1.25408e-10 0
-7.1695e-06 1.5631e-05 0
-2.7106e-06 -1.55756e-05 0
1.40402e-05 -8.96995e-06 0
-3.17524e-14 2.80644e-10 0
-1.44329e-13 -2.18148e-10 0
6.64427e-07 7.20634e-08 0
-1.32564e-05 5.83383e-06 0
-4.84447e-06 5.07417e-06 0
1.55431e-14 -2.1865e-10 0
3.54791e-05 -6.35059e-06 0
5.75165e-06 7.50446e-06 0
9.75639e-06 2.26054e-06 0
1.58255e-05 8.28372e-06 0
1.51e-05 -8.41752e-06 0
1.97921e-05 3.79557e-05 0
2.29904e-06 5.4483e-05 0
-9.94001e-06 3.35064e-05 0
1.19437e-05 3.05298e-05 0
-1.63641e-05 -1.21601e-05 0
1.87299e-10 3.47278e-13 0
3.20984e-06 4.47009e-05 0
-2.50036e-10 -2.38476e-13 0
2.10293e-06 2.43728e-05 0
-3.12302e-10 2.85993e-13 0
3.82255e-07 3.51303e-05 0
2.05997e-08 1.62109e-05 0
-5.41523e-06 2.65352e-05 0
1.87752e-10 2.90878e-13 0
-1.44327e-06 6.54289e-06 0
-3.12609e-10 -2.71783e-13 0
9.41539e-06 2.79508e-05 0
3.97e-06 3.74709e-05 0
5.51115e-06 -7.43676e-06 0
-1.66164e-05 2.74023e-05 0
1.37498e-05 1.00845e-06 0
-2.25685e-05 -2.61803e-06 0
-1.08994e-05 1.69594e-06 0
1.8006e-06 1.13259e-05 0
-2.80189e-05 -4.39658e-06 0
-1.66738e-06 5.8471e-05 0
3.53356e-05 1.56658e-05 0
-1.54549e-05 1.98714e-05 0
-2.78435e-05 -3.59347e-06 0
-1.84583e-06 1.38912e-06 0
-6.27154e-06 -1.88302e-05 0
-7.99249e-06 2.33682e-05 0
2.77212e-05 3.54277e-05 0
2.1134e-05 -1.30568e-05 0
2.59863e-05 1.38518e-05 0
-4.16511e-06 8.43753e-06 0
-1.30308e-05 2.38348e-05 0
-6.87535e-06 -2.60377e-05 0
3.29491e-05 5.54894e-06 0
1.59387e-05 6.87115e-06 0
-1.56865e-05 -1.02293e-05 0
1.86591e-05 -1.18783e-05 0
2.67924e-05 5.09321e-07 0
8.3312e-06 -2.07399e-05 0
-2.73546e-05 9.36246e-06 0
-1.10799e-05 -8.213e-06 0
2.99834e-05 -4.98517e-06 0
2.22559e-05 4.67464e-07 0
-2.4415e-05 -4.54487e-05 0
1.412e-07 1.6576e-05 0
-1.2803e-05 2.28097e-05 0
-1.68598e-05 -1.31635e-05 0
-1.19934e-05 -3.27822e-05 0
1.962e-05 6.37823e-07 0
-2.96213e-06 -8.17974e-07 0
4.6769e-05 8.78983e-06 0
3.98709e-05 7.07763e-06 0
1.62089e-05 8.43572e-06 0
1.2662e-05 3.86476e-06 0
-7.64588e-07 1.72636e-05 0
-2.54177e-05 -1.02935e-06 0
6.08161e-06 -1.42621e-05 0
-1.01397e-05 2.25808e-05 0
-1.81501e-05 -1.05961e-06 0
-1.91433e-05 -6.0602e-07 0
-1.44134e-05 6.21593e-06 0
-1.0889e-05 -6.66816e-06 0
1.35205e-05 1.27298e-05 0
2.21818e-05 1.04956e-05 0
1.28641e-05 -3.1879e-05 0
1.59757e-05 3.06276e-05 0
5.11009e-06 2.03904e-05 0
1.94365e-05 -8.00688e-07 0
1.75891e-05 2.51928e-05 0
-2.86235e-06 2.06482e-06 0
-1.32976e-05 -3.355e-05 0
8.06041e-06 -1.4519e-05 0
-1.44489e-05 2.70141e-05 0
2.92893e-06 5.10042e-06 0
1.12942e-05 7.40883e-06 0
-6.76298e-06 9.03067e-07 0
-1.29895e-05 -3.40924e-05 0
-9.8182e-06 -1.84011e-05 0
2.03919e-05 1.10135e-05 0
1.5778e-05 1.99349e-05 0
-1.4499e-05 -3.62021e-05 0
3.21519e-05 -1.59249e-05 0
4.00534e-06 2.99241e-05 0
1.91944e-05 3.60281e-05 0
2.82849e-05 -9.12485e-06 0
-1.00739e-05 -3.12226e-05 0
1.08418e-05 7.70858e-06 0
4.72379e-06 6.01685e-05 0
2.63578e-06 -2.26732e-05 0
-8.96874e-06 5.37804e-05 0
-1.29615e-05 -1.14495e-05 0
-2.52649e-05 3.11682e-05 0
-3.12406e-10 2.70006e-13 0
-1.84579e-05 2.22622e-05 0
1.17824e-06 4.3171e-05 0
6.88252e-07 -1.50407e-05 0
-8.82215e-06 7.73194e-06 0
1.15877e-05 2.63114e-05 0
-1.59759e-05 2.50216e-05 0
-1.53897e-05 -9.50489e-06 0
-2.50048e-10 -3.28626e-14 0
4.92396e-05 1.85518e-07 0
2.07308e-05 -1.32915e-05 0
1.62227e-05 5.78637e-06 0
2.45403e-05 3.09647e-05 0
-7.36573e-06 -4.95713e-07 0
1.32726e-05 2.75993e-05 0
-1.75823e-06 -1.49335e-05 0
1.34075e-05 2.08853e-05 0
1.85344e-05 1.33755e-05 0
-2.50207e-10 -5.50671e-14 0
7.17566e-05 1.51713e-05 0
1.87406e-10 1.82077e-13 0
1.64835e-05 2.47196e-05 0
2.74321e-05 1.35622e-05 0
2.76142e-06 3.07288e-05 0
7.36439e-06 3.80197e-05 0
-2.48668e-05 4.23321e-05 0
9.58933e-06 3.00138e-05 0
-1.20886e-05 -2.12144e-05 0
1.07172e-06 8.56883e-06 0
2.14946e-05 6.68927e-08 0
2.31717e-05 2.50988e-06 0
-6.08569e-06 3.13103e-07 0
3.95733e-06 -1.02807e-05 0
4.69056e-06 -3.07965e-05 0
-9.30687e-06 4.88638e-05 0
-2.78362e-06 1.02956e-05 0
-2.17517e-05 -6.54387e-06 0
-2.23751e-05 1.59596e-05 0
-2.41485e-05 -1.70518e-05 0
-3.28236e-06 3.23552e-05 0
7.66144e-06 8.79164e-06 0
5.92646e-06 1.10632e-05 0
-8.55474e-06 -3.04764e-05 0
-2.67448e-05 4.02945e-05 0
-5.87061e-06 1.37434e-05 0
-1.76498e-05 1.43008e-05 0
1.09061e-05 -5.62985e-06 0
-6.69367e-06 1.61429e-05 0
-4.38278e-06 2.94218e-05 0
9.03109e-06 4.1368e-05 0
-3.90434e-06 1.6141e-05 0
-4.33787e-06 4.47199e-07 0
-1.15422e-06 2.59174e-05 0
-8.72427e-07 2.18e-05 0
-3.18494e-05 -1.61337e-05 0
2.27378e-05 2.87934e-05 0
1.28567e-05 5.25649e-05 0
7.32121e-06 -1.81692e-05 0
-1.17245e-05 -1.10723e-05 0
-7.81986e-07 6.2245e-06 0
-2.38287e-06 6.16734e-06 0
1.07903e-05 2.35678e-05 0
2.07506e-05 -7.58513e-06 0
2.26729e-05 6.94263e-06 0
2.03185e-05 2.30222e-05 0
2.11789e-06 2.37194e-05 0
4.10247e-05 2.0669e-05 0
3.82333e-06 -1.21611e-06 0
2.42426e-05 1.21032e-05 0
1.25767e-05 1.06803e-05 0
1.66341e-05 -4.20749e-06 0
-3.65733e-06 -3.04607e-05 0
-1.92628e-05 1.71347e-06 0
2.0783e-05 3.44683e-05 0
4.33196e-05 1.86177e-05 0
1.59561e-05 -2.53934e-05 0
4.56384e-06 -7.17461e-06 0
-3.93468e-06 1.05107e-05 0
4.08422e-06 2.23882e-05 0
1.19078e-06 1.36599e-05 0
1.31557e-05 1.40392e-05 0
5.06266e-06 3.20546e-05 0
-1.446e-05 6.74934e-07 0
1.76013e-05 1.15072e-05 0
9.88329e-06 3.38915e-05 0
-1.70738e-05 3.69459e-05 0
2.513e-06 -8.80702e-06 0
-7.91317e-06 1.08496e-05 0
1.70674e-05 -8.61349e-06 0
-3.93719e-06 -8.56646e-07 0
1.80316e-05 -1.42435e-05 0
2.03393e-13 1.25135e-10 0
3.90799e-14 3.08535e-11 0
4.55797e-08 -4.36475e-06 0
-2.49425e-05 1.28532e-06 0
1.40646e-05 7.57388e-06 0
-5.06064e-07 1.24588e-05 0
4.00139e-06 -5.77551e-06 0
1.63405e-06 3.06648e-05 0
-1.30676e-06 1.07463e-05 0
8.74766e-06 2.8473e-06 0
-6.30488e-06 -2.61671e-06 0
1.29235e-05 1.32356e-05 0
2.27818e-13 2.81519e-10 0
1.78115e-05 -1.07479e-05 0
8.65671e-06 1.2962e-05 0
-3.22542e-05 -2.10232e-06 0
3.29953e-06 -1.58503e-05 0
1.36027e-07 1.28064e-05 0
-1.13021e-13 1.25245e-10 0
-1.52009e-05 2.49943e-06 0
9.88318e-06 1.86884e-06 0
2.79776e-14 -2.18608e-10 0
-2.50711e-10 3.39284e-13 0
-1.36335e-13 -4.6886e-10 0
-3.12766e-10 -4.79616e-14 0
-4.95853e-06 -2.10986e-07 0
8.89355e-06 9.92866e-06 0
3.88066e-05 1.19422e-05 0
1.08665e-05 1.18436e-05 0
-8.99281e-14 3.1295e-11 0
-2.40955e-05 -3.49433e-06 0
3.36204e-06 -1.02843e-05 0
9.38657e-06 -1.16297e-05 0
6.05536e-07 5.89234e-07 0
-6.83101e-06 -1.11772e-05 0
1.9603e-05 -8.58846e-07 0
-2.7953e-05 2.62575e-05 0
-1.23049e-05 -9.58584e-06 0
-3.85598e-05 -2.40817e-05 0
-8.23907e-07 -1.24898e-05 0
2.78659e-05 1.17963e-05 0
4.67859e-06 -1.63522e-05 0
-6.11329e-06 9.95576e-06 0
3.10369e-05 -5.76043e-06 0
-1.82416e-06 3.17922e-05 0
2.02293e-05 -2.92049e-05 0
5.13152e-06 4.36872e-05 0
-2.87638e-06 -1.62351e-05 0
1.42951e-05 8.97399e-06 0
-1.60838e-05 -2.19874e-05 0
-1.78304e-05 8.48802e-06 0
-9.61571e-06 -3.22258e-06 0
1.32547e-05 1.8069e-07 0
2.48894e-06 -2.30427e-05 0
-3.59901e-05 -4.9807e-06 0
-1.40278e-05 3.024e-05 0
6.48221e-07 1.47172e-05 0
4.10053e-06 2.26745e-05 0
3.68264e-06 2.13692e-05 0
-3.56552e-06 -7.17977e-06 0
-1.93187e-05 6.80202e-06 0
3.84685e-06 -3.59018e-06 0
-2.86636e-05 1.52498e-06 0
2.2265e-05 7.5403e-05 0
1.14112e-05 -1.71894e-05 0
2.08848e-06 1.59095e-05 0
-1.13443e-05 -6.17332e-06 0
9.89956e-06 -1.43293e-05 0
1.03119e-05 1.48499e-05 0
2.58276e-06 1.17182e-05 0
-5.99234e-06 1.20254e-05 0
3.63966e-06 -1.2689e-05 0
-6.23516e-06 7.19586e-06 0
1.22289e-06 2.74813e-06 0
6.91622e-06 -1.57298e-05 0
1.49477e-05 -1.91432e-05 0
-1.14843e-05 -7.96295e-06 0
1.84401e-05 -7.84649e-06 0
1.61188e-05 -1.54543e-05 0
1.28857e-05 2.28776e-05 0
2.53196e-05 5.92527e-06 0
-3.58306e-06 -1.50323e-05 0
-5.85238e-06 -1.37314e-05 0
6.06563e-06 3.14335e-05 0
1.85662e-05 1.02973e-05 0
-1.58087e-05 -3.12203e-05 0
-1.11205e-05 -1.3338e-05 0
3.23631e-05 -1.49213e-05 0
-5.8475e-06 4.46454e-05 0
3.33263e-05 -9.62098e-06 0
-1.33005e-05 -8.03265e-06 0
2.56631e-05 -7.21989e-06 0
-7.33529e-06 2.00568e-05 0
1.38397e-05 -2.26184e-05 0
1.38616e-05 -1.83297e-05 0
-4.81184e-06 -6.92382e-06 0
3.45722e-06 9.84283e-06 0
5.96616e-06 8.17188e-06 0
-5.85289e-06 -1.81586e-06 0
7.73393e-07 -3.86917e-07 0
-7.4063e-06 -2.41838e-05 0
1.56817e-06 2.313e-05 0
1.4819e-05 4.0395e-06 0
-3.43662e-06 -1.2894e-05 0
1.03924e-06 1.53916e-06 0
-6.08439e-06 -2.06197e-06 0
-8.30428e-06 -1.60224e-05 0
-2.78903e-05 3.34529e-06 0
-2.78553e-05 2.21786e-05 0
2.17524e-06 -2.22724e-06 0
1.49419e-05 -2.26736e-05 0
-9.63618e-06 -1.57684e-05 0
-1.37267e-05 -1.59254e-05 0
3.69409e-06 5.4786e-06 0
2.07095e-06 1.34408e-05 0
-8.20858e-06 -2.10433e-05 0
-1.1091e-05 -2.78014e-05 0
3.38732e-05 3.69965e-05 0
-6.07724e-06 1.70638e-05 0
-5.57222e-06 -2.80117e-05 0
4.22595e-06 8.15534e-06 0
-7.05085e-06 2.67409e-05 0
-1.96086e-06 -9.96071e-06 0
1.51332e-05 1.54493e-06 0
3.54039e-05 1.16731e-05 0
1.96664e-06 -8.76367e-06 0
-9.41362e-06 -3.64645e-06 0
-1.152e-05 1.41814e-05 0
2.38326e-05 6.79207e-06 0
-1.40415e-05 2.24805e-05 0
7.2288e-06 -6.17799e-06 0
-5.04831e-06 4.71367e-06 0
1.3277e-05 -1.87177e-05 0
-1.40638e-05 -4.41819e-06 0
2.90393e-05 6.41095e-05 0
1.2584e-06 1.03781e-05 0
-7.92594e-06 2.56031e-05 0
1.87851e-10 -2.76668e-13 0
-1.92855e-05 1.11584e-05 0
-2.90423e-06 1.36462e-06 0
1.87661e-10 -3.47722e-13 0
-1.37234e-05 -4.6427e-06 0
7.97434e-06 -7.8248e-06 0
-1.86325e-05 2.32325e-05 0
-1.20509e-05 -9.22345e-07 0
-5.42746e-06 1.24879e-05 0
-1.43418e-05 3.20489e-05 0
-3.20813e-05 8.34822e-06 0
-1.05207e-05 6.09944e-06 0
1.65294e-06 -2.05141e-06 0
-6.1078e-06 1.90827e-05 0
-2.39397e-05 -1.77861e-05 0
3.86175e-06 1.00339e-05 0
8.91154e-06 -9.63024e-06 0
2.44972e-06 4.68725e-06 0
-2.1636e-06 8.45747e-07 0
-1.96745e-06 3.5141e-05 0
9.98259e-06 -2.52373e-05 0
-6.50862e-06 3.9033e-06 0
6.62404e-06 1.97917e-05 0
-1.01542e-05 3.0203e-06 0
1.52235e-05 1.12784e-05 0
1.15144e-05 1.74236e-05 0
2.08781e-05 2.15656e-05 0
4.17895e-06 9.44098e-06 0
1.24095e-05 1.36492e-05 0
-4.80577e-06 2.26393e-05 0
9.22848e-06 3.69812e-05 0
4.631e-06 7.84034e-06 0
-1.77971e-05 -6.308e-06 0
7.74698e-06 -8.04921e-06 0
9.8556e-06 1.50495e-05 0
-2.76962e-05 1.2319e-05 0
-7.89547e-06 -7.56097e-06 0
-1.60905e-05 3.03092e-05 0
4.81099e-06 -1.02209e-05 0
-4.2407e-06 7.85281e-06 0
-2.03537e-05 -1.88787e-05 0
-1.3844e-05 5.56888e-05 0
-1.43031e-05 1.06545e-05 0
2.6733e-05 3.50322e-05 0
-7.8926e-07 -2.28741e-05 0
1.04034e-05 2.28827e-05 0
1.68637e-07 -2.71961e-05 0
-8.7515e-06 1.19405e-06 0
5.07462e-05 3.84844e-05 0
4.01807e-05 2.9178e-06 0
-1.70219e-06 -5.30908e-06 0
1.05922e-05 6.70319e-06 0
-8.43545e-06 3.50062e-06 0
-1.34562e-05 1.93997e-05 0
-6.38987e-06 -8.03482e-07 0
-6.27379e-06 4.87728e-05 0
1.76715e-05 2.09884e-05 0
-2.70412e-06 1.56664e-05 0
3.38876e-05 2.20357e-05 0
1.47829e-05 -5.3994e-06 0
-3.41191e-05 -1.50288e-05 0
-1.35969e-05 9.06848e-06 0
-4.32738e-05 2.09235e-05 0
-3.30577e-05 3.97653e-05 0
1.74914e-05 3.53085e-05 0
7.69062e-06 -2.0627e-05 0
-1.7687e-06 4.22835e-05 0
-6.27859e-07 4.3617e-05 0
9.77552e-06 1.92839e-06 0
5.05208e-07 -7.95992e-06 0
2.53921e-06 -6.74316e-06 0
-1.08368e-05 -1.44174e-05 0
-9.19361e-06 -7.9475e-06 0
1.80617e-06 1.07533e-06 0
1.02538e-05 6.01076e-06 0
4.49597e-06 -2.59612e-05 0
2.26717e-05 -2.09018e-05 0
-8.85113e-06 2.96266e-05 0
8.97583e-06 -2.43239e-06 0
3.3499e-05 -4.53214e-06 0
-3.74959e-06 -5.37169e-06 0
5.56213e-06 -1.3429e-05 0
-2.03881e-05 -5.17463e-06 0
-6.7796e-06 1.21324e-05 0
9.39465e-06 3.10294e-05 0
-3.11456e-06 5.08144e-05 0
2.08602e-05 3.60428e-05 0
7.60382e-06 4.39217e-05 0
1.47315e-07 1.42748e-05 0
2.27646e-06 8.8362e-06 0
-1.20363e-07 1.73799e-05 0
2.09196e-05 6.11072e-06 0
-2.09501e-05 1.38474e-05 0
-1.92736e-05 1.19566e-05 0
-1.92318e-06 -1.45139e-05 0
1.44884e-14 2.05613e-13 0
-5.38493e-06 3.06524e-05 0
-7.72069e-06 3.81544e-05 0
-1.56167e-05 2.9509e-05 0
1.59889e-05 2.14841e-05 0
-8.32664e-06 -8.74737e-06 0
4.06331e-06 1.86812e-05 0
-1.93895e-06 5.29297e-05 0
-8.887e-06 -7.70498e-06 0
-7.18804e-06 -4.87884e-06 0
1.17574e-05 2.2463e-05 0
-2.50044e-10 -2.64677e-13 0
-5.5018e-06 -3.62347e-06 0
-2.95496e-05 1.71856e-05 0
-2.46647e-05 -2.23869e-06 0
1.00251e-05 7.46044e-05 0
-4.57714e-06 -1.47887e-05 0
-1.22455e-05 4.62484e-05 0
1.33288e-05 2.93261e-05 0
-1.60542e-05 1.47068e-05 0
-5.642e-06 2.69755e-05 0
1.80893e-05 -7.91303e-07 0
-2.79154e-05 -2.94642e-06 0
-7.63373e-06 1.89176e-05 0
-4.19402e-06 7.58006e-06 0
-1.49957e-06 2.38116e-06 0
-1.23143e-06 4.3023e-05 0
-6.53896e-06 1.9212e-05 0
9.92613e-06 2.39391e-05 0
-3.1253e-10 -2.85993e-13 0
-1.64463e-05 2.76644e-06 0
1.87487e-10 -3.36176e-13 0
-1.18427e-05 8.25738e-06 0
-4.06176e-06 3.71485e-05 0
-5.30895e-06 1.58487e-05 0
-2.49972e-10 3.52163e-13 0
4.31006e-06 -1.10766e-05 0
-4.82266e-06 -4.31832e-06 0
-7.61959e-06 2.59522e-06 0
7.40075e-07 2.60778e-05 0
1.33351e-05 1.85169e-05 0
1.3284e-05 5.28351e-06 0
3.62929e-06 9.22456e-06 0
-1.54056e-05 1.27068e-05 0
-2.35895e-05 6.18791e-06 0
-9.54446e-06 3.49886e-05 0
-5.28639e-06 1.56561e-05 0
3.41742e-06 -3.21716e-06 0
7.60079e-06 -1.49277e-05 0
-1.01615e-06 1.44485e-05 0
1.4575e-05 -6.73918e-06 0
8.07803e-07 2.89969e-05 0
-4.9001e-06 -1.52728e-05 0
2.42689e-05 5.23051e-05 0
-3.51964e-05 -2.65908e-05 0
-2.33732e-05 1.00005e-05 0
2.81617e-06 9.82101e-06 0
-2.15259e-05 -7.39406e-06 0
4.51233e-06 5.60644e-06 0
-3.12548e-10 -2.78888e-13 0
-4.87709e-06 1.69961e-05 0
5.73998e-06 3.05176e-05 0
-3.05469e-06 1.39623e-05 0
2.15153e-06 3.81822e-05 0
1.87457e-10 -4.32543e-13 0
1.20624e-05 6.34982e-06 0
-1.13629e-05 6.60913e-06 0
6.2416e-06 2.09906e-05 0
-3.40852e-05 -1.14935e-05 0
1.8754e-10 6.23057e-13 0
-2.77813e-06 5.09922e-05 0
-8.16841e-06 9.64521e-06 0
1.84261e-05 2.80265e-05 0
-7.37227e-06 5.44665e-07 0
-1.18076e-05 1.6646e-05 0
-2.07123e-05 1.68277e-07 0
-1.53074e-05 1.33402e-05 0
-3.12489e-10 -2.20712e-13 0
-4.46888e-07 1.80387e-05 0
-1.42664e-14 -2.43361e-13 0
7.94e-06 5.5333e-05 0
-9.81707e-06 8.17337e-06 0
-2.81232e-05 1.42102e-05 0
-4.36173e-06 1.30752e-05 0
-1.90737e-05 4.27303e-05 0
6.38874e-06 3.62393e-05 0
-2.49951e-10 -2.96652e-13 0
2.72013e-05 -1.18558e-05 0
2.2774e-05 1.83146e-05 0
-2.06014e-08 1.67674e-05 0
-1.63522e-05 2.4405e-05 0
-3.12486e-10 -3.18412e-13 0
-8.13708e-06 2.37087e-06 0
-1.61434e-05 1.04223e-05 0
6.03845e-06 1.8744e-05 0
1.11695e-05 8.06615e-06 0
5.11442e-06 1.2061e-05 0
-6.14687e-07 2.22674e-05 0
2.52403e-05 1.09286e-05 0
-2.49992e-10 -2.8777e-13 0
-2.27353e-06 2.58322e-05 0
1.87512e-10 7.9492e-14 0
-5.06534e-06 8.65673e-06 0
-9.97202e-06 1.5629e-05 0
-2.535e-05 1.61527e-05 0
-1.66151e-05 6.51806e-07 0
9.22691e-07 1.16033e-05 0
1.875e-10 7.50511e-14 0
6.98676e-06 6.13323e-06 0
-2.26203e-05 -8.10818e-06 0
5.49675e-06 -3.5829e-06 0
-2.37072e-05 7.47378e-06 0
-3.12513e-10 1.54543e-13 0
-1.80389e-05 5.06277e-06 0
-7.92325e-07 1.72997e-05 0
2.55959e-06 2.52441e-05 0
-9.23169e-06 1.08669e-05 0
5.32725e-06 4.46389e-05 0
1.96531e-06 4.9747e-05 0
-7.84084e-07 1.19519e-05 0
3.32659e-05 1.54272e-05 0
-7.03904e-06 3.15436e-05 0
-4.38378e-06 -6.84422e-06 0
-5.37513e-06 8.79107e-06 0
-5.24144e-06 6.3562e-06 0
-1.99458e-05 1.13502e-06 0
-1.79021e-05 -8.69857e-06 0
-5.24248e-07 1.44558e-05 0
-2.12625e-05 -6.53751e-06 0
-1.91995e-05 1.49078e-05 0
-1.94681e-05 1.82496e-05 0
4.94049e-15 -3.81029e-13 0
3.35701e-06 3.35693e-05 0
1.44686e-05 3.93721e-06 0
-6.1784e-07 2.08049e-05 0
-9.50863e-06 1.69011e-05 0
-2.49981e-10 2.71783e-13 0
2.20464e-05 1.92049e-05 0
4.3855e-06 9.47275e-07 0
-4.52094e-06 -1.29075e-07 0
-1.63238e-05 1.77798e-05 0
-2.55221e-05 1.06793e-05 0
8.0611e-06 3.81566e-05 0
-1.79144e-05 7.54533e-06 0
-2.62248e-05 -1.47708e-06 0
6.41903e-06 1.32532e-05 0
5.60579e-06 1.07566e-05 0
4.19488e-06 -2.85029e-06 0
-1.12176e-05 1.00347e-05 0
-3.1134e-05 2.38159e-06 0
-1.71793e-05 1.69628e-05 0
-1.64824e-05 1.50147e-05 0
-6.96195e-06 8.61302e-06 0
-6.39866e-06 -7.61495e-06 0
4.11851e-06 1.35613e-05 0
1.36294e-05 4.65586e-05 0
5.49653e-06 1.54831e-05 0
4.10395e-05 3.26196e-05 0
1.17321e-05 2.6546e-05 0
4.7305e-06 2.57322e-05 0
-3.04814e-05 6.00178e-05 0
-8.03516e-06 -9.65948e-06 0
-2.57543e-05 -2.26681e-05 0
-2.3819e-05 -6.6454e-06 0
5.82428e-06 1.85772e-06 0
2.75035e-06 5.52137e-06 0
-9.56954e-06 7.55877e-06 0
-2.44781e-07 1.19439e-05 0
-1.21532e-05 1.4386e-05 0
1.52071e-05 2.95183e-05 0
-2.48206e-05 2.12665e-05 0
-1.5869e-05 9.98799e-06 0
1.05494e-05 2.61653e-05 0
-1.48919e-05 -4.70518e-07 0
8.83112e-07 9.94699e-06 0
9.7675e-06 1.05158e-05 0
8.11735e-06 3.99296e-05 0
3.20187e-05 1.75953e-05 0
2.54746e-06 3.60805e-05 0
1.45077e-05 1.18872e-06 0
-2.00565e-06 2.93354e-05 0
-3.88085e-06 2.3826e-05 0
-1.85385e-05 -1.12958e-05 0
-4.13198e-06 2.28534e-05 0
-3.12495e-10 5.06262e-14 0
-1.19383e-05 -8.68071e-07 0
-2.63978e-08 2.04609e-05 0
-1.23414e-05 -1.78046e-06 0
-2.06125e-05 2.24534e-06 0
-6.80412e-06 -4.8456e-06 0
2.37341e-05 1.07913e-05 0
5.82447e-06 1.92037e-05 0
-1.91527e-05 1.32026e-05 0
-3.2727e-06 2.59227e-05 0
-2.0464e-05 1.22747e-05 0
9.70594e-06 6.67676e-05 0
1.87489e-10 -7.01661e-13 0
-1.77232e-06 3.72359e-05 0
2.56567e-05 5.83986e-05 0
-1.66792e-05 1.72525e-05 0
2.57457e-06 4.50965e-05 0
3.07069e-06 2.28672e-05 0
-1.39708e-05 -1.29653e-05 0
-2.36569e-05 -5.22634e-06 0
4.10389e-05 7.59752e-05 0
-2.911e-06 1.47205e-05 0
3.26941e-06 -1.89595e-05 0
5.38547e-06 -1.51997e-05 0
-2.95466e-05 1.26192e-05 0
-1.8421e-05 7.91226e-06 0
-2.14366e-05 6.87998e-06 0
1.71867e-05 5.58659e-06 0
3.00919e-06 2.52859e-05 0
2.16011e-05 5.54179e-06 0
-8.26715e-06 1.35676e-05 0
-1.0852e-05 6.20611e-05 0
7.54834e-06 1.5568e-05 0
6.08788e-06 4.19641e-05 0
-7.97825e-06 4.01426e-05 0
-8.56778e-07 -1.48231e-05 0
-2.03269e-06 1.41384e-05 0
4.27753e-05 2.36744e-05 0
1.0127e-05 -5.97999e-06 0
-1.01246e-06 6.15468e-06 0
-3.2604e-06 9.87436e-06 0
-1.29439e-05 -3.84451e-06 0
1.36316e-05 4.05497e-05 0
1.7441e-05 -1.11842e-05 0
4.29911e-06 1.50848e-05 0
-4.09742e-06 8.34971e-06 0
3.77004e-05 2.82928e-05 0
2.96924e-05 -4.26204e-06 0
-1.10561e-05 1.80083e-05 0
7.61274e-06 -5.82721e-06 0
-3.09656e-06 -8.74296e-06 0
2.45013e-06 1.18817e-05 0
1.78621e-06 -1.42264e-05 0
-1.35018e-05 -2.55659e-08 0
1.50865e-05 -1.03297e-06 0
8.53449e-06 -1.57074e-05 0
-1.83678e-05 -1.881e-05 0
-1.58376e-06 1.44848e-05 0
-2.34712e-05 -3.59108e-06 0
-3.61541e-08 5.87638e-05 0
5.73372e-07 3.7786e-05 0
2.16859e-05 2.29065e-05 0
-1.64571e-05 -1.68285e-05 0
-9.06117e-06 -5.79357e-06 0
-1.38761e-05 -2.38156e-05 0
-1.78964e-06 2.2224e-05 0
-2.01701e-05 -4.33204e-06 0
-1.62802e-05 -1.54046e-05 0
-1.27927e-05 -4.21368e-05 0
-1.04011e-05 -1.61926e-05 0
-1.36172e-05 -1.24346e-06 0
2.63354e-05 3.28546e-05 0
-1.90017e-06 -1.15065e-05 0
2.14448e-05 4.36511e-08 0
-3.23812e-06 -1.08694e-05 0
-3.12553e-10 0 0
-1.74556e-05 2.43416e-06 0
7.04214e-07 -3.91462e-06 0
-3.125e-10 0 0
-1.01707e-05 3.67944e-06 0
-2.59833e-06 2.95902e-05 0
-1.53529e-05 1.74053e-05 0
5.83288e-06 2.16059e-05 0
-1.18089e-05 -7.37007e-08 0
1.08555e-05 1.31108e-05 0
9.38608e-06 -7.78505e-06 0
4.19385e-06 5.55778e-06 0
-1.66339e-05 -1.33775e-05 0
-1.61803e-05 -3.13585e-06 0
-1.07464e-05 -3.62933e-05 0
-2.44332e-05 5.82576e-06 0
-3.44541e-05 1.29775e-05 0
-6.83025e-06 1.22315e-05 0
-2.51208e-05 -5.12451e-06 0
-6.34021e-06 1.04488e-05 0
1.03735e-05 3.19607e-05 0
-1.12835e-05 1.94332e-05 0
-3.42682e-05 -1.02719e-05 0
-2.50081e-10 0 0
-2.99972e-05 -1.88227e-05 0
-3.12545e-10 0 0
1.45992e-05 3.08187e-05 0
1.87463e-10 0 0
1.04728e-05 2.68048e-05 0
-7.56455e-06 3.60524e-05 0
1.8749e-10 0 0
-7.81821e-06 -2.10128e-05 0
-2.02017e-05 -1.48332e-05 0
1.67637e-05 -2.42335e-06 0
-2.01331e-05 3.74207e-05 0
-2.91339e-06 -1.39058e-05 0
-1.08644e-06 5.76156e-06 0
-8.68092e-06 3.18122e-05 0
-5.5202e-06 6.26053e-06 0
-5.856e-06 2.43575e-05 0
-6.74733e-06 7.85753e-06 0
1.31788e-05 2.13988e-05 0
8.32667e-15 0 0
3.25379e-06 2.00988e-05 0
3.10462e-06 1.02773e-05 0
-1.65552e-05 2.42046e-05 0
-2.13065e-05 -2.19633e-05 0
-2.49942e-10 0 0
-1.23108e-05 1.35428e-05 0
-1.98089e-05 -2.77813e-06 0
-1.58391e-05 -5.51929e-06 0
1.96281e-05 2.95906e-05 0
-2.75807e-05 2.53668e-05 0
-3.21978e-07 1.00813e-06 0
-3.1254e-10 0 0
-1.57894e-05 5.83519e-06 0
-4.05341e-05 1.95223e-05 0
-2.94029e-06 2.38636e-05 0
5.59639e-07 1.00099e-05 0
-1.90462e-06 1.17263e-06 0
-2.12423e-05 2.76504e-05 0
2.29856e-05 1.17317e-05 0
1.52015e-05 1.97419e-05 0
1.41063e-05 1.56964e-05 0
-1.48083e-05 -6.61752e-06 0
-2.35471e-05 2.19663e-05 0
2.72424e-06 3.36457e-05 0
-2.50028e-10 0 0
1.87639e-10 0 0
-3.12464e-10 0 0
-5.25017e-06 5.56067e-05 0
2.27509e-07 3.26302e-05 0
-5.34157e-07 4.88205e-05 0
-1.03606e-05 4.57122e-06 0
1.49135e-06 3.78175e-05 0
1.40818e-05 4.37233e-05 0
1.87611e-10 0 0
-1.8222e-05 2.33143e-05 0
1.62783e-05 6.67057e-05 0
-1.62093e-14 1.24753e-10 0
9.65631e-06 -3.19204e-05 0
-6.23288e-06 -2.89872e-05 0
-2.8672e-06 -2.87379e-05 0
-3.11973e-13 -4.68632e-10 0
8.87652e-06 7.5114e-06 0
9.66456e-06 -7.9357e-06 0
1.81632e-13 -4.68676e-10 0
1.04896e-05 1.72772e-05 0
1.54376e-05 1.58833e-06 0
-1.07488e-05 -1.43868e-05 0
6.41022e-06 1.16027e-05 0
8.41284e-06 -5.16606e-06 0
-2.67123e-05 -6.08772e-06 0
-6.65131e-06 -3.56713e-05 0
-1.66872e-05 -1.11788e-05 0
-1.03765e-05 6.17464e-07 0
-1.68805e-05 -1.00145e-05 0
4.63293e-06 -1.44546e-05 0
1.12986e-05 1.77898e-05 0
2.69685e-05 8.56342e-06 0
2.31076e-05 2.97246e-05 0
-8.08723e-07 2.11354e-05 0
8.79265e-06 2.29695e-05 0
2.52397e-06 1.2272e-05 0
-3.82109e-06 -2.20681e-05 0
6.23111e-06 1.63719e-05 0
1.98332e-05 2.85783e-05 0
4.03186e-06 1.13648e-05 0
5.87113e-07 -1.20846e-05 0
2.63241e-05 1.47291e-05 0
-2.99147e-06 1.262e-06 0
5.51211e-07 1.6354e-05 0
-1.66139e-06 4.72429e-06 0
9.106e-06 -3.05572e-06 0
3.19112e-05 5.89566e-06 0
-1.1625e-05 -2.37252e-06 0
-1.42271e-05 1.00047e-05 0
7.97341e-06 1.32504e-05 0
9.90824e-06 -1.37615e-05 0
1.76655e-05 -6.15413e-06 0
-1.35114e-05 -1.84571e-05 0
-5.99894e-07 -6.25059e-06 0
2.35919e-05 2.87707e-05 0
1.5141e-05 -8.05861e-06 0
3.80881e-06 -2.70136e-06 0
-1.53422e-05 -2.26445e-05 0
-2.10923e-05 -2.60553e-05 0
2.3563e-05 -9.56404e-06 0
1.97657e-06 2.10086e-05 0
1.19478e-06 -6.40161e-06 0
-1.22125e-14 5.00161e-10 0
-9.61854e-06 -3.4565e-05 0
-8.23036e-06 -6.17416e-06 0
8.40103e-06 -1.36505e-05 0
8.70425e-06 -1.16472e-05 0
9.37028e-14 1.25164e-10 0
-1.11782e-05 2.72841e-06 0
-5.34969e-06 -4.71121e-06 0
-8.42297e-06 1.50208e-05 0
1.16967e-05 5.1515e-05 0
-2.58331e-05 6.22082e-07 0
-1.0313e-05 -1.68905e-05 0
1.24099e-05 -3.56375e-05 0
-1.53183e-05 1.38957e-07 0
1.54366e-05 -8.30985e-06 0
7.32747e-14 3.17159e-11 0
-7.95841e-06 -1.96805e-05 0
1.268e-05 -3.46776e-07 0
5.4623e-14 5.00414e-10 0
1.18703e-05 2.00207e-05 0
3.88254e-06 1.46381e-06 0
1.46625e-05 1.26855e-05 0
5.93326e-06 -3.52958e-06 0
1.13542e-05 -1.04506e-05 0
8.39329e-14 1.25002e-10 0
1.8825e-05 3.35192e-06 0
2.97615e-05 2.20349e-05 0
1.6515e-06 -8.56626e-06 0
-5.42358e-06 4.72481e-05 0
1.15166e-05 -6.80319e-06 0
1.86462e-06 -7.31471e-06 0
5.9508e-14 2.81223e-10 0
-4.52647e-06 3.30926e-05 0
-9.09457e-06 2.29538e-05 0
-4.49654e-06 1.06441e-05 0
-2.76668e-13 3.14386e-11 0
1.22195e-05 1.01206e-05 0
1.88207e-05 -1.62227e-05 0
5.10231e-05 1.39888e-05 0
1.89276e-05 3.34687e-05 0
6.00061e-06 2.08162e-05 0
3.52681e-06 3.46659e-05 0
-2.42152e-06 2.03642e-05 0
4.10378e-05 7.66002e-05 0
2.99355e-05 6.66741e-05 0
2.30201e-05 2.04565e-05 0
3.46335e-05 2.82011e-05 0
3.89466e-13 1.24926e-10 0
1.25788e-06 7.06372e-06 0
2.81963e-05 1.64696e-05 0
3.7036e-05 2.46495e-05 0
8.0464e-06 -1.52118e-05 0
1.19836e-05 -8.08877e-06 0
4.25296e-05 6.1676e-06 0
3.8165e-05 2.6265e-05 0
-6.4607e-06 2.28038e-05 0
-6.96116e-08 -9.00832e-06 0
-2.59573e-06 -3.06983e-05 0
-2.2693e-13 -4.68868e-10 0
2.22045e-13 -4.68726e-10 0
1.84297e-13 -2.18669e-10 0
-2.67148e-06 -1.31335e-05 0
6.33513e-06 -3.0606e-05 0
1.25573e-05 1.26938e-06 0
-8.46164e-06 1.39442e-05 0
2.93196e-05 7.50239e-05 0
-2.47888e-05 5.30051e-05 0
5.94614e-06 3.53649e-05 0
4.60404e-05 6.77903e-06 0
3.11101e-05 1.8033e-06 0
-7.7462e-07 -1.12753e-05 0
1.41349e-05 -2.55268e-05 0
7.72033e-06 -2.62945e-05 0
-7.1819e-06 1.17015e-05 0
1.00977e-05 -2.21315e-05 0
3.43564e-05 8.27977e-06 0
0 2.81392e-10 0
2.03706e-05 2.17713e-07 0
1.79446e-05 1.50173e-05 0
0 -4.68634e-10 0
0 -2.18826e-10 0
1.3717e-05 2.80183e-05 0
2.56908e-05 -9.47431e-06 0
-6.32062e-06 -1.84426e-05 0
5.1419e-05 1.3706e-05 0
1.69547e-05 -3.61986e-05 0
-2.28113e-05 -1.96601e-05 0
2.20662e-06 4.83363e-06 0
2.62022e-06 -1.37645e-05 0
-9.24184e-06 -3.64001e-05 0
1.72271e-05 9.01405e-06 0
1.05333e-05 -1.65877e-05 0
0 1.24984e-10 0
6.71026e-06 1.07342e-05 0
1.05955e-05 -3.03969e-05 0
1.0405e-05 4.69323e-06 0
2.40441e-05 9.00166e-05 0
7.96987e-06 2.1963e-06 0
1.58944e-05 2.2696e-06 0
1.84666e-05 1.68281e-05 0
3.87665e-05 -2.55473e-05 0
3.82063e-05 4.42261e-05 0
0 3.11121e-11 0
0 2.81361e-10 0
1.11235e-06 -2.20012e-05 0
1.05596e-05 2.03716e-05 0
1.87456e-10 0 0
-1.05643e-05 -1.59282e-05 0
2.67263e-05 2.9952e-06 0
4.00181e-06 1.08694e-05 0
2.22745e-05 -1.81002e-05 0
3.01981e-14 1.25018e-10 0
-6.54362e-06 -2.0657e-05 0
-2.8888e-13 3.09224e-11 0
5.35692e-07 5.59235e-06 0
2.07379e-05 8.91037e-07 0
1.41872e-05 7.96272e-07 0
-2.65814e-06 -6.19444e-07 0
2.64576e-05 1.15736e-05 0
1.96726e-06 -2.61098e-05 0
1.8554e-05 -1.65697e-05 0
2.07834e-13 2.81302e-10 0
5.70323e-06 -2.74972e-06 0
4.11129e-05 -1.913e-05 0
3.39342e-05 -1.39707e-05 0
2.64401e-05 -1.32787e-05 0
0 1.25098e-10 0
1.18448e-05 3.7683e-06 0
5.95639e-06 -1.20025e-05 0
7.34688e-06 -1.3217e-05 0
4.31007e-05 -5.38119e-06 0
0 2.81767e-10 0
3.66956e-05 3.05711e-06 0
3.71319e-05 2.09473e-05 0
4.59922e-05 5.70873e-06 0
-4.17931e-06 -1.87093e-05 0
2.30337e-05 -2.32038e-06 0
0 1.24965e-10 0
9.97938e-06 -2.28799e-06 0
8.67699e-06 -9.82505e-06 0
2.3558e-05 -7.23828e-06 0
8.09639e-06 3.27927e-05 0
0 -2.18907e-10 0
-1.14461e-05 6.62957e-06 0
1.35091e-05 -3.50386e-05 0
4.63095e-05 5.4441e-06 0
3.91132e-05 2.50194e-06 0
-1.37105e-05 4.29566e-06 0
2.36083e-06 -1.49648e-06 0
-6.11058e-07 6.40926e-05 0
6.3431e-06 -1.07102e-05 0
-1.74034e-06 1.89308e-05 0
2.72978e-05 -2.51993e-06 0
8.57555e-06 2.09653e-05 0
3.5667e-06 -1.81306e-05 0
-6.74744e-06 3.6727e-05 0
-1.93145e-05 3.52191e-05 0
1.78518e-06 4.25162e-05 0
5.06517e-05 8.19664e-06 0
-2.97101e-05 -1.87958e-05 0
-1.00153e-08 -7.1911e-06 0
-6.37895e-06 -1.44904e-05 0
1.59929e-05 -4.16058e-06 0
1.47055e-05 -6.81451e-06 0
8.45393e-06 -1.84887e-05 0
-4.83299e-07 1.68546e-05 0
-1.2888e-05 3.25302e-05 0
2.45215e-05 -6.00323e-06 0
0 -4.68802e-10 0
3.71846e-05 -1.1764e-05 0
-2.19834e-05 -1.41736e-05 0
2.1314e-06 -1.86556e-05 0
9.94188e-06 -4.84467e-06 0
1.27027e-05 2.8103e-05 0
6.87367e-06 -2.09997e-05 0
2.44682e-05 -3.36116e-06 0
-1.34559e-13 -2.19143e-10 0
-1.87913e-07 -1.97192e-05 0
1.54876e-05 5.44805e-07 0
2.80613e-05 5.10155e-06 0
5.90144e-06 7.38967e-06 0
2.40029e-06 -3.31218e-05 0
1.58458e-05 8.97259e-06 0
1.85913e-05 2.08343e-05 0
2.67302e-06 -4.75721e-07 0
-6.98428e-06 -8.74522e-06 0
2.68652e-05 -1.10351e-05 0
-7.52164e-06 -2.34052e-05 0
-9.86802e-07 -2.86758e-06 0
-4.14553e-06 5.93673e-06 0
9.43235e-07 2.94746e-05 0
-1.24911e-05 -4.3163e-06 0
-6.32725e-06 6.65091e-06 0
-1.85044e-06 7.16984e-06 0
-1.87911e-05 -1.1758e-05 0
1.08612e-05 -1.59249e-06 0
1.19434e-05 4.46089e-06 0
1.99848e-05 2.72558e-05 0
4.06655e-06 -1.0342e-06 0
-8.53879e-06 3.25622e-05 0
1.9786e-05 1.59506e-05 0
-1.56236e-05 -9.25964e-06 0
-1.50259e-06 -2.22825e-05 0
1.80911e-05 2.43313e-05 0
-9.64505e-06 -7.99465e-06 0
-3.87602e-06 2.51207e-05 0
3.66936e-05 2.46938e-05 0
2.94964e-05 1.08794e-05 0
1.9476e-05 1.32503e-05 0
-1.98707e-05 4.78073e-06 0
-1.64313e-14 3.35287e-13 0
-6.85778e-07 1.16656e-05 0
7.87996e-06 6.84426e-05 0
-2.06346e-05 -5.9195e-06 0
9.33732e-06 5.63044e-05 0
-3.68068e-06 1.7604e-05 0
-4.11703e-06 4.41621e-05 0
1.63023e-05 1.76374e-05 0
-6.37843e-06 2.73899e-07 0
-2.50045e-10 2.81553e-13 0
-3.12511e-10 9.71667e-13 0
-1.42951e-05 -7.43415e-06 0
-2.71556e-06 4.60073e-06 0
-1.097e-05 1.68023e-05 0
5.23246e-06 1.53906e-05 0
1.87614e-10 -4.65405e-13 0
-2.49913e-10 3.37952e-13 0
-9.12167e-06 3.23757e-05 0
2.58298e-05 1.31886e-05 0
-3.29213e-06 -1.05212e-05 0
1.877e-10 -3.07754e-13 0
-9.69755e-06 3.27398e-05 0
6.86198e-06 4.80565e-05 0
6.08651e-05 9.04176e-06 0
3.77047e-05 2.54823e-05 0
3.54242e-05 3.82701e-05 0
4.68027e-06 1.7863e-05 0
2.86634e-05 2.39571e-05 0
-3.33529e-06 2.72818e-06 0
-2.49988e-10 -1.57208e-13 0
1.5226e-05 1.17475e-05 0
-1.39043e-05 4.38835e-05 0
3.41066e-05 -1.83608e-05 0
1.87873e-10 9.28146e-14 0
1.97361e-07 -1.50875e-05 0
-2.51521e-06 3.82899e-06 0
-3.32032e-05 1.95048e-05 0
-9.70751e-06 7.15217e-05 0
3.40829e-05 1.01223e-05 0
-2.49834e-10 3.15303e-14 0
-2.47961e-05 2.52524e-05 0
1.71368e-05 1.17018e-05 0
-1.94554e-05 2.84304e-05 0
-2.09937e-05 9.68246e-06 0
-3.12812e-10 8.4821e-14 0
-1.10659e-05 1.68499e-05 0
-1.41166e-05 6.5355e-05 0
-1.51593e-06 3.82127e-05 0
3.67874e-06 1.49774e-05 0
1.87564e-10 -2.7045e-13 0
-1.66901e-06 2.92452e-05 0
-1.30397e-06 3.2782e-05 0
1.37467e-07 1.49812e-05 0
-2.19885e-07 2.39194e-06 0
-1.48652e-06 7.68508e-05 0
-2.51977e-05 3.05588e-06 0
2.98433e-05 1.82145e-05 0
2.65628e-05 -9.49749e-06 0
-1.81815e-05 -2.0826e-06 0
5.29581e-05 3.83355e-05 0
-2.58439e-06 -3.65469e-06 0
2.61894e-05 -9.9072e-06 0
9.86733e-06 -4.61426e-05 0
2.60059e-05 2.85884e-05 0
1.10649e-05 -1.94691e-05 0
1.52151e-05 -1.813e-05 0
5.5355e-05 2.01898e-05 0
2.10581e-05 2.50664e-05 0
9.30768e-06 1.15001e-06 0
-1.37951e-06 3.11249e-05 0
3.89983e-06 2.37139e-05 0
7.28806e-05 -3.93856e-06 0
9.7592e-06 1.29552e-05 0
2.5348e-05 -1.03643e-05 0
0 -2.18612e-10 0
2.22095e-05 -2.50058e-05 0
3.00696e-05 -5.86885e-06 0
1.80921e-05 -1.5071e-06 0
1.73514e-05 -8.22028e-06 0
2.69447e-05 -9.56412e-06 0
7.09294e-05 2.61351e-06 0
1.27957e-05 1.65657e-05 0
2.37203e-05 4.08933e-06 0
3.46409e-05 -6.97866e-07 0
-1.3315e-05 1.04351e-05 0
3.26613e-05 3.08316e-06 0
2.9225e-05 4.38966e-06 0
1.85335e-05 2.13594e-05 0
6.29814e-06 5.83495e-06 0
-3.36367e-06 1.8099e-06 0
1.10693e-05 -7.09963e-06 0
7.90434e-06 -1.66963e-05 0
-1.40972e-05 -1.64098e-05 0
-1.43276e-05 -1.62853e-06 0
6.9876e-06 1.71322e-05 0
4.66532e-06 -4.81881e-07 0
1.474e-05 4.53786e-07 0
-6.04444e-06 -1.09456e-05 0
2.91055e-05 -3.43422e-07 0
1.85576e-05 -1.31083e-05 0
-8.52548e-06 -2.91006e-05 0
-7.29236e-06 -2.65768e-05 0
2.1732e-05 1.45613e-05 0
-6.94987e-06 -8.47062e-06 0
1.0743e-05 -2.05432e-05 0
1.06596e-07 1.44364e-05 0
-8.27214e-06 1.86232e-05 0
4.70654e-05 -2.36803e-05 0
4.4854e-05 2.24072e-05 0
0 1.24459e-10 0
-1.25113e-05 -3.17593e-05 0
0 2.81824e-10 0
4.51529e-05 -1.78791e-05 0
2.3698e-06 2.10595e-06 0
5.23225e-06 2.95438e-06 0
1.16544e-05 -1.47022e-05 0
-5.92711e-06 -2.20568e-06 0
2.38592e-05 2.99502e-05 0
0 3.09748e-11 0
9.33325e-06 8.69345e-06 0
2.53809e-06 -8.55136e-06 0
6.62428e-06 8.69549e-06 0
9.88807e-06 1.76802e-05 0
9.83423e-06 1.46557e-05 0
1.80388e-05 -1.29052e-05 0
1.20152e-05 5.3952e-06 0
1.77607e-05 1.40561e-06 0
-2.29794e-05 -1.22934e-05 0
-5.10329e-06 -6.70676e-06 0
-1.03632e-05 -3.8665e-06 0
-2.59136e-05 3.49223e-05 0
2.07466e-05 -1.60388e-05 0
-1.75712e-05 7.94496e-06 0
1.95485e-05 -4.64744e-06 0
-1.08604e-05 -4.56469e-06 0
1.0304e-05 2.5118e-06 0
1.69342e-06 3.86362e-05 0
-7.54896e-06 -1.20532e-05 0
-1.13841e-05 -1.54063e-05 0
2.14983e-05 -1.84181e-05 0
-3.60434e-06 -1.76464e-05 0
-4.91084e-06 -4.49866e-06 0
-2.4206e-05 2.88983e-06 0
1.53747e-06 -2.66798e-05 0
-8.21773e-06 -2.10083e-05 0
1.12488e-05 3.56077e-05 0
2.07875e-06 1.71658e-05 0
2.56225e-06 3.23643e-05 0
-2.16763e-05 -2.71147e-05 0
9.83877e-06 -2.99474e-05 0
1.01626e-05 -1.66721e-05 0
2.58175e-06 -1.60835e-05 0
1.62743e-05 2.17113e-05 0
-9.11691e-06 2.58586e-05 0
1.49532e-05 -1.81445e-05 0
1.3598e-05 3.50541e-05 0
-3.16864e-05 -2.19175e-05 0
-9.77348e-06 4.91043e-06 0
-3.79395e-06 -9.82424e-06 0
1.25918e-05 -3.70704e-07 0
-1.47949e-07 -3.6668e-06 0
-2.15345e-05 -8.8786e-06 0
-7.45113e-06 -1.29554e-05 0
1.33762e-06 2.59887e-05 0
-1.2471e-05 -1.15767e-05 0
1.16896e-06 2.18817e-05 0
-5.69325e-06 8.60239e-06 0
-9.56958e-06 -3.04501e-06 0
-4.59034e-06 2.80121e-05 0
3.07496e-06 3.15509e-06 0
4.41354e-05 5.80586e-06 0
6.4509e-06 1.04726e-05 0
2.83867e-06 -1.3155e-05 0
-1.58753e-05 9.85491e-06 0
6.4224e-06 4.49894e-05 0
7.22043e-06 1.34074e-05 0
-1.94293e-05 -3.49867e-05 0
-3.01383e-05 1.44421e-05 0
-1.68306e-05 -1.95372e-05 0
1.3671e-05 -1.02443e-05 0
2.46756e-06 -6.89088e-06 0
4.88581e-06 2.62901e-05 0
7.03977e-06 2.61799e-05 0
5.75471e-07 1.88864e-05 0
1.38387e-06 3.50735e-06 0
-1.25517e-05 6.69351e-06 0
2.0743e-05 -1.31658e-05 0
-9.71538e-06 -1.40874e-06 0
2.17507e-05 8.77958e-06 0
-1.62977e-05 1.19109e-05 0
2.70234e-06 3.16081e-05 0
-7.85061e-06 -5.33188e-06 0
-8.69979e-06 -1.92156e-05 0
2.15539e-05 1.3067e-05 0
-1.42125e-05 -2.99604e-06 0
-5.44336e-06 2.14106e-05 0
1.80599e-06 4.69746e-05 0
1.06432e-05 1.75517e-05 0
3.37875e-06 1.30942e-05 0
-1.59105e-05 1.50356e-05 0
1.76172e-05 2.60238e-05 0
-1.14047e-05 1.11432e-05 0
9.10802e-07 6.34595e-05 0
-8.43324e-06 1.79041e-05 0
-6.56445e-06 2.56537e-06 0
-2.54162e-05 -6.50878e-06 0
-3.16578e-05 1.37405e-05 0
-3.07011e-05 1.24986e-05 0
6.19168e-06 1.51275e-06 0
3.92345e-06 -1.22547e-05 0
2.46616e-05 1.22661e-06 0
1.82612e-05 7.21161e-05 0
1.54731e-05 4.22009e-05 0
8.05596e-06 -7.94581e-06 0
-4.69312e-06 2.73988e-06 0
1.75164e-05 1.57808e-05 0
-1.69694e-05 -2.69226e-06 0
2.52625e-05 -2.27894e-05 0
-1.47988e-05 -2.44583e-06 0
-2.50494e-15 -4.96492e-13 0
-1.48846e-05 -4.79828e-07 0
4.74857e-06 2.41967e-05 0
-3.05029e-05 -1.68314e-05 0
-1.54411e-05 3.99321e-06 0
-2.49998e-10 -1.46549e-13 0
5.94163e-06 7.17788e-07 0
-1.08651e-05 6.84676e-06 0
6.41031e-06 -9.04722e-07 0
-3.125e-10 3.38396e-13 0
1.87499e-10 -3.88578e-13 0
-3.38665e-06 2.14322e-05 0
-2.49996e-10 -2.25153e-13 0
-1.95645e-06 1.05328e-05 0
-1.88265e-06 3.24032e-05 0
-2.47219e-05 4.33503e-06 0
-1.89232e-05 1.10515e-05 0
5.17422e-06 5.3332e-05 0
3.11374e-06 2.59888e-05 0
-1.16897e-06 3.21168e-05 0
1.87502e-10 4.14335e-13 0
3.3433e-05 1.86813e-05 0
-1.3076e-05 5.69262e-05 0
-1.70455e-06 -5.05994e-06 0
-3.12502e-10 2.86882e-13 0
-4.49293e-06 -6.79489e-06 0
2.49249e-05 3.13901e-06 0
5.70299e-06 2.14622e-05 0
2.08237e-05 4.2967e-05 0
-8.96137e-06 -3.50828e-06 0
-4.92938e-06 -1.40685e-05 0
7.34878e-06 3.85237e-06 0
-2.03997e-06 1.57344e-05 0
1.0106e-05 2.51812e-05 0
-2.50005e-10 -3.54383e-13 0
-2.87363e-06 1.79351e-05 0
-7.02765e-06 3.33413e-05 0
-9.57932e-06 -6.17508e-06 0
1.87509e-10 -1.53655e-13 0
-1.81313e-06 9.61498e-06 0
-3.81307e-05 1.9915e-05 0
-1.17191e-05 -1.25309e-05 0
4.23127e-05 2.48523e-05 0
4.4704e-06 1.40911e-05 0
-8.71737e-06 2.41515e-05 0
-3.12496e-10 2.30926e-14 0
9.68106e-06 4.20089e-05 0
1.6441e-07 1.98719e-05 0
-2.03552e-06 2.07055e-05 0
-1.71849e-05 1.83109e-05 0
1.12818e-05 4.86202e-05 0
-4.75599e-07 1.47678e-05 0
2.66245e-05 8.49869e-06 0
2.71452e-05 3.24542e-05 0
1.17441e-05 1.78916e-05 0
1.26121e-13 -4.68775e-10 0
6.73669e-06 -3.20592e-06 0
2.49649e-05 8.38645e-06 0
1.87439e-10 -5.41789e-14 0
1.73526e-05 -4.67264e-07 0
1.22875e-05 5.65618e-07 0
-2.95432e-05 2.40722e-05 0
1.61359e-06 2.3194e-05 0
-1.24569e-05 4.90295e-05 0
-4.10377e-05 1.68226e-05 0
-1.56122e-05 -1.83414e-06 0
-2.42872e-05 2.69268e-05 0
-6.9464e-06 2.40243e-05 0
-9.83737e-06 -3.12814e-05 0
8.17256e-06 2.63652e-06 0
-1.742e-05 8.74037e-06 0
3.02708e-05 2.43149e-05 0
-1.59063e-05 -3.70721e-05 0
-1.66511e-05 5.56088e-05 0
-1.70282e-05 -7.26177e-06 0
-8.49123e-06 1.87141e-05 0
-1.49058e-05 3.0208e-05 0
1.16323e-05 -1.16285e-05 0
-2.33923e-06 8.30533e-06 0
-2.41255e-05 -3.00161e-06 0
-1.47488e-05 1.91492e-05 0
-9.38674e-06 3.31172e-06 0
1.87633e-10 -1.04361e-13 0
-7.96103e-07 2.23715e-05 0
9.79808e-06 9.9082e-06 0
-1.71534e-05 3.79477e-06 0
3.87706e-06 2.91144e-06 0
3.93803e-05 9.36635e-05 0
6.24854e-06 1.14221e-05 0
-1.6698e-05 4.55993e-05 0
-8.55366e-06 4.37541e-05 0
-3.08224e-05 -3.12397e-05 0
-3.22384e-05 8.84708e-06 0
-6.51474e-06 -2.82281e-05 0
-2.68166e-05 1.08874e-05 0
2.5907e-05 5.8617e-06 0
-5.52843e-06 9.49473e-06 0
-1.57594e-05 8.49748e-08 0
-6.96687e-06 -3.33246e-07 0
-9.17297e-07 -2.59622e-05 0
1.39249e-05 1.99354e-05 0
-1.37632e-05 1.3211e-05 0
-4.58584e-06 1.10624e-05 0
-1.39317e-05 -2.45191e-05 0
3.8963e-05 8.68596e-06 0
-8.71578e-06 -3.67635e-05 0
-1.59581e-05 -5.10997e-06 0
5.02018e-06 -1.81309e-05 0
9.52933e-06 -1.89865e-05 0
6.95728e-06 -1.53627e-05 0
1.02751e-05 -8.47213e-06 0
3.47047e-06 -2.34887e-05 0
2.19446e-06 -3.74885e-05 0
2.09018e-05 -6.51535e-06 0
3.25323e-05 -7.59504e-06 0
-1.7808e-13 1.25135e-10 0
1.22569e-13 -2.18528e-10 0
2.13144e-05 -2.48137e-05 0
2.475e-05 -4.31965e-05 0
2.53628e-05 -9.28124e-06 0
1.49108e-05 2.60833e-06 0
1.81998e-05 -2.2274e-06 0
2.13855e-05 2.22505e-06 0
-1.03473e-13 1.24912e-10 0
3.74811e-13 -4.68435e-10 0
2.25818e-05 1.33779e-06 0
2.42058e-05 3.28244e-06 0
9.65231e-06 -2.56125e-05 0
7.68274e-14 -4.68424e-10 0
3.58235e-05 9.38175e-06 0
3.0497e-05 2.88969e-05 0
3.39832e-05 3.24648e-05 0
-3.28625e-06 -2.73823e-05 0
-6.42792e-06 -1.66269e-05 0
9.4591e-14 -2.18607e-10 0
9.21069e-06 -1.74078e-05 0
9.68779e-06 -2.3321e-07 0
1.22176e-05 1.89245e-06 0
2.65042e-05 8.9989e-06 0
-5.31384e-08 -2.04507e-05 0
0 3.10074e-11 0
6.33079e-05 2.95636e-05 0
-1.56644e-05 1.4593e-05 0
-2.16069e-05 -1.747e-05 0
1.33456e-05 2.32683e-06 0
-6.2917e-06 3.40648e-06 0
1.79379e-05 1.6197e-05 0
2.36423e-05 -1.44339e-06 0
1.83343e-05 -5.45994e-06 0
-6.81045e-06 -8.35831e-06 0
2.19751e-05 3.31956e-06 0
1.75981e-05 2.4771e-05 0
2.87122e-05 -1.06506e-06 0
2.57889e-05 -1.50335e-05 0
1.96165e-05 8.374e-06 0
7.46192e-06 -2.36001e-05 0
4.18758e-06 -1.5275e-05 0
-1.87432e-05 -3.9659e-06 0
3.86369e-06 -5.82138e-06 0
2.3057e-06 2.73874e-06 0
8.16037e-06 7.18595e-06 0
-3.57875e-06 -4.84442e-06 0
-1.60588e-05 -2.86922e-05 0
3.18821e-05 -5.38891e-05 0
5.74937e-05 -1.85032e-05 0
2.20035e-05 -6.09077e-06 0
4.35467e-06 1.91353e-05 0
2.24123e-05 1.5342e-05 0
0 -4.68746e-10 0
1.69767e-05 -3.45142e-05 0
0 1.24587e-10 0
3.18773e-05 2.56191e-05 0
-2.36827e-06 4.04063e-06 0
1.34128e-05 2.32118e-05 0
1.82828e-05 -8.95554e-06 0
1.05224e-06 1.67622e-05 0
1.48414e-05 1.75424e-05 0
-1.00905e-05 -2.69893e-05 0
5.90357e-06 -1.61632e-05 0
7.84579e-06 1.50975e-05 0
6.26504e-06 -1.62881e-05 0
7.67128e-06 -9.09431e-06 0
3.08994e-06 -5.25886e-05 0
0 -4.68938e-10 0
9.47263e-06 3.50913e-06 0
1.00642e-06 -6.0735e-06 0
1.09136e-05 -1.54393e-05 0
0 -2.19132e-10 0
2.76394e-07 -8.93747e-06 0
-3.12218e-10 5.24025e-14 0
-2.05975e-05 7.1552e-05 0
0 4.99634e-10 0
-2.64965e-05 -6.32966e-06 0
-1.90405e-05 6.93887e-06 0
-1.30808e-06 9.02724e-06 0
4.19697e-06 2.77606e-05 0
1.81107e-05 -6.77849e-06 0
-6.76256e-06 -8.10134e-06 0
6.38271e-06 1.58871e-05 0
-9.68063e-06 1.42466e-05 0
-1.24789e-05 3.28491e-05 0
-8.30933e-16 1.60316e-13 0
-4.52038e-06 4.09043e-05 0
-7.38259e-06 1.09971e-05 0
-1.68954e-07 1.85549e-05 0
-2.44617e-06 2.95737e-05 0
2.0251e-05 -5.26244e-06 0
1.86089e-05 7.92623e-07 0
3.84733e-05 2.76395e-05 0
8.43769e-14 2.81094e-10 0
0 1.2514e-10 0
-1.15726e-05 1.70983e-05 0
0 3.12745e-11 0
2.04599e-05 -1.00321e-05 0
2.64629e-05 -1.28023e-05 0
4.6743e-05 -1.72443e-05 0
2.56669e-05 -3.00526e-06 0
6.62119e-06 1.84978e-05 0
6.99739e-06 1.32739e-05 0
1.8444e-05 1.15995e-05 0
1.98434e-05 2.27103e-05 0
-1.68248e-05 -1.10305e-05 0
6.49032e-06 2.31503e-06 0
8.67988e-06 -3.04523e-05 0
1.82911e-05 -9.05292e-06 0
-2.97191e-05 1.79151e-05 0
2.71581e-05 3.27857e-06 0
-1.83001e-05 5.17349e-05 0
7.55961e-06 1.57436e-05 0
3.07322e-05 5.61401e-05 0
2.85162e-05 6.10736e-06 0
0 2.81497e-10 0
-2.79776e-13 3.13336e-11 0
8.83016e-06 -3.88297e-05 0
0 -2.18576e-10 0
2.07019e-05 -1.27949e-05 0
1.08636e-05 -1.68209e-05 0
0 1.24703e-10 0
-1.84026e-06 -1.59527e-05 0
1.15937e-05 -3.15336e-05 0
6.24302e-07 -1.40999e-05 0
1.94029e-06 -2.41505e-06 0
-5.07319e-06 -3.75545e-06 0
3.21946e-05 -1.87392e-05 0
8.2896e-06 -3.75615e-05 0
1.43552e-05 7.22963e-06 0
1.3505e-05 4.84135e-06 0
0 3.15588e-11 0
5.80296e-06 -1.89124e-05 0
0 2.81028e-10 0
1.69014e-05 -3.70322e-06 0
1.90058e-06 -7.46425e-06 0
2.50687e-05 2.95607e-06 0
-1.25071e-05 2.26786e-05 0
-1.29987e-06 -2.78058e-06 0
1.1847e-05 9.89297e-06 0
3.29416e-05 -1.38754e-05 0
-3.57816e-06 7.46874e-06 0
-2.5e-10 2.13607e-13 0
-2.82264e-06 -7.68289e-06 0
-4.35394e-06 -1.47839e-06 0
1.875e-10 -4.53859e-13 0
0 1.25202e-10 0
1.24728e-05 6.12439e-06 0
8.71238e-06 1.66303e-05 0
-8.00346e-06 1.65173e-06 0
-2.59307e-05 3.5885e-05 0
0 -4.68452e-10 0
-3.125e-10 -2.06946e-13 0
0 -2.1931e-10 0
3.56006e-05 -1.93785e-05 0
-2.49999e-10 -1.05249e-13 0
1.875e-10 -2.53131e-13 0
2.32772e-05 4.0747e-06 0
-5.64117e-06 1.05847e-05 0
-1.99775e-05 1.29892e-05 0
-3.12499e-10 -3.64597e-13 0
1.77876e-05 5.31871e-05 0
1.11052e-05 2.47055e-05 0

CELL_DATA 30976
TENSORS efStress float
-243.603 59882.1 0
59882.1 -441.039 0
0    0    0

-183.051 21208.7 0
21208.7 -134.105 0
0    0    0

-165.605 45292.9 0
45292.9 -294.476 0
0    0    0

105.755 38889.6 0
38889.6 272.141 0
0    0    0

301.26 29088.1 0
29088.1 261.614 0
0    0    0

-50.9962 37339.5 0
37339.5 76.4614 0
0    0    0

95.0828 68364.8 0
68364.8 283.946 0
0    0    0

-199.719 53586.6 0
53586.6 -220.085 0
0    0    0

-234.96 64519.5 0
64519.5 -212.433 0
0    0    0

182.76 53125.2 0
53125.2 236.602 0
0    0    0

201.872 27712.7 0
27712.7 233.834 0
0    0    0

242.308 40363.1 0
40363.1 201.525 0
0    0    0

-115.665 69072.3 0
69072.3 -171.453 0
0    0    0

73.043 79522.5 0
79522.5 -14.5171 0
0    0    0

-113.341 29967.9 0
29967.9 -154.146 0
0    0    0

-44.0529 45088.7 0
45088.7 212.111 0
0    0    0

277.684 48808.3 0
48808.3 184.63 0
0    0    0

55.0807 65982.2 0
65982.2 87.2158 0
0    0    0

68.3747 72660.6 0
72660.6 301.77 0
0    0    0

-33.4833 71934.4 0
71934.4 -106.425 0
0    0    0

-164.299 68078.9 0
68078.9 -107.628 0
0    0    0

160.065 56337.8 0
56337.8 348.805 0
0    0    0

-29.5841 57021 0
57021 198.812 0
0    0    0

-119.444 65632.9 0
65632.9 -72.0358 0
0    0    0

-160.712 71248 0
71248 -78.925 0
0    0    0

-27.1194 59851.6 0
59851.6 45.338 0
0    0    0

-107.967 83803.6 0
83803.6 -197.652 0
0    0    0

81.2387 47506.5 0
47506.5 277.285 0
0    0    0

-163.857 54216.5 0
54216.5 -286.422 0
0    0    0

-273.278 38810 0
38810 -225.004 0
0    0    0

152.819 46736.3 0
46736.3 367.637 0
0    0    0

198.352 22300.3 0
22300.3 -187.804 0
0    0    0

-266.172 49273.4 0
49273.4 -277.498 0
0    0    0

71.6651 44348.1 0
44348.1 -215.806 0
0    0    0

84.5733 21382.5 0
21382.5 -113.456 0
0    0    0

-160.266 37137.6 0
37137.6 70.8956 0
0    0    0

218.864 37641.6 0
37641.6 136.581 0
0    0    0

-29.3335 45635.3 0
45635.3 124.32 0
0    0    0

77.4002 47163.9 0
47163.9 46.815 0
0    0    0

-14.3967 21068.6 0
21068.6 -282.379 0
0    0    0

-139.558 33904 0
33904 -94.0299 0
0    0    0

233.841 17265.7 0
17265.7 105.382 0
0    0    0

241.505 37261.9 0
37261.9 11.3919 0
0    0    0

189.538 23741.8 0
23741.8 113.906 0
0    0    0

-178.922 52305.9 0
52305.9 -42.8034 0
0    0    0

-97.7342 57888.9 0
57888.9 -400.645 0
0    0    0

84.9558 82130 0
82130 -102.881 0
0    0    0

-416.879 63705.8 0
63705.8 -350.549 0
0    0    0

-116.959 58829.4 0
58829.4 -291.635 0
0    0    0

359.508 74393.2 0
74393.2 379.856 0
0    0    0

50.1249 48125.8 0
48125.8 242.09 0
0    0    0

46.7716 66586.4 0
66586.4 -113.441 0
0    0    0

-168.325 52999.8 0
52999.8 -359.915 0
0    0    0

-121.862 50700.7 0
50700.7 -121.1 0
0    0    0

65.7976 48956.1 0
48956.1 -186.962 0
0    0    0

77.293 65415.7 0
65415.7 -240.196 0
0    0    0

-8.09997 57518 0
57518 -202.83 0
0    0    0

222.582 55176.3 0
55176.3 324.671 0
0    0    0

17.3551 54156.6 0
54156.6 291.839 0
0    0    0

229.592 64953.7 0
64953.7 67.806 0
0    0    0

-138.175 52587.1 0
52587.1 -24.96 0
0    0    0

57.195 43549.1 0
43549.1 320.059 0
0    0    0

-78.747 34574.4 0
34574.4 29.2099 0
0    0    0

-146.345 41458.6 0
41458.6 -131.682 0
0    0    0

140.792 10315.8 0
10315.8 42.0595 0
0    0    0

164.067 40568.5 0
40568.5 439.143 0
0    0    0

-100.106 34811.2 0
34811.2 -170.248 0
0    0    0

6.75458 52405.6 0
52405.6 123.01 0
0    0    0

-79.6585 39899.9 0
39899.9 -78.7802 0
0    0    0

238.848 58689.6 0
58689.6 217.77 0
0    0    0

-73.4393 19015.5 0
19015.5 -222.976 0
0    0    0

93.0383 50206.4 0
50206.4 415.309 0
0    0    0

-95.2626 26043.6 0
26043.6 -182.895 0
0    0    0

-22.1508 34767.5 0
34767.5 -228.121 0
0    0    0

142.595 22501.3 0
22501.3 49.9079 0
0    0    0

-76.8405 22241.1 0
22241.1 127.328 0
0    0    0

-125.376 45704.8 0
45704.8 -161.39 0
0    0    0

-64.8557 48424.7 0
48424.7 -293.817 0
0    0    0

223.837 39123.9 0
39123.9 484.642 0
0    0    0

186.218 37048.2 0
37048.2 275.024 0
0    0    0

-20.9478 32748.2 0
32748.2 292.554 0
0    0    0

-145.702 39858.9 0
39858.9 -17.0044 0
0    0    0

241.642 38395.9 0
38395.9 35.2709 0
0    0    0

168.356 33000.9 0
33000.9 294.966 0
0    0    0

-55.5589 28414.5 0
28414.5 -279.155 0
0    0    0

166.975 26321.1 0
26321.1 -55.1459 0
0    0    0

-23.6704 34006.8 0
34006.8 -234.83 0
0    0    0

301.919 51178.9 0
51178.9 81.5584 0
0    0    0

237.819 51206.9 0
51206.9 232.94 0
0    0    0

14.219 36047.2 0
36047.2 -234.213 0
0    0    0

8.63357 30701.7 0
30701.7 122.137 0
0    0    0

-20.4139 38727.5 0
38727.5 -165.435 0
0    0    0

-58.1799 36258.4 0
36258.4 -301.693 0
0    0    0

169.002 23520.4 0
23520.4 311.659 0
0    0    0

-159.325 8263.28 0
8263.28 -186.667 0
0    0    0

280.317 19300.1 0
19300.1 455.471 0
0    0    0

240.155 19588.6 0
19588.6 245.556 0
0    0    0

176.011 16325.4 0
16325.4 242.601 0
0    0    0

61.4136 16203.8 0
16203.8 115.01 0
0    0    0

-100.162 5767.74 0
5767.74 -90.8132 0
0    0    0

274.446 15270 0
15270 133.035 0
0    0    0

-114.917 23014.8 0
23014.8 104.743 0
0    0    0

-216.514 4000.15 0
4000.15 -298.255 0
0    0    0

-101.124 46872.9 0
46872.9 -362.162 0
0    0    0

61.5584 56934.5 0
56934.5 63.3708 0
0    0    0

44.736 53010.2 0
53010.2 199.287 0
0    0    0

-228.166 56878.4 0
56878.4 -209.912 0
0    0    0

-326.576 62429 0
62429 -184.12 0
0    0    0

-45.1422 56264.9 0
56264.9 107.038 0
0    0    0

186.442 66144.7 0
66144.7 272.148 0
0    0    0

134.006 56539.4 0
56539.4 167.89 0
0    0    0

-214.573 62472.2 0
62472.2 -84.593 0
0    0    0

214.562 76382.9 0
76382.9 429.277 0
0    0    0

-190.071 79357.1 0
79357.1 146.369 0
0    0    0

-151.04 67956.3 0
67956.3 -16.5906 0
0    0    0

100.204 62417.2 0
62417.2 -62.9937 0
0    0    0

-214.952 77214.9 0
77214.9 -394.928 0
0    0    0

-307.821 33076.1 0
33076.1 -450.291 0
0    0    0

109.987 69997 0
69997 -90.4736 0
0    0    0

69.7521 46300.9 0
46300.9 201.628 0
0    0    0

230.024 26530.5 0
26530.5 50.9341 0
0    0    0

-167.44 17194.9 0
17194.9 92.3121 0
0    0    0

52.7033 14149.8 0
14149.8 136.067 0
0    0    0

-205.411 48469.7 0
48469.7 -242.409 0
0    0    0

-242.521 54097.7 0
54097.7 -157.447 0
0    0    0

180.517 71038.2 0
71038.2 -63.1423 0
0    0    0

217.899 67335.8 0
67335.8 161.937 0
0    0    0

-13.9815 79156.3 0
79156.3 150.312 0
0    0    0

-146.211 76309.5 0
76309.5 -41.3295 0
0    0    0

29.2966 73121.8 0
73121.8 335.769 0
0    0    0

60.6944 78096.8 0
78096.8 284.205 0
0    0    0

211.74 68142.4 0
68142.4 128.79 0
0    0    0

11.7286 76080.8 0
76080.8 158.691 0
0    0    0

-117.164 73191.6 0
73191.6 -226.132 0
0    0    0

301.576 92397.2 0
92397.2 56.5661 0
0    0    0

-137.085 81790.2 0
81790.2 169.913 0
0    0    0

58.8215 90625.2 0
90625.2 49.196 0
0    0    0

-231.392 88157.6 0
88157.6 -230.074 0
0    0    0

71.0238 90536.5 0
90536.5 294.83 0
0    0    0

30.8473 84654.9 0
84654.9 117.188 0
0    0    0

-54.9852 96304.3 0
96304.3 39.9474 0
0    0    0

-25.4569 90323.2 0
90323.2 175.375 0
0    0    0

-238.872 56099.1 0
56099.1 -253.022 0
0    0    0

-46.7321 71106.7 0
71106.7 -237.675 0
0    0    0

187.838 32644.2 0
32644.2 -84.0475 0
0    0    0

-168.843 36651.8 0
36651.8 -51.5097 0
0    0    0

215.16 42312.6 0
42312.6 305.599 0
0    0    0

20.3551 36051.3 0
36051.3 184.234 0
0    0    0

102.069 39789.3 0
39789.3 60.161 0
0    0    0

140.816 38662.7 0
38662.7 -83.4407 0
0    0    0

35.6342 30257.3 0
30257.3 39.7339 0
0    0    0

225.308 36163.8 0
36163.8 473.755 0
0    0    0

153.813 61940.2 0
61940.2 232.259 0
0    0    0

95.1719 70363.8 0
70363.8 -18.1791 0
0    0    0

-141.682 68528.3 0
68528.3 -40.0997 0
0    0    0

14.378 46491.7 0
46491.7 -362.83 0
0    0    0

211.484 50654.6 0
50654.6 226.353 0
0    0    0

-32.4422 47295.3 0
47295.3 268.837 0
0    0    0

-230.85 22519.6 0
22519.6 -18.7997 0
0    0    0

-5.76208 42680.2 0
42680.2 216.159 0
0    0    0

-211.355 30147 0
30147 -387.539 0
0    0    0

-14.3743 28785.2 0
28785.2 116.563 0
0    0    0

42.049 12346.1 0
12346.1 -278.48 0
0    0    0

173.938 18840.1 0
18840.1 580.915 0
0    0    0

58.8571 62770.5 0
62770.5 -127.02 0
0    0    0

-109.696 59296.9 0
59296.9 -216.604 0
0    0    0

126.817 40007.5 0
40007.5 33.7122 0
0    0    0

-267.284 34464.1 0
34464.1 -223.906 0
0    0    0

-88.3377 50241.9 0
50241.9 -384.141 0
0    0    0

161.011 16335.1 0
16335.1 369.855 0
0    0    0

-33.7601 44244.2 0
44244.2 121.227 0
0    0    0

-385.479 53529.5 0
53529.5 -149.019 0
0    0    0

-136.79 62089.8 0
62089.8 -105.637 0
0    0    0

117.072 20000.9 0
20000.9 257.546 0
0    0    0

183.222 26835.8 0
26835.8 64.4325 0
0    0    0

243.622 36695.6 0
36695.6 243.448 0
0    0    0

-60.5074 31523.7 0
31523.7 -318.167 0
0    0    0

-231.655 26013.6 0
26013.6 171.115 0
0    0    0

-107.691 30563.3 0
30563.3 28.6815 0
0    0    0

-204.565 52297.3 0
52297.3 -148.244 0
0    0    0

311.25 47700 0
47700 267.019 0
0    0    0

-197.526 48222.4 0
48222.4 -200.402 0
0    0    0

102.646 55319.5 0
55319.5 -44.1022 0
0    0    0

13.347 30196.4 0
30196.4 -285.982 0
0    0    0

-125.212 32055.2 0
32055.2 173.26 0
0    0    0

63.9341 21818 0
21818 168.502 0
0    0    0

-114.348 43080.1 0
43080.1 -63.3732 0
0    0    0

68.0564 22813.1 0
22813.1 201.02 0
0    0    0

135.437 5056.3 0
5056.3 -116.005 0
0    0    0

-66.6124 23689.8 0
23689.8 -70.7333 0
0    0    0

159.85 10036.8 0
10036.8 287.362 0
0    0    0

-109.451 12433.1 0
12433.1 42.3134 0
0    0    0

27.0793 15217.4 0
15217.4 -90.2337 0
0    0    0

-97.9873 8324.17 0
8324.17 -50.9163 0
0    0    0

-169.012 13054 0
13054 -279.472 0
0    0    0

-91.281 12633 0
12633 -251.771 0
0    0    0

113.635 60284.8 0
60284.8 107.366 0
0    0    0

177.795 57953.1 0
57953.1 183.348 0
0    0    0

-189.11 74334.2 0
74334.2 -93.6776 0
0    0    0

-30.9679 73231.6 0
73231.6 -181.308 0
0    0    0

26.408 84138 0
84138 275.863 0
0    0    0

-209.163 79543.4 0
79543.4 -184.685 0
0    0    0

186.427 94857.6 0
94857.6 -76.5246 0
0    0    0

-92.5554 80279 0
80279 -215.598 0
0    0    0

220.167 61921.4 0
61921.4 120.497 0
0    0    0

-405.028 86821.9 0
86821.9 -189.813 0
0    0    0

27.4191 94474.5 0
94474.5 344.659 0
0    0    0

140.521 59803.6 0
59803.6 152.45 0
0    0    0

127.509 73172 0
73172 223.693 0
0    0    0

-27.2747 72823.4 0
72823.4 293.591 0
0    0    0

-153.071 61286.4 0
61286.4 -31.4109 0
0    0    0

48.2088 68940.4 0
68940.4 65.1348 0
0    0    0

-235.486 29807.3 0
29807.3 -301.436 0
0    0    0

93.2572 23565.2 0
23565.2 209.341 0
0    0    0

229.802 62169.1 0
62169.1 55.3201 0
0    0    0

-26.1738 8546.29 0
8546.29 -22.0073 0
0    0    0

-71.1754 67837.5 0
67837.5 148.313 0
0    0    0

155.457 59739.6 0
59739.6 -95.997 0
0    0    0

-143.619 60005.9 0
60005.9 -234.329 0
0    0    0

83.0512 32480.8 0
32480.8 281.402 0
0    0    0

53.2477 33442.6 0
33442.6 283.243 0
0    0    0

-39.8273 67088.7 0
67088.7 -62.4839 0
0    0    0

-123.252 78172.5 0
78172.5 -330.941 0
0    0    0

-247.71 36407.5 0
36407.5 -127.192 0
0    0    0

4.4821 32703.4 0
32703.4 -214.895 0
0    0    0

98.9542 79365.5 0
79365.5 -143.625 0
0    0    0

119.566 77824.2 0
77824.2 105.495 0
0    0    0

-131.573 84452.3 0
84452.3 148.736 0
0    0    0

-215.678 73500.1 0
73500.1 -180.486 0
0    0    0

106.014 49069.2 0
49069.2 -100.724 0
0    0    0

212.76 40086.3 0
40086.3 239.345 0
0    0    0

-130.64 54712 0
54712 73.9555 0
0    0    0

-213.218 55391.7 0
55391.7 -454.596 0
0    0    0

65.2174 46345.9 0
46345.9 169.245 0
0    0    0

192.789 47665 0
47665 -47.7342 0
0    0    0

-72.0953 35939.9 0
35939.9 -155.205 0
0    0    0

198.45 38726.3 0
38726.3 268.21 0
0    0    0

388.381 33582 0
33582 66.78 0
0    0    0

-6.20294 32219.3 0
32219.3 -193.958 0
0    0    0

36.1738 55896.3 0
55896.3 -12.1255 0
0    0    0

-85.4911 61708.6 0
61708.6 112.406 0
0    0    0

63.1601 43393.1 0
43393.1 63.0945 0
0    0    0

-84.2239 59727.3 0
59727.3 -406.782 0
0    0    0

157.489 54523.9 0
54523.9 101.996 0
0    0    0

-228.641 47324.1 0
47324.1 -256.922 0
0    0    0

272.584 52142.5 0
52142.5 104.045 0
0    0    0

31.2795 65965.9 0
65965.9 19.2351 0
0    0    0

-61.149 68295.2 0
68295.2 -3.0418 0
0    0    0

145.382 76454 0
76454 167.59 0
0    0    0

-138.85 63343.4 0
63343.4 64.7458 0
0    0    0

-30.7552 72335.3 0
72335.3 17.2707 0
0    0    0

-74.4958 71550 0
71550 35.8453 0
0    0    0

-174.891 82734.2 0
82734.2 -121.915 0
0    0    0

-138.494 81882 0
81882 -320.233 0
0    0    0

-97.1811 80645.1 0
80645.1 119.515 0
0    0    0

246.102 81918 0
81918 147.919 0
0    0    0

-129.355 90517.9 0
90517.9 116.271 0
0    0    0

-142.6 85386.6 0
85386.6 -387.326 0
0    0    0

-80.4451 76646.4 0
76646.4 19.6136 0
0    0    0

-216.415 32725.4 0
32725.4 -267.897 0
0    0    0

2.96241 94754.5 0
94754.5 295.11 0
0    0    0

137.673 28059.8 0
28059.8 251.073 0
0    0    0

-191.403 16879.8 0
16879.8 -110.294 0
0    0    0

149.015 21733.2 0
21733.2 105.194 0
0    0    0

-179.158 70603.9 0
70603.9 -165.24 0
0    0    0

12.9459 80587.3 0
80587.3 -194.558 0
0    0    0

27.3988 73976.6 0
73976.6 139.287 0
0    0    0

-136.629 69302 0
69302 -365.685 0
0    0    0

211.83 51418.6 0
51418.6 31.9262 0
0    0    0

-310.777 48346.2 0
48346.2 -155.437 0
0    0    0

197.044 37848.4 0
37848.4 112.006 0
0    0    0

4.81175 32298.7 0
32298.7 -0.766032 0
0    0    0

36.1323 39424.8 0
39424.8 231.459 0
0    0    0

194.548 46555.9 0
46555.9 21.7898 0
0    0    0

155.291 59681.7 0
59681.7 212.705 0
0    0    0

110.15 62500.1 0
62500.1 238.437 0
0    0    0

-22.0134 60819.8 0
60819.8 -81.2603 0
0    0    0

-98.8097 55742.7 0
55742.7 223.503 0
0    0    0

-86.2826 51893.9 0
51893.9 -83.0084 0
0    0    0

-77.9305 58415.6 0
58415.6 255.455 0
0    0    0

182.523 53410 0
53410 -107.918 0
0    0    0

-213.625 55411.7 0
55411.7 -205.164 0
0    0    0

-97.9609 44052.5 0
44052.5 -311.715 0
0    0    0

177.705 38418 0
38418 209.978 0
0    0    0

-191.718 35118.5 0
35118.5 -196.244 0
0    0    0

-18.3626 37724.3 0
37724.3 -196.269 0
0    0    0

245.525 25474.7 0
25474.7 19.2319 0
0    0    0

-194.928 33863.2 0
33863.2 -62.9515 0
0    0    0

280.542 16167.2 0
16167.2 232.492 0
0    0    0

165.746 40409.6 0
40409.6 -183.243 0
0    0    0

-183.898 48868.2 0
48868.2 -130.21 0
0    0    0

175.115 45399.2 0
45399.2 375.79 0
0    0    0

-196.571 44296 0
44296 -334.263 0
0    0    0

-277.375 45110.2 0
45110.2 -475.875 0
0    0    0

323.659 45925.8 0
45925.8 289.928 0
0    0    0

-112.635 34934.1 0
34934.1 104.255 0
0    0    0

-78.4874 26151 0
26151 -183.137 0
0    0    0

10.6875 27631.7 0
27631.7 136.486 0
0    0    0

-104.455 33627.3 0
33627.3 34.1473 0
0    0    0

181.45 47772.6 0
47772.6 192.992 0
0    0    0

47.1505 50699.5 0
50699.5 120.513 0
0    0    0

-480.424 70057.2 0
70057.2 -232.355 0
0    0    0

196.762 68652 0
68652 225.965 0
0    0    0

26.4619 64965.2 0
64965.2 -41.3023 0
0    0    0

-197.439 61495.4 0
61495.4 -278.717 0
0    0    0

252.231 42683.7 0
42683.7 260.596 0
0    0    0

-217.539 38387.9 0
38387.9 -103.885 0
0    0    0

-39.6825 50423.5 0
50423.5 179.681 0
0    0    0

253.18 47417.8 0
47417.8 344.475 0
0    0    0

-284.403 23281.9 0
23281.9 -197.072 0
0    0    0

-169.062 23200.9 0
23200.9 -251.505 0
0    0    0

122.804 36366.6 0
36366.6 262.022 0
0    0    0

-19.8394 39813.3 0
39813.3 117.575 0
0    0    0

-293.075 20932 0
20932 -245.612 0
0    0    0

-141.939 43626.6 0
43626.6 71.7831 0
0    0    0

-98.659 21663.6 0
21663.6 -246.885 0
0    0    0

-28.3241 77824.4 0
77824.4 187.801 0
0    0    0

271.706 78641.7 0
78641.7 390.122 0
0    0    0

-117.596 49703 0
49703 -282.826 0
0    0    0

34.3167 50388.6 0
50388.6 283.338 0
0    0    0

-308.065 63912.2 0
63912.2 -79.8066 0
0    0    0

-204.558 67168.5 0
67168.5 -76.5537 0
0    0    0

-72.3927 52407.1 0
52407.1 121.759 0
0    0    0

7.07357 58693.3 0
58693.3 128.735 0
0    0    0

201.502 50464.2 0
50464.2 -168.802 0
0    0    0

-241.813 49363 0
49363 -346.858 0
0    0    0

168.299 48199.3 0
48199.3 109.468 0
0    0    0

240.425 43129.1 0
43129.1 187.492 0
0    0    0

224.623 10440.7 0
10440.7 36.514 0
0    0    0

295.149 19827.7 0
19827.7 125.56 0
0    0    0

35.5972 34915.8 0
34915.8 142.098 0
0    0    0

311.86 36137.9 0
36137.9 168.028 0
0    0    0

-86.4578 33852.2 0
33852.2 -273.051 0
0    0    0

245.137 34974.8 0
34974.8 70.4176 0
0    0    0

33.3031 31433.9 0
31433.9 167.498 0
0    0    0

-18.7988 33168.3 0
33168.3 94.8122 0
0    0    0

451.514 32514.4 0
32514.4 306.572 0
0    0    0

-65.5258 29759.3 0
29759.3 -129.545 0
0    0    0

-340.488 36525.2 0
36525.2 -561.115 0
0    0    0

-277.243 41484.4 0
41484.4 -224.177 0
0    0    0

219.453 31792 0
31792 280.993 0
0    0    0

-205.917 37435.9 0
37435.9 -167.84 0
0    0    0

257.294 24132.6 0
24132.6 35.4122 0
0    0    0

7.13004 30268.4 0
30268.4 -90.5364 0
0    0    0

-122.805 9919.35 0
9919.35 -57.2708 0
0    0    0

-82.4241 8442.79 0
8442.79 -100.7 0
0    0    0

-232.871 11597.7 0
11597.7 -110.476 0
0    0    0

-133.542 7068.47 0
7068.47 26.7534 0
0    0    0

-113.396 9319.59 0
9319.59 -207.634 0
0    0    0

-66.5127 11191.1 0
11191.1 -155.196 0
0    0    0

-11.9157 12110.7 0
12110.7 -61.9518 0
0    0    0

-124.369 52217.4 0
52217.4 -210.568 0
0    0    0

-186.038 55695.5 0
55695.5 -289.834 0
0    0    0

-25.0628 59858 0
59858 -196.559 0
0    0    0

-289.527 63848.9 0
63848.9 -304.769 0
0    0    0

-32.3064 51407.9 0
51407.9 30.0693 0
0    0    0

151.021 53522.6 0
53522.6 222.83 0
0    0    0

221.882 57092.4 0
57092.4 349.216 0
0    0    0

186.66 63209.9 0
63209.9 50.8467 0
0    0    0

-35.508 72304.7 0
72304.7 92.2516 0
0    0    0

-40.7241 67129.7 0
67129.7 -304.786 0
0    0    0

95.1653 64959.8 0
64959.8 -133.209 0
0    0    0

-71.2236 66492 0
66492 -188.913 0
0    0    0

-71.0555 67724.6 0
67724.6 -165.828 0
0    0    0

5.62102 67982.6 0
67982.6 -100.83 0
0    0    0

80.2008 69483.5 0
69483.5 179.046 0
0    0    0

-85.3058 71187.6 0
71187.6 -20.8314 0
0    0    0

-155.476 72607 0
72607 -336.461 0
0    0    0

55.9684 72496.5 0
72496.5 -89.2193 0
0    0    0

-83.9831 78371.8 0
78371.8 -137.377 0
0    0    0

-87.4836 75331 0
75331 97.58 0
0    0    0

-103.451 89535.9 0
89535.9 -471.004 0
0    0    0

-288.781 91785.2 0
91785.2 -497.035 0
0    0    0

-276.836 41471.6 0
41471.6 -552.982 0
0    0    0

236.234 37744.8 0
37744.8 342.972 0
0    0    0

364.562 41291 0
41291 510.687 0
0    0    0

136.564 42744.2 0
42744.2 150.972 0
0    0    0

45.276 32643.7 0
32643.7 288.328 0
0    0    0

-35.7789 35423.2 0
35423.2 -264.445 0
0    0    0

212.289 16376.7 0
16376.7 291.158 0
0    0    0

-16.5009 19859.3 0
19859.3 -289.988 0
0    0    0

105.831 49303.6 0
49303.6 -158.378 0
0    0    0

108.558 51825.7 0
51825.7 61.1881 0
0    0    0

6.85501 59477.3 0
59477.3 -236.118 0
0    0    0

-141.58 61615 0
61615 -274.326 0
0    0    0

373.897 26302.6 0
26302.6 170.506 0
0    0    0

13.0053 27902.7 0
27902.7 -33.2375 0
0    0    0

-241.795 61531.9 0
61531.9 -333.724 0
0    0    0

-184.948 59224 0
59224 -166.898 0
0    0    0

-188.924 83809.9 0
83809.9 -287.538 0
0    0    0

-67.1827 88671.6 0
88671.6 -263.896 0
0    0    0

-41.0177 87224.4 0
87224.4 -235.092 0
0    0    0

-34.4375 95939.4 0
95939.4 -317.791 0
0    0    0

106.745 87524.7 0
87524.7 22.5921 0
0    0    0

-180.466 91550.6 0
91550.6 -107.3 0
0    0    0

-13.6665 27960.9 0
27960.9 53.3341 0
0    0    0

-217.802 27399.5 0
27399.5 -33.6635 0
0    0    0

-136.039 40376.5 0
40376.5 56.7996 0
0    0    0

-156.968 80239.2 0
80239.2 -7.50393 0
0    0    0

114.118 85494.9 0
85494.9 376.548 0
0    0    0

60.8431 41675.1 0
41675.1 357.999 0
0    0    0

-216.199 35980.3 0
35980.3 -167.18 0
0    0    0

-0.499191 41127.8 0
41127.8 -17.1964 0
0    0    0

143.937 29612.2 0
29612.2 121.308 0
0    0    0

191.418 28838.7 0
28838.7 239.418 0
0    0    0

107.489 59081.8 0
59081.8 -74.2728 0
0    0    0

61.2205 56812.2 0
56812.2 312.133 0
0    0    0

134.661 42727.8 0
42727.8 -115.185 0
0    0    0

36.2271 44907 0
44907 324.308 0
0    0    0

221.597 81677.1 0
81677.1 322.617 0
0    0    0

30.7952 87299.9 0
87299.9 312.843 0
0    0    0

187.489 26520.5 0
26520.5 158.968 0
0    0    0

-193.53 20828.1 0
20828.1 -209.783 0
0    0    0

41.3612 72010.6 0
72010.6 -94.5391 0
0    0    0

-103.627 75703.2 0
75703.2 156.571 0
0    0    0

-72.2389 38130.6 0
38130.6 -109.167 0
0    0    0

61.4428 41498.9 0
41498.9 -172.953 0
0    0    0

-169.884 44377.5 0
44377.5 -68.5251 0
0    0    0

-16.2431 42636 0
42636 -181.822 0
0    0    0

-162.163 24655.8 0
24655.8 -237.903 0
0    0    0

-100.534 25715.6 0
25715.6 -437.343 0
0    0    0

114.167 38884.6 0
38884.6 -262.296 0
0    0    0

-49.0646 38148.2 0
38148.2 173.302 0
0    0    0

219.676 44324.9 0
44324.9 99.5716 0
0    0    0

124.007 37820.9 0
37820.9 -164.836 0
0    0    0

271.752 43075.2 0
43075.2 170.461 0
0    0    0

-45.8112 26919.2 0
26919.2 152.974 0
0    0    0

-124.007 42159.2 0
42159.2 -140.695 0
0    0    0

188.879 41461.8 0
41461.8 9.55655 0
0    0    0

-26.4132 43120.2 0
43120.2 -38.6592 0
0    0    0

-108.395 71158.7 0
71158.7 -335.763 0
0    0    0

393.799 72555 0
72555 424.129 0
0    0    0

-221.861 66776.2 0
66776.2 -182.852 0
0    0    0

-206.159 69091.3 0
69091.3 -316.966 0
0    0    0

-359.335 80279.6 0
80279.6 -286.395 0
0    0    0

99.6948 76276.4 0
76276.4 -94.3313 0
0    0    0

-3.96422 44749 0
44749 177.761 0
0    0    0

-262.636 48275.5 0
48275.5 -411.352 0
0    0    0

145.512 39383.1 0
39383.1 -145.173 0
0    0    0

140.073 38849.4 0
38849.4 192.912 0
0    0    0

318.712 36968.8 0
36968.8 279.743 0
0    0    0

118.958 33099.9 0
33099.9 -60.5113 0
0    0    0

146.935 15969.3 0
15969.3 -144.137 0
0    0    0

38.6694 14267.4 0
14267.4 241.71 0
0    0    0

228.713 8299.09 0
8299.09 143.888 0
0    0    0

182.664 11589.3 0
11589.3 86.4378 0
0    0    0

78.5605 58252 0
58252 -61.8393 0
0    0    0

82.7781 64379.8 0
64379.8 128.32 0
0    0    0

197.732 67542.7 0
67542.7 -102.966 0
0    0    0

61.2154 67917.2 0
67917.2 129.993 0
0    0    0

108.504 24865 0
24865 -96.2187 0
0    0    0

168.833 30656.9 0
30656.9 235.354 0
0    0    0

-227.015 39343.2 0
39343.2 -175.898 0
0    0    0

98.816 35357.4 0
35357.4 180.26 0
0    0    0

-221.881 32009 0
32009 -50.3366 0
0    0    0

-51.739 22537.7 0
22537.7 -65.1321 0
0    0    0

24.477 64968.3 0
64968.3 80.0872 0
0    0    0

-125.255 65115.8 0
65115.8 -51.2723 0
0    0    0

352.745 60312.9 0
60312.9 -7.16448 0
0    0    0

-70.6965 53334.1 0
53334.1 -394.459 0
0    0    0

-109.189 84398.3 0
84398.3 -360.382 0
0    0    0

-153.916 87210.7 0
87210.7 -14.366 0
0    0    0

17.6307 25455.9 0
25455.9 -87.8994 0
0    0    0

-160.561 26661.7 0
26661.7 -289.255 0
0    0    0

-116.719 80922.2 0
80922.2 -94.7499 0
0    0    0

54.1357 81144.7 0
81144.7 -215.977 0
0    0    0

-131.669 25252.9 0
25252.9 107.994 0
0    0    0

-161.337 24454.8 0
24454.8 -433.639 0
0    0    0

270.662 44152.3 0
44152.3 310.453 0
0    0    0

159.18 44437.6 0
44437.6 125.821 0
0    0    0

-88.7513 29211.6 0
29211.6 -394.263 0
0    0    0

139.661 24687.8 0
24687.8 269.12 0
0    0    0

-230.071 63656.4 0
63656.4 -333.867 0
0    0    0

73.705 67573.7 0
67573.7 259.283 0
0    0    0

-276.743 90930.6 0
90930.6 -124.435 0
0    0    0

179.445 85270.6 0
85270.6 237.997 0
0    0    0

-87.5245 26238.3 0
26238.3 25.0342 0
0    0    0

103.964 21510 0
21510 -151.485 0
0    0    0

-34.9477 44693.8 0
44693.8 -4.35206 0
0    0    0

-158.354 42716.5 0
42716.5 115.406 0
0    0    0

-58.7548 42628.3 0
42628.3 186.161 0
0    0    0

194.385 45708.9 0
45708.9 33.7317 0
0    0    0

204.942 44467.6 0
44467.6 226.132 0
0    0    0

16.2529 37427.5 0
37427.5 69.8451 0
0    0    0

195.655 64368 0
64368 411.512 0
0    0    0

-108.354 62920.9 0
62920.9 -358.85 0
0    0    0

-69.0923 65530.8 0
65530.8 -264.141 0
0    0    0

214.445 69549 0
69549 290.537 0
0    0    0

-167.497 76972.6 0
76972.6 164.272 0
0    0    0

-104.187 73407 0
73407 -33.1747 0
0    0    0

129.725 80748.3 0
80748.3 -111.901 0
0    0    0

77.2732 74158.4 0
74158.4 437.565 0
0    0    0

-4.59506 49212.3 0
49212.3 98.6023 0
0    0    0

-178.902 45178.3 0
45178.3 -221.587 0
0    0    0

170.095 71838.1 0
71838.1 131.812 0
0    0    0

-33.1692 65586.2 0
65586.2 -313.951 0
0    0    0

217.587 75136.2 0
75136.2 400.378 0
0    0    0

88.0025 80084.6 0
80084.6 -111.6 0
0    0    0

89.3739 73749.7 0
73749.7 -94.3799 0
0    0    0

-170.146 72375 0
72375 80.4491 0
0    0    0

-63.009 66104.8 0
66104.8 131.252 0
0    0    0

118.481 64003.8 0
64003.8 -42.053 0
0    0    0

303.466 43446.5 0
43446.5 257.962 0
0    0    0

-183.95 49883.1 0
49883.1 -251.008 0
0    0    0

238.91 33889.4 0
33889.4 158.16 0
0    0    0

-95.1615 33623.9 0
33623.9 181.558 0
0    0    0

-295.505 40263.2 0
40263.2 -246.273 0
0    0    0

-218.484 63012.4 0
63012.4 -399.579 0
0    0    0

-47.5056 62712 0
62712 143.738 0
0    0    0

-172.372 53889.3 0
53889.3 -272.61 0
0    0    0

224.242 57757.8 0
57757.8 20.181 0
0    0    0

107.829 56157 0
56157 45.7332 0
0    0    0

-161.866 55358.2 0
55358.2 3.24406 0
0    0    0

-154.915 50943 0
50943 -60.833 0
0    0    0

-30.015 56333.6 0
56333.6 -306.099 0
0    0    0

77.2403 58503.6 0
58503.6 -46.6221 0
0    0    0

-275.12 63693.7 0
63693.7 -369.657 0
0    0    0

122.646 52853.4 0
52853.4 147.586 0
0    0    0

211.913 54398.8 0
54398.8 88.245 0
0    0    0

65.9317 22240.1 0
22240.1 -160.262 0
0    0    0

27.875 20509.8 0
20509.8 -176.821 0
0    0    0

124.156 21787.7 0
21787.7 -150.124 0
0    0    0

244.382 14989.6 0
14989.6 204.083 0
0    0    0

64.4532 23094.1 0
23094.1 -106.845 0
0    0    0

297.772 17346.4 0
17346.4 88.5912 0
0    0    0

-89.4719 47596.2 0
47596.2 -98.9951 0
0    0    0

164.922 44280.8 0
44280.8 122.431 0
0    0    0

-234.031 46715.7 0
46715.7 -270.714 0
0    0    0

-66.662 49395.8 0
49395.8 182.88 0
0    0    0

-206.286 84998.3 0
84998.3 -234.723 0
0    0    0

23.0345 82648.4 0
82648.4 -130.291 0
0    0    0

-14.1606 51206.9 0
51206.9 -221.203 0
0    0    0

-285.664 43910 0
43910 -475.471 0
0    0    0

-186.197 58539 0
58539 -247.947 0
0    0    0

88.0413 48150.5 0
48150.5 -109.779 0
0    0    0

139.542 52867.1 0
52867.1 268.105 0
0    0    0

139.187 61567.2 0
61567.2 380.408 0
0    0    0

-195.863 58445.6 0
58445.6 -138.493 0
0    0    0

73.8836 73212.7 0
73212.7 -63.2601 0
0    0    0

39.5538 68386.7 0
68386.7 -398.37 0
0    0    0

-63.2268 63286.8 0
63286.8 -244.855 0
0    0    0

-161.177 66087.4 0
66087.4 -278.097 0
0    0    0

-301.211 77736.5 0
77736.5 -216.707 0
0    0    0

-103.356 73701.4 0
73701.4 -216.298 0
0    0    0

-283.205 50062.9 0
50062.9 -80.8406 0
0    0    0

160.92 47434.2 0
47434.2 62.9334 0
0    0    0

-160.73 57663.7 0
57663.7 -7.72341 0
0    0    0

243.718 55395.3 0
55395.3 211.022 0
0    0    0

-102.36 61832.3 0
61832.3 167.425 0
0    0    0

85.8492 56143 0
56143 340.71 0
0    0    0

-210.457 21663.8 0
21663.8 -324.302 0
0    0    0

-173.504 16844.5 0
16844.5 -259.871 0
0    0    0

-127.366 23309.7 0
23309.7 -125.047 0
0    0    0

-116.459 28826.8 0
28826.8 -9.85178 0
0    0    0

96.6408 49066.1 0
49066.1 374.718 0
0    0    0

178.026 48247.1 0
48247.1 99.4551 0
0    0    0

-14.417 54052.5 0
54052.5 84.0701 0
0    0    0

-138.961 51126.1 0
51126.1 95.9473 0
0    0    0

-329.292 46475.7 0
46475.7 -287.285 0
0    0    0

-376.184 50384.9 0
50384.9 -318.447 0
0    0    0

-199.412 76395.4 0
76395.4 -44.327 0
0    0    0

-336.799 82583.2 0
82583.2 -173.763 0
0    0    0

-57.1071 58869.9 0
58869.9 -140.345 0
0    0    0

334.726 61714.6 0
61714.6 486.143 0
0    0    0

-239.323 33033 0
33033 30.9193 0
0    0    0

-32.8259 37026.3 0
37026.3 237.311 0
0    0    0

-63.9255 55717.6 0
55717.6 153.857 0
0    0    0

-151.801 75357.8 0
75357.8 -165.113 0
0    0    0

205.687 52690.4 0
52690.4 322.724 0
0    0    0

206.786 78381.3 0
78381.3 222.642 0
0    0    0

-113.552 76106.4 0
76106.4 -25.1741 0
0    0    0

60.2669 83963.1 0
83963.1 -60.8604 0
0    0    0

-77.7591 84415.1 0
84415.1 -361.432 0
0    0    0

42.1634 50254.7 0
50254.7 -201.817 0
0    0    0

241.539 57081.9 0
57081.9 296.674 0
0    0    0

-146.139 34232.2 0
34232.2 128.028 0
0    0    0

71.0169 31495.9 0
31495.9 -155.444 0
0    0    0

-141.055 49851.6 0
49851.6 50.622 0
0    0    0

-53.1111 51775.2 0
51775.2 -241.467 0
0    0    0

-0.252494 43500.3 0
43500.3 -215.007 0
0    0    0

-103.266 45159.6 0
45159.6 119.928 0
0    0    0

-97.71 44420.2 0
44420.2 -64.9532 0
0    0    0

229.687 40505.8 0
40505.8 395.222 0
0    0    0

-226.598 28147.3 0
28147.3 -265.709 0
0    0    0

240.019 28557.6 0
28557.6 283.688 0
0    0    0

5.67612 43591.1 0
43591.1 -312.213 0
0    0    0

138.515 44014.2 0
44014.2 217.724 0
0    0    0

-136.576 54217.9 0
54217.9 -243.295 0
0    0    0

-79.3649 54795.8 0
54795.8 74.6975 0
0    0    0

247.961 69092.9 0
69092.9 533.399 0
0    0    0

120.75 66781 0
66781 47.9724 0
0    0    0

89.2105 67449.8 0
67449.8 38.2331 0
0    0    0

-167.782 54499 0
54499 -364.593 0
0    0    0

-194.583 56585.3 0
56585.3 -279.863 0
0    0    0

-374.622 59768.2 0
59768.2 -169.377 0
0    0    0

44.9657 56655.7 0
56655.7 -158.912 0
0    0    0

-131.154 61032 0
61032 -270.811 0
0    0    0

137.593 59744.3 0
59744.3 302.049 0
0    0    0

-244.316 45823.2 0
45823.2 -269.738 0
0    0    0

154.644 52338.3 0
52338.3 81.8205 0
0    0    0

-10.9892 90674.6 0
90674.6 -223.559 0
0    0    0

198.01 39351.6 0
39351.6 210.382 0
0    0    0

154.801 83387.1 0
83387.1 94.4625 0
0    0    0

-106.078 47304.9 0
47304.9 -144.021 0
0    0    0

54.7916 42623.3 0
42623.3 -68.1031 0
0    0    0

-210.21 72164.8 0
72164.8 -100.086 0
0    0    0

272.957 8216.71 0
8216.71 240.422 0
0    0    0

-40.8704 50443.5 0
50443.5 397.235 0
0    0    0

170.979 43711.3 0
43711.3 -102.558 0
0    0    0

160.701 41586.4 0
41586.4 238.81 0
0    0    0

-153.659 40408.7 0
40408.7 -265.895 0
0    0    0

-183.8 61253.5 0
61253.5 -102.692 0
0    0    0

-189.372 55487.7 0
55487.7 -205.483 0
0    0    0

-73.8613 75727.4 0
75727.4 251.46 0
0    0    0

223.186 23870.4 0
23870.4 247.291 0
0    0    0

-101.539 72974.4 0
72974.4 -106.178 0
0    0    0

96.1169 56092.8 0
56092.8 10.8159 0
0    0    0

-278.488 61708 0
61708 -461.612 0
0    0    0

207.435 38107.5 0
38107.5 -63.7749 0
0    0    0

129.986 42047.8 0
42047.8 312.72 0
0    0    0

139.275 36656.6 0
36656.6 186.25 0
0    0    0

14.9637 37211.4 0
37211.4 9.91605 0
0    0    0

-108.689 41309.2 0
41309.2 179.175 0
0    0    0

-158.701 42056.3 0
42056.3 -230.084 0
0    0    0

-78.8441 37583 0
37583 125.989 0
0    0    0

38.8277 38171.3 0
38171.3 -168.09 0
0    0    0

99.9311 36068.5 0
36068.5 478.743 0
0    0    0

109.201 36029 0
36029 182.307 0
0    0    0

-241.561 68475.6 0
68475.6 -321.432 0
0    0    0

284.291 66701.8 0
66701.8 257.946 0
0    0    0

44.1121 66203.8 0
66203.8 92.7438 0
0    0    0

-24.8359 66682.2 0
66682.2 -319.255 0
0    0    0

139.513 32364.8 0
32364.8 165.929 0
0    0    0

20.3785 30393.1 0
30393.1 -154.122 0
0    0    0

30.4223 63478 0
63478 -142.396 0
0    0    0

284.6 64106.3 0
64106.3 245.334 0
0    0    0

202.958 61227.8 0
61227.8 -67.2782 0
0    0    0

-225.256 61288.4 0
61288.4 -285.503 0
0    0    0

-50.7072 62810.6 0
62810.6 -203.825 0
0    0    0

107.13 60985.4 0
60985.4 306.718 0
0    0    0

-60.873 44246.7 0
44246.7 -170.84 0
0    0    0

121.861 44924.3 0
44924.3 255.72 0
0    0    0

96.5371 25485.5 0
25485.5 -216.657 0
0    0    0

20.5484 22808.8 0
22808.8 356.79 0
0    0    0

194.701 44871.7 0
44871.7 82.2593 0
0    0    0

183.407 47657 0
47657 343.093 0
0    0    0

-270.546 46533.4 0
46533.4 40.4111 0
0    0    0

26.5016 62193.4 0
62193.4 -144.939 0
0    0    0

53.9171 81189.6 0
81189.6 69.0561 0
0    0    0

90.4455 60677 0
60677 -54.8313 0
0    0    0

200.041 50992.9 0
50992.9 97.6538 0
0    0    0

76.3433 50640.2 0
50640.2 0.971294 0
0    0    0

96.5615 52966.3 0
52966.3 280.355 0
0    0    0

158.961 51942.9 0
51942.9 -90.5118 0
0    0    0

39.9291 52577 0
52577 -18.6561 0
0    0    0

-66.413 49603 0
49603 -91.7306 0
0    0    0

-87.4302 59895.3 0
59895.3 -165.933 0
0    0    0

-116.413 56474.2 0
56474.2 -345.088 0
0    0    0

46.2153 49573 0
49573 -22.5599 0
0    0    0

-48.0606 49271.9 0
49271.9 235.114 0
0    0    0

-133.415 55417.1 0
55417.1 148.197 0
0    0    0

-135.25 49648.6 0
49648.6 -62.6286 0
0    0    0

44.8861 47280.5 0
47280.5 -131.582 0
0    0    0

81.9143 44137.2 0
44137.2 237.878 0
0    0    0

168.496 31993.5 0
31993.5 24.749 0
0    0    0

34.6352 30832.6 0
30832.6 -163.562 0
0    0    0

-71.2711 53743.7 0
53743.7 224.954 0
0    0    0

-10.1525 49569.3 0
49569.3 -101.314 0
0    0    0

112.566 24210.1 0
24210.1 41.4913 0
0    0    0

-199.641 22277.9 0
22277.9 52.78 0
0    0    0

-127.624 36236.3 0
36236.3 58.6295 0
0    0    0

133.574 32636.3 0
32636.3 173.6 0
0    0    0

43.9715 30198.4 0
30198.4 57.3542 0
0    0    0

0.781065 34822.4 0
34822.4 -29.8146 0
0    0    0

50.1866 27922.3 0
27922.3 169.752 0
0    0    0

-51.7453 27535.2 0
27535.2 80.1538 0
0    0    0

112.571 37645.9 0
37645.9 239.915 0
0    0    0

-352.887 40199.2 0
40199.2 -130.186 0
0    0    0

217.683 39527.6 0
39527.6 261.063 0
0    0    0

64.771 38148.4 0
38148.4 -104.183 0
0    0    0

343.368 52685.7 0
52685.7 192.201 0
0    0    0

-232.48 52723.6 0
52723.6 -101.811 0
0    0    0

125.233 31062.9 0
31062.9 -49.1801 0
0    0    0

-86.4776 26081.8 0
26081.8 -179.375 0
0    0    0

240.799 20417.6 0
20417.6 278.917 0
0    0    0

-200.815 19209.5 0
19209.5 -144.401 0
0    0    0

-309.737 18009.3 0
18009.3 -78.5599 0
0    0    0

-89.4952 17601.4 0
17601.4 -170.055 0
0    0    0

-270.712 14604.1 0
14604.1 -471.568 0
0    0    0

-283.233 8446.09 0
8446.09 -203.029 0
0    0    0

372.015 13405.3 0
13405.3 148.191 0
0    0    0

23.9112 23375 0
23375 125.156 0
0    0    0

234.518 18441.5 0
18441.5 249.159 0
0    0    0

-109.703 17368.4 0
17368.4 78.8353 0
0    0    0

-151.154 19338.5 0
19338.5 23.225 0
0    0    0

-91.6459 57165.7 0
57165.7 156.326 0
0    0    0

-74.1343 55423.1 0
55423.1 265.47 0
0    0    0

26.3221 55678.9 0
55678.9 -267.423 0
0    0    0

69.9446 57148.4 0
57148.4 -22.2311 0
0    0    0

-115.862 53125.1 0
53125.1 -127.747 0
0    0    0

55.7687 54256.2 0
54256.2 -250.913 0
0    0    0

42.9403 63438 0
63438 -36.5115 0
0    0    0

145.865 67175.3 0
67175.3 249.091 0
0    0    0

269.109 54217.8 0
54217.8 280.791 0
0    0    0

-234.634 58085.4 0
58085.4 -282.798 0
0    0    0

-169.815 60486.4 0
60486.4 -276.902 0
0    0    0

35.355 58868.6 0
58868.6 -43.3998 0
0    0    0

-58.5877 72746.4 0
72746.4 -356.472 0
0    0    0

195.576 79008.4 0
79008.4 248.514 0
0    0    0

150.661 76597.5 0
76597.5 -55.081 0
0    0    0

-186.2 77079.9 0
77079.9 -217.306 0
0    0    0

-3.73687 26250.3 0
26250.3 -76.0655 0
0    0    0

260.643 76887.2 0
76887.2 332.013 0
0    0    0

-103.04 29286.6 0
29286.6 -288.14 0
0    0    0

-44.9284 18173 0
18173 -57.1602 0
0    0    0

-150.897 13849.7 0
13849.7 -534.306 0
0    0    0

-196.568 10775.3 0
10775.3 -179.791 0
0    0    0

64.6787 16276.9 0
16276.9 402.426 0
0    0    0

-206.158 13802.4 0
13802.4 129.818 0
0    0    0

37.7201 85135.8 0
85135.8 -192.844 0
0    0    0

-135.128 85502.5 0
85502.5 125.807 0
0    0    0

295.921 83543.4 0
83543.4 420.427 0
0    0    0

239.539 83344.1 0
83344.1 296.071 0
0    0    0

-48.7309 80084.6 0
80084.6 -317.637 0
0    0    0

-162.051 73710.4 0
73710.4 -210.383 0
0    0    0

3.92376 78607.8 0
78607.8 129.99 0
0    0    0

187.313 74162.7 0
74162.7 302.848 0
0    0    0

133.717 77404.1 0
77404.1 -33.7622 0
0    0    0

-306.476 76835.9 0
76835.9 -270.98 0
0    0    0

-199.393 74791.2 0
74791.2 85.7058 0
0    0    0

141.532 74876 0
74876 -156.797 0
0    0    0

-140.528 80167 0
80167 -75.4232 0
0    0    0

-50.5738 79937.8 0
79937.8 -39.8771 0
0    0    0

205.493 91542.1 0
91542.1 315.89 0
0    0    0

105.755 88247.7 0
88247.7 -11.4864 0
0    0    0

59.0421 57245.5 0
57245.5 -180.57 0
0    0    0

-175.314 86633.3 0
86633.3 -282.531 0
0    0    0

-129.391 58006.9 0
58006.9 -69.4567 0
0    0    0

48.309 60835.7 0
60835.7 7.16251 0
0    0    0

-170.776 58755 0
58755 -117.457 0
0    0    0

-82.6458 30712.6 0
30712.6 -277.998 0
0    0    0

-68.062 34552.4 0
34552.4 293.613 0
0    0    0

-43.5864 43487 0
43487 -240.205 0
0    0    0

53.3216 42892.8 0
42892.8 -166.066 0
0    0    0

-132.075 69564.4 0
69564.4 28.9652 0
0    0    0

-174.276 73681 0
73681 -358.786 0
0    0    0

210.099 73450.8 0
73450.8 387.863 0
0    0    0

279.877 72982.5 0
72982.5 211.338 0
0    0    0

-111.569 49565 0
49565 -241.163 0
0    0    0

-17.5546 50658.4 0
50658.4 -97.0161 0
0    0    0

194.922 15887.3 0
15887.3 114.57 0
0    0    0

-1.86802 15459.6 0
15459.6 125.883 0
0    0    0

19.0911 57929 0
57929 105.917 0
0    0    0

18.6774 18095 0
18095 261.142 0
0    0    0

298.007 56842.8 0
56842.8 300.501 0
0    0    0

-133.27 42036 0
42036 -321.06 0
0    0    0

-183 41559.3 0
41559.3 -287.962 0
0    0    0

-88.0786 21736.4 0
21736.4 114.547 0
0    0    0

100.981 17128.2 0
17128.2 308.306 0
0    0    0

-85.5846 29668.7 0
29668.7 99.7135 0
0    0    0

-160.528 33238.2 0
33238.2 -73.3713 0
0    0    0

48.9415 26715.4 0
26715.4 98.4477 0
0    0    0

216.474 22763.1 0
22763.1 125.761 0
0    0    0

-438.46 20056.6 0
20056.6 -297.57 0
0    0    0

-81.058 21631.8 0
21631.8 -233.684 0
0    0    0

-277.258 26435.6 0
26435.6 -140.899 0
0    0    0

36.7125 26482.8 0
26482.8 -97.8754 0
0    0    0

152.762 77285.1 0
77285.1 -52.0951 0
0    0    0

-180.213 11756.5 0
11756.5 151.889 0
0    0    0

-141.203 80513.9 0
80513.9 -40.7596 0
0    0    0

236.34 92668.8 0
92668.8 37.4757 0
0    0    0

47.9846 97709.9 0
97709.9 111.964 0
0    0    0

-137.185 69196.7 0
69196.7 -256.737 0
0    0    0

40.1986 83140.5 0
83140.5 93.7966 0
0    0    0

-277.153 86592.2 0
86592.2 -350.466 0
0    0    0

-186.832 71630.8 0
71630.8 69.0504 0
0    0    0

-209.518 28531.8 0
28531.8 41.2434 0
0    0    0

187.115 25206.1 0
25206.1 280.846 0
0    0    0

214.498 26696.3 0
26696.3 33.5714 0
0    0    0

142.807 25223.2 0
25223.2 436.987 0
0    0    0

55.4717 22819.1 0
22819.1 251.348 0
0    0    0

40.5259 25112 0
25112 142.572 0
0    0    0

-135.133 62901.5 0
62901.5 53.8671 0
0    0    0

71.6552 59203.4 0
59203.4 98.689 0
0    0    0

246.847 5714.52 0
5714.52 -65.0636 0
0    0    0

-92.6219 4879.77 0
4879.77 -265.924 0
0    0    0

249.277 54288.5 0
54288.5 106.386 0
0    0    0

93.3148 50146.8 0
50146.8 116.051 0
0    0    0

-110.444 40700.5 0
40700.5 179.103 0
0    0    0

188.882 36776.8 0
36776.8 155.631 0
0    0    0

-183.099 36405 0
36405 61.8593 0
0    0    0

254.311 34654.9 0
34654.9 -96.6437 0
0    0    0

-142.881 57236 0
57236 57.0897 0
0    0    0

-48.1419 55593.5 0
55593.5 -86.8681 0
0    0    0

-212.281 63376.8 0
63376.8 -236.329 0
0    0    0

-30.8213 66032.1 0
66032.1 160.381 0
0    0    0

242.507 77362.1 0
77362.1 282.229 0
0    0    0

-196.49 73413.8 0
73413.8 -32.021 0
0    0    0

133.732 73252.8 0
73252.8 107.334 0
0    0    0

149.18 72104.4 0
72104.4 285.371 0
0    0    0

-36.0143 81933.7 0
81933.7 285.74 0
0    0    0

-100.866 81690.6 0
81690.6 -24.4803 0
0    0    0

-72.0894 49030.4 0
49030.4 -111.151 0
0    0    0

174.993 47594.9 0
47594.9 375.663 0
0    0    0

-42.2341 48996.8 0
48996.8 -266.207 0
0    0    0

135.845 48170.8 0
48170.8 31.652 0
0    0    0

203.816 47869.8 0
47869.8 47.3687 0
0    0    0

-102.123 48841.5 0
48841.5 -244.686 0
0    0    0

-101.029 36053.2 0
36053.2 143.715 0
0    0    0

-166.093 41372.5 0
41372.5 -273.437 0
0    0    0

-63.4337 36413.7 0
36413.7 -213.742 0
0    0    0

-60.9994 35641.4 0
35641.4 -196.181 0
0    0    0

153.06 36312.8 0
36312.8 -36.1318 0
0    0    0

38.2763 47263.5 0
47263.5 -24.4134 0
0    0    0

133.094 44262.8 0
44262.8 61.1443 0
0    0    0

-120.43 45088.2 0
45088.2 -269.077 0
0    0    0

-4.85416 44372.9 0
44372.9 65.6077 0
0    0    0

5.96055 48793 0
48793 70.3656 0
0    0    0

371.225 26455.8 0
26455.8 259.942 0
0    0    0

91.8765 51925.4 0
51925.4 -169.246 0
0    0    0

-52.589 49974.2 0
49974.2 -101.687 0
0    0    0

-164.188 53919.5 0
53919.5 -243.249 0
0    0    0

-223.895 23894.2 0
23894.2 -111.651 0
0    0    0

-92.4637 19364.2 0
19364.2 -287.129 0
0    0    0

239.371 21657.2 0
21657.2 73.6077 0
0    0    0

136.306 33546.3 0
33546.3 238.4 0
0    0    0

22.2413 33751.8 0
33751.8 31.7092 0
0    0    0

-88.1917 42044.3 0
42044.3 -175.158 0
0    0    0

-227.636 46720.2 0
46720.2 62.6009 0
0    0    0

-42.2399 21828.4 0
21828.4 -242.882 0
0    0    0

56.0499 17867.5 0
17867.5 -137.948 0
0    0    0

188.267 25745.6 0
25745.6 222.942 0
0    0    0

269.735 27983.8 0
27983.8 205.84 0
0    0    0

-97.1852 33418.7 0
33418.7 -220.259 0
0    0    0

-70.6155 30955 0
30955 48.3372 0
0    0    0

-339.664 65279.3 0
65279.3 50.6958 0
0    0    0

255.362 64632 0
64632 -94.717 0
0    0    0

-151.324 63502.8 0
63502.8 -202.194 0
0    0    0

-244.882 65186.9 0
65186.9 72.5807 0
0    0    0

-73.8287 38691.3 0
38691.3 323.407 0
0    0    0

-51.2535 40284.6 0
40284.6 40.2367 0
0    0    0

36.5929 45364.6 0
45364.6 73.6119 0
0    0    0

-250.375 47637.1 0
47637.1 -210.621 0
0    0    0

-34.0508 17071 0
17071 59.5411 0
0    0    0

12.979 17391.1 0
17391.1 -93.7752 0
0    0    0

291.325 56758.4 0
56758.4 208.733 0
0    0    0

143.415 60794.2 0
60794.2 36.7563 0
0    0    0

-268.531 40165.3 0
40165.3 -44.4039 0
0    0    0

304.241 39286.6 0
39286.6 223.953 0
0    0    0

-168.341 35674.3 0
35674.3 -335.271 0
0    0    0

88.5184 36590.9 0
36590.9 25.8454 0
0    0    0

-312.943 38592.2 0
38592.2 -135.455 0
0    0    0

-154.929 39906.1 0
39906.1 -349.532 0
0    0    0

-84.5478 43380.9 0
43380.9 2.21255 0
0    0    0

95.2816 43780.7 0
43780.7 -53.0087 0
0    0    0

-81.054 47358.2 0
47358.2 -79.7286 0
0    0    0

-102.099 45832 0
45832 140.225 0
0    0    0

-319.042 42625.7 0
42625.7 -158.378 0
0    0    0

299.882 39775.8 0
39775.8 360.538 0
0    0    0

-144.969 39827.3 0
39827.3 -240.923 0
0    0    0

210.484 37666.5 0
37666.5 357.265 0
0    0    0

246.86 39325.9 0
39325.9 433.351 0
0    0    0

264.985 36472 0
36472 292.126 0
0    0    0

215.812 40176.1 0
40176.1 398.272 0
0    0    0

-21.801 38420.1 0
38420.1 -37.4263 0
0    0    0

216.986 40911.2 0
40911.2 89.8311 0
0    0    0

-120.549 42234.3 0
42234.3 -207.395 0
0    0    0

-53.7865 28445.6 0
28445.6 -107.169 0
0    0    0

-69.2041 40226.5 0
40226.5 -447.431 0
0    0    0

-122.497 34417 0
34417 10.6556 0
0    0    0

-82.5497 16715.6 0
16715.6 65.8338 0
0    0    0

155.434 18109.3 0
18109.3 38.9587 0
0    0    0

-7.6387 10976 0
10976 240.836 0
0    0    0

-20.9573 12942.5 0
12942.5 -67.5666 0
0    0    0

147.721 67266 0
67266 275.954 0
0    0    0

-103.382 73134.2 0
73134.2 197.414 0
0    0    0

-226.782 61053.5 0
61053.5 -53.1422 0
0    0    0

74.219 63780.3 0
63780.3 -12.6874 0
0    0    0

23.3619 79278.1 0
79278.1 -220.171 0
0    0    0

-89.0523 78822.6 0
78822.6 -76.0027 0
0    0    0

88.429 77830.1 0
77830.1 156.153 0
0    0    0

195.877 78135.1 0
78135.1 268.785 0
0    0    0

36.7862 23060.2 0
23060.2 -205.192 0
0    0    0

-35.2627 24141.7 0
24141.7 155.044 0
0    0    0

97.3048 68154.4 0
68154.4 192.015 0
0    0    0

-35.2731 64387.7 0
64387.7 -186.403 0
0    0    0

272.961 87359.9 0
87359.9 192.223 0
0    0    0

-45.9057 90215.5 0
90215.5 123.544 0
0    0    0

73.3978 49336.3 0
49336.3 -50.4125 0
0    0    0

-195.474 45283.9 0
45283.9 -479.078 0
0    0    0

183.6 63259.2 0
63259.2 158.662 0
0    0    0

-102.734 66184.7 0
66184.7 -105.453 0
0    0    0

27.2722 62278.9 0
62278.9 193.592 0
0    0    0

-104.043 60554.5 0
60554.5 -303.786 0
0    0    0

118.87 52502.4 0
52502.4 161.651 0
0    0    0

5.82381 55785 0
55785 164.193 0
0    0    0

-203.061 20179.8 0
20179.8 -347.151 0
0    0    0

168.034 18377.8 0
18377.8 101.566 0
0    0    0

40.8522 41626.8 0
41626.8 -263.128 0
0    0    0

282.331 43144.8 0
43144.8 329.78 0
0    0    0

-363.199 67211.2 0
67211.2 -203.316 0
0    0    0

-101.227 70188.8 0
70188.8 -289.696 0
0    0    0

122.961 51330.9 0
51330.9 -4.51462 0
0    0    0

119.067 48630.4 0
48630.4 181.792 0
0    0    0

58.5078 79534.5 0
79534.5 166.496 0
0    0    0

-268.586 77582.8 0
77582.8 83.5661 0
0    0    0

85.7616 81397.7 0
81397.7 -24.8144 0
0    0    0

280.756 82918.8 0
82918.8 69.8651 0
0    0    0

-241.7 45422.9 0
45422.9 -68.5428 0
0    0    0

-120.325 47374.8 0
47374.8 -415.776 0
0    0    0

-214.761 47077.6 0
47077.6 5.92517 0
0    0    0

-95.4833 45286.4 0
45286.4 -206.282 0
0    0    0

-102.84 42073 0
42073 -389.629 0
0    0    0

-201.483 43831.9 0
43831.9 -487.86 0
0    0    0

-24.5601 44465.1 0
44465.1 -150.15 0
0    0    0

-160.438 49081.8 0
49081.8 -234.613 0
0    0    0

-166.641 43717 0
43717 -344.719 0
0    0    0

200.572 48254.5 0
48254.5 41.8475 0
0    0    0

41.8854 46360.7 0
46360.7 -286.809 0
0    0    0

172.253 45658.2 0
45658.2 -106.206 0
0    0    0

-345.506 49369.1 0
49369.1 -134.18 0
0    0    0

84.2928 51119.7 0
51119.7 352.717 0
0    0    0

-16.9723 62031.6 0
62031.6 -23.732 0
0    0    0

-52.1819 42282 0
42282 368.241 0
0    0    0

-214.442 59634.9 0
59634.9 -104.928 0
0    0    0

196.671 62082.2 0
62082.2 48.4564 0
0    0    0

300.75 62518.3 0
62518.3 211.757 0
0    0    0

261.507 23662.2 0
23662.2 363.868 0
0    0    0

-43.5455 24284.1 0
24284.1 184.563 0
0    0    0

-181.414 39394.9 0
39394.9 -234.17 0
0    0    0

-130.774 34250.2 0
34250.2 -87.298 0
0    0    0

-68.7133 40489.2 0
40489.2 -226.58 0
0    0    0

-81.7784 37338.2 0
37338.2 -232.336 0
0    0    0

-198.001 40904.5 0
40904.5 -267.955 0
0    0    0

-200.821 40735.3 0
40735.3 -190.953 0
0    0    0

-188.813 42128 0
42128 17.0247 0
0    0    0

-191.291 37029.4 0
37029.4 -424.821 0
0    0    0

325.235 35202.7 0
35202.7 76.3 0
0    0    0

-96.3532 39764 0
39764 106.443 0
0    0    0

269.894 6918.88 0
6918.88 332.355 0
0    0    0

-108.317 5811.91 0
5811.91 -284.723 0
0    0    0

194.711 10619 0
10619 219.703 0
0    0    0

-190.718 14285.1 0
14285.1 -188.747 0
0    0    0

-236.205 11826.8 0
11826.8 -368.745 0
0    0    0

68.7217 12583.6 0
12583.6 92.761 0
0    0    0

-242.738 17334.8 0
17334.8 -278.283 0
0    0    0

-127.152 17045.2 0
17045.2 -65.1731 0
0    0    0

155.329 31198.3 0
31198.3 229.215 0
0    0    0

90.0148 31615.5 0
31615.5 150.726 0
0    0    0

154.007 70969.3 0
70969.3 217.901 0
0    0    0

201.31 69684 0
69684 81.4451 0
0    0    0

107.72 49343.8 0
49343.8 130.01 0
0    0    0

175.876 54803.9 0
54803.9 192.484 0
0    0    0

-160.531 56079.5 0
56079.5 10.7829 0
0    0    0

203.926 57397.8 0
57397.8 398.606 0
0    0    0

114.691 86207.4 0
86207.4 361.384 0
0    0    0

58.251 95561.2 0
95561.2 13.3308 0
0    0    0

-22.9851 96157.2 0
96157.2 179.812 0
0    0    0

-14.0292 89186.2 0
89186.2 264.785 0
0    0    0

214.162 53157.7 0
53157.7 250.291 0
0    0    0

131.413 25701.1 0
25701.1 -72.5703 0
0    0    0

-283.195 51093.3 0
51093.3 -188.565 0
0    0    0

178.427 15364.9 0
15364.9 21.2329 0
0    0    0

-272.051 16746.7 0
16746.7 -404.569 0
0    0    0

201.667 35844.5 0
35844.5 163.219 0
0    0    0

-115.941 38767.2 0
38767.2 -150.413 0
0    0    0

-178.043 38845 0
38845 -252.546 0
0    0    0

126.902 38044.9 0
38044.9 285.6 0
0    0    0

-146.709 37267.9 0
37267.9 -331.168 0
0    0    0

281.016 35983.1 0
35983.1 367.191 0
0    0    0

168.047 36600.5 0
36600.5 141.842 0
0    0    0

-270.391 39683.7 0
39683.7 -216.268 0
0    0    0

257.412 77544.9 0
77544.9 252.957 0
0    0    0

-247.664 75486.3 0
75486.3 -414.653 0
0    0    0

-118.276 17661.7 0
17661.7 187.942 0
0    0    0

74.3301 15731.3 0
15731.3 103.454 0
0    0    0

-17.8591 86305.5 0
86305.5 -248.069 0
0    0    0

-207.906 90146.4 0
90146.4 -139.504 0
0    0    0

-138.795 22985.7 0
22985.7 -177.471 0
0    0    0

187.229 23838.7 0
23838.7 314.803 0
0    0    0

45.2203 49921.6 0
49921.6 37.6764 0
0    0    0

115.744 49340.7 0
49340.7 41.0842 0
0    0    0

-207.092 74553.1 0
74553.1 -286.356 0
0    0    0

-11.2227 75406.6 0
75406.6 176.824 0
0    0    0

96.2287 74086.8 0
74086.8 -21.8926 0
0    0    0

209.559 71711.4 0
71711.4 34.0866 0
0    0    0

165.193 28761.2 0
28761.2 118.369 0
0    0    0

145.349 31462.2 0
31462.2 220.825 0
0    0    0

162.294 29679.5 0
29679.5 40.7905 0
0    0    0

-165.256 30852.5 0
30852.5 -142.048 0
0    0    0

-204.133 17040.9 0
17040.9 -100.67 0
0    0    0

233.154 15483.8 0
15483.8 248.557 0
0    0    0

-211.685 68399.8 0
68399.8 -341.944 0
0    0    0

-201.16 68302.9 0
68302.9 -237.921 0
0    0    0

57.6122 74166.8 0
74166.8 377.951 0
0    0    0

121.851 73472.3 0
73472.3 156.113 0
0    0    0

-211.121 70559.1 0
70559.1 24.7424 0
0    0    0

-154.609 66996.8 0
66996.8 -114.007 0
0    0    0

35.9188 65375.5 0
65375.5 280.102 0
0    0    0

110.896 65267.1 0
65267.1 336.979 0
0    0    0

211.423 33307.1 0
33307.1 250.624 0
0    0    0

-114.952 33018.9 0
33018.9 -231.717 0
0    0    0

-70.1753 40916.9 0
40916.9 -179.664 0
0    0    0

4.94628 40312.9 0
40312.9 -103.923 0
0    0    0

-18.3532 48847.8 0
48847.8 -261.898 0
0    0    0

-37.4036 52511.7 0
52511.7 -221.01 0
0    0    0

-72.9387 21342 0
21342 257.42 0
0    0    0

-80.7598 18107 0
18107 -211.341 0
0    0    0

-165.332 47031.5 0
47031.5 -255.384 0
0    0    0

299.262 42958.6 0
42958.6 374.657 0
0    0    0

-217.188 20530.6 0
20530.6 -389.136 0
0    0    0

32.5189 17187.4 0
17187.4 -105.634 0
0    0    0

129.179 10263.6 0
10263.6 349.169 0
0    0    0

73.3303 10986 0
10986 374.03 0
0    0    0

-92.8935 57106.5 0
57106.5 -294.422 0
0    0    0

156.033 55451.7 0
55451.7 312.571 0
0    0    0

112.783 60639.6 0
60639.6 187.965 0
0    0    0

102.909 63105.4 0
63105.4 226.584 0
0    0    0

68.1094 42857 0
42857 21.1537 0
0    0    0

18.1002 46595.5 0
46595.5 -265.693 0
0    0    0

-188.019 68974 0
68974 -395.624 0
0    0    0

-48.0771 64710.4 0
64710.4 -307.801 0
0    0    0

68.383 68806.6 0
68806.6 -290.413 0
0    0    0

-167.334 68464.6 0
68464.6 -107.11 0
0    0    0

-138.897 35221.1 0
35221.1 -218.228 0
0    0    0

-63.0842 30978.5 0
30978.5 -215.451 0
0    0    0

97.9566 61454.8 0
61454.8 -172.589 0
0    0    0

-202.166 61549.7 0
61549.7 -152.659 0
0    0    0

24.7215 61516.9 0
61516.9 -250.263 0
0    0    0

269.516 56063.7 0
56063.7 305.096 0
0    0    0

-55.487 60897.8 0
60897.8 41.5107 0
0    0    0

131.914 64616 0
64616 229.273 0
0    0    0

-161.42 57028.3 0
57028.3 120.944 0
0    0    0

-20.5388 56761.1 0
56761.1 109.54 0
0    0    0

14.7287 55403.4 0
55403.4 288.21 0
0    0    0

216.367 56513.1 0
56513.1 99.6782 0
0    0    0

-227.021 39574.1 0
39574.1 -182.257 0
0    0    0

101.04 36846.8 0
36846.8 60.5615 0
0    0    0

269.929 26750.4 0
26750.4 4.11508 0
0    0    0

-7.61519 31333.1 0
31333.1 96.4121 0
0    0    0

-190.718 32983.7 0
32983.7 -256.785 0
0    0    0

-263.73 36217 0
36217 -123.383 0
0    0    0

226.862 28665.5 0
28665.5 37.6276 0
0    0    0

124.002 33319.7 0
33319.7 -32.173 0
0    0    0

-166.208 32135.5 0
32135.5 151.565 0
0    0    0

-88.926 34066.8 0
34066.8 -71.0816 0
0    0    0

-147.085 53897.3 0
53897.3 -242.048 0
0    0    0

-334.605 58769.1 0
58769.1 -276.951 0
0    0    0

191.665 8806.48 0
8806.48 257.132 0
0    0    0

-123.451 12521.5 0
12521.5 -119.711 0
0    0    0

-39.4754 13387.3 0
13387.3 173.708 0
0    0    0

190.852 14377.6 0
14377.6 136.324 0
0    0    0

171.55 73557.3 0
73557.3 -28.5086 0
0    0    0

-193.942 76852.7 0
76852.7 -549.182 0
0    0    0

-287.698 68672 0
68672 -49.4685 0
0    0    0

-100.507 74492.3 0
74492.3 79.2134 0
0    0    0

51.3013 70366.4 0
70366.4 96.1148 0
0    0    0

213.814 71034.9 0
71034.9 145.458 0
0    0    0

-102.705 66497.7 0
66497.7 -37.1645 0
0    0    0

121.38 70066.1 0
70066.1 -61.2381 0
0    0    0

108.045 74804.8 0
74804.8 345.372 0
0    0    0

-3.04621 77186.8 0
77186.8 191.904 0
0    0    0

212.161 74550.1 0
74550.1 -3.34831 0
0    0    0

115.927 85720.3 0
85720.3 239.698 0
0    0    0

-138.974 88494.4 0
88494.4 -190.059 0
0    0    0

-236.858 83561.6 0
83561.6 -218.8 0
0    0    0

149.683 88037.1 0
88037.1 9.60078 0
0    0    0

43.6318 73228.5 0
73228.5 365.214 0
0    0    0

74.2983 70093.5 0
70093.5 82.7692 0
0    0    0

-223.53 73884.1 0
73884.1 -138.502 0
0    0    0

113.077 69858.6 0
69858.6 -48.9974 0
0    0    0

-212.478 74134.5 0
74134.5 -171.253 0
0    0    0

157.747 74081 0
74081 10.6657 0
0    0    0

-85.1669 73347.4 0
73347.4 -64.1472 0
0    0    0

-167.459 72617.3 0
72617.3 -392.982 0
0    0    0

-183.061 56539.3 0
56539.3 -80.2535 0
0    0    0

-157.489 57351.5 0
57351.5 -269.321 0
0    0    0

-37.6466 49094.6 0
49094.6 -0.361796 0
0    0    0

-265.438 49670.4 0
49670.4 -466.557 0
0    0    0

131.841 29149.5 0
29149.5 128.577 0
0    0    0

209.839 28678.7 0
28678.7 207.988 0
0    0    0

281.863 68072.4 0
68072.4 237.149 0
0    0    0

86.1069 71566.3 0
71566.3 -185.095 0
0    0    0

-50.459 60863.5 0
60863.5 54.8437 0
0    0    0

111.586 67134.5 0
67134.5 -16.8471 0
0    0    0

-230.823 81160.3 0
81160.3 -102.716 0
0    0    0

261.698 82590.3 0
82590.3 180.699 0
0    0    0

-139.992 33295.7 0
33295.7 -350.639 0
0    0    0

-45.6222 34614.3 0
34614.3 77.2571 0
0    0    0

-32.8402 18805 0
18805 -266.32 0
0    0    0

153.299 15448.5 0
15448.5 209.218 0
0    0    0

-32.5437 51474.5 0
51474.5 54.5731 0
0    0    0

99.2767 36239.3 0
36239.3 320.821 0
0    0    0

-23.6302 51882.1 0
51882.1 -49.7438 0
0    0    0

68.965 38543.2 0
38543.2 128.522 0
0    0    0

-95.5471 36068.8 0
36068.8 83.5194 0
0    0    0

187.615 28248.2 0
28248.2 120.575 0
0    0    0

37.3915 29204 0
29204 182.728 0
0    0    0

-247.532 29698.5 0
29698.5 53.8483 0
0    0    0

225.503 30030.6 0
30030.6 318.472 0
0    0    0

-309.993 43336.3 0
43336.3 -252.452 0
0    0    0

-138.574 37869.6 0
37869.6 -314.764 0
0    0    0

261.474 39578.5 0
39578.5 254.794 0
0    0    0

44.6618 42680.6 0
42680.6 -127.106 0
0    0    0

-80.9566 66395.1 0
66395.1 -85.5055 0
0    0    0

6.89628 62773.1 0
62773.1 161.647 0
0    0    0

70.3104 71863 0
71863 -98.4984 0
0    0    0

144.81 65871.7 0
65871.7 207.88 0
0    0    0

250.867 31030.4 0
31030.4 152.535 0
0    0    0

228.154 33436.2 0
33436.2 315.786 0
0    0    0

-23.0754 71757.6 0
71757.6 -275.722 0
0    0    0

122.382 7249.99 0
7249.99 27.8434 0
0    0    0

192.384 73052.6 0
73052.6 219.632 0
0    0    0

-196.992 72832.3 0
72832.3 -143.042 0
0    0    0

32.9323 70402.3 0
70402.3 -90.555 0
0    0    0

-204.223 61206.9 0
61206.9 157.365 0
0    0    0

-76.6372 59968.4 0
59968.4 -361.307 0
0    0    0

220.602 38714.9 0
38714.9 123.114 0
0    0    0

121.464 40406.5 0
40406.5 220.857 0
0    0    0

-24.9587 41047.2 0
41047.2 -145.967 0
0    0    0

-62.5406 40474.7 0
40474.7 -25.6139 0
0    0    0

253.691 42286 0
42286 161.62 0
0    0    0

-45.3819 43236.8 0
43236.8 -272.637 0
0    0    0

60.1426 42522.3 0
42522.3 145.334 0
0    0    0

141.891 45050.9 0
45050.9 4.68667 0
0    0    0

-242.422 40437.4 0
40437.4 -248.467 0
0    0    0

46.2368 37626 0
37626 126.035 0
0    0    0

150.64 41865.4 0
41865.4 74.2189 0
0    0    0

-200.391 39350.4 0
39350.4 -413.035 0
0    0    0

225.355 38885.3 0
38885.3 263.359 0
0    0    0

157.585 39691.7 0
39691.7 140.197 0
0    0    0

195.152 42746.4 0
42746.4 297.425 0
0    0    0

85.0674 45464.7 0
45464.7 -170.683 0
0    0    0

-62.3787 38743.5 0
38743.5 38.4038 0
0    0    0

242.323 34302.8 0
34302.8 279.704 0
0    0    0

244.128 28279.2 0
28279.2 281.941 0
0    0    0

119.558 29560.6 0
29560.6 297.281 0
0    0    0

188.391 42498.8 0
42498.8 7.79661 0
0    0    0

299.631 42940.8 0
42940.8 289.568 0
0    0    0

420.421 62476.1 0
62476.1 323.087 0
0    0    0

-19.1584 61369.8 0
61369.8 -245.455 0
0    0    0

-52.5912 78650 0
78650 -22.5391 0
0    0    0

23.5164 75161 0
75161 396.874 0
0    0    0

-114.373 76071.1 0
76071.1 35.5048 0
0    0    0

211.149 74103.2 0
74103.2 98.063 0
0    0    0

-84.597 54377.7 0
54377.7 26.8566 0
0    0    0

67.1104 33838.1 0
33838.1 177.809 0
0    0    0

254.597 55326 0
55326 443.263 0
0    0    0

-161.041 61425.3 0
61425.3 -366.285 0
0    0    0

-351.595 61865.1 0
61865.1 -431.302 0
0    0    0

161.163 55698.3 0
55698.3 11.9757 0
0    0    0

139.838 51900.3 0
51900.3 138.539 0
0    0    0

-93.1695 55797.8 0
55797.8 -415.064 0
0    0    0

-48.7337 55621.4 0
55621.4 149.751 0
0    0    0

-95.4425 49599 0
49599 1.49081 0
0    0    0

-86.356 52485.6 0
52485.6 152.574 0
0    0    0

115.899 55768.9 0
55768.9 -106.755 0
0    0    0

351.534 61880.6 0
61880.6 613.402 0
0    0    0

-90.023 86100.1 0
86100.1 159.332 0
0    0    0

-225.742 89583.9 0
89583.9 -216.345 0
0    0    0

334.768 10571.9 0
10571.9 344.8 0
0    0    0

-255.059 8021.67 0
8021.67 -217.234 0
0    0    0

46.335 44909.3 0
44909.3 -146.772 0
0    0    0

69.5858 5052.28 0
5052.28 -73.1572 0
0    0    0

102.263 44898.4 0
44898.4 183.287 0
0    0    0

145.861 60749 0
60749 141.824 0
0    0    0

-230.251 59565.2 0
59565.2 -88.5922 0
0    0    0

-58.6595 54673.8 0
54673.8 -118.937 0
0    0    0

-41.8675 55360.3 0
55360.3 121.723 0
0    0    0

-124.391 73063.5 0
73063.5 -5.25798 0
0    0    0

109.393 68935.3 0
68935.3 81.5138 0
0    0    0

-170.376 72462.1 0
72462.1 -28.5592 0
0    0    0

143.428 73952.3 0
73952.3 61.1719 0
0    0    0

31.4755 32478.1 0
32478.1 129.41 0
0    0    0

131.489 37785.7 0
37785.7 -174.708 0
0    0    0

-176.422 62354.7 0
62354.7 -185.339 0
0    0    0

-7.95488 59341.3 0
59341.3 -319.662 0
0    0    0

-316.008 36418.7 0
36418.7 -332.292 0
0    0    0

-215.625 34349.8 0
34349.8 -281.841 0
0    0    0

-111.155 63886.1 0
63886.1 -322.049 0
0    0    0

-10.8294 63709 0
63709 212.581 0
0    0    0

-129.831 69761.7 0
69761.7 -57.7321 0
0    0    0

-60.2604 69088.4 0
69088.4 16.2016 0
0    0    0

-322.366 54704.3 0
54704.3 -97.7477 0
0    0    0

179.197 52539.8 0
52539.8 -26.4372 0
0    0    0

247.803 62555.3 0
62555.3 -39.8523 0
0    0    0

247.788 59047.8 0
59047.8 383.151 0
0    0    0

-162.925 50770.4 0
50770.4 -73.7298 0
0    0    0

262.597 43368.5 0
43368.5 317.047 0
0    0    0

-84.4326 52278 0
52278 -247.432 0
0    0    0

61.0961 55223.8 0
55223.8 143.384 0
0    0    0

-111.943 57436.7 0
57436.7 -166.787 0
0    0    0

119.766 30778.5 0
30778.5 342.557 0
0    0    0

68.5699 35622.1 0
35622.1 192.319 0
0    0    0

-349.642 56588.8 0
56588.8 -54.9295 0
0    0    0

86.2921 54517.7 0
54517.7 232.735 0
0    0    0

155.266 59773.7 0
59773.7 89.7629 0
0    0    0

-221.315 60681.5 0
60681.5 -159.491 0
0    0    0

9.92655 61708.1 0
61708.1 -263.544 0
0    0    0

-180.284 63523.2 0
63523.2 -84.9978 0
0    0    0

126.649 61168.6 0
61168.6 88.3669 0
0    0    0

-6.58676 59789 0
59789 -247.894 0
0    0    0

98.2081 78707.5 0
78707.5 -99.4204 0
0    0    0

-132.717 50916.8 0
50916.8 -201.377 0
0    0    0

-184.916 79981.4 0
79981.4 -248.883 0
0    0    0

-69.9335 54082.3 0
54082.3 -161.312 0
0    0    0

135.256 50725.2 0
50725.2 -40.285 0
0    0    0

106.866 49034 0
49034 -55.7151 0
0    0    0

145.696 52600.5 0
52600.5 270.284 0
0    0    0

199.342 49603 0
49603 394.756 0
0    0    0

198.823 46847.8 0
46847.8 335.453 0
0    0    0

-141.398 46482.4 0
46482.4 -282.173 0
0    0    0

42.6985 33911.6 0
33911.6 -63.838 0
0    0    0

-144.547 36412.3 0
36412.3 -299.208 0
0    0    0

-106.143 45373.7 0
45373.7 -59.5286 0
0    0    0

242.123 44015.8 0
44015.8 473.201 0
0    0    0

-43.7357 42394.2 0
42394.2 -233.358 0
0    0    0

204.445 45032.7 0
45032.7 394.112 0
0    0    0

-15.0806 43923.4 0
43923.4 -197.19 0
0    0    0

-297.388 58557.9 0
58557.9 -267.433 0
0    0    0

-121.234 55088.1 0
55088.1 150.268 0
0    0    0

280.627 52787 0
52787 52.058 0
0    0    0

-200.719 52110.1 0
52110.1 -201.589 0
0    0    0

-240.005 71735.2 0
71735.2 -170.632 0
0    0    0

-57.1322 68536.8 0
68536.8 -79.2169 0
0    0    0

82.7399 60842.3 0
60842.3 321.688 0
0    0    0

-76.4867 67703 0
67703 -32.78 0
0    0    0

79.3086 18494.5 0
18494.5 -266.108 0
0    0    0

-45.965 17633.1 0
17633.1 235.962 0
0    0    0

27.5664 59559.6 0
59559.6 -208.004 0
0    0    0

-103.633 57296.3 0
57296.3 193.438 0
0    0    0

267.067 30504.9 0
30504.9 159.332 0
0    0    0

-25.0184 32508.6 0
32508.6 -55.5062 0
0    0    0

61.1239 86749.3 0
86749.3 26.196 0
0    0    0

233.101 83359.7 0
83359.7 74.9836 0
0    0    0

280.834 44178.2 0
44178.2 290.001 0
0    0    0

160.875 40449.2 0
40449.2 -100.064 0
0    0    0

250.909 44820.5 0
44820.5 449.689 0
0    0    0

-45.6187 43583.4 0
43583.4 169.069 0
0    0    0

-113.417 45586.8 0
45586.8 -148.604 0
0    0    0

-156.258 45964.5 0
45964.5 -276.402 0
0    0    0

-25.8328 44516.2 0
44516.2 -131.92 0
0    0    0

270.419 44339.8 0
44339.8 308.217 0
0    0    0

-109.196 45770.9 0
45770.9 158.722 0
0    0    0

81.5845 45057.2 0
45057.2 150.846 0
0    0    0

-226.486 45867.8 0
45867.8 -52.4699 0
0    0    0

-134.248 46275.5 0
46275.5 151.447 0
0    0    0

159.992 45359.1 0
45359.1 -78.3245 0
0    0    0

-178.725 46580.9 0
46580.9 60.6075 0
0    0    0

-15.2955 45288.6 0
45288.6 47.8868 0
0    0    0

283.704 46230.2 0
46230.2 46.7009 0
0    0    0

193.55 45049.9 0
45049.9 433.549 0
0    0    0

-82.3317 46602.9 0
46602.9 -264.9 0
0    0    0

-28.3865 46284.7 0
46284.7 68.8171 0
0    0    0

-9.77633 46677.8 0
46677.8 -149.946 0
0    0    0

-58.3526 46136.8 0
46136.8 -85.6145 0
0    0    0

206.829 46128.3 0
46128.3 177.01 0
0    0    0

305.81 45951.5 0
45951.5 301.263 0
0    0    0

239.168 45464.3 0
45464.3 116.309 0
0    0    0

12.1348 45816.8 0
45816.8 -193.258 0
0    0    0

-252.781 45073.2 0
45073.2 -286.104 0
0    0    0

-156.524 45700.9 0
45700.9 -391.79 0
0    0    0

215.195 45279.1 0
45279.1 284.972 0
0    0    0

-145.35 46323.3 0
46323.3 -104.879 0
0    0    0

-288.589 45522.8 0
45522.8 -347.113 0
0    0    0

-237.745 44605.1 0
44605.1 -248.294 0
0    0    0

66.8042 45047.4 0
45047.4 95.638 0
0    0    0

124.691 45040.1 0
45040.1 352.489 0
0    0    0

182.541 44532.7 0
44532.7 46.504 0
0    0    0

193.904 45875.1 0
45875.1 127.021 0
0    0    0

-273.25 44729.7 0
44729.7 -258.806 0
0    0    0

-76.5137 45289.9 0
45289.9 -357.396 0
0    0    0

-221.729 45920.2 0
45920.2 -104.497 0
0    0    0

-61.4135 44378 0
44378 -107.826 0
0    0    0

4.04853 45116.2 0
45116.2 -17.0976 0
0    0    0

287.03 45550.9 0
45550.9 176.648 0
0    0    0

269.465 46142.4 0
46142.4 283.312 0
0    0    0

120.978 43518.8 0
43518.8 5.92499 0
0    0    0

94.6866 45633.1 0
45633.1 163.346 0
0    0    0

-258.034 44834.6 0
44834.6 -284.458 0
0    0    0

-162.772 45080 0
45080 53.549 0
0    0    0

116.728 44662.3 0
44662.3 271.799 0
0    0    0

-71.9424 42181.5 0
42181.5 -174.452 0
0    0    0

-196.021 45546.7 0
45546.7 -280.63 0
0    0    0

-86.0139 45203 0
45203 -120.025 0
0    0    0

26.4903 47892.9 0
47892.9 -61.9394 0
0    0    0

-108.602 46290.6 0
46290.6 -41.4533 0
0    0    0

-199.16 43642.9 0
43642.9 -244.79 0
0    0    0

-17.6902 43867.7 0
43867.7 -238.492 0
0    0    0

255.769 46827.4 0
46827.4 -46.7222 0
0    0    0

125.011 46606.9 0
46606.9 -84.9133 0
0    0    0

263.234 47254.2 0
47254.2 113.901 0
0    0    0

7.55071 47642.1 0
47642.1 207.783 0
0    0    0

-195.023 46965.7 0
46965.7 16.6411 0
0    0    0

-95.3909 47404.8 0
47404.8 -212.01 0
0    0    0

-225.75 47587.8 0
47587.8 -168.418 0
0    0    0

-191.287 47459.9 0
47459.9 115.776 0
0    0    0

-11.4161 48935.7 0
48935.7 -108.491 0
0    0    0

63.24 46930.3 0
46930.3 -362.594 0
0    0    0

109.065 47157.6 0
47157.6 -33.2664 0
0    0    0

-6.81964 47187.1 0
47187.1 223.974 0
0    0    0

249.969 47321.9 0
47321.9 294.083 0
0    0    0

-32.6895 46706.7 0
46706.7 165.643 0
0    0    0

-33.0629 44851.5 0
44851.5 165.889 0
0    0    0

20.1618 46244.3 0
46244.3 -151.562 0
0    0    0

-75.0451 44531 0
44531 -74.8329 0
0    0    0

43.1749 46072.7 0
46072.7 482.112 0
0    0    0

22.4054 45930.4 0
45930.4 -170.167 0
0    0    0

-2.26676 45522.4 0
45522.4 -107.102 0
0    0    0

-96.7735 44391.1 0
44391.1 7.24631 0
0    0    0

-81.9615 44527.5 0
44527.5 -85.185 0
0    0    0

-218.154 43357.1 0
43357.1 -320.198 0
0    0    0

-33.8868 44199.5 0
44199.5 258.759 0
0    0    0

197.97 44583.1 0
44583.1 113.323 0
0    0    0

-55.803 43358.7 0
43358.7 -279.43 0
0    0    0

167.904 43807 0
43807 277.497 0
0    0    0

-30.9938 43944.4 0
43944.4 -146.05 0
0    0    0

-225.782 44611.8 0
44611.8 -386.046 0
0    0    0

247.339 44349.9 0
44349.9 152.019 0
0    0    0

-219.794 47134.3 0
47134.3 -162.979 0
0    0    0

120.44 46521.4 0
46521.4 92.8085 0
0    0    0

-228.035 47686 0
47686 -171.831 0
0    0    0

-30.7967 46964.2 0
46964.2 -208.399 0
0    0    0

167.676 46332.6 0
46332.6 57.124 0
0    0    0

-205.377 47662.1 0
47662.1 -256.027 0
0    0    0

194.249 47942.5 0
47942.5 179.204 0
0    0    0

18.9362 48852.6 0
48852.6 -363.577 0
0    0    0

63.8305 47283.2 0
47283.2 55.9637 0
0    0    0

176.702 48549 0
48549 367.079 0
0    0    0

206.505 45436.7 0
45436.7 278.331 0
0    0    0

-26.0124 45138.3 0
45138.3 28.3123 0
0    0    0

-143.687 43541.2 0
43541.2 31.2366 0
0    0    0

82.1643 44834.6 0
44834.6 430.262 0
0    0    0

-234.66 46689.9 0
46689.9 -138.032 0
0    0    0

-142.586 47762.8 0
47762.8 -331.308 0
0    0    0

154.398 47836.4 0
47836.4 299.023 0
0    0    0

-99.2283 47794.1 0
47794.1 174.799 0
0    0    0

-262.041 47056.2 0
47056.2 -132.484 0
0    0    0

315.37 47234.4 0
47234.4 376.252 0
0    0    0

-167.289 45602.3 0
45602.3 -358.211 0
0    0    0

-164.176 45968.3 0
45968.3 -403.254 0
0    0    0

117.793 46672.7 0
46672.7 46.4728 0
0    0    0

202.313 47441.1 0
47441.1 233.76 0
0    0    0

-184.959 46440 0
46440 17.0747 0
0    0    0

272.192 46867.4 0
46867.4 182.393 0
0    0    0

252.231 46518.2 0
46518.2 20.5035 0
0    0    0

-145.094 49934 0
49934 95.8426 0
0    0    0

-57.4614 46048.1 0
46048.1 -34.4747 0
0    0    0

-386.211 46114 0
46114 -249.04 0
0    0    0

162.533 47987.2 0
47987.2 182.975 0
0    0    0

-90.2425 48320.2 0
48320.2 -315.721 0
0    0    0

80.6783 46176.1 0
46176.1 17.8825 0
0    0    0

-96.8447 46220.3 0
46220.3 -82.291 0
0    0    0

60.4072 44004.2 0
44004.2 24.0808 0
0    0    0

-183.14 45096.3 0
45096.3 -309.766 0
0    0    0

-73.7615 46637.5 0
46637.5 -251.02 0
0    0    0

-91.3653 47013.7 0
47013.7 25.9838 0
0    0    0

247.385 45801.9 0
45801.9 130.199 0
0    0    0

213.684 46762.8 0
46762.8 289.957 0
0    0    0

51.6447 46786.6 0
46786.6 234.255 0
0    0    0

-111.97 47784.1 0
47784.1 -347.39 0
0    0    0

-180.997 48415.1 0
48415.1 -13.9732 0
0    0    0

119.433 48626.3 0
48626.3 272.249 0
0    0    0

-191.487 47678.2 0
47678.2 -131.006 0
0    0    0

25.6209 48809 0
48809 230.099 0
0    0    0

-181.327 48366.5 0
48366.5 -303.454 0
0    0    0

-253.908 50182.9 0
50182.9 -219.063 0
0    0    0

-253.975 50627.8 0
50627.8 -238.021 0
0    0    0

-207.2 48281.2 0
48281.2 -253.755 0
0    0    0

-389.253 46784.1 0
46784.1 -554.149 0
0    0    0

-70.3394 47651.2 0
47651.2 -155.863 0
0    0    0

56.1288 47147.7 0
47147.7 -198.789 0
0    0    0

88.6328 47539 0
47539 219.414 0
0    0    0

120.229 51143.3 0
51143.3 233.672 0
0    0    0

-214.825 48093.8 0
48093.8 -52.3569 0
0    0    0

-160.033 48892.2 0
48892.2 -63.1525 0
0    0    0

234.605 48450.9 0
48450.9 153.952 0
0    0    0

60.4977 46569.3 0
46569.3 -177.566 0
0    0    0

124.478 47550.2 0
47550.2 72.5573 0
0    0    0

90.4742 50056.3 0
50056.3 -15.1598 0
0    0    0

-194.526 49373.2 0
49373.2 -125.054 0
0    0    0

136.189 46159.2 0
46159.2 317.969 0
0    0    0

-72.7946 47026.9 0
47026.9 -213.059 0
0    0    0

18.9823 47943.9 0
47943.9 -52.4656 0
0    0    0

-121.5 49041.4 0
49041.4 -118.109 0
0    0    0

-154.608 49224.9 0
49224.9 236.338 0
0    0    0

243.99 49040.3 0
49040.3 247.793 0
0    0    0

-31.6449 49464 0
49464 106.205 0
0    0    0

-272.161 48759.9 0
48759.9 -170.993 0
0    0    0

190.47 49065.4 0
49065.4 285.909 0
0    0    0

205.148 47903 0
47903 362.858 0
0    0    0

-299.412 44565.2 0
44565.2 -287.223 0
0    0    0

216.588 45457.4 0
45457.4 272.639 0
0    0    0

84.8878 47287 0
47287 285.883 0
0    0    0

98.3951 48069.8 0
48069.8 58.9964 0
0    0    0

-74.0755 45960.3 0
45960.3 42.3821 0
0    0    0

258.9 46445.6 0
46445.6 426.87 0
0    0    0

179.28 44178.8 0
44178.8 365.69 0
0    0    0

-218.21 43951.9 0
43951.9 -407.054 0
0    0    0

-326.586 44469.2 0
44469.2 -243.972 0
0    0    0

-126.643 43944 0
43944 -161.705 0
0    0    0

292.842 43353.8 0
43353.8 385.644 0
0    0    0

71.6301 42855.4 0
42855.4 112.933 0
0    0    0

-124.15 43423.3 0
43423.3 -291.624 0
0    0    0

-156.09 43439 0
43439 -325.061 0
0    0    0

-155.173 44652.6 0
44652.6 -92.4425 0
0    0    0

125.363 44185.3 0
44185.3 244.106 0
0    0    0

-252.828 44113.1 0
44113.1 -115.308 0
0    0    0

156.509 44240.3 0
44240.3 -6.04857 0
0    0    0

-76.3208 43322.8 0
43322.8 48.8851 0
0    0    0

340.585 43675.3 0
43675.3 439.875 0
0    0    0

158.604 43215.6 0
43215.6 -285.295 0
0    0    0

-210.191 42936.8 0
42936.8 -142.638 0
0    0    0

233.305 43768.8 0
43768.8 255.188 0
0    0    0

93.0934 42590.6 0
42590.6 83.3616 0
0    0    0

-59.062 42279.9 0
42279.9 -2.04622 0
0    0    0

-93.4426 42940.6 0
42940.6 -34.0307 0
0    0    0

116.746 42811.1 0
42811.1 38.1169 0
0    0    0

81.257 43137.2 0
43137.2 188.235 0
0    0    0

-306.377 42540.8 0
42540.8 -34.6948 0
0    0    0

-220.862 42751.1 0
42751.1 -127.511 0
0    0    0

239.933 43760 0
43760 307.267 0
0    0    0

-295.298 44104.1 0
44104.1 -291.447 0
0    0    0

-171.743 41809 0
41809 -256.809 0
0    0    0

200.448 41155.7 0
41155.7 358.415 0
0    0    0

54.3718 42492.2 0
42492.2 -177.423 0
0    0    0

-45.1323 43555.1 0
43555.1 235.458 0
0    0    0

181.282 41968.9 0
41968.9 -45.6627 0
0    0    0

-159.69 42134.6 0
42134.6 -218.557 0
0    0    0

226.841 42313.6 0
42313.6 219.138 0
0    0    0

-3.81456 43129.7 0
43129.7 189.33 0
0    0    0

72.1975 41779.9 0
41779.9 234.643 0
0    0    0

65.3542 42673.6 0
42673.6 -95.5941 0
0    0    0

-16.1447 42844.6 0
42844.6 160.344 0
0    0    0

133.033 43700.5 0
43700.5 -150.952 0
0    0    0

199.581 43813.6 0
43813.6 231.236 0
0    0    0

0.648158 42923.2 0
42923.2 258.339 0
0    0    0

-180.69 43114 0
43114 -390.358 0
0    0    0

149.622 42512.8 0
42512.8 223.042 0
0    0    0

-93.1383 41182 0
41182 159.716 0
0    0    0

195.55 41774.8 0
41774.8 402.667 0
0    0    0

167.758 41045.3 0
41045.3 324.27 0
0    0    0

-145.923 40795.3 0
40795.3 -66.9086 0
0    0    0

219.824 42168.1 0
42168.1 89.0975 0
0    0    0

-134.224 41348.4 0
41348.4 -249.646 0
0    0    0

241.372 40955.8 0
40955.8 380.683 0
0    0    0

157.637 41748.9 0
41748.9 313.706 0
0    0    0

89.7439 39455 0
39455 32.0658 0
0    0    0

-118.255 41477 0
41477 -341.785 0
0    0    0

133.028 40423.2 0
40423.2 174.961 0
0    0    0

-130.257 40973.4 0
40973.4 -127.622 0
0    0    0

-38.0128 42254.1 0
42254.1 165.543 0
0    0    0

121.976 42371.1 0
42371.1 320.992 0
0    0    0

-63.4265 42405.7 0
42405.7 -151.277 0
0    0    0

-168.249 42534.2 0
42534.2 95.8789 0
0    0    0

49.083 42022.5 0
42022.5 -136.858 0
0    0    0

192.803 42990.1 0
42990.1 135.513 0
0    0    0

-211.107 41132.8 0
41132.8 -47.5991 0
0    0    0

-95.1617 41772.3 0
41772.3 42.8953 0
0    0    0

55.3576 43782.2 0
43782.2 -212.838 0
0    0    0

194.819 44057.1 0
44057.1 -39.5512 0
0    0    0

-20.592 44215.1 0
44215.1 139.964 0
0    0    0

-60.5241 43456.1 0
43456.1 -69.8544 0
0    0    0

-128.103 41716.2 0
41716.2 -242.524 0
0    0    0

175.787 41527.4 0
41527.4 251.922 0
0    0    0

5.94937 42889.7 0
42889.7 -150.592 0
0    0    0

-259.486 43255.6 0
43255.6 -94.6137 0
0    0    0

-129.657 41387.1 0
41387.1 -181.771 0
0    0    0

54.1636 43400.7 0
43400.7 139.077 0
0    0    0

-115.115 43774.4 0
43774.4 -57.6566 0
0    0    0

72.4863 43122.4 0
43122.4 -58.4537 0
0    0    0

125.226 41317.9 0
41317.9 -121.194 0
0    0    0

162.965 42221.7 0
42221.7 -195.409 0
0    0    0

234.983 40348.1 0
40348.1 216.67 0
0    0    0

60.9495 42816.2 0
42816.2 -291.167 0
0    0    0

297.666 41176.2 0
41176.2 279.091 0
0    0    0

-51.6181 40520.5 0
40520.5 279.155 0
0    0    0

-1.98737 42125.9 0
42125.9 254.43 0
0    0    0

0.608959 42600.2 0
42600.2 441.88 0
0    0    0

-166.134 41164.8 0
41164.8 -16.5577 0
0    0    0

101.154 41935.8 0
41935.8 379.685 0
0    0    0

-44.1052 41829.9 0
41829.9 -222.518 0
0    0    0

-71.7287 42093.1 0
42093.1 -155.081 0
0    0    0

133.862 44130.5 0
44130.5 71.9432 0
0    0    0

58.0529 43732.6 0
43732.6 -217.211 0
0    0    0

101.213 43682.2 0
43682.2 74.507 0
0    0    0

-12.2282 43261.8 0
43261.8 119.461 0
0    0    0

195.563 42521.1 0
42521.1 -36.74 0
0    0    0

-181.898 42197.2 0
42197.2 8.60227 0
0    0    0

-180.139 42604.9 0
42604.9 27.5471 0
0    0    0

100.179 41864.9 0
41864.9 193.111 0
0    0    0

151.165 42858.8 0
42858.8 111.09 0
0    0    0

-135.311 42342.2 0
42342.2 -206.428 0
0    0    0

-78.9346 41682.7 0
41682.7 -256.135 0
0    0    0

286.86 41565.6 0
41565.6 170.968 0
0    0    0

-155.426 41357.5 0
41357.5 -252.629 0
0    0    0

-40.3006 40772.5 0
40772.5 -205.34 0
0    0    0

64.7843 41540.4 0
41540.4 188.46 0
0    0    0

-203.282 40633.3 0
40633.3 -490.637 0
0    0    0

93.4746 41020.6 0
41020.6 258.906 0
0    0    0

-15.2535 40263.4 0
40263.4 188.848 0
0    0    0

-90.903 39726.9 0
39726.9 80.0498 0
0    0    0

213.751 40431.5 0
40431.5 163.65 0
0    0    0

-24.5519 39282 0
39282 -122.747 0
0    0    0

-234.827 39673.3 0
39673.3 -214.749 0
0    0    0

113.941 38855.4 0
38855.4 158.592 0
0    0    0

-186.224 39348.3 0
39348.3 -225.147 0
0    0    0

-44.9949 40273.1 0
40273.1 129.823 0
0    0    0

174.615 38872.3 0
38872.3 172.975 0
0    0    0

-193.125 39857.4 0
39857.4 -59.1201 0
0    0    0

-4.22421 40556.5 0
40556.5 39.3884 0
0    0    0

-194.632 43899.4 0
43899.4 -175.446 0
0    0    0

-68.7511 44235.5 0
44235.5 77.4926 0
0    0    0

266.091 43576.9 0
43576.9 206.207 0
0    0    0

-23.1246 44157.2 0
44157.2 155.791 0
0    0    0

-162.629 43403 0
43403 -194.503 0
0    0    0

18.8546 44540.2 0
44540.2 -139.215 0
0    0    0

-168.305 43925.2 0
43925.2 1.35711 0
0    0    0

194.166 43401.8 0
43401.8 39.9548 0
0    0    0

377.797 39283.9 0
39283.9 485.781 0
0    0    0

-233.628 39949.8 0
39949.8 -211.254 0
0    0    0

205.111 41908.3 0
41908.3 277.678 0
0    0    0

-157.823 41744.3 0
41744.3 -70.1074 0
0    0    0

185.666 41056.5 0
41056.5 200.513 0
0    0    0

3.14226 41285.8 0
41285.8 -218.187 0
0    0    0

315.178 41769.8 0
41769.8 227.961 0
0    0    0

180.252 42573.3 0
42573.3 -112.491 0
0    0    0

-395.174 40556.1 0
40556.1 -217.031 0
0    0    0

71.5461 42053 0
42053 170.671 0
0    0    0

-225.903 41997.3 0
41997.3 -252.317 0
0    0    0

-328.248 42320.8 0
42320.8 -78.4952 0
0    0    0

-108.424 37472.1 0
37472.1 82.4893 0
0    0    0

-132.831 39035.7 0
39035.7 204.441 0
0    0    0

-54.7079 39167.6 0
39167.6 -124.192 0
0    0    0

6.36321 39594.9 0
39594.9 -35.4561 0
0    0    0

23.5842 39755.3 0
39755.3 -105.987 0
0    0    0

-18.2054 39932.9 0
39932.9 -124.144 0
0    0    0

-36.1591 40217.3 0
40217.3 -313.5 0
0    0    0

-137.079 40266.7 0
40266.7 -346.867 0
0    0    0

-277.499 40136.4 0
40136.4 -268.771 0
0    0    0

-207.52 40654.5 0
40654.5 -195.487 0
0    0    0

272.095 40885.8 0
40885.8 382.213 0
0    0    0

175.494 40848.1 0
40848.1 178.337 0
0    0    0

164.979 43508.4 0
43508.4 368.167 0
0    0    0

-67.1409 44002.1 0
44002.1 -219.056 0
0    0    0

245.597 45261.6 0
45261.6 89.1651 0
0    0    0

-227.456 45274.3 0
45274.3 -64.5593 0
0    0    0

120.798 38293.6 0
38293.6 147.768 0
0    0    0

156.934 40203.1 0
40203.1 -39.7267 0
0    0    0

89.1685 39662.7 0
39662.7 -59.2945 0
0    0    0

-198.541 38774.5 0
38774.5 53.4601 0
0    0    0

56.5263 40056.5 0
40056.5 289.457 0
0    0    0

94.3071 40106.8 0
40106.8 362.444 0
0    0    0

30.5233 40100.6 0
40100.6 167.851 0
0    0    0

21.0841 40880.8 0
40880.8 292.572 0
0    0    0

-86.7943 43109.9 0
43109.9 135.138 0
0    0    0

42.3052 43755.7 0
43755.7 360.209 0
0    0    0

-298.482 42831.3 0
42831.3 -66.6711 0
0    0    0

32.0716 43280.1 0
43280.1 -139.516 0
0    0    0

-8.96259 43918.8 0
43918.8 -248.28 0
0    0    0

-159.062 46099.8 0
46099.8 -297.995 0
0    0    0

-166.197 43793.8 0
43793.8 -349.569 0
0    0    0

105.684 44808.2 0
44808.2 -39.5438 0
0    0    0

-181.884 44372.9 0
44372.9 -153.297 0
0    0    0

-126.142 44678.9 0
44678.9 -107.224 0
0    0    0

-1.055 43628 0
43628 244.064 0
0    0    0

262.767 44000.8 0
44000.8 313.991 0
0    0    0

252.216 44222.9 0
44222.9 142.98 0
0    0    0

-136.865 45335.9 0
45335.9 -23.5885 0
0    0    0

-96.4285 45710.9 0
45710.9 8.47034 0
0    0    0

114.541 44788.8 0
44788.8 259.831 0
0    0    0

11.2554 45735.3 0
45735.3 -2.60892 0
0    0    0

38.235 45691.9 0
45691.9 -110.787 0
0    0    0

158.786 44404.6 0
44404.6 179.412 0
0    0    0

-236.082 44772.5 0
44772.5 -18.4711 0
0    0    0

479.514 40794.1 0
40794.1 282.292 0
0    0    0

-179.714 40244 0
40244 125.717 0
0    0    0

-134.873 40101 0
40101 -238.187 0
0    0    0

-237.901 38643.6 0
38643.6 -219.293 0
0    0    0

118.649 37772.4 0
37772.4 319.703 0
0    0    0

211.8 38291.2 0
38291.2 340.919 0
0    0    0

41.6593 38776.2 0
38776.2 -288.971 0
0    0    0

-63.4413 38664.9 0
38664.9 -217.136 0
0    0    0

-167.654 40797.7 0
40797.7 -318.385 0
0    0    0

69.5978 40676.1 0
40676.1 -174.34 0
0    0    0

228.575 42405.9 0
42405.9 195.176 0
0    0    0

222.104 42997.5 0
42997.5 202.306 0
0    0    0

-245.62 42179.2 0
42179.2 -401.129 0
0    0    0

12.7314 42214.9 0
42214.9 -459.786 0
0    0    0

123.362 42227.1 0
42227.1 248.566 0
0    0    0

-58.2558 42925.9 0
42925.9 108.71 0
0    0    0

138.907 43226.8 0
43226.8 -117.748 0
0    0    0

-132.14 43305.9 0
43305.9 -304.121 0
0    0    0

-47.9156 43056.3 0
43056.3 345.089 0
0    0    0

94.7184 42639.6 0
42639.6 -213.02 0
0    0    0

128.117 42169.4 0
42169.4 -20.183 0
0    0    0

-147.434 43682.7 0
43682.7 -111.677 0
0    0    0

-138.084 44297.8 0
44297.8 -163.286 0
0    0    0

-16.8336 44659.3 0
44659.3 262.208 0
0    0    0

-30.0644 46365.4 0
46365.4 71.8762 0
0    0    0

-121.016 45673 0
45673 -128.167 0
0    0    0

-334.28 45373.4 0
45373.4 -94.3902 0
0    0    0

-62.7894 44918.8 0
44918.8 178.932 0
0    0    0

-78.7123 39298.3 0
39298.3 -83.4771 0
0    0    0

179.515 38816.1 0
38816.1 198.831 0
0    0    0

-218.815 38091.5 0
38091.5 -191.966 0
0    0    0

110.901 38595.1 0
38595.1 205.951 0
0    0    0

-101.983 42372.7 0
42372.7 -373.391 0
0    0    0

-349.449 44461.4 0
44461.4 -595.288 0
0    0    0

-51.5705 43211.8 0
43211.8 -176.709 0
0    0    0

-221.398 43367.4 0
43367.4 -12.9214 0
0    0    0

-162.702 39942.8 0
39942.8 67.1301 0
0    0    0

-76.939 39227.5 0
39227.5 -37.9436 0
0    0    0

-2.22014 38700.5 0
38700.5 -95.9042 0
0    0    0

115.752 38439.3 0
38439.3 -72.2913 0
0    0    0

10.8976 41654.1 0
41654.1 182.729 0
0    0    0

-347.824 43790.5 0
43790.5 -299.77 0
0    0    0

119.264 43355.8 0
43355.8 89.3304 0
0    0    0

262.077 44065.1 0
44065.1 537.098 0
0    0    0

74.6823 38185.8 0
38185.8 -141.59 0
0    0    0

-17.9325 37568 0
37568 -90.8153 0
0    0    0

-155.267 38093.3 0
38093.3 141.763 0
0    0    0

144.309 36508.5 0
36508.5 223.803 0
0    0    0

202.866 37650.3 0
37650.3 55.0725 0
0    0    0

-137.919 38100.9 0
38100.9 -251.193 0
0    0    0

72.6536 36081.4 0
36081.4 -260.295 0
0    0    0

-157.717 37213.4 0
37213.4 -46.2084 0
0    0    0

-27.6249 37884.2 0
37884.2 194.837 0
0    0    0

-264.686 36987 0
36987 -313.865 0
0    0    0

-145.683 39582.3 0
39582.3 -10.7085 0
0    0    0

24.5553 38465.2 0
38465.2 144.775 0
0    0    0

-230.545 42715.8 0
42715.8 -373.288 0
0    0    0

-107.551 43031.1 0
43031.1 117.833 0
0    0    0

-83.148 42839.2 0
42839.2 125.811 0
0    0    0

120.614 42938.9 0
42938.9 -95.2397 0
0    0    0

-5.29153 42596.5 0
42596.5 53.7022 0
0    0    0

-231.799 43964.4 0
43964.4 -150.697 0
0    0    0

-51.0754 42298.7 0
42298.7 55.562 0
0    0    0

-154.221 42530.8 0
42530.8 -138.477 0
0    0    0

76.1526 42576.8 0
42576.8 -7.94139 0
0    0    0

80.6148 41807.2 0
41807.2 -40.1934 0
0    0    0

-15.1935 42396.9 0
42396.9 -260.707 0
0    0    0

76.9045 41109.7 0
41109.7 277.175 0
0    0    0

-196.518 42470.5 0
42470.5 9.56465 0
0    0    0

214.748 41258.9 0
41258.9 113.16 0
0    0    0

79.9886 39981 0
39981 150.134 0
0    0    0

-47.894 41211.1 0
41211.1 143.121 0
0    0    0

-14.5669 41385.5 0
41385.5 -124.267 0
0    0    0

71.6673 41309.6 0
41309.6 47.9639 0
0    0    0

-28.1537 41153.2 0
41153.2 -47.4504 0
0    0    0

238.977 40592.7 0
40592.7 178.097 0
0    0    0

-168.251 40788.6 0
40788.6 9.06317 0
0    0    0

103.875 41802.1 0
41802.1 198.307 0
0    0    0

-8.16966 41328.4 0
41328.4 134.489 0
0    0    0

-101.961 40673.5 0
40673.5 -182.719 0
0    0    0

227.463 42464.4 0
42464.4 127.287 0
0    0    0

-21.6575 44458 0
44458 262.426 0
0    0    0

98.1637 42381.1 0
42381.1 364.663 0
0    0    0

-138.981 41999.8 0
41999.8 -649.271 0
0    0    0

-183.132 41980.5 0
41980.5 -240.022 0
0    0    0

-245.56 41163.4 0
41163.4 -38.2103 0
0    0    0

-133.757 41999.1 0
41999.1 -285.59 0
0    0    0

432.333 41759.3 0
41759.3 245.22 0
0    0    0

148.328 40192.3 0
40192.3 -71.1393 0
0    0    0

142.894 38555.8 0
38555.8 22.7026 0
0    0    0

-299.065 42742.9 0
42742.9 -249.394 0
0    0    0

138.243 44759.3 0
44759.3 117.583 0
0    0    0

134.826 40898.5 0
40898.5 -24.9399 0
0    0    0

30.832 41489.3 0
41489.3 -78.3402 0
0    0    0

257.992 41745.7 0
41745.7 403.671 0
0    0    0

-148.964 41533.1 0
41533.1 -12.273 0
0    0    0

186.536 41755.6 0
41755.6 232.243 0
0    0    0

44.1426 41033.1 0
41033.1 225.459 0
0    0    0

85.9694 40005.7 0
40005.7 304.525 0
0    0    0

174.442 39757.6 0
39757.6 50.4348 0
0    0    0

85.0009 40386.5 0
40386.5 -22.6141 0
0    0    0

81.3978 38838.7 0
38838.7 270.489 0
0    0    0

-133.757 38910.2 0
38910.2 219.724 0
0    0    0

209.329 39323.6 0
39323.6 136.534 0
0    0    0

18.1413 40465.8 0
40465.8 168.516 0
0    0    0

-91.0148 39679.3 0
39679.3 -264.984 0
0    0    0

-215.524 41081 0
41081 43.6816 0
0    0    0

-53.4103 40447.5 0
40447.5 49.7476 0
0    0    0

-79.2101 40274.4 0
40274.4 -240.352 0
0    0    0

40.969 40598.1 0
40598.1 241.921 0
0    0    0

13.328 39927.6 0
39927.6 -195.349 0
0    0    0

-41.4335 39628.6 0
39628.6 -75.3018 0
0    0    0

125.446 39905 0
39905 51.1228 0
0    0    0

-27.8631 39812.6 0
39812.6 293.069 0
0    0    0

65.5795 40730.9 0
40730.9 -154.842 0
0    0    0

-107.678 41435.6 0
41435.6 -536.288 0
0    0    0

202.268 41729.9 0
41729.9 362.428 0
0    0    0

-42.6269 41410.3 0
41410.3 384.765 0
0    0    0

164.115 42279.6 0
42279.6 265.659 0
0    0    0

230.869 42955.3 0
42955.3 262.917 0
0    0    0

165.551 40846.7 0
40846.7 187.728 0
0    0    0

229.605 41423.1 0
41423.1 132.219 0
0    0    0

-229.388 42109.5 0
42109.5 -238.736 0
0    0    0

-144.518 41603.7 0
41603.7 -63.8819 0
0    0    0

-224.767 38349.5 0
38349.5 -51.6983 0
0    0    0

-155.451 40617.4 0
40617.4 -41.9266 0
0    0    0

123.601 39154.6 0
39154.6 268.249 0
0    0    0

-78.5597 37472.6 0
37472.6 -142.839 0
0    0    0

196.64 39132.4 0
39132.4 -41.5849 0
0    0    0

60.5939 38762.6 0
38762.6 96.1445 0
0    0    0

-136.302 39292.7 0
39292.7 -72.2717 0
0    0    0

83.6898 38432.4 0
38432.4 260.572 0
0    0    0

21.4981 39445.2 0
39445.2 -3.22016 0
0    0    0

-257.617 38984.4 0
38984.4 -483.887 0
0    0    0

-109.966 38143.8 0
38143.8 -343.641 0
0    0    0

-152.622 37763.2 0
37763.2 -134.243 0
0    0    0

-61.4327 37182.7 0
37182.7 -476.194 0
0    0    0

205.902 35299.4 0
35299.4 262.287 0
0    0    0

226.165 37851.8 0
37851.8 353.957 0
0    0    0

-97.3566 39252.2 0
39252.2 -350.456 0
0    0    0

241.32 36720.2 0
36720.2 431.829 0
0    0    0

196.074 37139.7 0
37139.7 48.2898 0
0    0    0

135.032 37869 0
37869 111.12 0
0    0    0

-87.9095 37949.5 0
37949.5 58.5563 0
0    0    0

147.371 38197.3 0
38197.3 2.65842 0
0    0    0

58.9127 38121.2 0
38121.2 -183.99 0
0    0    0

-193.86 39154.2 0
39154.2 -300.919 0
0    0    0

39.2219 39533.1 0
39533.1 216.051 0
0    0    0

-44.8808 39636.7 0
39636.7 105.639 0
0    0    0

-15.1084 39166.1 0
39166.1 119.46 0
0    0    0

-98.3564 39345 0
39345 -335.297 0
0    0    0

-159.972 39447.8 0
39447.8 -330.47 0
0    0    0

-137.942 36942.8 0
36942.8 -52.5443 0
0    0    0

86.0314 37414.9 0
37414.9 218.748 0
0    0    0

176.31 37853.4 0
37853.4 148.048 0
0    0    0

-79.898 37743.8 0
37743.8 -109.084 0
0    0    0

-127.545 38148.1 0
38148.1 -274.434 0
0    0    0

-235.928 38806.8 0
38806.8 92.1179 0
0    0    0

-91.4836 40029.1 0
40029.1 47.7477 0
0    0    0

-100.537 40962.7 0
40962.7 -128.64 0
0    0    0

-300.324 36316.9 0
36316.9 -111.137 0
0    0    0

-53.261 36418.1 0
36418.1 -152.609 0
0    0    0

166.763 38891.4 0
38891.4 314.285 0
0    0    0

-253.137 38708.6 0
38708.6 -223.514 0
0    0    0

-22.3119 37670.2 0
37670.2 -238.892 0
0    0    0

147.03 38397.2 0
38397.2 324.412 0
0    0    0

6.76391 37367.8 0
37367.8 267.53 0
0    0    0

239.124 37289.2 0
37289.2 294.28 0
0    0    0

-52.6082 36684.1 0
36684.1 278.34 0
0    0    0

-92.3567 36535.9 0
36535.9 -200.162 0
0    0    0

-148.531 37013 0
37013 -81.6405 0
0    0    0

-138.208 38322.8 0
38322.8 -25.6126 0
0    0    0

-31.8342 37255.8 0
37255.8 -229.624 0
0    0    0

-404.067 37022.2 0
37022.2 -352.128 0
0    0    0

-201.805 37600.2 0
37600.2 -391.297 0
0    0    0

-130.82 37880.9 0
37880.9 -22.65 0
0    0    0

12.3072 40153.6 0
40153.6 -189.097 0
0    0    0

2.01017 40275.5 0
40275.5 27.6837 0
0    0    0

-240.236 40435.4 0
40435.4 -134.881 0
0    0    0

261.363 40206.8 0
40206.8 30.4639 0
0    0    0

70.7969 39728.6 0
39728.6 -130.771 0
0    0    0

3.4588 40608.9 0
40608.9 -192.051 0
0    0    0

-228.452 38703.6 0
38703.6 -203.761 0
0    0    0

-121.88 39494.1 0
39494.1 136.773 0
0    0    0

142.167 37749.1 0
37749.1 83.2926 0
0    0    0

184.681 38482.2 0
38482.2 -93.4339 0
0    0    0

262.313 37342.8 0
37342.8 187.333 0
0    0    0

-130.049 38669.5 0
38669.5 -129.912 0
0    0    0

151.428 38947.1 0
38947.1 274.759 0
0    0    0

201.804 38969.2 0
38969.2 -102.13 0
0    0    0

-251.751 37723 0
37723 -256.747 0
0    0    0

87.5192 40484.3 0
40484.3 -116.55 0
0    0    0

178.45 38353.9 0
38353.9 218.951 0
0    0    0

-1.04459 39075.1 0
39075.1 -135.416 0
0    0    0

-238.879 37551.6 0
37551.6 -71.2703 0
0    0    0

139.847 37974.4 0
37974.4 281.076 0
0    0    0

95.9072 37102.5 0
37102.5 126.838 0
0    0    0

-344.923 37126 0
37126 -318.124 0
0    0    0

-268.859 37920.1 0
37920.1 67.1389 0
0    0    0

-198.896 39712.3 0
39712.3 76.1592 0
0    0    0

-183.407 36365.7 0
36365.7 -468.479 0
0    0    0

-2.73207 36945 0
36945 -97.7268 0
0    0    0

300.75 36693.1 0
36693.1 267.073 0
0    0    0

-63.4609 37447.1 0
37447.1 -126.475 0
0    0    0

-59.031 36389.1 0
36389.1 -274.581 0
0    0    0

-78.9641 35989.3 0
35989.3 -145.572 0
0    0    0

91.3682 35785 0
35785 334.787 0
0    0    0

214.265 35343.7 0
35343.7 79.1639 0
0    0    0

167.948 35059.2 0
35059.2 43.6787 0
0    0    0

97.5133 35308.4 0
35308.4 -120.772 0
0    0    0

73.859 36593.9 0
36593.9 80.9326 0
0    0    0

-71.7042 35627.8 0
35627.8 158.737 0
0    0    0

103.732 36079.3 0
36079.3 143.292 0
0    0    0

-51.1176 35823.5 0
35823.5 -302.259 0
0    0    0

50.0302 36739 0
36739 90.5616 0
0    0    0

230.388 37040.9 0
37040.9 98.1478 0
0    0    0

219.304 36314.3 0
36314.3 365.504 0
0    0    0

-165.636 36731.4 0
36731.4 -9.26769 0
0    0    0

-125.835 36178.2 0
36178.2 137.309 0
0    0    0

-221.504 36591.1 0
36591.1 -183.139 0
0    0    0

-43.2866 35201.2 0
35201.2 173.751 0
0    0    0

181.337 36546.3 0
36546.3 -104.441 0
0    0    0

18.4218 36524.9 0
36524.9 160.357 0
0    0    0

-8.4567 36934.9 0
36934.9 38.0361 0
0    0    0

281.999 36066.7 0
36066.7 262.809 0
0    0    0

-110.774 36485.3 0
36485.3 -215.802 0
0    0    0

-228.88 34433.5 0
34433.5 -457.034 0
0    0    0

251.865 35459.5 0
35459.5 -26.1432 0
0    0    0

-166.097 35154.9 0
35154.9 -94.0346 0
0    0    0

83.5867 35686.3 0
35686.3 327.929 0
0    0    0

166.807 34644.5 0
34644.5 62.8686 0
0    0    0

-157.718 34609.6 0
34609.6 -374.117 0
0    0    0

113.713 38084.6 0
38084.6 -30.6846 0
0    0    0

296.636 37481.2 0
37481.2 164.545 0
0    0    0

-234.996 37226.4 0
37226.4 -82.6138 0
0    0    0

-65.7566 37956.3 0
37956.3 -267.816 0
0    0    0

-84.7281 35394.7 0
35394.7 -106.141 0
0    0    0

-240.564 35887.4 0
35887.4 -160.155 0
0    0    0

180.612 34578 0
34578 252.955 0
0    0    0

117.95 34099.8 0
34099.8 221.333 0
0    0    0

-83.923 35041.9 0
35041.9 301.841 0
0    0    0

-266.135 36088.6 0
36088.6 -317.128 0
0    0    0

53.5918 36265.5 0
36265.5 -98.3996 0
0    0    0

246.001 36170.1 0
36170.1 -20.8642 0
0    0    0

-179.123 35880.4 0
35880.4 -27.4989 0
0    0    0

-101.639 35990.2 0
35990.2 -117.822 0
0    0    0

21.0577 35926.9 0
35926.9 -81.6886 0
0    0    0

45.1507 35405 0
35405 -253.513 0
0    0    0

-65.0165 34923.9 0
34923.9 -97.7978 0
0    0    0

164.308 34177.7 0
34177.7 275.103 0
0    0    0

2.27992 34410.2 0
34410.2 62.882 0
0    0    0

-93.2646 35728.6 0
35728.6 238.336 0
0    0    0

219.719 36748.6 0
36748.6 14.1334 0
0    0    0

-260.423 37550 0
37550 -238.235 0
0    0    0

-127.708 35272.9 0
35272.9 198.348 0
0    0    0

109.22 34164.7 0
34164.7 349.528 0
0    0    0

-196.309 34621.1 0
34621.1 -121.784 0
0    0    0

-63.9107 33839.2 0
33839.2 -354.513 0
0    0    0

-214.687 33334.6 0
33334.6 -194.287 0
0    0    0

-156.491 33370.7 0
33370.7 -353.543 0
0    0    0

83.1082 34677.5 0
34677.5 273.94 0
0    0    0

104.349 34376.5 0
34376.5 -9.93928 0
0    0    0

-227.788 35487 0
35487 -240.187 0
0    0    0

-144.504 34719.9 0
34719.9 -7.49835 0
0    0    0

33.094 33777.4 0
33777.4 319.491 0
0    0    0

-82.9038 34262.5 0
34262.5 -122.412 0
0    0    0

113.194 35018.7 0
35018.7 207.74 0
0    0    0

98.7007 35100 0
35100 328.533 0
0    0    0

-116.607 34867.9 0
34867.9 -254.438 0
0    0    0

-234.586 35454.6 0
35454.6 -351.289 0
0    0    0

201.94 34322.3 0
34322.3 316.99 0
0    0    0

-143.012 34397.4 0
34397.4 -194.538 0
0    0    0

-114.15 33577.6 0
33577.6 150.331 0
0    0    0

-58.8443 34854.9 0
34854.9 -174.681 0
0    0    0

135.037 33269.7 0
33269.7 -29.3223 0
0    0    0

16.2837 34543.6 0
34543.6 216.323 0
0    0    0

-8.21133 34147.2 0
34147.2 -265.409 0
0    0    0

-67.8971 34800.9 0
34800.9 -320.135 0
0    0    0

303.517 35700.4 0
35700.4 199.637 0
0    0    0

111.365 35473.7 0
35473.7 84.3603 0
0    0    0

-2.76121 33726.6 0
33726.6 -256.672 0
0    0    0

27.3196 33976.4 0
33976.4 206.362 0
0    0    0

2.26838 33803.6 0
33803.6 -248.501 0
0    0    0

-194.918 32810.4 0
32810.4 -326.551 0
0    0    0

32.2246 33861.2 0
33861.2 -241.707 0
0    0    0

-333.885 35463.9 0
35463.9 -228.784 0
0    0    0

23.6698 34504.1 0
34504.1 186.776 0
0    0    0

-316.001 34835.1 0
34835.1 -179.733 0
0    0    0

63.4904 33937.1 0
33937.1 37.0643 0
0    0    0

167.025 34467.2 0
34467.2 116.157 0
0    0    0

-41.6684 32214.4 0
32214.4 116.127 0
0    0    0

-45.5842 30320.1 0
30320.1 75.2502 0
0    0    0

-39.486 33556.6 0
33556.6 -17.9264 0
0    0    0

298.942 30093.8 0
30093.8 356.364 0
0    0    0

404.135 35722.6 0
35722.6 317.11 0
0    0    0

74.5754 35265.3 0
35265.3 71.0931 0
0    0    0

48.8526 34393.3 0
34393.3 118.031 0
0    0    0

-153.438 35146.1 0
35146.1 105.878 0
0    0    0

-119.647 35373.8 0
35373.8 -446.755 0
0    0    0

100.146 35361.6 0
35361.6 -143.305 0
0    0    0

119.99 35187.8 0
35187.8 -208.763 0
0    0    0

175.775 36834.5 0
36834.5 34.9723 0
0    0    0

214.105 33519.1 0
33519.1 245.177 0
0    0    0

221.701 33103.7 0
33103.7 142.753 0
0    0    0

-5.36697 34206.9 0
34206.9 292.394 0
0    0    0

-278.003 33167 0
33167 -210.518 0
0    0    0

-87.7707 31868.8 0
31868.8 28.9079 0
0    0    0

34.0491 33239.7 0
33239.7 165.76 0
0    0    0

-145.52 35071.5 0
35071.5 -263.547 0
0    0    0

179.684 34028.4 0
34028.4 316.862 0
0    0    0

36.1912 33540.9 0
33540.9 -73.4948 0
0    0    0

-20.1652 33434.6 0
33434.6 -343.907 0
0    0    0

142.441 33203.3 0
33203.3 414.295 0
0    0    0

97.0939 34092 0
34092 270.576 0
0    0    0

160.359 36069.7 0
36069.7 321.485 0
0    0    0

-152.399 32963.6 0
32963.6 -180.445 0
0    0    0

-63.0076 32323.7 0
32323.7 126.405 0
0    0    0

-224.305 33009.7 0
33009.7 -387.688 0
0    0    0

-1.90582 33008.9 0
33008.9 -233.755 0
0    0    0

177.543 32134.2 0
32134.2 152.728 0
0    0    0

146.813 30835.5 0
30835.5 -128.116 0
0    0    0

235.665 32705.2 0
32705.2 329.823 0
0    0    0

-44.4232 32676 0
32676 35.6935 0
0    0    0

10.0634 32323.6 0
32323.6 -24.806 0
0    0    0

150.324 31392.5 0
31392.5 398.76 0
0    0    0

273.584 32700.3 0
32700.3 298.281 0
0    0    0

154.429 32730.6 0
32730.6 221.533 0
0    0    0

231.212 32678.9 0
32678.9 161.117 0
0    0    0

268.666 32520.9 0
32520.9 287.63 0
0    0    0

-11.9885 32171.2 0
32171.2 -40.1247 0
0    0    0

252.301 30082.9 0
30082.9 376.874 0
0    0    0

-117.065 30529.2 0
30529.2 -346.701 0
0    0    0

-139.207 32951.4 0
32951.4 -151.963 0
0    0    0

226.547 32275.6 0
32275.6 211.362 0
0    0    0

-15.7299 31678.1 0
31678.1 -106.18 0
0    0    0

9.26384 32000.5 0
32000.5 201.559 0
0    0    0

-150.731 31738.5 0
31738.5 -161.015 0
0    0    0

-230.523 31835.9 0
31835.9 -364.266 0
0    0    0

239.064 31053.7 0
31053.7 -33.0771 0
0    0    0

-111.476 30584.7 0
30584.7 27.1933 0
0    0    0

248.948 33145.3 0
33145.3 19.1028 0
0    0    0

117.355 33719.2 0
33719.2 413.988 0
0    0    0

275.551 34795.4 0
34795.4 227.382 0
0    0    0

-168.94 34205.4 0
34205.4 4.38835 0
0    0    0

154.212 35898.2 0
35898.2 -4.6428 0
0    0    0

-51.613 34359.2 0
34359.2 119.246 0
0    0    0

-18.4618 31677.9 0
31677.9 198.054 0
0    0    0

-83.0834 31636.1 0
31636.1 -259.228 0
0    0    0

-72.8056 31373.6 0
31373.6 236.282 0
0    0    0

126.119 31951.9 0
31951.9 -153.343 0
0    0    0

-333.162 35210.6 0
35210.6 -211.01 0
0    0    0

-86.1518 35714.7 0
35714.7 -213.287 0
0    0    0

-192.298 34086.1 0
34086.1 -60.0875 0
0    0    0

-148.758 33149.4 0
33149.4 -86.4862 0
0    0    0

204.198 36504.2 0
36504.2 61.1552 0
0    0    0

-85.9134 35711.5 0
35711.5 -72.157 0
0    0    0

211.272 37892 0
37892 233.48 0
0    0    0

109.852 36095.8 0
36095.8 27.5069 0
0    0    0

-163.838 37212.2 0
37212.2 152.044 0
0    0    0

-184.396 35053.5 0
35053.5 -332.609 0
0    0    0

162.293 36843.4 0
36843.4 318.886 0
0    0    0

-63.3175 34543.9 0
34543.9 -263.695 0
0    0    0

-202.058 37319.4 0
37319.4 -359.002 0
0    0    0

-284.883 36355 0
36355 -465.84 0
0    0    0

121.633 38569.4 0
38569.4 224.076 0
0    0    0

-120.583 37763.6 0
37763.6 -272.234 0
0    0    0

147.545 35037.2 0
35037.2 -247.184 0
0    0    0

1.10003 35616.4 0
35616.4 -212.703 0
0    0    0

27.1443 34404.2 0
34404.2 -301.491 0
0    0    0

6.22085 33827.2 0
33827.2 117.444 0
0    0    0

-99.5389 34490.6 0
34490.6 -358.553 0
0    0    0

136.434 33922.3 0
33922.3 26.3718 0
0    0    0

14.1419 34306.6 0
34306.6 298.343 0
0    0    0

10.4376 33806.8 0
33806.8 145.927 0
0    0    0

170.645 34236.8 0
34236.8 277.121 0
0    0    0

-108.661 33387.4 0
33387.4 -202.732 0
0    0    0

-231.585 32820 0
32820 -280.98 0
0    0    0

-100.427 33620.1 0
33620.1 2.194 0
0    0    0

-123.189 31862.9 0
31862.9 -100.153 0
0    0    0

66.9038 33024 0
33024 25.8409 0
0    0    0

-132.15 32542.2 0
32542.2 -100.294 0
0    0    0

-143.288 32841.2 0
32841.2 107.092 0
0    0    0

158.054 33596.1 0
33596.1 -84.571 0
0    0    0

204.451 32671.2 0
32671.2 114.953 0
0    0    0

160.563 30477.9 0
30477.9 236.784 0
0    0    0

226.009 31621.6 0
31621.6 165.558 0
0    0    0

-146.279 33473.5 0
33473.5 -126.175 0
0    0    0

55.9706 33848.3 0
33848.3 -138.035 0
0    0    0

-212.77 31894.3 0
31894.3 -303.27 0
0    0    0

-98.1867 31777.6 0
31777.6 -258.147 0
0    0    0

12.5388 34107.7 0
34107.7 -230.381 0
0    0    0

180.471 32993.4 0
32993.4 182.845 0
0    0    0

-36.6954 37525.1 0
37525.1 -121.592 0
0    0    0

-295.894 37057.6 0
37057.6 -387.129 0
0    0    0

-268.215 38934.3 0
38934.3 -236.203 0
0    0    0

195.378 37384.3 0
37384.3 219.803 0
0    0    0

-188.261 39395 0
39395 -82.2162 0
0    0    0

54.7888 37414.6 0
37414.6 265.85 0
0    0    0

-167.353 38298.3 0
38298.3 -194.866 0
0    0    0

68.5562 37585.5 0
37585.5 -17.3686 0
0    0    0

-133.313 38155.2 0
38155.2 61.6972 0
0    0    0

223.166 37979.5 0
37979.5 259.986 0
0    0    0

85.3754 37553.7 0
37553.7 94.5223 0
0    0    0

-197.858 36618.2 0
36618.2 -129.338 0
0    0    0

176.547 34701.6 0
34701.6 299.66 0
0    0    0

-83.5981 35654.7 0
35654.7 -165.114 0
0    0    0

-61.9693 33560.5 0
33560.5 164.905 0
0    0    0

164.227 33096.1 0
33096.1 157.372 0
0    0    0

-17.5471 30988.8 0
30988.8 21.7161 0
0    0    0

-268.615 32675.7 0
32675.7 -210.798 0
0    0    0

102.094 32362.2 0
32362.2 -86.6877 0
0    0    0

-231.291 32507.2 0
32507.2 -235.804 0
0    0    0

174.979 32191.1 0
32191.1 151.493 0
0    0    0

282.286 32937.8 0
32937.8 232.81 0
0    0    0

-275.54 31884.1 0
31884.1 -169.269 0
0    0    0

-307.685 32547.9 0
32547.9 -194.428 0
0    0    0

262.675 33836.2 0
33836.2 454.233 0
0    0    0

123.774 33377.9 0
33377.9 22.2328 0
0    0    0

162.9 39118.1 0
39118.1 160.564 0
0    0    0

66.7964 38804.4 0
38804.4 -30.4935 0
0    0    0

-148.266 35152.3 0
35152.3 -110.179 0
0    0    0

-56.3442 35901.1 0
35901.1 244.494 0
0    0    0

200.544 36406.7 0
36406.7 29.1644 0
0    0    0

-194.788 35023.7 0
35023.7 -228.881 0
0    0    0

146.151 31229.6 0
31229.6 -67.937 0
0    0    0

170.343 32066 0
32066 252.045 0
0    0    0

80.348 30031.8 0
30031.8 -143.817 0
0    0    0

-31.6869 31479.5 0
31479.5 230.414 0
0    0    0

-25.4423 31882.5 0
31882.5 101.368 0
0    0    0

-225.993 30655.2 0
30655.2 -188.251 0
0    0    0

100.201 31493 0
31493 247.716 0
0    0    0

-19.7086 31296.6 0
31296.6 -162.178 0
0    0    0

88.7993 32523.4 0
32523.4 197.292 0
0    0    0

-131.243 32261.1 0
32261.1 -163.498 0
0    0    0

-110.824 34544.8 0
34544.8 130.796 0
0    0    0

-178.597 33635.8 0
33635.8 -198.517 0
0    0    0

-140.425 33373.5 0
33373.5 76.7582 0
0    0    0

221.129 32375.4 0
32375.4 250.2 0
0    0    0

-187.091 33209.4 0
33209.4 -162.838 0
0    0    0

-195.01 31072.8 0
31072.8 -161.115 0
0    0    0

68.4397 33656.8 0
33656.8 195.692 0
0    0    0

260.594 31782.2 0
31782.2 82.3322 0
0    0    0

220.425 36050.6 0
36050.6 309.511 0
0    0    0

213.94 33804.4 0
33804.4 246.329 0
0    0    0

309.122 35297.7 0
35297.7 255.816 0
0    0    0

-446.697 35645.3 0
35645.3 -422.312 0
0    0    0

-13.763 34797.1 0
34797.1 61.0406 0
0    0    0

176.65 34272.4 0
34272.4 63.1665 0
0    0    0

160.238 31782.2 0
31782.2 81.0391 0
0    0    0

95.4854 31716 0
31716 -257.187 0
0    0    0

-206.723 32055.7 0
32055.7 -163.573 0
0    0    0

-181.861 31473.8 0
31473.8 -124.019 0
0    0    0

-194.319 31355.1 0
31355.1 -239.459 0
0    0    0

9.20497 30548.1 0
30548.1 -104.409 0
0    0    0

99.4093 34754.2 0
34754.2 173.348 0
0    0    0

170.023 34644.3 0
34644.3 143.506 0
0    0    0

23.67 35425.5 0
35425.5 165.44 0
0    0    0

95.116 37003.8 0
37003.8 -67.8875 0
0    0    0

-23.1292 33953.5 0
33953.5 -238.697 0
0    0    0

-256.663 34047.7 0
34047.7 -342.339 0
0    0    0

-25.6765 34865.6 0
34865.6 -310.698 0
0    0    0

-135.784 35028 0
35028 118.28 0
0    0    0

-234.536 35086.8 0
35086.8 -62.7342 0
0    0    0

-38.5126 33082.5 0
33082.5 76.2313 0
0    0    0

330.644 35984.6 0
35984.6 450.078 0
0    0    0

68.1535 35033.5 0
35033.5 -84.1535 0
0    0    0

40.6416 35204.6 0
35204.6 299.835 0
0    0    0

-155.21 36232.1 0
36232.1 -358.484 0
0    0    0

-209.376 29047.2 0
29047.2 -258.183 0
0    0    0

-152.803 29401.5 0
29401.5 19.3701 0
0    0    0

162.289 29744.1 0
29744.1 77.5752 0
0    0    0

98.4528 30951.3 0
30951.3 68.915 0
0    0    0

233.465 27990.2 0
27990.2 140.039 0
0    0    0

302.459 29206.2 0
29206.2 213.243 0
0    0    0

190.694 29415.7 0
29415.7 306.508 0
0    0    0

60.5201 30507.5 0
30507.5 -155.19 0
0    0    0

265.049 32953.1 0
32953.1 214.484 0
0    0    0

174.226 33607.8 0
33607.8 277.683 0
0    0    0

-245.861 34259.1 0
34259.1 -190.834 0
0    0    0

220.938 33130.5 0
33130.5 -63.2171 0
0    0    0

88.7567 33418.1 0
33418.1 177.62 0
0    0    0

-99.9836 33300.1 0
33300.1 168.648 0
0    0    0

33.7925 33904 0
33904 49.1174 0
0    0    0

-152.261 32971.5 0
32971.5 -389.799 0
0    0    0

-87.4468 36228.4 0
36228.4 -228.792 0
0    0    0

93.9401 35922 0
35922 445.37 0
0    0    0

-53.6709 36953.4 0
36953.4 170.685 0
0    0    0

234.199 36806.8 0
36806.8 464.063 0
0    0    0

-45.2825 35465.8 0
35465.8 -194.977 0
0    0    0

140.626 35156.1 0
35156.1 98.0382 0
0    0    0

175.536 31050.7 0
31050.7 212.841 0
0    0    0

-183.392 30288.9 0
30288.9 -272.909 0
0    0    0

-240.861 32362.4 0
32362.4 -112.448 0
0    0    0

-95.6674 30824 0
30824 -207.119 0
0    0    0

15.2645 34496.5 0
34496.5 115.801 0
0    0    0

-255.568 33621.5 0
33621.5 -417.811 0
0    0    0

-96.0959 30893.5 0
30893.5 -172.069 0
0    0    0

136.042 30994.8 0
30994.8 242.789 0
0    0    0

76.8838 30763.9 0
30763.9 -227.557 0
0    0    0

-240.421 31337.3 0
31337.3 -335.687 0
0    0    0

121.728 31593.4 0
31593.4 244.179 0
0    0    0

238.9 32093.9 0
32093.9 244.792 0
0    0    0

216.557 32533.9 0
32533.9 185.756 0
0    0    0

140.804 31585.4 0
31585.4 302.659 0
0    0    0

-164.13 32517.1 0
32517.1 -94.7685 0
0    0    0

138.513 31950.7 0
31950.7 60.3943 0
0    0    0

112.007 32704 0
32704 -42.7476 0
0    0    0

-169.477 32198.7 0
32198.7 -35.9526 0
0    0    0

-198.027 32850.1 0
32850.1 -251.062 0
0    0    0

185.011 32028.8 0
32028.8 140.699 0
0    0    0

119.386 33160.2 0
33160.2 -49.589 0
0    0    0

-103.674 32682.3 0
32682.3 -291.852 0
0    0    0

134.363 32575.5 0
32575.5 6.36416 0
0    0    0

-134.06 31840.6 0
31840.6 105.643 0
0    0    0

-169.548 31823.2 0
31823.2 -74.1448 0
0    0    0

145.519 32356.4 0
32356.4 178.767 0
0    0    0

190.688 31402.6 0
31402.6 114.165 0
0    0    0

127.82 30419.6 0
30419.6 114.022 0
0    0    0

-220.866 32197.8 0
32197.8 -85.6808 0
0    0    0

44.7911 31752.6 0
31752.6 22.8905 0
0    0    0

-37.1828 32888 0
32888 -230.124 0
0    0    0

-189.935 32260.8 0
32260.8 -299.633 0
0    0    0

-59.9772 31603.6 0
31603.6 -251.372 0
0    0    0

112.584 31219 0
31219 226.595 0
0    0    0

-311.319 31595.6 0
31595.6 -150.758 0
0    0    0

362.439 30794.5 0
30794.5 179.879 0
0    0    0

-112.817 31308.3 0
31308.3 -200.637 0
0    0    0

207.111 30937.9 0
30937.9 201.023 0
0    0    0

-262.962 31234.6 0
31234.6 -207.294 0
0    0    0

-186.459 30546.5 0
30546.5 -98.4847 0
0    0    0

128.801 32097.4 0
32097.4 134.417 0
0    0    0

183.833 31222.4 0
31222.4 181.193 0
0    0    0

111.203 31974.6 0
31974.6 296.285 0
0    0    0

152.591 31430.9 0
31430.9 225.009 0
0    0    0

-245.088 32496.3 0
32496.3 -310.908 0
0    0    0

272.581 31204.6 0
31204.6 -111.949 0
0    0    0

132.82 32296.2 0
32296.2 -31.6847 0
0    0    0

-221.652 31728.6 0
31728.6 -420.311 0
0    0    0

182.817 45533.8 0
45533.8 196.369 0
0    0    0

99.3503 45324.8 0
45324.8 -86.3326 0
0    0    0

78.6295 45805.7 0
45805.7 -28.0685 0
0    0    0

-103.129 45982 0
45982 306.473 0
0    0    0

-196.177 46021.9 0
46021.9 -210.245 0
0    0    0

186.352 44711.1 0
44711.1 231.129 0
0    0    0

-227.215 44116.6 0
44116.6 -280.819 0
0    0    0

262.215 44104.2 0
44104.2 223.103 0
0    0    0

-83.0131 44942.2 0
44942.2 26.1117 0
0    0    0

-178.601 44355 0
44355 -167.155 0
0    0    0

81.1265 44814.1 0
44814.1 -10.4307 0
0    0    0

170.368 45632.9 0
45632.9 70.0633 0
0    0    0

-133.017 52112.7 0
52112.7 -201.175 0
0    0    0

245.044 49779 0
49779 493.943 0
0    0    0

-268.807 47258.1 0
47258.1 -150.562 0
0    0    0

-270.564 49191.2 0
49191.2 -337.887 0
0    0    0

139.34 48535.9 0
48535.9 74.297 0
0    0    0

77.9004 48377.8 0
48377.8 -22.7349 0
0    0    0

44.9591 48597.8 0
48597.8 305.209 0
0    0    0

187.1 48069.1 0
48069.1 50.3278 0
0    0    0

-95.3322 47970.5 0
47970.5 -108.505 0
0    0    0

104.876 48628.8 0
48628.8 306.236 0
0    0    0

160.058 48908.5 0
48908.5 91.9276 0
0    0    0

-293.756 49083.4 0
49083.4 -80.0546 0
0    0    0

199.432 49498.8 0
49498.8 147.612 0
0    0    0

15.7875 48967.4 0
48967.4 -259.168 0
0    0    0

310.605 48106.1 0
48106.1 269.82 0
0    0    0

82.7631 48691 0
48691 212.239 0
0    0    0

-253.044 50033.7 0
50033.7 -232.181 0
0    0    0

-123.317 48840.7 0
48840.7 -283.424 0
0    0    0

83.2096 48614.7 0
48614.7 21.6984 0
0    0    0

-183.735 48344.3 0
48344.3 -448.075 0
0    0    0

-245.195 50659.4 0
50659.4 -24.2064 0
0    0    0

322.782 50250 0
50250 2.21793 0
0    0    0

51.3432 49397.6 0
49397.6 -70.3847 0
0    0    0

115.841 49884.1 0
49884.1 -94.1109 0
0    0    0

11.7531 49321.4 0
49321.4 -130.41 0
0    0    0

-183.539 48452.3 0
48452.3 -297.774 0
0    0    0

-22.257 50775.8 0
50775.8 -128.934 0
0    0    0

247.411 49791.1 0
49791.1 281.323 0
0    0    0

48.2388 52362.9 0
52362.9 247.161 0
0    0    0

-332.221 50812.2 0
50812.2 -261.83 0
0    0    0

103.303 49912.4 0
49912.4 106.334 0
0    0    0

363.807 50462.4 0
50462.4 428.178 0
0    0    0

-226.121 49577.9 0
49577.9 -281.536 0
0    0    0

-175.679 49464.4 0
49464.4 2.14713 0
0    0    0

-247.388 51449.4 0
51449.4 -221.178 0
0    0    0

184.936 50388.1 0
50388.1 98.066 0
0    0    0

-196.679 50044.5 0
50044.5 -363.479 0
0    0    0

-49.2993 50370.8 0
50370.8 -460.298 0
0    0    0

-13.7983 51104.9 0
51104.9 92.5665 0
0    0    0

168.968 51058.9 0
51058.9 376.14 0
0    0    0

-60.9856 51558.3 0
51558.3 89.2239 0
0    0    0

-90.2907 51384.1 0
51384.1 -227.142 0
0    0    0

272.64 51630.4 0
51630.4 132.293 0
0    0    0

-366.982 50465.6 0
50465.6 -83.6023 0
0    0    0

54.1163 51060.7 0
51060.7 64.8683 0
0    0    0

207.167 50691.4 0
50691.4 145.239 0
0    0    0

239.116 51704.3 0
51704.3 -11.6183 0
0    0    0

-50.2939 52404.7 0
52404.7 -325.712 0
0    0    0

-84.8626 51870.3 0
51870.3 93.1775 0
0    0    0

176.29 52702.8 0
52702.8 75.3601 0
0    0    0

-294.65 52954.7 0
52954.7 -705.091 0
0    0    0

323.769 53895 0
53895 -7.50019 0
0    0    0

12.6003 51301.3 0
51301.3 -118.752 0
0    0    0

37.0405 52857.6 0
52857.6 369.434 0
0    0    0

101.826 52142.4 0
52142.4 265.932 0
0    0    0

-46.2924 52989 0
52989 1.14961 0
0    0    0

-111.657 51042.2 0
51042.2 -84.6138 0
0    0    0

-26.4547 51945.3 0
51945.3 -307.076 0
0    0    0

22.9009 52495.2 0
52495.2 -441.876 0
0    0    0

228.554 52735 0
52735 607.018 0
0    0    0

-172.432 51802.5 0
51802.5 -24.7526 0
0    0    0

137.42 51044.9 0
51044.9 224.45 0
0    0    0

-95.5928 49906.3 0
49906.3 28.9265 0
0    0    0

460.606 50268 0
50268 305.26 0
0    0    0

-343.44 51460.7 0
51460.7 -180.391 0
0    0    0

-6.5782 50729.2 0
50729.2 -114.948 0
0    0    0

-327.394 52075.8 0
52075.8 -220.677 0
0    0    0

-189.132 51493.7 0
51493.7 -131.3 0
0    0    0

-236.252 52756.2 0
52756.2 -252.822 0
0    0    0

351.991 52352.3 0
52352.3 302.401 0
0    0    0

51.8963 50975.3 0
50975.3 3.71481 0
0    0    0

18.8654 51018.9 0
51018.9 -71.2911 0
0    0    0

-206.118 54638 0
54638 -164.898 0
0    0    0

230.904 51766.1 0
51766.1 121.873 0
0    0    0

207.406 52554.2 0
52554.2 -21.5803 0
0    0    0

-185.012 53008 0
53008 -287.069 0
0    0    0

-121.494 53039.9 0
53039.9 -152.628 0
0    0    0

-135.266 53198.8 0
53198.8 -262.918 0
0    0    0

-119.771 52063.7 0
52063.7 105.974 0
0    0    0

-262.532 51454.4 0
51454.4 -314.353 0
0    0    0

-226.32 50836.5 0
50836.5 -133.446 0
0    0    0

-184.222 51128.8 0
51128.8 -293.907 0
0    0    0

147.404 51650 0
51650 336.422 0
0    0    0

166.186 51913.9 0
51913.9 317.18 0
0    0    0

151.285 51043.2 0
51043.2 127.703 0
0    0    0

-273.352 51723 0
51723 -244.677 0
0    0    0

174.508 50482.7 0
50482.7 -98.4233 0
0    0    0

233.776 51177.8 0
51177.8 244.884 0
0    0    0

-161.197 50787.5 0
50787.5 148.942 0
0    0    0

20.0547 50145.2 0
50145.2 269.171 0
0    0    0

300.377 51384.6 0
51384.6 519.019 0
0    0    0

94.3412 52236.3 0
52236.3 -188 0
0    0    0

45.0763 49891.2 0
49891.2 -288.429 0
0    0    0

118.313 49545.1 0
49545.1 169.999 0
0    0    0

-64.2152 51227 0
51227 -210.563 0
0    0    0

-35.8647 52122.9 0
52122.9 -276.946 0
0    0    0

52.8402 49432.6 0
49432.6 169.907 0
0    0    0

132.09 49034.3 0
49034.3 170.539 0
0    0    0

235.868 49157.6 0
49157.6 122.192 0
0    0    0

-128.215 49625.3 0
49625.3 -264.439 0
0    0    0

212.274 52308.5 0
52308.5 496.328 0
0    0    0

-157.232 51799.6 0
51799.6 -156.935 0
0    0    0

214.418 52741.4 0
52741.4 237.55 0
0    0    0

-179.258 52489.2 0
52489.2 29.5305 0
0    0    0

204.853 50815.1 0
50815.1 69.6231 0
0    0    0

167.091 51656.9 0
51656.9 355.301 0
0    0    0

213.351 50379.7 0
50379.7 98.3409 0
0    0    0

26.7921 51186.8 0
51186.8 -119.645 0
0    0    0

191.369 49724 0
49724 105.694 0
0    0    0

268.54 50627.9 0
50627.9 254.52 0
0    0    0

-112.461 48961.7 0
48961.7 -366.869 0
0    0    0

195.613 49278.9 0
49278.9 444.474 0
0    0    0

-116.448 49579.1 0
49579.1 -55.3178 0
0    0    0

187.616 49959.1 0
49959.1 375.325 0
0    0    0

122.057 52360.6 0
52360.6 -62.1594 0
0    0    0

-146.942 50672.4 0
50672.4 159.224 0
0    0    0

247.801 53349.6 0
53349.6 220.146 0
0    0    0

-146.975 52800 0
52800 -272.58 0
0    0    0

232.153 52032.3 0
52032.3 95.3343 0
0    0    0

-276.607 52099.6 0
52099.6 -220.183 0
0    0    0

-185.326 50102.9 0
50102.9 -281.477 0
0    0    0

-183.538 49634.8 0
49634.8 216.151 0
0    0    0

104.001 49751.1 0
49751.1 196.667 0
0    0    0

53.9704 49158 0
49158 89.6107 0
0    0    0

197.315 49695.9 0
49695.9 109.585 0
0    0    0

86.49 50159 0
50159 -156.697 0
0    0    0

48.1221 49455.2 0
49455.2 -152.743 0
0    0    0

171.741 49080.7 0
49080.7 65.9569 0
0    0    0

-43.5246 50354.6 0
50354.6 200.524 0
0    0    0

-244.957 49496.6 0
49496.6 -74.9417 0
0    0    0

-181.421 50755 0
50755 -278.254 0
0    0    0

17.0065 50440.1 0
50440.1 236.659 0
0    0    0

-55.503 50674 0
50674 92.8902 0
0    0    0

-248.352 50122.6 0
50122.6 42.5358 0
0    0    0

43.6596 51164.1 0
51164.1 324.889 0
0    0    0

-84.6036 50878.1 0
50878.1 -305.343 0
0    0    0

106.521 53837.4 0
53837.4 204.945 0
0    0    0

-42.4869 52701.8 0
52701.8 235.088 0
0    0    0

-2.83739 48672.7 0
48672.7 85.1402 0
0    0    0

183.318 49389.3 0
49389.3 269.163 0
0    0    0

69.6904 50471.1 0
50471.1 -55.191 0
0    0    0

114.041 50359.5 0
50359.5 -121.881 0
0    0    0

24.6098 51348.9 0
51348.9 68.6978 0
0    0    0

442.973 51790.2 0
51790.2 206.263 0
0    0    0

59.4891 51848.1 0
51848.1 -115.428 0
0    0    0

-154.221 52189.7 0
52189.7 -286.668 0
0    0    0

13.5182 52609.7 0
52609.7 -135.352 0
0    0    0

-213.357 53041.9 0
53041.9 -165.121 0
0    0    0

111.342 51777.1 0
51777.1 84.655 0
0    0    0

68.8655 53105.4 0
53105.4 -68.4642 0
0    0    0

240.798 51007.9 0
51007.9 488.311 0
0    0    0

228.096 52218.9 0
52218.9 181.393 0
0    0    0

432.366 50835 0
50835 467.618 0
0    0    0

-75.1554 53083.3 0
53083.3 -236.171 0
0    0    0

-224.643 51928.8 0
51928.8 -421.425 0
0    0    0

-123.121 52440.9 0
52440.9 -165.955 0
0    0    0

8.19504 52313.7 0
52313.7 -217.523 0
0    0    0

232.773 53333.3 0
53333.3 170.584 0
0    0    0

61.6791 52683.5 0
52683.5 169.416 0
0    0    0

-80.5632 52802 0
52802 -27.8692 0
0    0    0

107.727 51374.6 0
51374.6 310.444 0
0    0    0

-154.615 52564.9 0
52564.9 -117.866 0
0    0    0

-120.818 52564.2 0
52564.2 -385.392 0
0    0    0

2.84024 53673.6 0
53673.6 -124.221 0
0    0    0

40.3602 51445.7 0
51445.7 22.0447 0
0    0    0

-42.3281 52278.5 0
52278.5 127.449 0
0    0    0

44.1059 53152.9 0
53152.9 92.908 0
0    0    0

22.4506 53510.8 0
53510.8 -80.7961 0
0    0    0

139.59 46056.5 0
46056.5 322.028 0
0    0    0

177.461 48252.4 0
48252.4 234.202 0
0    0    0

-109.475 49587.3 0
49587.3 136.553 0
0    0    0

89.11 47451.7 0
47451.7 71.7476 0
0    0    0

221.253 50948.7 0
50948.7 329.916 0
0    0    0

85.2665 50633.4 0
50633.4 -97.5154 0
0    0    0

122.714 50896.2 0
50896.2 145.643 0
0    0    0

138.765 49868.9 0
49868.9 331.416 0
0    0    0

36.2839 49772.5 0
49772.5 45.8828 0
0    0    0

-104.19 50197.3 0
50197.3 -105.859 0
0    0    0

57.8996 49334.2 0
49334.2 342.507 0
0    0    0

-162.64 49833.7 0
49833.7 -41.1153 0
0    0    0

-179.819 49000 0
49000 -440.759 0
0    0    0

65.9316 46916.4 0
46916.4 89.9597 0
0    0    0

-74.452 49586.7 0
49586.7 -338.624 0
0    0    0

226.766 48672.9 0
48672.9 378.446 0
0    0    0

57.7843 50460.6 0
50460.6 -100.686 0
0    0    0

350.269 47945.7 0
47945.7 345.775 0
0    0    0

-197.359 48357.8 0
48357.8 -379.38 0
0    0    0

-18.664 48705.6 0
48705.6 174.346 0
0    0    0

-205.719 50681 0
50681 -193.149 0
0    0    0

98.0194 47155.4 0
47155.4 130.392 0
0    0    0

-190.939 48462.9 0
48462.9 -290.958 0
0    0    0

308.773 47424.5 0
47424.5 343.794 0
0    0    0

257.486 48112.5 0
48112.5 366.545 0
0    0    0

-222.15 47898.8 0
47898.8 -245.239 0
0    0    0

-205.651 48942.3 0
48942.3 -229.41 0
0    0    0

-182.402 49153 0
49153 55.8653 0
0    0    0

-158.657 50249 0
50249 -78.8409 0
0    0    0

51.265 47633.3 0
47633.3 -103.921 0
0    0    0

117.483 53422.9 0
53422.9 -157.183 0
0    0    0

258.043 54335.7 0
54335.7 294.201 0
0    0    0

-115.2 53872 0
53872 -75.3335 0
0    0    0

-103.8 53147.9 0
53147.9 -403.359 0
0    0    0

-106.566 47290.3 0
47290.3 -178.641 0
0    0    0

93.9638 49492.4 0
49492.4 144.685 0
0    0    0

-28.4706 50087.5 0
50087.5 -8.44341 0
0    0    0

-97.8 49417.2 0
49417.2 85.3688 0
0    0    0

-151.899 53731.7 0
53731.7 86.1764 0
0    0    0

-251.414 54549.1 0
54549.1 -142.305 0
0    0    0

-184.056 53670.2 0
53670.2 8.49721 0
0    0    0

156.703 54283.6 0
54283.6 105.832 0
0    0    0

111.065 53772.6 0
53772.6 75.4738 0
0    0    0

-187.864 53530.3 0
53530.3 -240.152 0
0    0    0

236.741 53334 0
53334 454.654 0
0    0    0

70.8689 52879.6 0
52879.6 191.79 0
0    0    0

278.196 48269.5 0
48269.5 95.157 0
0    0    0

-160.975 49118.8 0
49118.8 -236.636 0
0    0    0

-317.558 49140.8 0
49140.8 -80.6977 0
0    0    0

180.617 51014.7 0
51014.7 45.8017 0
0    0    0

112.197 48917.6 0
48917.6 214.628 0
0    0    0

-236.877 49828.9 0
49828.9 -554.282 0
0    0    0

203.133 50184.1 0
50184.1 395.817 0
0    0    0

337.705 49997.5 0
49997.5 534.566 0
0    0    0

-8.07398 49643.9 0
49643.9 -319.795 0
0    0    0

162.688 50050.4 0
50050.4 252.386 0
0    0    0

174.707 49826.8 0
49826.8 178.352 0
0    0    0

174.445 49726.4 0
49726.4 95.0729 0
0    0    0

275.972 47074.2 0
47074.2 266.397 0
0    0    0

-211 47162.7 0
47162.7 159.922 0
0    0    0

-170.568 47391.3 0
47391.3 50.8821 0
0    0    0

124.679 46733.7 0
46733.7 -147.315 0
0    0    0

-256.544 41315.3 0
41315.3 -96.233 0
0    0    0

43.7393 40148.4 0
40148.4 116.88 0
0    0    0

249.657 40545.1 0
40545.1 125.208 0
0    0    0

-114.035 39632.6 0
39632.6 -4.3138 0
0    0    0

65.9494 39997.5 0
39997.5 -129.103 0
0    0    0

-8.48212 40614.8 0
40614.8 -67.6356 0
0    0    0

-59.4701 39188.9 0
39188.9 111.836 0
0    0    0

6.37459 39633.6 0
39633.6 103.284 0
0    0    0

185.392 39280.3 0
39280.3 63.1705 0
0    0    0

205.146 39891.6 0
39891.6 -157.956 0
0    0    0

178.272 45520 0
45520 -27.8702 0
0    0    0

200.984 45141.2 0
45141.2 116.27 0
0    0    0

-116.757 45002.2 0
45002.2 -197.709 0
0    0    0

-151.809 45299.8 0
45299.8 -96.053 0
0    0    0

177.328 45195.2 0
45195.2 -73.3734 0
0    0    0

112.594 45442.7 0
45442.7 275.129 0
0    0    0

-188.276 44970.2 0
44970.2 -368.104 0
0    0    0

-147.391 45751.2 0
45751.2 -254.577 0
0    0    0

200.186 44798 0
44798 -35.0478 0
0    0    0

-115.197 45092.7 0
45092.7 -404.455 0
0    0    0

-26.4673 46065.5 0
46065.5 364.212 0
0    0    0

204.59 45814 0
45814 147.681 0
0    0    0

117.67 45227.5 0
45227.5 -111.403 0
0    0    0

235.549 48326.6 0
48326.6 227.931 0
0    0    0

-97.972 44438.3 0
44438.3 -269.703 0
0    0    0

261.413 45397.4 0
45397.4 73.5536 0
0    0    0

-6.49738 43564.8 0
43564.8 -17.9741 0
0    0    0

-173.164 45230.9 0
45230.9 -19.8912 0
0    0    0

-8.06012 46264 0
46264 -139.099 0
0    0    0

218.411 46476.9 0
46476.9 349.913 0
0    0    0

166.026 45465.1 0
45465.1 220.428 0
0    0    0

0.751054 46261 0
46261 -130.893 0
0    0    0

-15.9567 46673.9 0
46673.9 253.528 0
0    0    0

270.114 47027.5 0
47027.5 41.3807 0
0    0    0

129.139 44191.7 0
44191.7 294.984 0
0    0    0

-270.853 44623.6 0
44623.6 -163.884 0
0    0    0

-116.172 45543.5 0
45543.5 199.13 0
0    0    0

18.9809 45934.9 0
45934.9 208.227 0
0    0    0

41.5781 46333 0
46333 180.067 0
0    0    0

-242.091 46278.8 0
46278.8 -360.908 0
0    0    0

-120.69 46881.3 0
46881.3 -316.152 0
0    0    0

53.1429 47513.6 0
47513.6 40.9155 0
0    0    0

283.293 43588.2 0
43588.2 53.0446 0
0    0    0

34.5518 43674.5 0
43674.5 350.909 0
0    0    0

249.929 44297.5 0
44297.5 245.68 0
0    0    0

-93.9062 44860.2 0
44860.2 -150.669 0
0    0    0

126.64 47570.2 0
47570.2 180.264 0
0    0    0

-73.8931 48669.7 0
48669.7 -294.522 0
0    0    0

12.8957 46567.2 0
46567.2 178.984 0
0    0    0

-215.574 47431.7 0
47431.7 -170.25 0
0    0    0

75.4517 43392.3 0
43392.3 -132.582 0
0    0    0

-267.227 44025.3 0
44025.3 -148.945 0
0    0    0

-70.9764 43100.8 0
43100.8 -64.1095 0
0    0    0

-141.845 43282.4 0
43282.4 49.0736 0
0    0    0

-288.081 44079 0
44079 -215.619 0
0    0    0

-194.759 44133.9 0
44133.9 -314.243 0
0    0    0

165.815 43642.2 0
43642.2 193.285 0
0    0    0

-389.349 43554.4 0
43554.4 -232.647 0
0    0    0

-178.899 43047.1 0
43047.1 -284.268 0
0    0    0

-76.9752 43943.9 0
43943.9 155.223 0
0    0    0

262.821 43795.6 0
43795.6 316.246 0
0    0    0

-24.4917 44074.5 0
44074.5 105.92 0
0    0    0

-115.639 45234.6 0
45234.6 -281.011 0
0    0    0

-62.8516 46114.1 0
46114.1 -261.776 0
0    0    0

79.6168 46929.1 0
46929.1 -192.111 0
0    0    0

-189.634 47433.9 0
47433.9 -125.534 0
0    0    0

-182.196 48130.1 0
48130.1 -235.85 0
0    0    0

-177.854 47975.2 0
47975.2 -27.1834 0
0    0    0

-148.727 48506.5 0
48506.5 100.191 0
0    0    0

108.555 47951.3 0
47951.3 -56.8167 0
0    0    0

-230.306 48414.2 0
48414.2 -216.307 0
0    0    0

-16.1885 47651.1 0
47651.1 119.06 0
0    0    0

201.324 44157.9 0
44157.9 207.907 0
0    0    0

74.3527 43904.6 0
43904.6 -12.6549 0
0    0    0

-203.819 43237.3 0
43237.3 -255.053 0
0    0    0

245.557 43015.1 0
43015.1 -103.427 0
0    0    0

315.076 43223 0
43223 108.521 0
0    0    0

268.908 43916.6 0
43916.6 248.039 0
0    0    0

208.172 45093.4 0
45093.4 -154.478 0
0    0    0

168.379 46874.1 0
46874.1 87.807 0
0    0    0

148.556 46939.7 0
46939.7 179.05 0
0    0    0

268.771 47581.1 0
47581.1 141.349 0
0    0    0

14.7296 44454.7 0
44454.7 -66.7453 0
0    0    0

134.941 46710.5 0
46710.5 154.242 0
0    0    0

-144.95 44897.3 0
44897.3 146.899 0
0    0    0

-112.252 45812.8 0
45812.8 60.1553 0
0    0    0

-61.013 46251.5 0
46251.5 165.452 0
0    0    0

-275.963 46580.3 0
46580.3 -141.767 0
0    0    0

58.0251 45329.6 0
45329.6 15.4988 0
0    0    0

233.705 45096.1 0
45096.1 -60.834 0
0    0    0

-97.7631 42253.9 0
42253.9 -148.912 0
0    0    0

2.80039 40350.4 0
40350.4 195.191 0
0    0    0

22.7118 38411.8 0
38411.8 286.366 0
0    0    0

-19.9422 38012 0
38012 -147.449 0
0    0    0

38.7698 38333.9 0
38333.9 115.131 0
0    0    0

209.875 39369.6 0
39369.6 312.304 0
0    0    0

347.186 36475 0
36475 226.944 0
0    0    0

-179.675 36507.1 0
36507.1 -249.001 0
0    0    0

-40.1956 37435.7 0
37435.7 -201.184 0
0    0    0

129.167 37382.5 0
37382.5 -35.363 0
0    0    0

217.469 39016.2 0
39016.2 262.816 0
0    0    0

-176.284 39141 0
39141 -318.193 0
0    0    0

-141.545 38596.5 0
38596.5 -388.07 0
0    0    0

-226.557 38091.5 0
38091.5 -209.501 0
0    0    0

276.685 37854.8 0
37854.8 189.656 0
0    0    0

-187.489 38628.1 0
38628.1 -351.016 0
0    0    0

205.741 38874.5 0
38874.5 109.699 0
0    0    0

234.543 39606.1 0
39606.1 117.025 0
0    0    0

-66.5689 37901.7 0
37901.7 -307.929 0
0    0    0

50.1302 38410.3 0
38410.3 -142.716 0
0    0    0

110.524 37299.3 0
37299.3 -126.269 0
0    0    0

249.715 38208.4 0
38208.4 323.252 0
0    0    0

-115.884 37536.6 0
37536.6 -68.8456 0
0    0    0

-275.029 36703.4 0
36703.4 -193.276 0
0    0    0

-122.362 37657.8 0
37657.8 111.591 0
0    0    0

-190.953 36914.2 0
36914.2 -105.87 0
0    0    0

-134.281 37019.5 0
37019.5 -276.139 0
0    0    0

119.99 37143.8 0
37143.8 116.374 0
0    0    0

-75.7933 37979.5 0
37979.5 -362.24 0
0    0    0

197.615 37064.1 0
37064.1 200.698 0
0    0    0

-249.305 36767.8 0
36767.8 -66.7261 0
0    0    0

-57.2629 34164.9 0
34164.9 -346.827 0
0    0    0

-30.1234 37168.8 0
37168.8 110.597 0
0    0    0

104.353 36635.6 0
36635.6 13.7201 0
0    0    0

204.496 36373.5 0
36373.5 83.5439 0
0    0    0

-261.418 36859.9 0
36859.9 -239.046 0
0    0    0

7.57719 35868 0
35868 182.233 0
0    0    0

51.4896 34521.6 0
34521.6 71.988 0
0    0    0

-31.2031 36785.9 0
36785.9 -121.489 0
0    0    0

-181.01 35911.9 0
35911.9 -85.8529 0
0    0    0

246.944 36301.4 0
36301.4 273.991 0
0    0    0

228.684 36881.6 0
36881.6 -92.4237 0
0    0    0

-208.328 36251.3 0
36251.3 -266.907 0
0    0    0

-87.6103 34815.3 0
34815.3 -144.895 0
0    0    0

220.403 35784.9 0
35784.9 379.219 0
0    0    0

148.335 36645.5 0
36645.5 260.488 0
0    0    0

-26.285 35866.9 0
35866.9 137.255 0
0    0    0

237.574 33999.6 0
33999.6 118.3 0
0    0    0

35.2896 34569.8 0
34569.8 -205.092 0
0    0    0

-90.5493 34461 0
34461 -153.999 0
0    0    0

258.712 35270.9 0
35270.9 353.397 0
0    0    0

-38.8134 35303.8 0
35303.8 181.226 0
0    0    0

-302.043 35498.5 0
35498.5 -274.047 0
0    0    0

175.844 34916.2 0
34916.2 81.4822 0
0    0    0

141.515 36081.5 0
36081.5 65.0306 0
0    0    0

-213.589 36104.8 0
36104.8 -259.416 0
0    0    0

-246.358 35545.9 0
35545.9 -287.084 0
0    0    0

80.6009 35692.2 0
35692.2 -2.25658 0
0    0    0

268.222 36425.9 0
36425.9 229.927 0
0    0    0

-156.281 36228.2 0
36228.2 -224.683 0
0    0    0

196.04 37204.4 0
37204.4 207.708 0
0    0    0

198.084 36781 0
36781 59.4838 0
0    0    0

-172.212 36553.8 0
36553.8 119.073 0
0    0    0

348.068 37038.1 0
37038.1 88.3964 0
0    0    0

-99.6778 36138.4 0
36138.4 77.3815 0
0    0    0

-9.5889 36267.8 0
36267.8 -180.335 0
0    0    0

80.3012 35742.3 0
35742.3 -44.9494 0
0    0    0

-65.1544 33930.9 0
33930.9 119.394 0
0    0    0

138.21 38814.6 0
38814.6 488.238 0
0    0    0

-45.4685 37841.2 0
37841.2 -340.944 0
0    0    0

-77.4078 37688.4 0
37688.4 7.79691 0
0    0    0

-226.866 38305.2 0
38305.2 -178.719 0
0    0    0

16.596 35653.5 0
35653.5 -227.88 0
0    0    0

226.911 35734.1 0
35734.1 285.265 0
0    0    0

-220.24 35256.6 0
35256.6 -235.9 0
0    0    0

152.719 34501.4 0
34501.4 307.054 0
0    0    0

106.871 35307.8 0
35307.8 220.752 0
0    0    0

-257.755 34772.4 0
34772.4 -316.973 0
0    0    0

61.9531 34836.9 0
34836.9 -204.728 0
0    0    0

-70.0951 33792.6 0
33792.6 69.1272 0
0    0    0

197.292 34436.1 0
34436.1 203.642 0
0    0    0

-253.311 34233.8 0
34233.8 -259.633 0
0    0    0

-158.808 34035.7 0
34035.7 -258.224 0
0    0    0

227.923 34221.3 0
34221.3 159.269 0
0    0    0

-242.754 35836.2 0
35836.2 -419.462 0
0    0    0

1.06356 36157.2 0
36157.2 31.7836 0
0    0    0

-246.23 38515.1 0
38515.1 -448.434 0
0    0    0

-8.48449 38326.5 0
38326.5 12.5095 0
0    0    0

-98.5895 39050.1 0
39050.1 -94.4629 0
0    0    0

174.532 38486.7 0
38486.7 -9.12558 0
0    0    0

-338.311 38699.8 0
38699.8 -243.348 0
0    0    0

30.686 37945.3 0
37945.3 124.557 0
0    0    0

-255.476 35366.2 0
35366.2 -158.957 0
0    0    0

-136.738 34906 0
34906 -162.662 0
0    0    0

-120.578 34385.2 0
34385.2 260.476 0
0    0    0

134.802 32495.3 0
32495.3 375.219 0
0    0    0

165.551 38082 0
38082 321.465 0
0    0    0

31.8515 37935.9 0
37935.9 70.6417 0
0    0    0

261.329 34836.1 0
34836.1 174.198 0
0    0    0

170.46 33751.4 0
33751.4 6.80286 0
0    0    0

21.7361 36055.4 0
36055.4 -230.636 0
0    0    0

-116.395 33194.5 0
33194.5 -31.1362 0
0    0    0

12.7515 33258.9 0
33258.9 175.97 0
0    0    0

-148.134 33271.5 0
33271.5 -59.3427 0
0    0    0

-111.408 34629.5 0
34629.5 -115.858 0
0    0    0

-45.7073 34255.7 0
34255.7 -16.4884 0
0    0    0

73.7357 33771.7 0
33771.7 291.587 0
0    0    0

81.629 33406 0
33406 79.9585 0
0    0    0

153.77 33587.8 0
33587.8 -180.342 0
0    0    0

-187.242 33536 0
33536 -87.5371 0
0    0    0

278.628 33103.4 0
33103.4 191.928 0
0    0    0

260.905 33817.4 0
33817.4 184.847 0
0    0    0

-5.85263 31567.7 0
31567.7 -178.48 0
0    0    0

25.9337 32972.4 0
32972.4 -274.572 0
0    0    0

-217.203 32892.6 0
32892.6 -305.634 0
0    0    0

143.536 32673.5 0
32673.5 342.414 0
0    0    0

182.264 30402.8 0
30402.8 313.602 0
0    0    0

23.597 32778.4 0
32778.4 -98.4028 0
0    0    0

-22.721 31205.4 0
31205.4 -305.005 0
0    0    0

-118.815 31835.9 0
31835.9 -149.826 0
0    0    0

-9.04152 33397.8 0
33397.8 -303.91 0
0    0    0

-114.948 32630.6 0
32630.6 -253.034 0
0    0    0

-109.587 35364.1 0
35364.1 -61.0328 0
0    0    0

96.8831 34681.3 0
34681.3 142.114 0
0    0    0

302.757 44746.1 0
44746.1 471.668 0
0    0    0

169.753 44439.2 0
44439.2 255.361 0
0    0    0

72.7028 39919.7 0
39919.7 -122.931 0
0    0    0

-16.4939 39025.1 0
39025.1 289.47 0
0    0    0

-181.691 38937.5 0
38937.5 73.4019 0
0    0    0

150.246 38861.6 0
38861.6 -78.4392 0
0    0    0

62.8814 39850.2 0
39850.2 151.344 0
0    0    0

115.51 39157.5 0
39157.5 6.66452 0
0    0    0

9.97938 42067.3 0
42067.3 129.531 0
0    0    0

290.312 42046 0
42046 366.239 0
0    0    0

38.6161 39472 0
39472 -299.813 0
0    0    0

82.0144 40242.7 0
40242.7 64.7714 0
0    0    0

139.084 36222.8 0
36222.8 173.635 0
0    0    0

145.141 36170.9 0
36170.9 337.168 0
0    0    0

29.1932 37648.6 0
37648.6 75.9233 0
0    0    0

-100.851 40009.2 0
40009.2 205.338 0
0    0    0

151.95 37739.7 0
37739.7 337.525 0
0    0    0

-137.617 38410.8 0
38410.8 -194.022 0
0    0    0

121.288 35793.5 0
35793.5 -259.791 0
0    0    0

223.587 37206.9 0
37206.9 98.1031 0
0    0    0

124.258 33977.9 0
33977.9 92.9866 0
0    0    0

181.371 34957.4 0
34957.4 222.634 0
0    0    0

-267.588 34296.8 0
34296.8 -134.82 0
0    0    0

-65.772 32557.7 0
32557.7 -202.331 0
0    0    0

-228.451 33187.2 0
33187.2 -111.166 0
0    0    0

130.828 32450.6 0
32450.6 148.729 0
0    0    0

106.8 33910.1 0
33910.1 160.894 0
0    0    0

55.6634 33588.7 0
33588.7 292.398 0
0    0    0

-156.165 33653 0
33653 -205.215 0
0    0    0

-62.1255 34441.6 0
34441.6 -27.817 0
0    0    0

231.381 32949.8 0
32949.8 117.136 0
0    0    0

-210.939 33555.1 0
33555.1 117.21 0
0    0    0

123.716 32747.9 0
32747.9 12.8144 0
0    0    0

-303.47 31983.6 0
31983.6 -529.713 0
0    0    0

-218.511 33393.1 0
33393.1 -261.976 0
0    0    0

-132.163 32297.2 0
32297.2 -224.753 0
0    0    0

-82.6674 32077.2 0
32077.2 -35.8768 0
0    0    0

-79.4902 32836 0
32836 -181.973 0
0    0    0

-206.207 33738.7 0
33738.7 -41.6448 0
0    0    0

-22.2455 34164 0
34164 109.864 0
0    0    0

-67.9974 34111.9 0
34111.9 73.3128 0
0    0    0

-15.9956 34420.8 0
34420.8 -21.9611 0
0    0    0

241.4 31884.6 0
31884.6 263.2 0
0    0    0

-132.217 31493.9 0
31493.9 192.436 0
0    0    0

90.4278 31812.6 0
31812.6 49.3403 0
0    0    0

52.3463 31018.1 0
31018.1 125.49 0
0    0    0

-193.565 32211.1 0
32211.1 -141.952 0
0    0    0

47.9066 31166.2 0
31166.2 -1.93781 0
0    0    0

99.0274 32343.8 0
32343.8 182.33 0
0    0    0

-183.113 32440.4 0
32440.4 -95.5279 0
0    0    0

180.096 31538.3 0
31538.3 516.736 0
0    0    0

320.694 32240.9 0
32240.9 528.112 0
0    0    0

-88.225 31283.9 0
31283.9 -201.432 0
0    0    0

193.213 31725.5 0
31725.5 334.721 0
0    0    0

240.706 31751.5 0
31751.5 300.905 0
0    0    0

-44.4407 31160.6 0
31160.6 -55.9073 0
0    0    0

171.787 33371.5 0
33371.5 48.4303 0
0    0    0

231.324 34020.3 0
34020.3 142.179 0
0    0    0

-231.533 32783.3 0
32783.3 -269.982 0
0    0    0

-80.5848 33731.3 0
33731.3 140.659 0
0    0    0

31.0356 33353.1 0
33353.1 185.591 0
0    0    0

151.498 32738.8 0
32738.8 553.952 0
0    0    0

-187 31919.8 0
31919.8 -477.264 0
0    0    0

-145.869 33268.2 0
33268.2 -97.3756 0
0    0    0

-71.8869 33584 0
33584 -193.802 0
0    0    0

229.089 33381.5 0
33381.5 6.6925 0
0    0    0

-92.3486 32446.5 0
32446.5 -238.554 0
0    0    0

-66.1595 32653.3 0
32653.3 -259.597 0
0    0    0

117.406 31710.5 0
31710.5 41.3219 0
0    0    0

293.385 32196.1 0
32196.1 627.063 0
0    0    0

-24.9165 34447.4 0
34447.4 -137.15 0
0    0    0

-215.318 35343.7 0
35343.7 -23.6376 0
0    0    0

-5.48825 33884.5 0
33884.5 -282.134 0
0    0    0

-24.4511 33845.1 0
33845.1 -232.715 0
0    0    0

272.281 30991.6 0
30991.6 56.8281 0
0    0    0

179.331 30684.2 0
30684.2 369.652 0
0    0    0

56.9069 30743.9 0
30743.9 240.373 0
0    0    0

-267.733 30446.3 0
30446.3 -283.444 0
0    0    0

91.7047 30945.4 0
30945.4 -86.943 0
0    0    0

-109.981 31151.5 0
31151.5 90.7573 0
0    0    0

142.557 31390 0
31390 284.52 0
0    0    0

-120.639 30832.4 0
30832.4 -486.455 0
0    0    0

159.02 30001.7 0
30001.7 107.633 0
0    0    0

-272.373 29816.4 0
29816.4 -345.58 0
0    0    0

236.945 29334.3 0
29334.3 287.978 0
0    0    0

228.442 29456.4 0
29456.4 183.239 0
0    0    0

292.253 30136 0
30136 331.407 0
0    0    0

-183.666 29689.3 0
29689.3 -185.518 0
0    0    0

62.9438 28185.6 0
28185.6 -85.1423 0
0    0    0

-151.107 30458.1 0
30458.1 -208.464 0
0    0    0

-359.591 30505.5 0
30505.5 -372.946 0
0    0    0

-94.9768 29661 0
29661 -126.169 0
0    0    0

32.3132 28955.8 0
28955.8 2.23486 0
0    0    0

257.442 27935.4 0
27935.4 366.618 0
0    0    0

-41.3873 30847.9 0
30847.9 151.517 0
0    0    0

-188.307 29875.1 0
29875.1 -179.129 0
0    0    0

-30.194 28971.6 0
28971.6 -25.8971 0
0    0    0

-24.2518 27733.6 0
27733.6 -84.0489 0
0    0    0

-31.2691 27192.9 0
27192.9 -364.297 0
0    0    0

179.474 28758.3 0
28758.3 279.041 0
0    0    0

192.087 30327.9 0
30327.9 93.2571 0
0    0    0

181.213 31106.1 0
31106.1 141.794 0
0    0    0

131.747 29986.5 0
29986.5 557.056 0
0    0    0

-158.318 31715.7 0
31715.7 -163.419 0
0    0    0

328.044 29632.6 0
29632.6 224.141 0
0    0    0

90.3809 31505.3 0
31505.3 -37.5941 0
0    0    0

-210.993 29480.9 0
29480.9 -8.46847 0
0    0    0

51.6668 28631.4 0
28631.4 350.458 0
0    0    0

-34.2939 30058.7 0
30058.7 52.7174 0
0    0    0

-165.339 29263 0
29263 -105.235 0
0    0    0

173.622 28372.4 0
28372.4 8.44814 0
0    0    0

-156.517 29150.4 0
29150.4 -203.362 0
0    0    0

283.131 28153.3 0
28153.3 605.13 0
0    0    0

-17.3957 28442.5 0
28442.5 -255.013 0
0    0    0

-203.626 29469.4 0
29469.4 -525.462 0
0    0    0

54.1515 30404.5 0
30404.5 193.152 0
0    0    0

-47.8058 30397.1 0
30397.1 -231.413 0
0    0    0

227.449 30137.3 0
30137.3 341.144 0
0    0    0

-325.85 30725.1 0
30725.1 36.6234 0
0    0    0

-67.5322 30911.4 0
30911.4 171.456 0
0    0    0

62.8151 29769.3 0
29769.3 66.558 0
0    0    0

-281.11 29905.5 0
29905.5 -405.485 0
0    0    0

293.917 28772.2 0
28772.2 207.673 0
0    0    0

-236.506 28566.2 0
28566.2 -291.833 0
0    0    0

-331.466 29655.3 0
29655.3 -111.065 0
0    0    0

-39.0372 28756.9 0
28756.9 -163.722 0
0    0    0

249.73 29229.6 0
29229.6 144.649 0
0    0    0

-29.7211 28383.3 0
28383.3 72.1812 0
0    0    0

-46.9723 28218.4 0
28218.4 262.075 0
0    0    0

0.995578 27639.7 0
27639.7 -207.142 0
0    0    0

-43.0814 30140.8 0
30140.8 -233.076 0
0    0    0

128.926 30484.4 0
30484.4 258.733 0
0    0    0

224.614 29107.1 0
29107.1 220.716 0
0    0    0

-119.427 29635.6 0
29635.6 -184.581 0
0    0    0

-170.236 29282.8 0
29282.8 -274.543 0
0    0    0

14.873 29763.7 0
29763.7 80.1816 0
0    0    0

31.3217 30984.1 0
30984.1 -87.7548 0
0    0    0

-227.883 31317.9 0
31317.9 -133.56 0
0    0    0

-175.064 31039.9 0
31039.9 118.585 0
0    0    0

-118.631 30638.5 0
30638.5 -273.98 0
0    0    0

-322.167 28999.3 0
28999.3 -157.615 0
0    0    0

-135.444 28518.4 0
28518.4 -248.346 0
0    0    0

-69.9405 27748.4 0
27748.4 -274.949 0
0    0    0

-149.87 28034.9 0
28034.9 -28.8047 0
0    0    0

-300.841 27750.1 0
27750.1 -145.808 0
0    0    0

214.727 27434.6 0
27434.6 173.404 0
0    0    0

-101.344 28318.3 0
28318.3 -110.906 0
0    0    0

-212.112 28668.3 0
28668.3 -72.5804 0
0    0    0

14.6788 27200.3 0
27200.3 -129.042 0
0    0    0

136.905 27909 0
27909 43.6514 0
0    0    0

-38.1981 27064.7 0
27064.7 176.748 0
0    0    0

282.53 26333.4 0
26333.4 244.217 0
0    0    0

0.678763 27343.1 0
27343.1 189.64 0
0    0    0

-100.143 26936.2 0
26936.2 289.593 0
0    0    0

325.272 28100.2 0
28100.2 129.417 0
0    0    0

258.508 28781.7 0
28781.7 297.059 0
0    0    0

-36.8324 26853.5 0
26853.5 130.836 0
0    0    0

201.945 28395.8 0
28395.8 40.5596 0
0    0    0

169.082 28435.2 0
28435.2 165.446 0
0    0    0

-90.7212 28934.4 0
28934.4 16.5302 0
0    0    0

-157.917 30617.8 0
30617.8 -438.542 0
0    0    0

-213.017 30718.3 0
30718.3 -257.245 0
0    0    0

112.615 30251.6 0
30251.6 236.096 0
0    0    0

58.0879 29750.6 0
29750.6 89.8977 0
0    0    0

-176.717 30001.5 0
30001.5 70.0591 0
0    0    0

-287.067 29006.6 0
29006.6 -52.594 0
0    0    0

-103.876 29876.6 0
29876.6 -60.6452 0
0    0    0

122.829 28540.7 0
28540.7 191.16 0
0    0    0

-17.8973 29702.6 0
29702.6 -264.402 0
0    0    0

-344.539 30055.5 0
30055.5 -426.5 0
0    0    0

248.268 30391.4 0
30391.4 301.747 0
0    0    0

-34.7005 30270.5 0
30270.5 350.559 0
0    0    0

203.318 29341.1 0
29341.1 76.8393 0
0    0    0

-56.2354 26788.1 0
26788.1 45.6957 0
0    0    0

-81.8314 29466.9 0
29466.9 -342.09 0
0    0    0

132.022 28358.7 0
28358.7 -8.99551 0
0    0    0

-182.579 30277.7 0
30277.7 -207.331 0
0    0    0

132.396 29431.4 0
29431.4 -10.7504 0
0    0    0

20.4934 28947.2 0
28947.2 12.55 0
0    0    0

-398.265 27731.3 0
27731.3 -129.627 0
0    0    0

92.4141 29906.5 0
29906.5 372.169 0
0    0    0

199.987 30165.5 0
30165.5 -148.094 0
0    0    0

218.692 30482.9 0
30482.9 248.986 0
0    0    0

99.7199 30686.5 0
30686.5 119.129 0
0    0    0

127.563 30006.2 0
30006.2 80.2292 0
0    0    0

-130.33 30173.3 0
30173.3 63.0258 0
0    0    0

-240.916 30759.9 0
30759.9 -233.126 0
0    0    0

132.637 29693.8 0
29693.8 -13.6337 0
0    0    0

-101.835 29401.3 0
29401.3 29.6421 0
0    0    0

164.493 29928.2 0
29928.2 237.798 0
0    0    0

187.515 29003.7 0
29003.7 -68.303 0
0    0    0

-145.049 28464.8 0
28464.8 -21.6841 0
0    0    0

65.9743 29192.1 0
29192.1 -171.488 0
0    0    0

80.172 29683 0
29683 195.948 0
0    0    0

148.998 28914.5 0
28914.5 -15.7021 0
0    0    0

-181.497 28156.6 0
28156.6 -82.4651 0
0    0    0

-150.469 29111.4 0
29111.4 19.4222 0
0    0    0

-64.5449 28682.5 0
28682.5 84.1267 0
0    0    0

-172.484 27795.9 0
27795.9 -290.618 0
0    0    0

144.6 27631.6 0
27631.6 2.48969 0
0    0    0

319.971 27542.9 0
27542.9 257.117 0
0    0    0

-289.591 28340.7 0
28340.7 -232.942 0
0    0    0

222.516 27392.9 0
27392.9 510.539 0
0    0    0

-98.8915 28207.2 0
28207.2 -445.078 0
0    0    0

-152.546 27177.7 0
27177.7 -229.586 0
0    0    0

12.5704 27521.3 0
27521.3 241.853 0
0    0    0

210.356 24598.1 0
24598.1 245.614 0
0    0    0

139.4 26566 0
26566 301.199 0
0    0    0

168.061 28596.5 0
28596.5 223.409 0
0    0    0

143.344 27017.7 0
27017.7 -94.7094 0
0    0    0

44.7832 29399.8 0
29399.8 -68.2834 0
0    0    0

-136.513 29752.7 0
29752.7 -168.783 0
0    0    0

-280.422 29483.8 0
29483.8 -186.782 0
0    0    0

317.835 26988.1 0
26988.1 105.247 0
0    0    0

-192.018 28403 0
28403 -47.9267 0
0    0    0

-54.6035 27417.4 0
27417.4 -9.44015 0
0    0    0

128.974 28666 0
28666 -13.5232 0
0    0    0

-124.859 28158.3 0
28158.3 -25.0389 0
0    0    0

144.678 29985.4 0
29985.4 166.04 0
0    0    0

146.691 29695.5 0
29695.5 30.4874 0
0    0    0

-112.766 28745.2 0
28745.2 -45.431 0
0    0    0

67.4 28291.7 0
28291.7 -27.9281 0
0    0    0

112.739 28241.9 0
28241.9 388.003 0
0    0    0

361.98 27613.3 0
27613.3 148.425 0
0    0    0

309.956 31464.9 0
31464.9 240.751 0
0    0    0

-68.0821 28669.8 0
28669.8 -160.185 0
0    0    0

280.165 44981.8 0
44981.8 522.357 0
0    0    0

187.557 44602.8 0
44602.8 168.675 0
0    0    0

-305.467 46188 0
46188 -49.3391 0
0    0    0

90.8437 45763.4 0
45763.4 148.27 0
0    0    0

-66.4736 43553.8 0
43553.8 -275.627 0
0    0    0

-296.205 44900.2 0
44900.2 -116.939 0
0    0    0

-38.8626 43741.1 0
43741.1 -58.1983 0
0    0    0

-35.1834 42534.1 0
42534.1 -93.4613 0
0    0    0

-170.451 44068.8 0
44068.8 -251.644 0
0    0    0

-67.971 43506 0
43506 174.062 0
0    0    0

-9.01731 44196.6 0
44196.6 95.2375 0
0    0    0

4.91421 44111.6 0
44111.6 -217.599 0
0    0    0

-225.935 42732.5 0
42732.5 -228.067 0
0    0    0

31.8662 43197.9 0
43197.9 -124.12 0
0    0    0

-63.2993 43655.5 0
43655.5 101.895 0
0    0    0

-57.9596 41302.6 0
41302.6 -14.1619 0
0    0    0

223.375 42995.4 0
42995.4 44.5682 0
0    0    0

-14.5012 41576.5 0
41576.5 161.237 0
0    0    0

-133.357 44474.2 0
44474.2 -54.1646 0
0    0    0

144.606 45073.8 0
45073.8 253.971 0
0    0    0

-188.119 43890.8 0
43890.8 -422.086 0
0    0    0

70.3832 43710.7 0
43710.7 191.621 0
0    0    0

-179.878 43943.9 0
43943.9 -217.217 0
0    0    0

142.499 41874.5 0
41874.5 99.3342 0
0    0    0

177.812 53282.8 0
53282.8 103.939 0
0    0    0

76.9452 54064 0
54064 -248.742 0
0    0    0

75.4352 53921.6 0
53921.6 149.296 0
0    0    0

176.376 53485 0
53485 77.7971 0
0    0    0

-253.88 53625 0
53625 -310.126 0
0    0    0

58.942 53496.8 0
53496.8 170.535 0
0    0    0

204.775 53727.7 0
53727.7 242.515 0
0    0    0

83.5507 52596.8 0
52596.8 -35.058 0
0    0    0

-37.812 52448.2 0
52448.2 241.171 0
0    0    0

-279.914 51484.1 0
51484.1 -352.126 0
0    0    0

-70.3747 53113.7 0
53113.7 178.459 0
0    0    0

323.721 52341.1 0
52341.1 351.18 0
0    0    0

-0.681925 51818.2 0
51818.2 263.035 0
0    0    0

-84.1015 51448.8 0
51448.8 -359.127 0
0    0    0

-30.4879 53199.7 0
53199.7 -150.525 0
0    0    0

63.2762 52564.6 0
52564.6 140.338 0
0    0    0

-157.375 53527.8 0
53527.8 10.2969 0
0    0    0

133.576 53745.1 0
53745.1 127.934 0
0    0    0

-63.5303 53022.6 0
53022.6 -141.26 0
0    0    0

-33.1339 51441.9 0
51441.9 -71.0619 0
0    0    0

109.455 52957.1 0
52957.1 261.352 0
0    0    0

-142.531 53695 0
53695 -382.118 0
0    0    0

-177.508 54275.2 0
54275.2 -170.182 0
0    0    0

142.882 53782.9 0
53782.9 243.752 0
0    0    0

-171.298 52709.8 0
52709.8 -137.762 0
0    0    0

-322.407 51949.8 0
51949.8 -264.053 0
0    0    0

-235.241 50572.7 0
50572.7 -285.107 0
0    0    0

-205.885 51975.3 0
51975.3 -39.5135 0
0    0    0

-101.252 50318.4 0
50318.4 19.495 0
0    0    0

109.789 51771.3 0
51771.3 64.3017 0
0    0    0

-113.162 50530.2 0
50530.2 -337.483 0
0    0    0

-112.264 51283.9 0
51283.9 -256.795 0
0    0    0

-201.441 50766 0
50766 -49.7836 0
0    0    0

-20.9007 53459.5 0
53459.5 -121.283 0
0    0    0

10.2189 48627 0
48627 195.793 0
0    0    0

23.3606 46861 0
46861 -28.9984 0
0    0    0

82.3723 48985.2 0
48985.2 -151.674 0
0    0    0

-175.919 48805.5 0
48805.5 -336.059 0
0    0    0

192.916 46640.2 0
46640.2 418.847 0
0    0    0

-17.3577 47388.8 0
47388.8 -383.746 0
0    0    0

17.575 46600.2 0
46600.2 256.715 0
0    0    0

-159.156 47095.2 0
47095.2 54.3022 0
0    0    0

-350.067 46398.8 0
46398.8 -332.229 0
0    0    0

69.3831 46768 0
46768 296.207 0
0    0    0

193.556 47663.7 0
47663.7 382.961 0
0    0    0

181.477 47475.5 0
47475.5 26.706 0
0    0    0

-95.1278 47801.7 0
47801.7 -132.5 0
0    0    0

-219.921 47187.8 0
47187.8 -389.906 0
0    0    0

80.4223 54529.8 0
54529.8 -30.0786 0
0    0    0

-105.42 53627.4 0
53627.4 -208.407 0
0    0    0

47.5102 53419.5 0
53419.5 165.617 0
0    0    0

-54.5435 54195.6 0
54195.6 -92.1788 0
0    0    0

-185.643 53179.5 0
53179.5 -45.9998 0
0    0    0

-201.873 53464.5 0
53464.5 49.759 0
0    0    0

-184.993 53721.7 0
53721.7 -100.335 0
0    0    0

-198.457 54752.7 0
54752.7 -48.4818 0
0    0    0

-15.4943 55926 0
55926 -203.384 0
0    0    0

-81.1297 54881.9 0
54881.9 122.356 0
0    0    0

136.055 41468.1 0
41468.1 123.523 0
0    0    0

-98.6264 40597.6 0
40597.6 15.2885 0
0    0    0

-83.209 41840.6 0
41840.6 -350.599 0
0    0    0

256.241 40793.8 0
40793.8 110.433 0
0    0    0

77.5605 40622.8 0
40622.8 81.7 0
0    0    0

-168.05 40976.5 0
40976.5 -6.0124 0
0    0    0

-12.8231 40440.7 0
40440.7 -134.473 0
0    0    0

-189.036 40860.8 0
40860.8 -234.701 0
0    0    0

131.276 41344.5 0
41344.5 123.778 0
0    0    0

23.693 41116.6 0
41116.6 -75.0586 0
0    0    0

235.669 47853.7 0
47853.7 147.736 0
0    0    0

7.13402 48606 0
48606 -226.735 0
0    0    0

295.301 47804.7 0
47804.7 103.908 0
0    0    0

-101.893 48409 0
48409 139.493 0
0    0    0

-134.411 43644.3 0
43644.3 -77.3765 0
0    0    0

241.53 45872.1 0
45872.1 269.088 0
0    0    0

-121.726 44394.7 0
44394.7 -240.853 0
0    0    0

41.4031 44734.5 0
44734.5 123.338 0
0    0    0

-176.077 45290.3 0
45290.3 -99.9732 0
0    0    0

40.0144 45372.8 0
45372.8 167.096 0
0    0    0

196.451 45019.3 0
45019.3 264.38 0
0    0    0

-201.239 45718.7 0
45718.7 -234.863 0
0    0    0

49.1421 47140 0
47140 219.896 0
0    0    0

15.0922 46656.2 0
46656.2 -75.3439 0
0    0    0

52.1961 45848.4 0
45848.4 -33.7501 0
0    0    0

257.868 47081.5 0
47081.5 245.154 0
0    0    0

49.7719 45846.9 0
45846.9 -28.0691 0
0    0    0

207.44 46465.4 0
46465.4 280.946 0
0    0    0

164.501 46528.3 0
46528.3 243.587 0
0    0    0

-225.038 46823.4 0
46823.4 -374.233 0
0    0    0

95.3837 45425 0
45425 142.272 0
0    0    0

-295.509 46260.1 0
46260.1 -90.1046 0
0    0    0

-63.038 45744.7 0
45744.7 -217.158 0
0    0    0

-73.1104 46144 0
46144 -164.181 0
0    0    0

230.06 45776.3 0
45776.3 76.6676 0
0    0    0

-119.115 47056.1 0
47056.1 -92.1921 0
0    0    0

74.0972 45966.3 0
45966.3 215.411 0
0    0    0

15.6455 45532.7 0
45532.7 -154.175 0
0    0    0

-127.832 47140.3 0
47140.3 104.96 0
0    0    0

-111.851 47581.7 0
47581.7 30.4086 0
0    0    0

122.925 47502.1 0
47502.1 84.9661 0
0    0    0

-81.7839 47736 0
47736 -239.429 0
0    0    0

-49.8653 48326 0
48326 -25.7966 0
0    0    0

154.571 48582.9 0
48582.9 163.175 0
0    0    0

65.1554 47338 0
47338 -151.277 0
0    0    0

-218.148 47975.6 0
47975.6 -57.9502 0
0    0    0

-155.478 48677.2 0
48677.2 -80.9263 0
0    0    0

201.016 47794 0
47794 18.8662 0
0    0    0

161.324 48217.3 0
48217.3 113.197 0
0    0    0

-188.56 47599.5 0
47599.5 -110.074 0
0    0    0

110.204 48560.4 0
48560.4 -256.896 0
0    0    0

-110.815 49043.2 0
49043.2 -145.378 0
0    0    0

-223.414 48021.7 0
48021.7 -112.289 0
0    0    0

-159.706 48326.4 0
48326.4 -106.799 0
0    0    0

-35.7531 49082.9 0
49082.9 -123.748 0
0    0    0

-105.585 50407 0
50407 59.2691 0
0    0    0

74.5693 48077.9 0
48077.9 545.12 0
0    0    0

170.688 48571.3 0
48571.3 -126.151 0
0    0    0

343.223 50115.3 0
50115.3 165.145 0
0    0    0

-216.934 48750.3 0
48750.3 -222.98 0
0    0    0

33.7324 49032.2 0
49032.2 229.551 0
0    0    0

227.689 49189.5 0
49189.5 19.4467 0
0    0    0

202.866 48813.7 0
48813.7 150.516 0
0    0    0

-223.659 49410.1 0
49410.1 15.9487 0
0    0    0

-179.303 49360.2 0
49360.2 -367.776 0
0    0    0

-0.401248 50096 0
50096 112.257 0
0    0    0

193.094 49494.9 0
49494.9 14.4482 0
0    0    0

-196.603 49944.7 0
49944.7 -77.3676 0
0    0    0

-50.947 49293.5 0
49293.5 -57.7463 0
0    0    0

-62.6115 49916.1 0
49916.1 -208.943 0
0    0    0

43.847 41271.5 0
41271.5 236.947 0
0    0    0

126.413 40451.7 0
40451.7 -140.572 0
0    0    0

212.305 40499.8 0
40499.8 -3.09029 0
0    0    0

-267.617 40991.9 0
40991.9 -167.922 0
0    0    0

-158.37 42151.8 0
42151.8 -85.9411 0
0    0    0

-178.664 41094.1 0
41094.1 -240.943 0
0    0    0

-132.695 41723.6 0
41723.6 -260.053 0
0    0    0

113.071 40762.3 0
40762.3 194.75 0
0    0    0

-132.688 40599 0
40599 -294.432 0
0    0    0

187.111 38963.5 0
38963.5 149.576 0
0    0    0

-112.698 42444.8 0
42444.8 172.963 0
0    0    0

182.109 41780.2 0
41780.2 111.264 0
0    0    0

-12.6175 39228.5 0
39228.5 -277.541 0
0    0    0

61.4578 39928.9 0
39928.9 -242.749 0
0    0    0

62.3838 39463 0
39463 37.6109 0
0    0    0

284.684 39915.8 0
39915.8 317.205 0
0    0    0

375.029 41929 0
41929 174.323 0
0    0    0

-82.8199 40079.6 0
40079.6 -114.485 0
0    0    0

-103.165 40177.3 0
40177.3 -209.555 0
0    0    0

-337.83 39642 0
39642 -408.086 0
0    0    0

111.673 40946.8 0
40946.8 -74.6198 0
0    0    0

-72.4783 40548.8 0
40548.8 25.1629 0
0    0    0

217.982 39513.9 0
39513.9 222.914 0
0    0    0

179.245 39043.1 0
39043.1 361.522 0
0    0    0

243.665 39364.8 0
39364.8 278.34 0
0    0    0

-127.355 39138.1 0
39138.1 -283.822 0
0    0    0

4.53043 38347.4 0
38347.4 169.61 0
0    0    0

-78.266 36238.8 0
36238.8 -113.776 0
0    0    0

-217.87 39805.1 0
39805.1 -201.012 0
0    0    0

-113.017 38887.2 0
38887.2 -214.967 0
0    0    0

-219.495 39323 0
39323 -376.88 0
0    0    0

-80.7763 38510 0
38510 -239.009 0
0    0    0

-42.2624 38906.6 0
38906.6 131.498 0
0    0    0

150.067 38817.7 0
38817.7 343.488 0
0    0    0

164.151 37499.8 0
37499.8 -12.6762 0
0    0    0

65.2411 37878.3 0
37878.3 -51.8687 0
0    0    0

159.527 38635.4 0
38635.4 -5.9622 0
0    0    0

-105.603 38778.2 0
38778.2 -321.326 0
0    0    0

-95.0553 38441 0
38441 173.082 0
0    0    0

240.796 39117.9 0
39117.9 260.508 0
0    0    0

-191.473 41142.7 0
41142.7 -211.656 0
0    0    0

-82.1282 40804.4 0
40804.4 22.0187 0
0    0    0

-241.159 41029.4 0
41029.4 -162.717 0
0    0    0

135.395 40819.9 0
40819.9 350.261 0
0    0    0

-439.686 42149.9 0
42149.9 -197.695 0
0    0    0

90.4401 41795.4 0
41795.4 -93.6415 0
0    0    0

6.78214 40433.1 0
40433.1 -16.1964 0
0    0    0

261.458 39844 0
39844 112.812 0
0    0    0

-157.049 41624.5 0
41624.5 -164.873 0
0    0    0

141.083 41225.1 0
41225.1 -0.668854 0
0    0    0

-35.8099 39728.5 0
39728.5 -161.674 0
0    0    0

-166.151 38361.3 0
38361.3 -267.483 0
0    0    0

-329.776 39654 0
39654 -213.07 0
0    0    0

68.3541 39253.5 0
39253.5 -113.579 0
0    0    0

-177.338 39932.6 0
39932.6 77.6244 0
0    0    0

110.016 39359.8 0
39359.8 130.134 0
0    0    0

-250.142 37530.9 0
37530.9 -265.6 0
0    0    0

-85.3929 37796.6 0
37796.6 165.837 0
0    0    0

224.619 35055.3 0
35055.3 183.417 0
0    0    0

63.4753 35821.7 0
35821.7 -38.4217 0
0    0    0

134.266 37002.9 0
37002.9 -9.92596 0
0    0    0

-262.551 36811.2 0
36811.2 -177.984 0
0    0    0

-140.225 35604.2 0
35604.2 133.059 0
0    0    0

307.093 35062.9 0
35062.9 365.803 0
0    0    0

187.578 34997.9 0
34997.9 274.328 0
0    0    0

57.5542 35493.9 0
35493.9 161.684 0
0    0    0

-163.96 32276.6 0
32276.6 132.979 0
0    0    0

162.638 31977.1 0
31977.1 243.891 0
0    0    0

-196.147 32075.8 0
32075.8 -77.4454 0
0    0    0

-173.655 32824.8 0
32824.8 -320.005 0
0    0    0

224.472 31921.2 0
31921.2 263.44 0
0    0    0

140.954 32224.3 0
32224.3 391.804 0
0    0    0

-103.645 32353.5 0
32353.5 -122.186 0
0    0    0

143.873 31344.6 0
31344.6 -70.0964 0
0    0    0

307.646 32454.2 0
32454.2 472.079 0
0    0    0

-35.6505 32387.3 0
32387.3 -277.452 0
0    0    0

-92.1968 30197 0
30197 -200.034 0
0    0    0

-49.4701 30602.5 0
30602.5 54.0149 0
0    0    0

228.647 31870.8 0
31870.8 103.959 0
0    0    0

-87.4828 30974.5 0
30974.5 -95.5025 0
0    0    0

-36.1327 35533 0
35533 -180.979 0
0    0    0

-138.667 34786.7 0
34786.7 -31.1505 0
0    0    0

83.5702 35351.4 0
35351.4 318.603 0
0    0    0

-217.994 35069.7 0
35069.7 -396.046 0
0    0    0

103.272 35811.8 0
35811.8 349.809 0
0    0    0

21.0409 35896.7 0
35896.7 258.534 0
0    0    0

-25.4938 42059.6 0
42059.6 -275.606 0
0    0    0

-130.851 42310.2 0
42310.2 -307.734 0
0    0    0

-208.46 41831.8 0
41831.8 -125.21 0
0    0    0

-176.355 42904.5 0
42904.5 -41.3603 0
0    0    0

-159.521 40250.6 0
40250.6 -383.415 0
0    0    0

116.329 42591.1 0
42591.1 271.051 0
0    0    0

178.476 41458.8 0
41458.8 34.4185 0
0    0    0

-8.44803 42154.2 0
42154.2 162.031 0
0    0    0

82.4667 42100.5 0
42100.5 101.543 0
0    0    0

-147.119 43599.6 0
43599.6 22.114 0
0    0    0

-203.164 41001.3 0
41001.3 -256.756 0
0    0    0

97.2097 41711.9 0
41711.9 345.136 0
0    0    0

-151.634 42567 0
42567 -316.479 0
0    0    0

-102.837 44677.1 0
44677.1 24.2408 0
0    0    0

-36.7749 41646.1 0
41646.1 -39.4404 0
0    0    0

104.388 42272.9 0
42272.9 125.102 0
0    0    0

119.945 42348.1 0
42348.1 -82.5984 0
0    0    0

144.069 42831 0
42831 137.016 0
0    0    0

-253.472 43715.2 0
43715.2 -147.196 0
0    0    0

-126.234 44525.9 0
44525.9 130.735 0
0    0    0

108.309 44182.4 0
44182.4 -8.74336 0
0    0    0

-61.797 44222.5 0
44222.5 -292.136 0
0    0    0

263.201 43337.6 0
43337.6 205.471 0
0    0    0

182.674 43906.5 0
43906.5 343.558 0
0    0    0

121.497 39048.3 0
39048.3 -16.1032 0
0    0    0

-153.94 39324.4 0
39324.4 99.5214 0
0    0    0

-207.66 39474.1 0
39474.1 -34.0641 0
0    0    0

19.6512 38595.9 0
38595.9 -99.4711 0
0    0    0

93.4409 40908 0
40908 -101.77 0
0    0    0

89.2267 41115.6 0
41115.6 -202.997 0
0    0    0

-244.325 41250.8 0
41250.8 -140.273 0
0    0    0

-160.359 41520.4 0
41520.4 123.422 0
0    0    0

148.339 41140.2 0
41140.2 -60.5811 0
0    0    0

37.5292 41764.8 0
41764.8 -48.5091 0
0    0    0

140.831 41747.1 0
41747.1 208.726 0
0    0    0

124.827 40729.4 0
40729.4 -61.0074 0
0    0    0

112.831 41617.7 0
41617.7 -55.7841 0
0    0    0

-87.2018 41878.7 0
41878.7 -37.9448 0
0    0    0

107.194 39800.9 0
39800.9 116.976 0
0    0    0

282.954 39717.2 0
39717.2 36.7727 0
0    0    0

-174.842 41418.9 0
41418.9 -392.01 0
0    0    0

71.937 40803.7 0
40803.7 -10.8932 0
0    0    0

130.636 40355.7 0
40355.7 191.196 0
0    0    0

-90.2374 40951.5 0
40951.5 178.74 0
0    0    0

91.0232 39067.7 0
39067.7 61.9689 0
0    0    0

-12.3212 39917.2 0
39917.2 133.965 0
0    0    0

-55.8234 38588.8 0
38588.8 129.159 0
0    0    0

-222.298 38972.6 0
38972.6 -225.661 0
0    0    0

321.238 40030 0
40030 128.072 0
0    0    0

-26.7724 41482.6 0
41482.6 164.828 0
0    0    0

-81.3869 40225.6 0
40225.6 -59.4091 0
0    0    0

114.008 40747.4 0
40747.4 448.995 0
0    0    0

-76.7148 36309.4 0
36309.4 77.9318 0
0    0    0

226.107 35853.7 0
35853.7 213.89 0
0    0    0

-111.562 36163.7 0
36163.7 -17.353 0
0    0    0

-237.173 37200.6 0
37200.6 -30.8777 0
0    0    0

-132.554 36420.2 0
36420.2 -72.0092 0
0    0    0

-65.9194 37619 0
37619 17.7658 0
0    0    0

-51.3521 33285.8 0
33285.8 -144.978 0
0    0    0

-133.675 32958.1 0
32958.1 230.515 0
0    0    0

-116.397 34554.3 0
34554.3 -206.42 0
0    0    0

-213.344 35833.3 0
35833.3 -195.877 0
0    0    0

210.233 34378.8 0
34378.8 330.803 0
0    0    0

-177.94 35166.6 0
35166.6 -450.025 0
0    0    0

59.9791 34962 0
34962 130.223 0
0    0    0

101.714 34943.7 0
34943.7 194.194 0
0    0    0

-44.2132 33901.8 0
33901.8 169.517 0
0    0    0

-15.3948 35162.3 0
35162.3 -199.328 0
0    0    0

-28.65 34106 0
34106 -368.029 0
0    0    0

-49.6925 34607.1 0
34607.1 -436.132 0
0    0    0

309.353 35838.8 0
35838.8 5.25532 0
0    0    0

182.733 35614.9 0
35614.9 146.428 0
0    0    0

24.4557 34621.2 0
34621.2 15.3725 0
0    0    0

67.5594 35083 0
35083 253.563 0
0    0    0

-233.156 33901 0
33901 -140.595 0
0    0    0

111.877 35035.1 0
35035.1 370.702 0
0    0    0

-147.466 34165 0
34165 -30.9022 0
0    0    0

55.2995 34432.2 0
34432.2 207.187 0
0    0    0

-98.5226 34213.9 0
34213.9 84.9375 0
0    0    0

-131.386 35787.6 0
35787.6 -195.635 0
0    0    0

-158.318 34837.6 0
34837.6 -27.7276 0
0    0    0

43.7003 34534.4 0
34534.4 245.695 0
0    0    0

-75.587 31354.2 0
31354.2 202.646 0
0    0    0

222.569 30960.4 0
30960.4 267.879 0
0    0    0

-273.816 31438.7 0
31438.7 -389.136 0
0    0    0

-11.3482 30624.3 0
30624.3 -22.2116 0
0    0    0

-97.7185 30279.7 0
30279.7 -351.866 0
0    0    0

131.397 30821.8 0
30821.8 -44.8369 0
0    0    0

-219.579 29872.7 0
29872.7 -224.279 0
0    0    0

-283.109 31008.8 0
31008.8 17.0936 0
0    0    0

-198.677 31396.3 0
31396.3 12.5561 0
0    0    0

161.361 31192.8 0
31192.8 191.899 0
0    0    0

97.3244 29987.4 0
29987.4 74.0957 0
0    0    0

376.304 30994.5 0
30994.5 -0.315868 0
0    0    0

-288.181 31275.8 0
31275.8 -220.154 0
0    0    0

108.716 32442.3 0
32442.3 149.007 0
0    0    0

167.589 30897.5 0
30897.5 -38.8491 0
0    0    0

145.568 31803 0
31803 -189.246 0
0    0    0

-226.187 32071 0
32071 -219.301 0
0    0    0

-58.5053 31716.6 0
31716.6 5.40843 0
0    0    0

-35.308 31062.4 0
31062.4 174.464 0
0    0    0

141.323 31501.9 0
31501.9 401.812 0
0    0    0

-237.247 28139.1 0
28139.1 -132.984 0
0    0    0

219.768 29225.4 0
29225.4 118.966 0
0    0    0

-106.525 30237.1 0
30237.1 31.7389 0
0    0    0

-102.147 29649.3 0
29649.3 -255.718 0
0    0    0

228.516 26249.8 0
26249.8 185.106 0
0    0    0

-76.1699 26838.8 0
26838.8 41.8272 0
0    0    0

217.09 25245.2 0
25245.2 20.775 0
0    0    0

45.8588 25558.9 0
25558.9 -111 0
0    0    0

-166.907 26697.8 0
26697.8 -206.667 0
0    0    0

116.394 25246.5 0
25246.5 147.512 0
0    0    0

-185.955 25394.5 0
25394.5 -39.6629 0
0    0    0

0.62405 24207.3 0
24207.3 -195.169 0
0    0    0

1.82621 25783.1 0
25783.1 231.516 0
0    0    0

-0.0210398 24902.4 0
24902.4 -96.9412 0
0    0    0

158.555 25130.4 0
25130.4 33.5769 0
0    0    0

-92.8294 24935.1 0
24935.1 -254.275 0
0    0    0

-234.613 27596.9 0
27596.9 -413.922 0
0    0    0

9.23558 25925.9 0
25925.9 185.362 0
0    0    0

-176.533 25676.8 0
25676.8 80.9909 0
0    0    0

-340.434 25042.6 0
25042.6 -520.887 0
0    0    0

55.8234 25243.2 0
25243.2 114.509 0
0    0    0

146.37 25907.1 0
25907.1 11.3303 0
0    0    0

-269.339 26288.4 0
26288.4 -234.653 0
0    0    0

-326.122 26557.4 0
26557.4 -26.9999 0
0    0    0

209.103 26036.7 0
26036.7 108.444 0
0    0    0

-180.379 26567.7 0
26567.7 -160.835 0
0    0    0

292.596 27356.2 0
27356.2 442.756 0
0    0    0

32.1489 27768.9 0
27768.9 96.5399 0
0    0    0

-132.521 25887.2 0
25887.2 -280.888 0
0    0    0

-169.481 27006.6 0
27006.6 -445.608 0
0    0    0

251 26505.4 0
26505.4 -43.8305 0
0    0    0

13.0699 27246.6 0
27246.6 22.0903 0
0    0    0

-145.321 26001.3 0
26001.3 -385.453 0
0    0    0

-186.193 26570.6 0
26570.6 -138.513 0
0    0    0

154.48 27392.7 0
27392.7 104.35 0
0    0    0

205.55 26942.1 0
26942.1 65.6162 0
0    0    0

-228.979 29076.4 0
29076.4 -30.6794 0
0    0    0

-134.125 29036.1 0
29036.1 -220.61 0
0    0    0

-312.987 26207.9 0
26207.9 -39.4203 0
0    0    0

-272.529 26693.2 0
26693.2 -441.428 0
0    0    0

-376.381 25860.7 0
25860.7 -382.352 0
0    0    0

-381.258 26786 0
26786 -239.104 0
0    0    0

-49.3561 25638.3 0
25638.3 40.2281 0
0    0    0

120.474 26451.1 0
26451.1 36.0172 0
0    0    0

-50.3434 26833.2 0
26833.2 128.736 0
0    0    0

-112.436 27106.6 0
27106.6 82.221 0
0    0    0

16.4803 26670.6 0
26670.6 135.049 0
0    0    0

273.654 26298.2 0
26298.2 197.952 0
0    0    0

450.094 29123 0
29123 282.935 0
0    0    0

-140.536 27886.5 0
27886.5 -171.544 0
0    0    0

267.76 26988.1 0
26988.1 216.491 0
0    0    0

-168.595 27804.6 0
27804.6 -210.445 0
0    0    0

262.764 26618.9 0
26618.9 -26.9399 0
0    0    0

-81.2603 27211.3 0
27211.3 -108.093 0
0    0    0

-73.8266 28323.5 0
28323.5 94.4627 0
0    0    0

-228.507 27640.9 0
27640.9 -253.75 0
0    0    0

190.245 27319.2 0
27319.2 -59.5419 0
0    0    0

124.789 29695.3 0
29695.3 118.131 0
0    0    0

109.502 27478.3 0
27478.3 147.013 0
0    0    0

291.77 27985.8 0
27985.8 235.188 0
0    0    0

-79.2434 26793.6 0
26793.6 123.398 0
0    0    0

-212.269 26464.6 0
26464.6 -44.0482 0
0    0    0

38.7618 28050.7 0
28050.7 3.63133 0
0    0    0

-218.976 27662.9 0
27662.9 -349.018 0
0    0    0

77.711 27348.9 0
27348.9 -67.0721 0
0    0    0

-107.209 25169.4 0
25169.4 -258.62 0
0    0    0

-38.2309 27382.9 0
27382.9 -159.5 0
0    0    0

151.971 26946.8 0
26946.8 48.9541 0
0    0    0

244.762 27633.8 0
27633.8 285.852 0
0    0    0

-194.799 26444.5 0
26444.5 -409.581 0
0    0    0

-210.894 27169.8 0
27169.8 -217.402 0
0    0    0

163.831 26675.6 0
26675.6 -34.357 0
0    0    0

212.354 26167.5 0
26167.5 298.196 0
0    0    0

-138 26777.9 0
26777.9 -50.1082 0
0    0    0

196.197 26022.1 0
26022.1 66.6585 0
0    0    0

170.648 26925.7 0
26925.7 417.033 0
0    0    0

-14.7388 25696 0
25696 -163.866 0
0    0    0

176.44 26359.2 0
26359.2 -190.226 0
0    0    0

14.4742 27416.1 0
27416.1 257.374 0
0    0    0

166.871 26836.1 0
26836.1 288.03 0
0    0    0

139.972 25683 0
25683 241.858 0
0    0    0

-172.003 26074.3 0
26074.3 -282.753 0
0    0    0

-38.7649 24813.7 0
24813.7 -122.621 0
0    0    0

206.134 25739.9 0
25739.9 261.036 0
0    0    0

-172.12 25453.7 0
25453.7 -395.304 0
0    0    0

-124.315 23725 0
23725 -8.62743 0
0    0    0

88.5298 23693.1 0
23693.1 -95.9743 0
0    0    0

60.0025 25266.9 0
25266.9 110.416 0
0    0    0

46.3446 24368.2 0
24368.2 -175.723 0
0    0    0

310.877 24493.5 0
24493.5 60.2736 0
0    0    0

129.601 25375.1 0
25375.1 161.517 0
0    0    0

50.2663 24851 0
24851 164.23 0
0    0    0

-228.543 27845.7 0
27845.7 -516.616 0
0    0    0

-93.5598 28159.8 0
28159.8 -190.142 0
0    0    0

52.4542 25734.2 0
25734.2 -19.6568 0
0    0    0

47.7907 27016.5 0
27016.5 -0.441949 0
0    0    0

-94.7895 27413.1 0
27413.1 102.917 0
0    0    0

-214.165 27037.8 0
27037.8 -32.3429 0
0    0    0

250.495 26235.9 0
26235.9 23.8874 0
0    0    0

-121.866 26800.5 0
26800.5 -46.6215 0
0    0    0

-75.649 28004.6 0
28004.6 19.8309 0
0    0    0

-11.3329 26166.4 0
26166.4 135.944 0
0    0    0

115.155 26699.8 0
26699.8 73.3836 0
0    0    0

240.007 27288.8 0
27288.8 294.798 0
0    0    0

205.704 28030.3 0
28030.3 23.563 0
0    0    0

20.5897 27753.5 0
27753.5 -13.3355 0
0    0    0

-1.61197 27716.9 0
27716.9 -148.97 0
0    0    0

-127.043 27823.2 0
27823.2 -34.1852 0
0    0    0

-8.47659 27285 0
27285 60.0418 0
0    0    0

-387.372 26588.5 0
26588.5 -518.262 0
0    0    0

24.1703 30933.4 0
30933.4 -1.40399 0
0    0    0

177.866 30092.3 0
30092.3 327.249 0
0    0    0

-147.006 31559.9 0
31559.9 -133.955 0
0    0    0

-195.962 30998.4 0
30998.4 -242.447 0
0    0    0

-108.07 31560.4 0
31560.4 277.344 0
0    0    0

-110.875 30891.8 0
30891.8 63.9665 0
0    0    0

193.686 30488.9 0
30488.9 124.525 0
0    0    0

-76.4336 30494.4 0
30494.4 -150.602 0
0    0    0

-306.192 29252.9 0
29252.9 -386.822 0
0    0    0

201.307 30202.1 0
30202.1 243.341 0
0    0    0

49.1138 30307.8 0
30307.8 -176.594 0
0    0    0

-214.087 31061.6 0
31061.6 -219.304 0
0    0    0

51.9551 28503.9 0
28503.9 115.604 0
0    0    0

-21.7446 29066.9 0
29066.9 -140.645 0
0    0    0

-226.785 29877.2 0
29877.2 -281.49 0
0    0    0

11.1733 30222.3 0
30222.3 111.496 0
0    0    0

-108.07 29938.1 0
29938.1 -28.483 0
0    0    0

199.603 30679.9 0
30679.9 101.719 0
0    0    0

-206.381 29991.2 0
29991.2 -234.804 0
0    0    0

207.573 29138.6 0
29138.6 292.961 0
0    0    0

-373.109 30427.7 0
30427.7 -14.2816 0
0    0    0

252.985 29674.5 0
29674.5 246.87 0
0    0    0

500.135 29292.4 0
29292.4 250.832 0
0    0    0

323.448 28942.8 0
28942.8 156.465 0
0    0    0

87.0005 29333.6 0
29333.6 189.68 0
0    0    0

-332.285 28686.8 0
28686.8 -303.708 0
0    0    0

371.724 29541.1 0
29541.1 375.812 0
0    0    0

126.838 28869.8 0
28869.8 199.722 0
0    0    0

-22.8562 29939.4 0
29939.4 171.516 0
0    0    0

114.599 29315.6 0
29315.6 -95.8203 0
0    0    0

-211.816 29553 0
29553 -262.323 0
0    0    0

-487.337 29039.2 0
29039.2 -211.916 0
0    0    0

253.26 45737.1 0
45737.1 162.541 0
0    0    0

-48.2112 45433.2 0
45433.2 -146.089 0
0    0    0

-22.2655 46207.7 0
46207.7 -261.811 0
0    0    0

-138.263 46584.2 0
46584.2 94.0825 0
0    0    0

284.185 46671.7 0
46671.7 46.1455 0
0    0    0

219.388 46460.2 0
46460.2 -16.3098 0
0    0    0

-143.268 46898.3 0
46898.3 -41.4204 0
0    0    0

-156.191 46947.2 0
46947.2 -120.781 0
0    0    0

-94.1434 46152.5 0
46152.5 -277.518 0
0    0    0

-58.7988 44223.3 0
44223.3 36.3288 0
0    0    0

282.642 47250.5 0
47250.5 58.0749 0
0    0    0

-126.977 47366 0
47366 91.5656 0
0    0    0

-19.456 45750.4 0
45750.4 195.328 0
0    0    0

297.181 46193.9 0
46193.9 45.4111 0
0    0    0

306.833 48824.4 0
48824.4 326.702 0
0    0    0

-256.741 46922.8 0
46922.8 -351.426 0
0    0    0

234.905 46061.6 0
46061.6 202.882 0
0    0    0

89.9758 46042.9 0
46042.9 -143.873 0
0    0    0

2.13262 44538.2 0
44538.2 -168.272 0
0    0    0

-133.68 44632.1 0
44632.1 154.616 0
0    0    0

48.0761 45132.8 0
45132.8 372.783 0
0    0    0

-157.488 44949.4 0
44949.4 -331.414 0
0    0    0

146.743 47993.8 0
47993.8 274.545 0
0    0    0

-152.597 47689.4 0
47689.4 47.4314 0
0    0    0

294.386 48398.8 0
48398.8 345.086 0
0    0    0

131.337 47257.4 0
47257.4 -113.184 0
0    0    0

-204.727 48277.3 0
48277.3 -287.303 0
0    0    0

147.32 47806.1 0
47806.1 262.033 0
0    0    0

277.298 48517.5 0
48517.5 390.108 0
0    0    0

-266.902 48267.9 0
48267.9 -307.005 0
0    0    0

-232.733 48118.7 0
48118.7 -497.482 0
0    0    0

89.7241 46735.9 0
46735.9 -139.134 0
0    0    0

-57.3204 48954.4 0
48954.4 -93.0945 0
0    0    0

-41.0658 49234 0
49234 -378.394 0
0    0    0

122.707 47062.6 0
47062.6 177.472 0
0    0    0

88.3849 45847.3 0
45847.3 237.947 0
0    0    0

163.462 47769.4 0
47769.4 410.111 0
0    0    0

-250.669 47480.3 0
47480.3 -325.454 0
0    0    0

84.5523 47857 0
47857 312.15 0
0    0    0

66.0936 46422 0
46422 257.582 0
0    0    0

-4.54228 48139.1 0
48139.1 -185.383 0
0    0    0

-39.9645 46505.8 0
46505.8 116.22 0
0    0    0

96.4965 46474.8 0
46474.8 -12.6425 0
0    0    0

57.4162 47422.5 0
47422.5 -133.51 0
0    0    0

-178.469 49335 0
49335 -395.095 0
0    0    0

-103.252 47677 0
47677 -33.9595 0
0    0    0

386.614 47702.6 0
47702.6 302.527 0
0    0    0

-188.195 48122.6 0
48122.6 32.4254 0
0    0    0

143.906 47099.3 0
47099.3 196.939 0
0    0    0

-70.1368 46716.2 0
46716.2 -18.0048 0
0    0    0

184.13 47400.3 0
47400.3 -27.4603 0
0    0    0

87.5826 46719.2 0
46719.2 353.58 0
0    0    0

-203.078 48612.8 0
48612.8 -216.813 0
0    0    0

212.17 48230.7 0
48230.7 92.2502 0
0    0    0

-104.452 45835.5 0
45835.5 157.724 0
0    0    0

47.2106 46658.8 0
46658.8 258.363 0
0    0    0

34.8059 45549.4 0
45549.4 -232.729 0
0    0    0

5.4595 44967.7 0
44967.7 -292.07 0
0    0    0

-126.087 43965.5 0
43965.5 -210.26 0
0    0    0

-178.487 46049.9 0
46049.9 -311.086 0
0    0    0

-219.692 45162.5 0
45162.5 -13.1801 0
0    0    0

32.2046 45404.3 0
45404.3 -80.6179 0
0    0    0

-112.49 46272.5 0
46272.5 -56.2365 0
0    0    0

20.9476 45393.7 0
45393.7 241.799 0
0    0    0

-3.0527 45726.3 0
45726.3 56.9906 0
0    0    0

-75.5251 45246.9 0
45246.9 92.2098 0
0    0    0

-25.3809 45515.6 0
45515.6 -309.393 0
0    0    0

-120.856 44608.3 0
44608.3 -88.5825 0
0    0    0

116.343 46054.7 0
46054.7 65.788 0
0    0    0

-55.2113 46337.4 0
46337.4 -289.391 0
0    0    0

-7.09848 46819.4 0
46819.4 161.131 0
0    0    0

31.1411 43473.9 0
43473.9 -379.828 0
0    0    0

65.461 45235.7 0
45235.7 84.7349 0
0    0    0

67.6003 45123.1 0
45123.1 -273.967 0
0    0    0

-28.296 46958.6 0
46958.6 -224.377 0
0    0    0

-45.5251 45656.4 0
45656.4 96.5886 0
0    0    0

199.04 48148.7 0
48148.7 130.883 0
0    0    0

-68.6858 46766.5 0
46766.5 -233.215 0
0    0    0

-81.9208 47246.8 0
47246.8 26.0248 0
0    0    0

142.327 47149.4 0
47149.4 128.64 0
0    0    0

-149.352 46847.8 0
46847.8 -260.018 0
0    0    0

281.078 44070.6 0
44070.6 268.654 0
0    0    0

-9.76834 46618.4 0
46618.4 -176.311 0
0    0    0

146.529 47078 0
47078 309.827 0
0    0    0

-304.795 47884.8 0
47884.8 23.226 0
0    0    0

110.93 49024 0
49024 -9.29032 0
0    0    0

-59.907 45680.3 0
45680.3 -238.326 0
0    0    0

185.963 44715.7 0
44715.7 325.199 0
0    0    0

178.716 46378.4 0
46378.4 19.9027 0
0    0    0

-107.943 47057.8 0
47057.8 22.0138 0
0    0    0

-202.107 48072.2 0
48072.2 -351.371 0
0    0    0

-264.311 48599 0
48599 -301.508 0
0    0    0

253.833 47796.1 0
47796.1 89.0069 0
0    0    0

74.022 48407.8 0
48407.8 208.228 0
0    0    0

-99.0356 49031.7 0
49031.7 96.2815 0
0    0    0

34.324 48371.7 0
48371.7 483.053 0
0    0    0

-49.7233 48566 0
48566 -157.296 0
0    0    0

-86.9259 48706.4 0
48706.4 136.265 0
0    0    0

172.429 45848.8 0
45848.8 204.397 0
0    0    0

132.73 46260.7 0
46260.7 -160.271 0
0    0    0

-287.639 44509 0
44509 -267.942 0
0    0    0

-240.958 43853.1 0
43853.1 -243.323 0
0    0    0

-299.153 47441.5 0
47441.5 -311.071 0
0    0    0

121.572 47133.3 0
47133.3 218.036 0
0    0    0

250.239 47737.9 0
47737.9 34.1435 0
0    0    0

-229.845 47420.2 0
47420.2 -321.092 0
0    0    0

-56.2601 48885 0
48885 84.9639 0
0    0    0

-209.424 48007.3 0
48007.3 -316 0
0    0    0

254.417 47692.4 0
47692.4 293.261 0
0    0    0

220.608 46479.1 0
46479.1 377.688 0
0    0    0

-154.418 44928.7 0
44928.7 -273.249 0
0    0    0

270.529 44143.6 0
44143.6 349.956 0
0    0    0

212.031 44592 0
44592 321.94 0
0    0    0

70.5339 43982.9 0
43982.9 -16.5272 0
0    0    0

135.52 43523.4 0
43523.4 220.695 0
0    0    0

-346.201 44241.7 0
44241.7 -75.2742 0
0    0    0

34.1985 46534.7 0
46534.7 152.718 0
0    0    0

61.9311 46307.5 0
46307.5 -184.504 0
0    0    0

140.21 43696.4 0
43696.4 -46.4443 0
0    0    0

-46.5716 43239.6 0
43239.6 -32.6728 0
0    0    0

158.444 45131.3 0
45131.3 185.394 0
0    0    0

-349.806 44166.3 0
44166.3 -304.539 0
0    0    0

-270.798 44350.7 0
44350.7 -251.054 0
0    0    0

209.58 43425.1 0
43425.1 -14.3226 0
0    0    0

-74.3016 48244.8 0
48244.8 -16.3032 0
0    0    0

-43.3827 48556.4 0
48556.4 -149.24 0
0    0    0

219.221 44111.9 0
44111.9 4.79024 0
0    0    0

62.395 44699.2 0
44699.2 -124.35 0
0    0    0

57.2762 43314.6 0
43314.6 265.817 0
0    0    0

-127.721 43490.1 0
43490.1 18.0002 0
0    0    0

55.1022 44499.5 0
44499.5 -30.4252 0
0    0    0

-73.7184 44288.5 0
44288.5 34.5542 0
0    0    0

85.8012 44845.2 0
44845.2 41.636 0
0    0    0

-85.5053 44507.1 0
44507.1 -292.179 0
0    0    0

195.311 40362.6 0
40362.6 -26.4454 0
0    0    0

54.3684 42924.7 0
42924.7 -6.02044 0
0    0    0

-36.3564 53398.7 0
53398.7 -141.442 0
0    0    0

-115.416 53658.3 0
53658.3 -58.3677 0
0    0    0

-261.755 52223.1 0
52223.1 -99.137 0
0    0    0

19.9702 53059.8 0
53059.8 -244.558 0
0    0    0

-197.386 52590.7 0
52590.7 -125.699 0
0    0    0

42.0814 52825.8 0
52825.8 133.384 0
0    0    0

-51.1925 53555.4 0
53555.4 -196.693 0
0    0    0

-171.916 54083.2 0
54083.2 -251.411 0
0    0    0

235.355 53370 0
53370 354.894 0
0    0    0

-51.7153 53146.6 0
53146.6 -226.408 0
0    0    0

-82.9924 52984.4 0
52984.4 173.08 0
0    0    0

-97.697 53318.4 0
53318.4 28.9843 0
0    0    0

222.924 53183.9 0
53183.9 213.182 0
0    0    0

-151.468 54311.8 0
54311.8 -142.596 0
0    0    0

-171.508 55305.7 0
55305.7 -115.7 0
0    0    0

165.655 53790.3 0
53790.3 341.679 0
0    0    0

-71.9051 54636.3 0
54636.3 -188.04 0
0    0    0

-239.892 54094.1 0
54094.1 -405.593 0
0    0    0

93.6425 54562.2 0
54562.2 -152.327 0
0    0    0

128.591 54342.3 0
54342.3 347.45 0
0    0    0

-148.965 54860.9 0
54860.9 77.6289 0
0    0    0

-42.3513 55758.4 0
55758.4 -318.154 0
0    0    0

109.594 55055.5 0
55055.5 -42.8248 0
0    0    0

162.643 54805.2 0
54805.2 75.6974 0
0    0    0

-239.254 56641.3 0
56641.3 -39.0034 0
0    0    0

-144.568 55905.8 0
55905.8 -4.49045 0
0    0    0

-94.3706 55239.5 0
55239.5 -19.9829 0
0    0    0

-351.498 54251.3 0
54251.3 -388.587 0
0    0    0

188.564 54365.2 0
54365.2 294.808 0
0    0    0

200.118 54103.9 0
54103.9 158.534 0
0    0    0

113.236 53952.9 0
53952.9 208.277 0
0    0    0

-240.179 54991.2 0
54991.2 -413.249 0
0    0    0

286.636 55124.8 0
55124.8 221.036 0
0    0    0

61.6817 56238 0
56238 141.548 0
0    0    0

-165.341 56570.5 0
56570.5 -265.122 0
0    0    0

71.5467 56961.5 0
56961.5 316.464 0
0    0    0

-78.0971 57261.5 0
57261.5 -252.487 0
0    0    0

125.762 56204.5 0
56204.5 -34.8954 0
0    0    0

-227.806 55511 0
55511 -225.368 0
0    0    0

-273.842 55429.4 0
55429.4 -43.5803 0
0    0    0

190.479 51718.9 0
51718.9 270.563 0
0    0    0

-52.3169 51644.9 0
51644.9 226.021 0
0    0    0

-50.8093 49827 0
49827 -101.8 0
0    0    0

-62.7541 51312.7 0
51312.7 95.0336 0
0    0    0

225.553 51713.5 0
51713.5 335.9 0
0    0    0

206.085 50985.7 0
50985.7 207.735 0
0    0    0

-90.7161 52011.1 0
52011.1 -178.095 0
0    0    0

-271.312 51275.6 0
51275.6 -289.286 0
0    0    0

-192.863 50806.7 0
50806.7 -316.97 0
0    0    0

-79.4303 50910.2 0
50910.2 -184.456 0
0    0    0

-230.443 51988.6 0
51988.6 -264.586 0
0    0    0

-160.251 52212.9 0
52212.9 -181.01 0
0    0    0

1.27136 53402.3 0
53402.3 165.764 0
0    0    0

111.263 55447.3 0
55447.3 -91.7049 0
0    0    0

-52.3988 52951.4 0
52951.4 -329.595 0
0    0    0

42.0777 53002 0
53002 -194.587 0
0    0    0

6.01835 52807.8 0
52807.8 282.562 0
0    0    0

267.706 52178.9 0
52178.9 186.611 0
0    0    0

-297.622 47673.2 0
47673.2 -228.985 0
0    0    0

117.025 48088.4 0
48088.4 253.011 0
0    0    0

-292.29 46319.8 0
46319.8 -81.0885 0
0    0    0

-93.7101 46830.3 0
46830.3 -1.38847 0
0    0    0

223.831 53274.7 0
53274.7 186.8 0
0    0    0

229.302 53992 0
53992 79.7615 0
0    0    0

-128.585 53923.4 0
53923.4 -0.150349 0
0    0    0

127.505 54334 0
54334 237.204 0
0    0    0

117.093 53103.3 0
53103.3 72.2551 0
0    0    0

25.9775 54784.9 0
54784.9 41.1675 0
0    0    0

10.3883 54042.4 0
54042.4 145.939 0
0    0    0

237.567 55484.2 0
55484.2 60.3316 0
0    0    0

-333.469 47631 0
47631 12.7021 0
0    0    0

-82.111 47873.1 0
47873.1 -50.258 0
0    0    0

-258.532 46174.1 0
46174.1 -110.749 0
0    0    0

-87.8276 45665.8 0
45665.8 -171.111 0
0    0    0

-159.564 44868.5 0
44868.5 -127.493 0
0    0    0

-183.585 46204 0
46204 -87.0428 0
0    0    0

-85.8926 46106 0
46106 -146.673 0
0    0    0

207.839 45290.5 0
45290.5 212.991 0
0    0    0

-163.096 46264.1 0
46264.1 162.312 0
0    0    0

-213.011 49446.7 0
49446.7 -179.856 0
0    0    0

134.62 49489.8 0
49489.8 127.879 0
0    0    0

226.488 49072.1 0
49072.1 103.419 0
0    0    0

-258.011 49927.8 0
49927.8 -149.873 0
0    0    0

-336.333 50302.3 0
50302.3 -150.063 0
0    0    0

111.576 49747.1 0
49747.1 -55.8988 0
0    0    0

83.8758 50395.3 0
50395.3 56.4035 0
0    0    0

192.141 48774 0
48774 123.868 0
0    0    0

311.276 49438.1 0
49438.1 209.568 0
0    0    0

-32.1467 41406.1 0
41406.1 320.438 0
0    0    0

32.2572 41422.4 0
41422.4 330.868 0
0    0    0

-253.789 42184.6 0
42184.6 -50.9445 0
0    0    0

-97.7064 41036.1 0
41036.1 -15.8366 0
0    0    0

258.874 39979 0
39979 80.7678 0
0    0    0

-312.998 40855.6 0
40855.6 -119.258 0
0    0    0

183.463 40655.6 0
40655.6 41.9084 0
0    0    0

-128.657 40418.1 0
40418.1 43.1015 0
0    0    0

196.617 40183 0
40183 19.4967 0
0    0    0

153.231 40670.2 0
40670.2 104.922 0
0    0    0

-73.06 38592 0
38592 111.63 0
0    0    0

-242.413 37334.5 0
37334.5 -201.466 0
0    0    0

-274.953 38891.7 0
38891.7 -18.2904 0
0    0    0

125.092 38183.3 0
38183.3 -153.424 0
0    0    0

70.0732 41909.3 0
41909.3 144.278 0
0    0    0

109.336 39979.3 0
39979.3 35.654 0
0    0    0

76.4774 38680.1 0
38680.1 77.8742 0
0    0    0

245.303 38584.7 0
38584.7 297.395 0
0    0    0

101.512 36551.9 0
36551.9 75.1437 0
0    0    0

-128.551 36102.9 0
36102.9 -387.917 0
0    0    0

262.545 37520.5 0
37520.5 229.809 0
0    0    0

-21.6683 34979.6 0
34979.6 -261.709 0
0    0    0

-203.528 37270.7 0
37270.7 -393.246 0
0    0    0

-20.7309 35186.7 0
35186.7 -223.654 0
0    0    0

147.487 36487.6 0
36487.6 422.396 0
0    0    0

-294.695 35500.8 0
35500.8 28.8227 0
0    0    0

-435.686 37846.6 0
37846.6 -225.209 0
0    0    0

-35.8412 37398.5 0
37398.5 -154.818 0
0    0    0

-292.514 36742.8 0
36742.8 -353.352 0
0    0    0

-24.076 36357.8 0
36357.8 146.755 0
0    0    0

98.418 36957.2 0
36957.2 213.162 0
0    0    0

-62.3156 36669.6 0
36669.6 -270.471 0
0    0    0

-45.7848 36761.1 0
36761.1 -280.821 0
0    0    0

113.416 35906.3 0
35906.3 23.0462 0
0    0    0

-54.3694 35473.7 0
35473.7 215.27 0
0    0    0

258.17 35840.6 0
35840.6 197.061 0
0    0    0

-59.7303 35343.2 0
35343.2 98.7967 0
0    0    0

358.342 33163.3 0
33163.3 346.597 0
0    0    0

165.525 33649.7 0
33649.7 146.686 0
0    0    0

-390.528 33512.7 0
33512.7 175.031 0
0    0    0

-97.6588 33453.8 0
33453.8 145.579 0
0    0    0

-80.0613 32652.8 0
32652.8 -11.1885 0
0    0    0

-96.0279 32065.1 0
32065.1 -42.4043 0
0    0    0

16.6177 31214.3 0
31214.3 251.204 0
0    0    0

-190.817 31697.2 0
31697.2 -3.94491 0
0    0    0

-341.132 32167.5 0
32167.5 -308.034 0
0    0    0

-203.554 31380.4 0
31380.4 -567.172 0
0    0    0

-19.0163 30865.7 0
30865.7 -35.7808 0
0    0    0

-203.663 28144.5 0
28144.5 -27.5885 0
0    0    0

-147.674 30356.3 0
30356.3 -64.4445 0
0    0    0

-156.727 43129.9 0
43129.9 -321.433 0
0    0    0

-134.72 43390.2 0
43390.2 -94.1585 0
0    0    0

62.2725 39610.9 0
39610.9 38.1665 0
0    0    0

-131.002 40741.4 0
40741.4 -348.673 0
0    0    0

-211.938 40677.4 0
40677.4 -345.525 0
0    0    0

-107.056 41872.4 0
41872.4 200.485 0
0    0    0

-145.961 41594.2 0
41594.2 197.018 0
0    0    0

-162.193 41231.9 0
41231.9 -178.188 0
0    0    0

-46.0054 40529.9 0
40529.9 21.8447 0
0    0    0

248.528 40957.9 0
40957.9 405.026 0
0    0    0

80.4863 41109 0
41109 97.6365 0
0    0    0

-110.228 42083.8 0
42083.8 -252.158 0
0    0    0

-16.1968 41691.2 0
41691.2 -110.293 0
0    0    0

-46.0004 41998.9 0
41998.9 -251.129 0
0    0    0

107.312 40900.6 0
40900.6 -251.192 0
0    0    0

40.6718 41754.9 0
41754.9 -73.5373 0
0    0    0

-173.603 40820.4 0
40820.4 -205.524 0
0    0    0

-85.858 41432.4 0
41432.4 81.7586 0
0    0    0

-3.70531 42952.4 0
42952.4 -146.879 0
0    0    0

41.128 42474.5 0
42474.5 197.163 0
0    0    0

-182.778 41227.3 0
41227.3 -122.59 0
0    0    0

266.804 41016.1 0
41016.1 138.206 0
0    0    0

-71.4199 40641.7 0
40641.7 258.998 0
0    0    0

125.189 41215.9 0
41215.9 337.898 0
0    0    0

-32.0295 39676.8 0
39676.8 -225.775 0
0    0    0

-10.6414 40116.7 0
40116.7 -144.395 0
0    0    0

135.843 41357.4 0
41357.4 2.47545 0
0    0    0

76.0874 41853 0
41853 249.866 0
0    0    0

-150.728 42737.9 0
42737.9 9.11731 0
0    0    0

1.89135 42087.2 0
42087.2 61.6707 0
0    0    0

-157.207 35674.3 0
35674.3 265.152 0
0    0    0

144.308 36299.1 0
36299.1 301.038 0
0    0    0

-205.366 35337.1 0
35337.1 -150.416 0
0    0    0

45.0108 36762.3 0
36762.3 -374.465 0
0    0    0

-49.6398 36753.9 0
36753.9 -144.163 0
0    0    0

-106.352 37145.3 0
37145.3 24.4591 0
0    0    0

37.8782 36844 0
36844 -381.695 0
0    0    0

-200.222 37720.5 0
37720.5 -272.545 0
0    0    0

248.669 36577.2 0
36577.2 504.378 0
0    0    0

117.305 39278.4 0
39278.4 -108.404 0
0    0    0

45.1671 36891.6 0
36891.6 52.4109 0
0    0    0

233.253 37960.3 0
37960.3 252.534 0
0    0    0

-207.276 38132.7 0
38132.7 46.0114 0
0    0    0

327.359 37392.2 0
37392.2 193.652 0
0    0    0

-67.762 38304.1 0
38304.1 156.168 0
0    0    0

-64.1811 38326.3 0
38326.3 -196.567 0
0    0    0

138.78 38068.8 0
38068.8 121.248 0
0    0    0

-55.3384 37975.8 0
37975.8 -375.646 0
0    0    0

152.289 34091.1 0
34091.1 221.737 0
0    0    0

-73.0791 33770 0
33770 -52.0774 0
0    0    0

82.7518 32967.4 0
32967.4 125.255 0
0    0    0

66.1112 32495.4 0
32495.4 5.4329 0
0    0    0

114.141 32281.7 0
32281.7 155.79 0
0    0    0

-326.964 32636.8 0
32636.8 -354.621 0
0    0    0

-316.483 32927 0
32927 -342.086 0
0    0    0

7.7738 34122.6 0
34122.6 -25.3852 0
0    0    0

-26.8557 35538.1 0
35538.1 330.726 0
0    0    0

-232.684 35917.9 0
35917.9 -269.722 0
0    0    0

236.393 36084.1 0
36084.1 209.775 0
0    0    0

128.128 35738.5 0
35738.5 -36.6331 0
0    0    0

159.712 34374.5 0
34374.5 -104.384 0
0    0    0

205.428 34124.7 0
34124.7 571.1 0
0    0    0

-45.1895 34686 0
34686 168.644 0
0    0    0

-8.64517 35064.6 0
35064.6 233.047 0
0    0    0

4.16523 34299.3 0
34299.3 -217.192 0
0    0    0

39.7556 34508.1 0
34508.1 292.532 0
0    0    0

213.225 33156 0
33156 292.078 0
0    0    0

169.978 33302.2 0
33302.2 103.958 0
0    0    0

-116.285 34936.9 0
34936.9 36.2548 0
0    0    0

52.5957 35268.6 0
35268.6 148.655 0
0    0    0

-199.406 33813.6 0
33813.6 -491.989 0
0    0    0

-63.4671 34084.9 0
34084.9 -122.213 0
0    0    0

20.112 34878.6 0
34878.6 -273 0
0    0    0

15.4361 35389.8 0
35389.8 -206.603 0
0    0    0

101.603 35555.4 0
35555.4 86.7393 0
0    0    0

-159.038 34892.2 0
34892.2 -187.658 0
0    0    0

-42.8299 35618.7 0
35618.7 -200.31 0
0    0    0

-30.5722 36131.9 0
36131.9 61.9689 0
0    0    0

-13.7566 34464.6 0
34464.6 4.83137 0
0    0    0

131.638 35101.5 0
35101.5 -54.4557 0
0    0    0

-66.7386 34183.5 0
34183.5 179.392 0
0    0    0

-13.2954 33751.3 0
33751.3 -169.729 0
0    0    0

42.5304 34443.3 0
34443.3 55.1929 0
0    0    0

40.9902 34263.2 0
34263.2 -175.889 0
0    0    0

123.209 33791.1 0
33791.1 358.803 0
0    0    0

-69.415 33744.6 0
33744.6 37.1878 0
0    0    0

-89.8715 33536.7 0
33536.7 -204.229 0
0    0    0

146.208 34582.4 0
34582.4 13.6618 0
0    0    0

19.126 33180 0
33180 283.185 0
0    0    0

-167.229 32935.4 0
32935.4 115.787 0
0    0    0

-229.594 34977.9 0
34977.9 -198.693 0
0    0    0

-111.302 35578 0
35578 81.2455 0
0    0    0

-86.0792 34506.5 0
34506.5 -397.68 0
0    0    0

-274.563 36971.9 0
36971.9 -368.563 0
0    0    0

67.1023 33683.2 0
33683.2 239.596 0
0    0    0

-19.6586 36010.4 0
36010.4 335.645 0
0    0    0

6.42085 35319.2 0
35319.2 119.299 0
0    0    0

94.2087 36365.9 0
36365.9 -154.584 0
0    0    0

50.0428 35115.6 0
35115.6 -147.353 0
0    0    0

219.119 35584.5 0
35584.5 285.064 0
0    0    0

-51.2283 33925.5 0
33925.5 -201.474 0
0    0    0

-235.85 33533.3 0
33533.3 -279.039 0
0    0    0

114.849 30316.2 0
30316.2 -8.23646 0
0    0    0

-12.6654 30101.6 0
30101.6 -199.091 0
0    0    0

-17.2209 36770.3 0
36770.3 204.576 0
0    0    0

-125.386 36444.9 0
36444.9 -1.05491 0
0    0    0

-50.9692 35785.5 0
35785.5 234.315 0
0    0    0

14.9632 36142.1 0
36142.1 18.3962 0
0    0    0

-91.4769 36303.2 0
36303.2 -61.5114 0
0    0    0

-225.551 36569.9 0
36569.9 16.7694 0
0    0    0

118.935 36687.7 0
36687.7 128.793 0
0    0    0

-7.66896 36343.5 0
36343.5 -229.197 0
0    0    0

-104.198 37322.9 0
37322.9 90.6328 0
0    0    0

189.043 37302.6 0
37302.6 174.848 0
0    0    0

-76.6936 36468 0
36468 -181.069 0
0    0    0

242.583 35830.5 0
35830.5 -32.0815 0
0    0    0

-66.2928 35722.1 0
35722.1 -111.349 0
0    0    0

102.739 35364.9 0
35364.9 292.94 0
0    0    0

69.5499 31286.6 0
31286.6 195.533 0
0    0    0

29.5941 34522.1 0
34522.1 90.8467 0
0    0    0

163.178 32317.7 0
32317.7 97.9819 0
0    0    0

3.41556 34068.2 0
34068.2 -280.39 0
0    0    0

58.5064 34025.2 0
34025.2 144.008 0
0    0    0

-78.7326 33874.4 0
33874.4 162.016 0
0    0    0

-101.321 30772.2 0
30772.2 -49.3141 0
0    0    0

205.621 32265.1 0
32265.1 115.936 0
0    0    0

31.8098 33053.7 0
33053.7 -225.149 0
0    0    0

-221.774 33120.1 0
33120.1 -206.15 0
0    0    0

377.635 31776 0
31776 787.774 0
0    0    0

121.516 32601.3 0
32601.3 -172.507 0
0    0    0

-145.256 32419.8 0
32419.8 -12.2146 0
0    0    0

186.483 32755.3 0
32755.3 105.299 0
0    0    0

84.01 31837.3 0
31837.3 -3.25932 0
0    0    0

-128.399 31557.9 0
31557.9 222.399 0
0    0    0

-168.251 32759 0
32759 -49.0306 0
0    0    0

-9.69867 33808.1 0
33808.1 247.457 0
0    0    0

-192.581 30731.3 0
30731.3 -204.706 0
0    0    0

73.0296 29432.4 0
29432.4 280.899 0
0    0    0

103.963 28436.6 0
28436.6 192.465 0
0    0    0

-79.3774 30609.3 0
30609.3 -329.99 0
0    0    0

40.7576 30656.4 0
30656.4 -138.208 0
0    0    0

-116.438 29602.1 0
29602.1 133.616 0
0    0    0

-215.308 30410.7 0
30410.7 -292.185 0
0    0    0

-269.94 29951 0
29951 -341.638 0
0    0    0

-133.865 32073.2 0
32073.2 -554.942 0
0    0    0

-19.8319 30229.4 0
30229.4 -41.6739 0
0    0    0

-86.7804 29792.6 0
29792.6 24.8019 0
0    0    0

280.376 30194.8 0
30194.8 360.53 0
0    0    0

180.721 29198.4 0
29198.4 353.234 0
0    0    0

125.934 28769.6 0
28769.6 52.0972 0
0    0    0

142.703 30167.4 0
30167.4 -226.482 0
0    0    0

83.6096 29749.4 0
29749.4 -32.8991 0
0    0    0

-107.602 28961.1 0
28961.1 123.824 0
0    0    0

39.898 29804.8 0
29804.8 235.785 0
0    0    0

14.8992 27704.6 0
27704.6 85.1716 0
0    0    0

17.354 29290.3 0
29290.3 125.714 0
0    0    0

-68.7458 30024.5 0
30024.5 -309.91 0
0    0    0

77.3438 31011.3 0
31011.3 163.779 0
0    0    0

82.7286 29082.6 0
29082.6 -73.8728 0
0    0    0

302.115 29011.5 0
29011.5 -43.5907 0
0    0    0

21.9542 29884.8 0
29884.8 -106.956 0
0    0    0

-71.6782 30007.9 0
30007.9 130.241 0
0    0    0

89.1091 32310.1 0
32310.1 271.231 0
0    0    0

237.819 32137.6 0
32137.6 100.645 0
0    0    0

-45.4548 32626.9 0
32626.9 -211.375 0
0    0    0

-89.4735 32624 0
32624 -16.9509 0
0    0    0

114.084 29724.9 0
29724.9 233.454 0
0    0    0

58.6709 30667.6 0
30667.6 -255.755 0
0    0    0

-15.7498 30431.4 0
30431.4 251.536 0
0    0    0

-141.543 31456.9 0
31456.9 -242.457 0
0    0    0

82.0158 31334.9 0
31334.9 -20.4388 0
0    0    0

-72.4781 31675.6 0
31675.6 285.131 0
0    0    0

54.1138 32920.2 0
32920.2 -219.803 0
0    0    0

395.119 32567.3 0
32567.3 331.406 0
0    0    0

72.0865 28996.8 0
28996.8 -132.072 0
0    0    0

-57.3785 29556.2 0
29556.2 -160.379 0
0    0    0

-75.4425 30890.6 0
30890.6 -269.418 0
0    0    0

100.698 31121.1 0
31121.1 384.399 0
0    0    0

-109.147 31749.6 0
31749.6 182.47 0
0    0    0

-283.459 32299.8 0
32299.8 -312.297 0
0    0    0

-276.482 31501.9 0
31501.9 -497.515 0
0    0    0

11.5938 31985.9 0
31985.9 81.6104 0
0    0    0

21.2915 33205.1 0
33205.1 192.822 0
0    0    0

246.671 32067 0
32067 148.351 0
0    0    0

76.6299 33589.8 0
33589.8 237.036 0
0    0    0

173.785 33915.4 0
33915.4 -17.8193 0
0    0    0

-138.34 32923.4 0
32923.4 -147.507 0
0    0    0

-108.801 33003.2 0
33003.2 47.1448 0
0    0    0

-228.634 28477.9 0
28477.9 123.632 0
0    0    0

-135.275 28471.9 0
28471.9 -198.519 0
0    0    0

344.283 29364.4 0
29364.4 494.725 0
0    0    0

-175.527 30957 0
30957 -256.708 0
0    0    0

-50.8991 30590.4 0
30590.4 195.482 0
0    0    0

80.258 31011.6 0
31011.6 128.159 0
0    0    0

74.2898 31258.2 0
31258.2 131.16 0
0    0    0

-267.633 31500.2 0
31500.2 89.7714 0
0    0    0

73.747 33016.1 0
33016.1 207.741 0
0    0    0

160.181 32523.1 0
32523.1 169.718 0
0    0    0

-30.9837 32399.9 0
32399.9 -116.907 0
0    0    0

98.7664 32008.7 0
32008.7 115.015 0
0    0    0

-98.0591 32187.3 0
32187.3 162.851 0
0    0    0

160.962 31622.4 0
31622.4 -174.588 0
0    0    0

-84.4687 33513.6 0
33513.6 -38.689 0
0    0    0

-140.823 33758.3 0
33758.3 96.3879 0
0    0    0

-142.294 33339.1 0
33339.1 -255.461 0
0    0    0

159.652 33354.2 0
33354.2 -117.027 0
0    0    0

-315.417 29484.1 0
29484.1 -221.034 0
0    0    0

0.0654245 28391.6 0
28391.6 -14.2287 0
0    0    0

-151.58 30210.9 0
30210.9 6.30207 0
0    0    0

5.02425 29578.2 0
29578.2 -139.435 0
0    0    0

-134.986 28651.2 0
28651.2 120.514 0
0    0    0

198.403 29789 0
29789 -125.377 0
0    0    0

-56.1451 29691 0
29691 -485.108 0
0    0    0

174.999 30655.7 0
30655.7 93.8736 0
0    0    0

-59.1122 29035.6 0
29035.6 -159.66 0
0    0    0

-158.671 29841.2 0
29841.2 -466.4 0
0    0    0

121.093 29861 0
29861 58.2153 0
0    0    0

186.114 30459.7 0
30459.7 290.809 0
0    0    0

-156.57 29054.8 0
29054.8 -160.274 0
0    0    0

-20.7495 29461.2 0
29461.2 233.077 0
0    0    0

-170.615 28801.3 0
28801.3 -37.8357 0
0    0    0

129.48 29288.6 0
29288.6 337.497 0
0    0    0

191.416 25820 0
25820 66.1391 0
0    0    0

115.771 25532.1 0
25532.1 -144.507 0
0    0    0

-190.293 23418.3 0
23418.3 -279.382 0
0    0    0

103.788 24767.2 0
24767.2 229.213 0
0    0    0

-118.044 28511.1 0
28511.1 -87.2309 0
0    0    0

-301.581 27323.1 0
27323.1 -139.02 0
0    0    0

208.386 25948.6 0
25948.6 220.477 0
0    0    0

315.166 26981.9 0
26981.9 -67.9085 0
0    0    0

-19.9217 24891 0
24891 179.45 0
0    0    0

263.701 25908.6 0
25908.6 330.35 0
0    0    0

-132.825 26302.9 0
26302.9 -170.374 0
0    0    0

-65.5988 25583.4 0
25583.4 -67.0197 0
0    0    0

-296.246 27177 0
27177 -371.643 0
0    0    0

312.03 28402.8 0
28402.8 186.651 0
0    0    0

58.5391 27592.9 0
27592.9 153.985 0
0    0    0

-86.7816 27297.6 0
27297.6 -343.825 0
0    0    0

-173.542 27936.1 0
27936.1 34.4326 0
0    0    0

152.412 27281.6 0
27281.6 434.941 0
0    0    0

89.7393 26112.1 0
26112.1 -54.9769 0
0    0    0

138.416 26669.3 0
26669.3 156.789 0
0    0    0

-150.198 26841 0
26841 -320.011 0
0    0    0

-130.316 27153.8 0
27153.8 -117.662 0
0    0    0

19.8756 26303.7 0
26303.7 234.284 0
0    0    0

-136.325 26514.6 0
26514.6 -285.177 0
0    0    0

154.397 25138.8 0
25138.8 66.3414 0
0    0    0

252.043 24528.8 0
24528.8 176.063 0
0    0    0

73.6654 25222.8 0
25222.8 -10.2971 0
0    0    0

-266.586 25524.5 0
25524.5 -138.3 0
0    0    0

377.531 25085.8 0
25085.8 258.76 0
0    0    0

43.0037 23390.8 0
23390.8 -320.823 0
0    0    0

-131.658 25417.8 0
25417.8 -154.519 0
0    0    0

-408.46 24797.1 0
24797.1 -247.357 0
0    0    0

-274.598 25573.6 0
25573.6 -123.089 0
0    0    0

-216.017 24920.9 0
24920.9 -71.2375 0
0    0    0

51.4859 26413.5 0
26413.5 42.9989 0
0    0    0

-160.412 24774.9 0
24774.9 135.217 0
0    0    0

179.498 27196.8 0
27196.8 324.152 0
0    0    0

210.614 26848 0
26848 373.212 0
0    0    0

-85.1683 28033.3 0
28033.3 -63.0168 0
0    0    0

-325.441 27392.2 0
27392.2 -179.581 0
0    0    0

70.9597 30480.9 0
30480.9 301.834 0
0    0    0

-74.6267 29535 0
29535 -210.068 0
0    0    0

-28.6151 29493.4 0
29493.4 -146.245 0
0    0    0

-153.25 29821.3 0
29821.3 -237.403 0
0    0    0

402.935 28433.6 0
28433.6 267.519 0
0    0    0

269.951 28516.1 0
28516.1 263.635 0
0    0    0

5.62158 27506.8 0
27506.8 -274.158 0
0    0    0

-31.0661 27036.7 0
27036.7 266.88 0
0    0    0

-298.974 28861.3 0
28861.3 -241.545 0
0    0    0

-301.984 28253.2 0
28253.2 -277.876 0
0    0    0

-174.161 48745.3 0
48745.3 -179.857 0
0    0    0

-119.666 48062.5 0
48062.5 -306.999 0
0    0    0

-46.3457 49307.6 0
49307.6 -267.132 0
0    0    0

-276.381 48730.9 0
48730.9 -402.64 0
0    0    0

13.1717 50013.9 0
50013.9 248.428 0
0    0    0

-243.584 49696.9 0
49696.9 -100.873 0
0    0    0

-137.004 50531.3 0
50531.3 -115.909 0
0    0    0

212.083 50492.5 0
50492.5 210.738 0
0    0    0

-179.175 49520.8 0
49520.8 -43.0459 0
0    0    0

156.448 49684.5 0
49684.5 475.326 0
0    0    0

35.6362 51151.5 0
51151.5 338.513 0
0    0    0

-247.257 50292.1 0
50292.1 -404.087 0
0    0    0

3.92373 51463.3 0
51463.3 -207.176 0
0    0    0

-85.0592 52066.7 0
52066.7 -302.16 0
0    0    0

183.749 50873.1 0
50873.1 76.2625 0
0    0    0

117.221 51323 0
51323 211.133 0
0    0    0

148.88 49733 0
49733 -172.798 0
0    0    0

-50.604 50167.3 0
50167.3 158.755 0
0    0    0

154.46 50897.9 0
50897.9 13.7749 0
0    0    0

-72.2779 49910.3 0
49910.3 -290.69 0
0    0    0

210.708 49396.6 0
49396.6 225.188 0
0    0    0

-185.794 48654.1 0
48654.1 -245.449 0
0    0    0

-90.0024 51390.4 0
51390.4 -313.652 0
0    0    0

45.2915 52692 0
52692 175.725 0
0    0    0

274.84 51305.8 0
51305.8 280.581 0
0    0    0

237.421 50064.4 0
50064.4 229.024 0
0    0    0

-195.622 49925.1 0
49925.1 -67.1043 0
0    0    0

-100.975 49255.8 0
49255.8 -25.2782 0
0    0    0

-88.8123 50988.9 0
50988.9 -217.41 0
0    0    0

11.3204 51137.1 0
51137.1 132.146 0
0    0    0

-38.0229 51022.7 0
51022.7 107.827 0
0    0    0

-70.6029 51877.8 0
51877.8 -203.505 0
0    0    0

172.541 51556.5 0
51556.5 60.3551 0
0    0    0

110.301 51131.2 0
51131.2 -86.2272 0
0    0    0

-7.67897 53947.5 0
53947.5 339.558 0
0    0    0

96.6333 52180.6 0
52180.6 -135.248 0
0    0    0

-104.362 51658.4 0
51658.4 -230.646 0
0    0    0

-199.56 51107.7 0
51107.7 -236.461 0
0    0    0

-0.0224358 52449.4 0
52449.4 155.32 0
0    0    0

-146.175 51378.8 0
51378.8 -49.0363 0
0    0    0

90.9706 50637.9 0
50637.9 172.865 0
0    0    0

163.486 50333.7 0
50333.7 -81.9121 0
0    0    0

110.448 51720 0
51720 257.976 0
0    0    0

189.031 53269 0
53269 170.143 0
0    0    0

46.0581 53822.3 0
53822.3 330.254 0
0    0    0

-43.1541 53145.3 0
53145.3 -222.319 0
0    0    0

-182.377 52221.2 0
52221.2 24.0351 0
0    0    0

-40.864 52297.2 0
52297.2 184.86 0
0    0    0

-19.6064 51953.8 0
51953.8 203.412 0
0    0    0

19.3173 52980.3 0
52980.3 120.709 0
0    0    0

-48.0716 52106.9 0
52106.9 -245.933 0
0    0    0

-171.638 52676.1 0
52676.1 -205.33 0
0    0    0

-47.1779 52600.7 0
52600.7 -233.568 0
0    0    0

112.429 52341.9 0
52341.9 234.116 0
0    0    0

166.309 52238.1 0
52238.1 -55.7672 0
0    0    0

-209.267 52948.5 0
52948.5 -150.276 0
0    0    0

-216.522 53605.4 0
53605.4 -306.407 0
0    0    0

310.439 53162.2 0
53162.2 338.014 0
0    0    0

-225.703 54074.7 0
54074.7 -399.822 0
0    0    0

-259.434 53553.6 0
53553.6 -293.012 0
0    0    0

-77.1635 56239.1 0
56239.1 274.158 0
0    0    0

-225.161 55116.8 0
55116.8 -178.662 0
0    0    0

238.966 54530 0
54530 301.382 0
0    0    0

-89.1154 54251 0
54251 216.741 0
0    0    0

226.933 54285.4 0
54285.4 383.006 0
0    0    0

-54.8726 53897.4 0
53897.4 -132.036 0
0    0    0

105.321 52508.8 0
52508.8 0.522359 0
0    0    0

134.026 52460.9 0
52460.9 -106.546 0
0    0    0

110.649 49012.5 0
49012.5 390.892 0
0    0    0

165.955 48441.9 0
48441.9 126.182 0
0    0    0

162.61 48805.3 0
48805.3 130.71 0
0    0    0

-189.836 49413.3 0
49413.3 -80.8955 0
0    0    0

186.577 49207.7 0
49207.7 151.422 0
0    0    0

-195.663 49044 0
49044 -108.971 0
0    0    0

27.2555 50050 0
50050 301.976 0
0    0    0

-46.1413 50758 0
50758 -199.457 0
0    0    0

-268.102 50473 0
50473 -271.068 0
0    0    0

66.1195 50453.1 0
50453.1 250.8 0
0    0    0

-125.529 50449.1 0
50449.1 -255.604 0
0    0    0

-186.133 52784.1 0
52784.1 -296.762 0
0    0    0

-176.754 50939.8 0
50939.8 -325.518 0
0    0    0

98.109 50675 0
50675 259.606 0
0    0    0

271.132 51181.5 0
51181.5 321.27 0
0    0    0

122.992 52315.9 0
52315.9 301.745 0
0    0    0

-164.336 51022.9 0
51022.9 -207.865 0
0    0    0

86.1321 49884.4 0
49884.4 22.5964 0
0    0    0

-309.668 51608.3 0
51608.3 -228.935 0
0    0    0

136.865 50868.5 0
50868.5 -23.1106 0
0    0    0

222.868 51817.8 0
51817.8 201.633 0
0    0    0

-71.4589 52193 0
52193 -203.463 0
0    0    0

-45.6824 50629.8 0
50629.8 73.6939 0
0    0    0

-103.483 49699.3 0
49699.3 -18.5176 0
0    0    0

-83.5582 51620 0
51620 60.4336 0
0    0    0

-86.2739 50992.3 0
50992.3 -304.987 0
0    0    0

-36.2471 50157.7 0
50157.7 -192.877 0
0    0    0

44.7676 49483.3 0
49483.3 -80.9631 0
0    0    0

109.355 50027.5 0
50027.5 193.44 0
0    0    0

-49.0012 50364.1 0
50364.1 -196.286 0
0    0    0

-22.0853 49757.3 0
49757.3 74.8884 0
0    0    0

149.541 49239 0
49239 47.7119 0
0    0    0

-59.1103 49290.2 0
49290.2 177.508 0
0    0    0

-182.888 48137 0
48137 -170.739 0
0    0    0

-33.0496 49984.7 0
49984.7 -78.9311 0
0    0    0

56.5597 49792.2 0
49792.2 178.094 0
0    0    0

-44.6527 49330.3 0
49330.3 26.0111 0
0    0    0

312.322 48882.2 0
48882.2 224.346 0
0    0    0

91.2312 48857.1 0
48857.1 67.3385 0
0    0    0

-7.01362 48611.1 0
48611.1 -112.433 0
0    0    0

140.434 49816.8 0
49816.8 224.081 0
0    0    0

-8.71426 49487.5 0
49487.5 -216.832 0
0    0    0

-228.439 47577.9 0
47577.9 -215.974 0
0    0    0

210.95 47049.4 0
47049.4 319.996 0
0    0    0

-124.751 47425.9 0
47425.9 -250.308 0
0    0    0

-136.419 47960.8 0
47960.8 -272.086 0
0    0    0

-168.416 48695.2 0
48695.2 -170.407 0
0    0    0

-356.024 48036.3 0
48036.3 -299.488 0
0    0    0

121.202 48695.5 0
48695.5 164.01 0
0    0    0

261.465 48274.5 0
48274.5 262.764 0
0    0    0

3.32377 47589.6 0
47589.6 149.848 0
0    0    0

-160.876 47829.6 0
47829.6 -200.78 0
0    0    0

-265.227 48056 0
48056 -225.113 0
0    0    0

289.733 47535.1 0
47535.1 323.456 0
0    0    0

197.364 47514.8 0
47514.8 282.376 0
0    0    0

60.2485 47082.9 0
47082.9 291.667 0
0    0    0

-127.561 48583.2 0
48583.2 -133.659 0
0    0    0

132.886 48201.6 0
48201.6 92.7679 0
0    0    0

-43.5223 48998.8 0
48998.8 -208.004 0
0    0    0

220.256 48722.3 0
48722.3 220.169 0
0    0    0

108.375 49630.3 0
49630.3 42.7146 0
0    0    0

39.3091 47971.1 0
47971.1 -249.563 0
0    0    0

-78.1789 49681.3 0
49681.3 222.365 0
0    0    0

93.8938 48562.5 0
48562.5 237.944 0
0    0    0

-140.317 48513.7 0
48513.7 -215.073 0
0    0    0

-137.824 48772.2 0
48772.2 -247.92 0
0    0    0

-190.891 50965.8 0
50965.8 -121.117 0
0    0    0

190.19 50213.4 0
50213.4 114.614 0
0    0    0

217.696 49234.3 0
49234.3 110.994 0
0    0    0

-1.18173 48226 0
48226 218.947 0
0    0    0

-144.398 50042.3 0
50042.3 -62.6991 0
0    0    0

155.578 48009.5 0
48009.5 108.945 0
0    0    0

136.576 49241.9 0
49241.9 267.491 0
0    0    0

-103.933 50098.1 0
50098.1 -137.094 0
0    0    0

-226.21 49615 0
49615 -70.6073 0
0    0    0

62.3008 50122.3 0
50122.3 -15.4103 0
0    0    0

88.0721 50860.2 0
50860.2 -116.137 0
0    0    0

56.8255 49974.2 0
49974.2 -194.43 0
0    0    0

-64.6654 48495.1 0
48495.1 114.071 0
0    0    0

245.664 48298.9 0
48298.9 136.498 0
0    0    0

-191.533 48489.7 0
48489.7 -48.4592 0
0    0    0

-76.1918 50457.2 0
50457.2 45.7798 0
0    0    0

-249.66 48787.9 0
48787.9 -56.0324 0
0    0    0

235.802 48155.7 0
48155.7 181.798 0
0    0    0

204.12 48931.7 0
48931.7 51.3072 0
0    0    0

20.5875 49430.2 0
49430.2 -186.42 0
0    0    0

-270.663 49170.8 0
49170.8 -359.034 0
0    0    0

255.806 50121.5 0
50121.5 10.9182 0
0    0    0

-70.0432 46628.7 0
46628.7 -152.184 0
0    0    0

-222.548 47830.3 0
47830.3 -333.367 0
0    0    0

-61.2074 49090.1 0
49090.1 -345.39 0
0    0    0

-135.811 49143.1 0
49143.1 -164.442 0
0    0    0

68.2796 49600.1 0
49600.1 -115.955 0
0    0    0

-211.265 50073.2 0
50073.2 -50.4952 0
0    0    0

-124.796 51919.4 0
51919.4 1.41209 0
0    0    0

-191.243 50856.5 0
50856.5 -27.173 0
0    0    0

-108.13 50509.9 0
50509.9 -193.056 0
0    0    0

99.0045 51730.8 0
51730.8 -202.848 0
0    0    0

-52.1894 44494.6 0
44494.6 221.537 0
0    0    0

256.394 47304.7 0
47304.7 398.132 0
0    0    0

-169.331 50689 0
50689 -56.6114 0
0    0    0

-35.4536 50789.1 0
50789.1 165.303 0
0    0    0

106.44 50524.6 0
50524.6 97.9547 0
0    0    0

203.827 51430.4 0
51430.4 -38.9073 0
0    0    0

-248.307 51197.6 0
51197.6 -269.285 0
0    0    0

-268.526 50555.9 0
50555.9 -279.928 0
0    0    0

-56.063 50463.6 0
50463.6 79.913 0
0    0    0

160.086 50530 0
50530 246.873 0
0    0    0

94.2433 49961.3 0
49961.3 -79.2789 0
0    0    0

305.992 49741 0
49741 76.561 0
0    0    0

29.7597 51464.9 0
51464.9 -85.0238 0
0    0    0

8.68459 50986.2 0
50986.2 98.794 0
0    0    0

114.279 50282.3 0
50282.3 226.43 0
0    0    0

176.8 50163 0
50163 202.849 0
0    0    0

-169.092 50486.9 0
50486.9 -196.57 0
0    0    0

162.12 49539 0
49539 155.021 0
0    0    0

263.933 46630.1 0
46630.1 317.912 0
0    0    0

137.189 46705.3 0
46705.3 23.6079 0
0    0    0

-82.0577 48029 0
48029 -130.931 0
0    0    0

-202.818 43803.4 0
43803.4 -120.456 0
0    0    0

-90.95 45801.1 0
45801.1 57.2734 0
0    0    0

-34.0716 47321.9 0
47321.9 90.1488 0
0    0    0

186.803 47228.1 0
47228.1 284.626 0
0    0    0

-143.435 45759.1 0
45759.1 8.45129 0
0    0    0

-177.384 47113.3 0
47113.3 -135.046 0
0    0    0

-341.521 47274.5 0
47274.5 -306.668 0
0    0    0

154.455 46989.6 0
46989.6 122.387 0
0    0    0

-110.126 47715.3 0
47715.3 -118.393 0
0    0    0

-105.648 46888.9 0
46888.9 -122.077 0
0    0    0

-44.023 47185.5 0
47185.5 -208.584 0
0    0    0

97.7634 46331.5 0
46331.5 200.024 0
0    0    0

255.918 46849.1 0
46849.1 238.46 0
0    0    0

-106.624 47007.6 0
47007.6 -153.321 0
0    0    0

-71.5314 46415.2 0
46415.2 -420.803 0
0    0    0

132.329 47647 0
47647 77.6393 0
0    0    0

-201.941 46854.2 0
46854.2 -178.094 0
0    0    0

202.211 47659.6 0
47659.6 409.278 0
0    0    0

93.2005 47347.3 0
47347.3 86.1223 0
0    0    0

-10.2501 46064.8 0
46064.8 -206.328 0
0    0    0

99.2636 44765.7 0
44765.7 -132.652 0
0    0    0

-224.17 46647.9 0
46647.9 -287.199 0
0    0    0

90.8529 45632.7 0
45632.7 -214.63 0
0    0    0

-258.184 45652.5 0
45652.5 -140.046 0
0    0    0

-75.147 46265.7 0
46265.7 210.257 0
0    0    0

130.196 46436.1 0
46436.1 54.2545 0
0    0    0

-29.6985 46098.2 0
46098.2 146.083 0
0    0    0

210.126 44785 0
44785 188.721 0
0    0    0

22.7818 45855.8 0
45855.8 -196.806 0
0    0    0

51.9382 45801.9 0
45801.9 255.777 0
0    0    0

212.906 45370.8 0
45370.8 146.832 0
0    0    0

33.738 46130.9 0
46130.9 175.753 0
0    0    0

187.187 46085.5 0
46085.5 118.829 0
0    0    0

-150.745 44740.7 0
44740.7 -291.804 0
0    0    0

-327.06 45357.6 0
45357.6 -119.727 0
0    0    0

-124.757 44952.9 0
44952.9 -157.649 0
0    0    0

209.365 45324.1 0
45324.1 73.661 0
0    0    0

244.213 44590.7 0
44590.7 218.929 0
0    0    0

-51.3116 43567.6 0
43567.6 -136.486 0
0    0    0

-378.381 43275.4 0
43275.4 -208.109 0
0    0    0

-8.96229 44303 0
44303 -188.343 0
0    0    0

96.4183 46026.2 0
46026.2 -37.8417 0
0    0    0

-115.634 45125.4 0
45125.4 193.398 0
0    0    0

-161.377 45500.2 0
45500.2 96.3436 0
0    0    0

199.652 45555.4 0
45555.4 337.209 0
0    0    0

-207.704 44138.2 0
44138.2 -274.694 0
0    0    0

-402.137 45434.2 0
45434.2 -313.108 0
0    0    0

252.596 45221.2 0
45221.2 126.923 0
0    0    0

-209.481 46095.8 0
46095.8 -296.66 0
0    0    0

36.2637 45942.2 0
45942.2 177.639 0
0    0    0

101.37 47009.1 0
47009.1 349.848 0
0    0    0

-107.656 44983.9 0
44983.9 -266.551 0
0    0    0

48.1718 45572.8 0
45572.8 -227.553 0
0    0    0

331.594 45166.6 0
45166.6 270.683 0
0    0    0

-160.581 46236.7 0
46236.7 -173.94 0
0    0    0

-218.675 46817 0
46817 -286.367 0
0    0    0

195.958 46504 0
46504 270.573 0
0    0    0

-78.4289 45392.3 0
45392.3 -291.533 0
0    0    0

-390.797 44971.4 0
44971.4 -182.881 0
0    0    0

-148.329 46221.5 0
46221.5 -123.215 0
0    0    0

81.6048 45707.6 0
45707.6 390.272 0
0    0    0

145.127 45634.5 0
45634.5 67.2311 0
0    0    0

39.0864 45278.2 0
45278.2 -29.3969 0
0    0    0

-199.261 45073.4 0
45073.4 -183 0
0    0    0

-2.90784 45344.3 0
45344.3 183.407 0
0    0    0

-194.921 46769 0
46769 -173.844 0
0    0    0

-68.2035 46185.4 0
46185.4 -298.014 0
0    0    0

118.666 46608 0
46608 335.547 0
0    0    0

361.805 46538.7 0
46538.7 322.845 0
0    0    0

310.088 45117.1 0
45117.1 101.068 0
0    0    0

-241.555 45999.9 0
45999.9 -37.2198 0
0    0    0

-249.246 45454.3 0
45454.3 -514.867 0
0    0    0

352.64 45683.5 0
45683.5 249.429 0
0    0    0

189.395 43795.7 0
43795.7 173.157 0
0    0    0

-44.3115 43314.2 0
43314.2 -16.8239 0
0    0    0

184.944 45244.8 0
45244.8 533.458 0
0    0    0

9.15019 44673.5 0
44673.5 133.279 0
0    0    0

110.645 45980.5 0
45980.5 106.395 0
0    0    0

95.0061 45722.3 0
45722.3 40.3017 0
0    0    0

137.677 44555.9 0
44555.9 156.794 0
0    0    0

174.159 44288.6 0
44288.6 43.2453 0
0    0    0

-169.652 42928 0
42928 -104.104 0
0    0    0

-150.587 43217.6 0
43217.6 56.0724 0
0    0    0

-73.9032 42676.3 0
42676.3 -286.255 0
0    0    0

77.5201 43006.1 0
43006.1 -159.832 0
0    0    0

-102.824 43699.3 0
43699.3 77.9335 0
0    0    0

12.7414 43295.5 0
43295.5 -218.913 0
0    0    0

-31.631 43036.2 0
43036.2 232.776 0
0    0    0

203.448 43728.5 0
43728.5 31.1658 0
0    0    0

-126.246 42756.5 0
42756.5 -190.023 0
0    0    0

-146.284 42889.5 0
42889.5 -67.1969 0
0    0    0

-35.3118 41864.4 0
41864.4 349.982 0
0    0    0

78.5581 42357.8 0
42357.8 192.242 0
0    0    0

283.195 42645.6 0
42645.6 493.236 0
0    0    0

-340.881 43090.5 0
43090.5 -551.848 0
0    0    0

-12.6588 42118.9 0
42118.9 -106.747 0
0    0    0

-43.3143 42965.2 0
42965.2 24.8683 0
0    0    0

247.777 43617.6 0
43617.6 391.431 0
0    0    0

181.894 43354.3 0
43354.3 415.439 0
0    0    0

-128.243 42403.6 0
42403.6 13.7396 0
0    0    0

209.144 42830.8 0
42830.8 247.514 0
0    0    0

218.105 42398.1 0
42398.1 393.329 0
0    0    0

130.369 42323.1 0
42323.1 232.017 0
0    0    0

-173.465 42790.3 0
42790.3 -236.674 0
0    0    0

-135.725 43199 0
43199 -82.0212 0
0    0    0

133.32 43237.7 0
43237.7 -195.14 0
0    0    0

193.997 42885.9 0
42885.9 103.164 0
0    0    0

-294.321 43306.4 0
43306.4 -267.074 0
0    0    0

-157.783 42562.3 0
42562.3 -89.3127 0
0    0    0

141.146 56241.7 0
56241.7 208.636 0
0    0    0

-100.508 56697.4 0
56697.4 -121.378 0
0    0    0

-73.9885 56047.3 0
56047.3 -259.265 0
0    0    0

161.012 56332.9 0
56332.9 216.544 0
0    0    0

-26.1568 55831.4 0
55831.4 32.808 0
0    0    0

103.221 55531.5 0
55531.5 -63.5237 0
0    0    0

270.9 55719.3 0
55719.3 323.325 0
0    0    0

-115.504 56004.8 0
56004.8 -362.72 0
0    0    0

156.766 55121.5 0
55121.5 89.6351 0
0    0    0

-70.8636 55831.6 0
55831.6 68.3956 0
0    0    0

-48.1292 55088.4 0
55088.4 -194.255 0
0    0    0

-142.133 56661.9 0
56661.9 12.5133 0
0    0    0

-126.967 54694.9 0
54694.9 -218.161 0
0    0    0

-20.8468 57117.3 0
57117.3 129.794 0
0    0    0

112.027 54801.8 0
54801.8 163.231 0
0    0    0

57.4917 56652.9 0
56652.9 -209.286 0
0    0    0

-132.623 56558.4 0
56558.4 -253.31 0
0    0    0

107.823 56906.4 0
56906.4 293.759 0
0    0    0

336.396 59954.6 0
59954.6 322.768 0
0    0    0

-58.2194 57518.2 0
57518.2 147.732 0
0    0    0

116.625 56821.9 0
56821.9 246.948 0
0    0    0

-167.834 57847.5 0
57847.5 -140.15 0
0    0    0

-19.645 55644 0
55644 -199.539 0
0    0    0

126.769 54182.9 0
54182.9 79.154 0
0    0    0

250.718 58591.6 0
58591.6 347.343 0
0    0    0

-52.7176 57021.9 0
57021.9 103.271 0
0    0    0

-122.318 57216.4 0
57216.4 -262.683 0
0    0    0

157.745 57437.7 0
57437.7 335.373 0
0    0    0

97.7517 54489.8 0
54489.8 302.199 0
0    0    0

131.78 54339.2 0
54339.2 301.608 0
0    0    0

-116.32 58541.9 0
58541.9 -234.546 0
0    0    0

-125.41 57714.3 0
57714.3 -282.311 0
0    0    0

41.2411 57935.3 0
57935.3 -74.7777 0
0    0    0

90.2534 54707.4 0
54707.4 20.0522 0
0    0    0

110.548 49913.4 0
49913.4 96.2997 0
0    0    0

276.29 50509.8 0
50509.8 296.082 0
0    0    0

182.43 50593.2 0
50593.2 -4.41829 0
0    0    0

-246.037 53687.1 0
53687.1 -141.324 0
0    0    0

155.403 54285.8 0
54285.8 10.5166 0
0    0    0

-224.307 54260.7 0
54260.7 -325.451 0
0    0    0

-76.1523 55096.4 0
55096.4 -164.249 0
0    0    0

-6.85438 56485.8 0
56485.8 176.707 0
0    0    0

-133.641 54109.9 0
54109.9 -394.455 0
0    0    0

-94.6181 54269.9 0
54269.9 -245.264 0
0    0    0

-149.067 54450.9 0
54450.9 -140.933 0
0    0    0

68.1184 54981.8 0
54981.8 161.006 0
0    0    0

-111.068 54105.2 0
54105.2 146.128 0
0    0    0

-195.497 55213.9 0
55213.9 -298.681 0
0    0    0

-61.6 54844.3 0
54844.3 -204.805 0
0    0    0

109.461 54874.3 0
54874.3 271.883 0
0    0    0

3.67873 54173.1 0
54173.1 -187.986 0
0    0    0

-135.493 54651.5 0
54651.5 -308.6 0
0    0    0

-171.319 55871.2 0
55871.2 -378.538 0
0    0    0

-5.82641 55291.9 0
55291.9 228.753 0
0    0    0

-83.1604 57674.3 0
57674.3 -68.3763 0
0    0    0

243.868 55441.1 0
55441.1 258.33 0
0    0    0

355.984 55794.1 0
55794.1 57.8794 0
0    0    0

-288.819 56212.7 0
56212.7 98.0446 0
0    0    0

-182.597 55309.4 0
55309.4 -314.187 0
0    0    0

-146.06 56365.3 0
56365.3 -177.463 0
0    0    0

-33.0332 55664.7 0
55664.7 -192.644 0
0    0    0

-237.16 56082.3 0
56082.3 -188.858 0
0    0    0

54.8778 55683 0
55683 -58.3027 0
0    0    0

-254.199 55238.5 0
55238.5 -21.4337 0
0    0    0

-54.7737 56269.2 0
56269.2 217.551 0
0    0    0

-142.023 55618.5 0
55618.5 25.3723 0
0    0    0

222.214 54636.1 0
54636.1 -76.2386 0
0    0    0

158.084 55206.2 0
55206.2 -43.4415 0
0    0    0

25.7385 55685.5 0
55685.5 -141.573 0
0    0    0

-72.3802 57160.3 0
57160.3 -298.562 0
0    0    0

167.662 57223.3 0
57223.3 377.657 0
0    0    0

-170.071 56734.1 0
56734.1 -296.719 0
0    0    0

-172.571 54775.2 0
54775.2 -259.551 0
0    0    0

267.118 56077.1 0
56077.1 423.659 0
0    0    0

-6.63542 55059.7 0
55059.7 118.131 0
0    0    0

224.576 55595.5 0
55595.5 372.053 0
0    0    0

48.4854 55569.9 0
55569.9 217.447 0
0    0    0

8.16891 56271.5 0
56271.5 -143.878 0
0    0    0

46.1498 56455.8 0
56455.8 -8.20308 0
0    0    0

79.0463 56172.6 0
56172.6 315.032 0
0    0    0

-96.3828 55613.6 0
55613.6 -318.409 0
0    0    0

180.734 54172.5 0
54172.5 -8.52397 0
0    0    0

108.795 44384.9 0
44384.9 118.394 0
0    0    0

-118.23 45105.9 0
45105.9 191.942 0
0    0    0

174.113 43558.4 0
43558.4 -16.5253 0
0    0    0

74.2624 44683.3 0
44683.3 -122.762 0
0    0    0

-291.338 44726.5 0
44726.5 -189.072 0
0    0    0

-145.705 46044.3 0
46044.3 -363.576 0
0    0    0

-214.424 42929.3 0
42929.3 7.37118 0
0    0    0

-9.76634 44058.3 0
44058.3 -240.698 0
0    0    0

138.486 44913.7 0
44913.7 286.196 0
0    0    0

-76.8938 45597.9 0
45597.9 -223.07 0
0    0    0

-186.022 41928.6 0
41928.6 -183.327 0
0    0    0

-10.8039 44923.8 0
44923.8 118.729 0
0    0    0

-56.4406 43522 0
43522 -275.824 0
0    0    0

116.88 43740.3 0
43740.3 247.94 0
0    0    0

213.765 42529.1 0
42529.1 -2.91523 0
0    0    0

4.11754 43233 0
43233 163.427 0
0    0    0

-200.934 42264 0
42264 -119.909 0
0    0    0

150.699 42574.3 0
42574.3 352.682 0
0    0    0

-3.89481 43312 0
43312 -142.428 0
0    0    0

-23.9747 43826.7 0
43826.7 49.5604 0
0    0    0

152.684 44282.7 0
44282.7 145.374 0
0    0    0

-113.693 44160.7 0
44160.7 -216.352 0
0    0    0

-5.08374 42951 0
42951 -390.362 0
0    0    0

271.175 43310.8 0
43310.8 161.439 0
0    0    0

111.787 43907.6 0
43907.6 7.91756 0
0    0    0

106.17 43629.1 0
43629.1 353.187 0
0    0    0

-114.175 42861.7 0
42861.7 -218.807 0
0    0    0

144.065 43609.5 0
43609.5 217.303 0
0    0    0

286.69 45755.5 0
45755.5 335.049 0
0    0    0

-139.324 47191.1 0
47191.1 -262.27 0
0    0    0

-278.243 45509.4 0
45509.4 -413.031 0
0    0    0

1.87947 45761 0
45761 84.4535 0
0    0    0

230.1 45824.7 0
45824.7 -8.43089 0
0    0    0

-209.503 46596.5 0
46596.5 -330.577 0
0    0    0

-93.2188 47913.4 0
47913.4 -115.336 0
0    0    0

94.3242 48786.8 0
48786.8 -206.337 0
0    0    0

-72.2537 40641.7 0
40641.7 128.654 0
0    0    0

120.123 39728.2 0
39728.2 -5.12172 0
0    0    0

-171.493 39460.4 0
39460.4 -70.5584 0
0    0    0

87.5943 38104.3 0
38104.3 395.73 0
0    0    0

34.216 39037.8 0
39037.8 226.111 0
0    0    0

133.699 38925.9 0
38925.9 145.505 0
0    0    0

152.338 39683.4 0
39683.4 326.883 0
0    0    0

-93.88 37434.7 0
37434.7 -167.501 0
0    0    0

-96.1285 37799.4 0
37799.4 -184.504 0
0    0    0

-40.2316 37995.8 0
37995.8 -155.188 0
0    0    0

-238.95 39075.4 0
39075.4 -139.663 0
0    0    0

28.0926 37729.8 0
37729.8 23.8432 0
0    0    0

280.807 39314.9 0
39314.9 163.983 0
0    0    0

-277.931 38831.2 0
38831.2 -178.866 0
0    0    0

-271.119 37861.4 0
37861.4 -620.416 0
0    0    0

-159.065 38083.1 0
38083.1 -114.017 0
0    0    0

320.908 38069.5 0
38069.5 131.84 0
0    0    0

138.956 37044.5 0
37044.5 215.58 0
0    0    0

215.672 38384.7 0
38384.7 285.725 0
0    0    0

-193.741 38181.2 0
38181.2 -26.4695 0
0    0    0

121.88 35460 0
35460 -8.7539 0
0    0    0

139.767 35252.4 0
35252.4 -115.577 0
0    0    0

235.176 35814.4 0
35814.4 133.271 0
0    0    0

439.555 33785 0
33785 200.627 0
0    0    0

-68.0975 34834.7 0
34834.7 -124.673 0
0    0    0

65.0745 33168.9 0
33168.9 51.543 0
0    0    0

228.03 34415.8 0
34415.8 299.646 0
0    0    0

-166.664 33654.7 0
33654.7 -193.397 0
0    0    0

62.611 34274.9 0
34274.9 18.2428 0
0    0    0

-9.95044 34174.7 0
34174.7 -293.3 0
0    0    0

-64.1447 32521.7 0
32521.7 52.5794 0
0    0    0

-21.2541 32738.1 0
32738.1 -173.66 0
0    0    0

-119.296 31154.9 0
31154.9 -117.633 0
0    0    0

-204.599 32903.2 0
32903.2 -350.598 0
0    0    0

-35.5496 32482.4 0
32482.4 161.496 0
0    0    0

9.75107 32928.5 0
32928.5 -221.417 0
0    0    0

-175.283 33475.2 0
33475.2 -199.003 0
0    0    0

-33.1647 32743.9 0
32743.9 242.588 0
0    0    0

11.3867 32313.8 0
32313.8 -149.22 0
0    0    0

3.76638 31947 0
31947 -236.887 0
0    0    0

-35.9354 32219.1 0
32219.1 200.444 0
0    0    0

40.4682 31357.1 0
31357.1 -128.085 0
0    0    0

92.8977 32484.5 0
32484.5 -127.282 0
0    0    0

321.345 31605.6 0
31605.6 209.241 0
0    0    0

327.052 32076.5 0
32076.5 149.707 0
0    0    0

-157.291 31933.3 0
31933.3 -282.323 0
0    0    0

-135.749 31421.8 0
31421.8 -112.45 0
0    0    0

290.651 30933.1 0
30933.1 545.739 0
0    0    0

-96.9049 32079.5 0
32079.5 42.0827 0
0    0    0

-53.6192 31531.4 0
31531.4 151.497 0
0    0    0

155.856 31046.3 0
31046.3 335.05 0
0    0    0

-41.1863 31712.5 0
31712.5 180.215 0
0    0    0

-151.957 30456.9 0
30456.9 161.315 0
0    0    0

286.557 31034.9 0
31034.9 479.513 0
0    0    0

-85.7175 33422.5 0
33422.5 45.0761 0
0    0    0

-156.164 32889.8 0
32889.8 5.87529 0
0    0    0

192.297 33336 0
33336 164.46 0
0    0    0

156.595 33091 0
33091 71.2902 0
0    0    0

403.013 33107.7 0
33107.7 165.085 0
0    0    0

-208.626 32860.8 0
32860.8 131.234 0
0    0    0

-247.661 33450.3 0
33450.3 -131.405 0
0    0    0

-298.167 35036.8 0
35036.8 -706.466 0
0    0    0

9.73359 32993.2 0
32993.2 -95.9914 0
0    0    0

-490.562 33482.3 0
33482.3 -396.511 0
0    0    0

-223.069 29254.6 0
29254.6 -38.6151 0
0    0    0

-230.453 30085.4 0
30085.4 -66.039 0
0    0    0

-332.316 31863.4 0
31863.4 -285.798 0
0    0    0

-405.554 31322.7 0
31322.7 -188.322 0
0    0    0

189.273 29593.8 0
29593.8 236.607 0
0    0    0

-138.753 30766.1 0
30766.1 33.0573 0
0    0    0

217.677 28600.5 0
28600.5 101.998 0
0    0    0

116.507 27502 0
27502 23.9964 0
0    0    0

222.62 30315.2 0
30315.2 147.928 0
0    0    0

205.71 29796 0
29796 118.706 0
0    0    0

-105.688 32018.9 0
32018.9 -226.754 0
0    0    0

-106.006 30882.6 0
30882.6 -45.9297 0
0    0    0

215.403 29236.1 0
29236.1 35.2513 0
0    0    0

-268.906 30129.3 0
30129.3 -293.551 0
0    0    0

-141.214 29671.9 0
29671.9 -168.867 0
0    0    0

142.594 30634.8 0
30634.8 145.084 0
0    0    0

-191.19 29633.6 0
29633.6 -315.012 0
0    0    0

2.44175 30289.6 0
30289.6 -62.7594 0
0    0    0

-217.178 30794.2 0
30794.2 -325.904 0
0    0    0

-42.984 31150.8 0
31150.8 42.8605 0
0    0    0

-203.196 32162.5 0
32162.5 5.13861 0
0    0    0

111.039 31650.4 0
31650.4 146.666 0
0    0    0

165.404 29284.4 0
29284.4 317.706 0
0    0    0

85.2591 29874.5 0
29874.5 245.116 0
0    0    0

-208.726 30273.6 0
30273.6 -289.052 0
0    0    0

-135.996 30814.5 0
30814.5 -183.853 0
0    0    0

166.282 29978.7 0
29978.7 258.881 0
0    0    0

220.59 30491.1 0
30491.1 60.421 0
0    0    0

-100.856 30731.3 0
30731.3 -289.411 0
0    0    0

48.6704 29861 0
29861 212.219 0
0    0    0

11.2617 32187.4 0
32187.4 330.19 0
0    0    0

146.873 31813.4 0
31813.4 200.409 0
0    0    0

-52.901 32540.5 0
32540.5 -127.853 0
0    0    0

-12.3292 32068.4 0
32068.4 -27.7469 0
0    0    0

211.593 31554.1 0
31554.1 176.811 0
0    0    0

-216.278 31796.1 0
31796.1 -209.174 0
0    0    0

-227.663 30700.6 0
30700.6 -90.4685 0
0    0    0

35.4649 31145.1 0
31145.1 180.891 0
0    0    0

140.144 32013.4 0
32013.4 100.084 0
0    0    0

60.7076 31715.2 0
31715.2 -187.44 0
0    0    0

47.7312 29369.1 0
29369.1 249.75 0
0    0    0

-26.6212 28662.2 0
28662.2 6.39027 0
0    0    0

-269.4 39916.4 0
39916.4 -107.413 0
0    0    0

-8.42171 40179.8 0
40179.8 179.042 0
0    0    0

176.138 40434.6 0
40434.6 79.4981 0
0    0    0

93.1341 40284.8 0
40284.8 -35.5728 0
0    0    0

-57.2764 40091.8 0
40091.8 67.2586 0
0    0    0

99.0528 40594.8 0
40594.8 252.023 0
0    0    0

-57.5427 38322.5 0
38322.5 -209.622 0
0    0    0

67.4897 37376.1 0
37376.1 9.04648 0
0    0    0

106.091 36982.6 0
36982.6 -147.399 0
0    0    0

-299.535 41694.5 0
41694.5 -301.804 0
0    0    0

-280.665 36093 0
36093 64.3248 0
0    0    0

226.635 35442.5 0
35442.5 82.4787 0
0    0    0

69.3014 36103.4 0
36103.4 47.6813 0
0    0    0

-42.1162 35835.9 0
35835.9 -42.8099 0
0    0    0

-56.0547 37081.3 0
37081.3 158.396 0
0    0    0

-162.476 36778.7 0
36778.7 -293.526 0
0    0    0

154.676 37569.1 0
37569.1 199.311 0
0    0    0

-43.8299 37630.6 0
37630.6 -339.938 0
0    0    0

-92.2894 36429.4 0
36429.4 -78.1158 0
0    0    0

-39.696 36375.9 0
36375.9 -167.577 0
0    0    0

-125.801 38786.3 0
38786.3 -249.838 0
0    0    0

145.791 37981.7 0
37981.7 185.965 0
0    0    0

-319.407 37402.3 0
37402.3 -140.604 0
0    0    0

-263.042 37752.1 0
37752.1 -39.8361 0
0    0    0

172.212 37035.8 0
37035.8 154.101 0
0    0    0

328.859 37772.1 0
37772.1 327.369 0
0    0    0

178.613 37991.5 0
37991.5 53.3325 0
0    0    0

79.3897 37364.9 0
37364.9 144.433 0
0    0    0

-252.908 38448.1 0
38448.1 -323.803 0
0    0    0

0.234392 38805.3 0
38805.3 429.437 0
0    0    0

71.9438 37201.7 0
37201.7 -121.19 0
0    0    0

84.7481 37357.4 0
37357.4 93.9197 0
0    0    0

310.585 32864.7 0
32864.7 165.167 0
0    0    0

-121.062 33585.4 0
33585.4 -47.0464 0
0    0    0

-172.644 32829.1 0
32829.1 -305.358 0
0    0    0

-106.965 33262.4 0
33262.4 -98.7791 0
0    0    0

138.295 33741.8 0
33741.8 10.0674 0
0    0    0

126.051 33478.8 0
33478.8 -2.82728 0
0    0    0

266.915 35066.3 0
35066.3 208.32 0
0    0    0

-142.333 35780.1 0
35780.1 76.4117 0
0    0    0

-170.692 36293.6 0
36293.6 -455.284 0
0    0    0

-333.028 37485.1 0
37485.1 -108.603 0
0    0    0

249.308 35348.6 0
35348.6 38.3356 0
0    0    0

-274.705 36143.2 0
36143.2 -20.5569 0
0    0    0

306.673 35971 0
35971 237.211 0
0    0    0

159.637 36603.6 0
36603.6 274.272 0
0    0    0

-121.78 37086.6 0
37086.6 -543.554 0
0    0    0

172.613 35904.4 0
35904.4 78.3029 0
0    0    0

132.736 35502.8 0
35502.8 206.814 0
0    0    0

-195.548 35917.9 0
35917.9 -161.494 0
0    0    0

101.028 35620.3 0
35620.3 168.1 0
0    0    0

182.966 36169.9 0
36169.9 291.05 0
0    0    0

340.652 38023.9 0
38023.9 200.687 0
0    0    0

4.94885 37417.7 0
37417.7 40.7891 0
0    0    0

-85.4625 36891.2 0
36891.2 -274.299 0
0    0    0

-144.707 37031.5 0
37031.5 -4.60028 0
0    0    0

-184.757 35339.6 0
35339.6 -277.313 0
0    0    0

-140.326 35460.1 0
35460.1 -147.75 0
0    0    0

-85.0735 37031.1 0
37031.1 -387.097 0
0    0    0

79.5559 37470.1 0
37470.1 278.785 0
0    0    0

149.827 36631.6 0
36631.6 335.274 0
0    0    0

-112.141 36320.6 0
36320.6 340.354 0
0    0    0

220.057 36900.2 0
36900.2 428.309 0
0    0    0

94.688 36682.2 0
36682.2 466.843 0
0    0    0

-5.10597 34068.7 0
34068.7 -48.3325 0
0    0    0

-56.6187 33606.1 0
33606.1 -187.731 0
0    0    0

71.5367 28443.7 0
28443.7 31.9958 0
0    0    0

-181.888 28659.2 0
28659.2 -33.6723 0
0    0    0

-123.479 28129.6 0
28129.6 -262.993 0
0    0    0

-91.261 28233.6 0
28233.6 -75.9831 0
0    0    0

214.677 28802.9 0
28802.9 277.279 0
0    0    0

51.5517 28720.9 0
28720.9 53.7557 0
0    0    0

59.4424 28222.1 0
28222.1 68.6663 0
0    0    0

217.418 27835.4 0
27835.4 183.246 0
0    0    0

-153.449 28324 0
28324 -191.223 0
0    0    0

5.16598 29353.6 0
29353.6 -79.9064 0
0    0    0

96.233 28198.8 0
28198.8 -106.581 0
0    0    0

151.893 28777.6 0
28777.6 -206.269 0
0    0    0

-56.8801 32028.3 0
32028.3 -115.402 0
0    0    0

-167.686 32460.8 0
32460.8 -287.491 0
0    0    0

-43.743 31407.8 0
31407.8 -163.59 0
0    0    0

-13.7748 30863.7 0
30863.7 -178.87 0
0    0    0

78.0295 33092.4 0
33092.4 143.521 0
0    0    0

30.7849 31646.5 0
31646.5 -78.2107 0
0    0    0

-175.057 31512.5 0
31512.5 -260.472 0
0    0    0

-264.399 32608 0
32608 -191.979 0
0    0    0

145.405 31096.6 0
31096.6 14.1394 0
0    0    0

172.22 30716.3 0
30716.3 387.715 0
0    0    0

-62.9717 31452.4 0
31452.4 -97.563 0
0    0    0

-81.3251 30762.8 0
30762.8 77.8121 0
0    0    0

-198.612 32096.4 0
32096.4 91.8217 0
0    0    0

42.6331 31893.3 0
31893.3 204.511 0
0    0    0

155.013 31205.8 0
31205.8 106.803 0
0    0    0

-39.5714 33258.2 0
33258.2 123.236 0
0    0    0

121.908 32131.2 0
32131.2 157.105 0
0    0    0

222.511 32951.8 0
32951.8 -35.0175 0
0    0    0

-223.597 32338.2 0
32338.2 -246.957 0
0    0    0

-147.394 32659.4 0
32659.4 63.5518 0
0    0    0

72.354 31084.3 0
31084.3 -166.262 0
0    0    0

140.516 31863.6 0
31863.6 97.6206 0
0    0    0

53.3897 29203.3 0
29203.3 -32.8043 0
0    0    0

-285.497 31636.2 0
31636.2 124.186 0
0    0    0

-28.3313 33886.4 0
33886.4 -264.447 0
0    0    0

261.826 32538.7 0
32538.7 53.7897 0
0    0    0

-127.115 30935.9 0
30935.9 -175.375 0
0    0    0

-10.0312 30597.9 0
30597.9 -199.609 0
0    0    0

-131.934 30397.8 0
30397.8 -262.497 0
0    0    0

-100.979 30536.8 0
30536.8 -90.8423 0
0    0    0

-158.381 30264.1 0
30264.1 38.1946 0
0    0    0

130.313 29356.2 0
29356.2 422.858 0
0    0    0

-227.763 31397.5 0
31397.5 -316.526 0
0    0    0

-272.921 32031.2 0
32031.2 -216.951 0
0    0    0

100.655 31066.1 0
31066.1 -7.64798 0
0    0    0

448.279 31263.4 0
31263.4 195.509 0
0    0    0

-177.281 31969.9 0
31969.9 -176.491 0
0    0    0

275.552 32238.9 0
32238.9 -27.339 0
0    0    0

60.8826 35392.4 0
35392.4 288.036 0
0    0    0

-285.774 32952.9 0
32952.9 -132.976 0
0    0    0

-301.568 29168.8 0
29168.8 -297.596 0
0    0    0

-45.1917 29413.2 0
29413.2 -334.067 0
0    0    0

211.569 29116.9 0
29116.9 423.412 0
0    0    0

-37.3297 30344.2 0
30344.2 118.09 0
0    0    0

-188.855 30128.2 0
30128.2 -15.776 0
0    0    0

-414.309 31025.2 0
31025.2 -263.634 0
0    0    0

44.6558 30996.5 0
30996.5 -173.637 0
0    0    0

287.243 31725.5 0
31725.5 428.172 0
0    0    0

69.5977 32721 0
32721 -222.256 0
0    0    0

-236.163 33397.5 0
33397.5 -156.075 0
0    0    0

-104.81 33862.3 0
33862.3 -274.641 0
0    0    0

-97.1538 33464.1 0
33464.1 -242.689 0
0    0    0

196.679 30306.1 0
30306.1 170.527 0
0    0    0

172.06 30030.8 0
30030.8 313.476 0
0    0    0

-220.104 28752.6 0
28752.6 -263.923 0
0    0    0

68.6343 29401.3 0
29401.3 251.698 0
0    0    0

114.958 30142 0
30142 -43.3683 0
0    0    0

-40.1369 30792.5 0
30792.5 180.855 0
0    0    0

22.5044 28483.7 0
28483.7 151.259 0
0    0    0

175.383 30246.9 0
30246.9 186.699 0
0    0    0

264.838 32928.5 0
32928.5 -43.2317 0
0    0    0

-301.682 33441.9 0
33441.9 -287.606 0
0    0    0

-96.3646 34008.5 0
34008.5 -197.336 0
0    0    0

-251.427 36261.1 0
36261.1 -276.444 0
0    0    0

367.097 33135.6 0
33135.6 274.633 0
0    0    0

67.9948 33569.2 0
33569.2 253.552 0
0    0    0

169.653 34764.6 0
34764.6 103.185 0
0    0    0

-68.824 34236.5 0
34236.5 286.043 0
0    0    0

-185.463 28868.2 0
28868.2 -387.996 0
0    0    0

-181.703 29094.4 0
29094.4 -48.1942 0
0    0    0

18.549 28961.3 0
28961.3 231.982 0
0    0    0

75.7795 29551.4 0
29551.4 -91.5411 0
0    0    0

-130.033 29592.8 0
29592.8 -1.12862 0
0    0    0

-16.9391 29917.6 0
29917.6 148.492 0
0    0    0

44.819 29977.5 0
29977.5 -202.166 0
0    0    0

-110.62 30544.4 0
30544.4 -264.831 0
0    0    0

77.2543 29313.8 0
29313.8 -66.7926 0
0    0    0

140.491 31088.1 0
31088.1 295.29 0
0    0    0

227.597 34752.5 0
34752.5 328.701 0
0    0    0

140.402 35000.1 0
35000.1 -142.19 0
0    0    0

169.011 33697.4 0
33697.4 125.637 0
0    0    0

32.8328 34305.5 0
34305.5 156.134 0
0    0    0

-89.807 34851.2 0
34851.2 -102.815 0
0    0    0

27.6341 34340.1 0
34340.1 -0.30273 0
0    0    0

-94.5913 29296 0
29296 37.5011 0
0    0    0

-107.647 28684.5 0
28684.5 -216.874 0
0    0    0

133.845 28867.4 0
28867.4 -8.94694 0
0    0    0

-99.9724 28805.5 0
28805.5 41.5993 0
0    0    0

94.6842 30143.3 0
30143.3 305.109 0
0    0    0

143.575 29563.1 0
29563.1 224.252 0
0    0    0

32.2572 34491.5 0
34491.5 -137.662 0
0    0    0

214.773 35343 0
35343 267.109 0
0    0    0

171.189 32977.4 0
32977.4 228.894 0
0    0    0

-17.4874 33281.3 0
33281.3 -93.0277 0
0    0    0

-177.307 31613.7 0
31613.7 -36.673 0
0    0    0

170.07 32036.6 0
32036.6 171.492 0
0    0    0

94.559 34093.1 0
34093.1 46.7497 0
0    0    0

175.864 34700.6 0
34700.6 162.946 0
0    0    0

-172.859 35672.5 0
35672.5 -210.822 0
0    0    0

96.5435 35925.1 0
35925.1 272.628 0
0    0    0

27.5186 35205.4 0
35205.4 140.341 0
0    0    0

-173.573 35733.5 0
35733.5 -312.843 0
0    0    0

-116.035 34310.1 0
34310.1 203.117 0
0    0    0

-160.498 35098.7 0
35098.7 -180.922 0
0    0    0

48.3507 36003.8 0
36003.8 -19.8454 0
0    0    0

89.8281 35518.2 0
35518.2 164.169 0
0    0    0

22.5545 37823.9 0
37823.9 77.3495 0
0    0    0

70.2281 37501.7 0
37501.7 372.208 0
0    0    0

242.656 37643.7 0
37643.7 413.774 0
0    0    0

-134.905 36489.5 0
36489.5 -145.092 0
0    0    0

-34.3099 29220.1 0
29220.1 -242.087 0
0    0    0

-106.294 29773.2 0
29773.2 185.998 0
0    0    0

-145.398 28890.9 0
28890.9 156.476 0
0    0    0

-29.8628 29637.3 0
29637.3 17.9534 0
0    0    0

104.895 28367.8 0
28367.8 15.306 0
0    0    0

148.455 28128 0
28128 -24.7726 0
0    0    0

-325.133 27915.9 0
27915.9 -119.637 0
0    0    0

28.9263 28534.9 0
28534.9 -185.11 0
0    0    0

-143.011 29868 0
29868 -382.565 0
0    0    0

202.709 29822.2 0
29822.2 259.88 0
0    0    0

-119.638 35202 0
35202 -77.7452 0
0    0    0

319.555 35943.5 0
35943.5 179.375 0
0    0    0

-63.1581 35454.1 0
35454.1 90.5141 0
0    0    0

105.134 35343.5 0
35343.5 358.358 0
0    0    0

290.674 36294.4 0
36294.4 497.489 0
0    0    0

90.5791 36597.5 0
36597.5 253.133 0
0    0    0

-176.728 36768.7 0
36768.7 -448.935 0
0    0    0

-217.513 37727.2 0
37727.2 -209.673 0
0    0    0

8.29149 37260.8 0
37260.8 44.1471 0
0    0    0

-364.743 36351 0
36351 -334.583 0
0    0    0

110.231 27779.7 0
27779.7 -72.4159 0
0    0    0

86.0008 27108.3 0
27108.3 249.462 0
0    0    0

192.509 27615.7 0
27615.7 262.095 0
0    0    0

15.3308 27648.6 0
27648.6 248.609 0
0    0    0

-219.435 36024.3 0
36024.3 -289.175 0
0    0    0

255.182 36476.7 0
36476.7 384.18 0
0    0    0

-227.933 27546.2 0
27546.2 -266.526 0
0    0    0

-158.029 27353.1 0
27353.1 -299.926 0
0    0    0

-16.5405 27057.2 0
27057.2 264.778 0
0    0    0

142.092 27916.4 0
27916.4 -5.39748 0
0    0    0

-238.667 28078 0
28078 -226.158 0
0    0    0

-185.2 28329 0
28329 5.36359 0
0    0    0

59.2523 27673.4 0
27673.4 -198.316 0
0    0    0

-155.307 29068.2 0
29068.2 -387.534 0
0    0    0

85.5063 29334.2 0
29334.2 363.454 0
0    0    0

166.154 29026.1 0
29026.1 -11.0749 0
0    0    0

-191.508 26893.7 0
26893.7 -144.863 0
0    0    0

-93.7596 26313.5 0
26313.5 34.5967 0
0    0    0

77.9316 25833 0
25833 1.00474 0
0    0    0

177.411 29671.5 0
29671.5 30.516 0
0    0    0

-14.8769 27217.7 0
27217.7 -255.636 0
0    0    0

-67.1471 27495.8 0
27495.8 115.25 0
0    0    0

-7.30603 27055.3 0
27055.3 -206.504 0
0    0    0

124.246 26911.1 0
26911.1 251.015 0
0    0    0

156.26 28591.1 0
28591.1 142.999 0
0    0    0

95.9492 28034.2 0
28034.2 373.07 0
0    0    0

-85.2395 27864.3 0
27864.3 220.08 0
0    0    0

66.7806 27692.9 0
27692.9 322.971 0
0    0    0

414.278 24512.1 0
24512.1 392.135 0
0    0    0

158.654 23885.2 0
23885.2 117.34 0
0    0    0

14.0792 24626.4 0
24626.4 -145.435 0
0    0    0

383.004 24667.3 0
24667.3 565.568 0
0    0    0

-354.452 24774.7 0
24774.7 -64.1325 0
0    0    0

-130.277 24182.6 0
24182.6 -131.603 0
0    0    0

106.274 24341.2 0
24341.2 -1.85251 0
0    0    0

-155.677 24206.2 0
24206.2 -229.698 0
0    0    0

132.828 23696.1 0
23696.1 255.576 0
0    0    0

-184.381 23562.4 0
23562.4 -87.4212 0
0    0    0

-37.5363 23975.5 0
23975.5 -312.489 0
0    0    0

-110.856 23374.5 0
23374.5 155.833 0
0    0    0

-156.628 21963 0
21963 89.54 0
0    0    0

116.246 23616.5 0
23616.5 -100.385 0
0    0    0

234.865 24331 0
24331 254.421 0
0    0    0

-110.392 23181.3 0
23181.3 92.2397 0
0    0    0

-282.249 24857.3 0
24857.3 -356.043 0
0    0    0

4.01029 23436.1 0
23436.1 292.841 0
0    0    0

88.1772 22692.7 0
22692.7 -112.729 0
0    0    0

207.06 22746.3 0
22746.3 282.267 0
0    0    0

40.9359 23763.1 0
23763.1 281.115 0
0    0    0

-182.283 23783.1 0
23783.1 -304.837 0
0    0    0

130.589 23234.8 0
23234.8 130.444 0
0    0    0

-27.4628 22926 0
22926 40.4434 0
0    0    0

-275.307 24719.5 0
24719.5 -29.7915 0
0    0    0

-179.452 24078.6 0
24078.6 -203.014 0
0    0    0

-35.7463 23038.8 0
23038.8 115.681 0
0    0    0

182.595 23602 0
23602 175.798 0
0    0    0

93.5406 27374.2 0
27374.2 140.431 0
0    0    0

145.789 27816 0
27816 410.25 0
0    0    0

-9.90529 28772.2 0
28772.2 -96.3059 0
0    0    0

-211.55 28570.3 0
28570.3 -135.479 0
0    0    0

-313.164 27860.8 0
27860.8 -116.23 0
0    0    0

374.275 27674.6 0
27674.6 171.416 0
0    0    0

-163.983 27694.5 0
27694.5 -81.9169 0
0    0    0

43.4934 28060.8 0
28060.8 -26.0981 0
0    0    0

286.096 24352.6 0
24352.6 311.469 0
0    0    0

-13.9966 25066.1 0
25066.1 -215.355 0
0    0    0

122.179 25694.9 0
25694.9 34.4313 0
0    0    0

-149.447 25730.8 0
25730.8 -264.167 0
0    0    0

165.261 25470.6 0
25470.6 404.25 0
0    0    0

259.62 26134.3 0
26134.3 304.663 0
0    0    0

-9.02695 25004.7 0
25004.7 224.22 0
0    0    0

21.228 25527 0
25527 101.259 0
0    0    0

-103.79 24710.2 0
24710.2 -232.942 0
0    0    0

157.643 22815.7 0
22815.7 -3.39977 0
0    0    0

-160.034 25166.2 0
25166.2 -299.285 0
0    0    0

266.28 24139.3 0
24139.3 156.8 0
0    0    0

-71.871 22246.8 0
22246.8 -248.605 0
0    0    0

-204.298 25870.9 0
25870.9 -178.192 0
0    0    0

21.1624 24401.7 0
24401.7 90.111 0
0    0    0

-107.598 24523.5 0
24523.5 -302.353 0
0    0    0

-33.7052 24481.1 0
24481.1 -113.383 0
0    0    0

216.85 24090.5 0
24090.5 82.2585 0
0    0    0

95.682 24949.8 0
24949.8 -245.091 0
0    0    0

-103.055 26880.2 0
26880.2 -120.528 0
0    0    0

64.8169 23995.1 0
23995.1 15.9059 0
0    0    0

354.346 25388 0
25388 -24.578 0
0    0    0

-91.7851 27276.2 0
27276.2 -24.9016 0
0    0    0

328.453 27842.7 0
27842.7 314.214 0
0    0    0

-85.7596 28101 0
28101 -109.858 0
0    0    0

5.92844 27951.3 0
27951.3 -182.686 0
0    0    0

72.7392 25509.3 0
25509.3 -51.1955 0
0    0    0

-140.665 25526.9 0
25526.9 115.815 0
0    0    0

-71.1455 26629.4 0
26629.4 -243.112 0
0    0    0

-185.958 25869.4 0
25869.4 -344.407 0
0    0    0

-77.351 25664.2 0
25664.2 143.31 0
0    0    0

146.266 25805.9 0
25805.9 481.094 0
0    0    0

130.223 26209.3 0
26209.3 354.625 0
0    0    0

174.176 25861 0
25861 -15.6863 0
0    0    0

-158.635 25881 0
25881 -176.943 0
0    0    0

-134.575 26129.5 0
26129.5 -39.5986 0
0    0    0

-257.777 26002.5 0
26002.5 7.09925 0
0    0    0

-27.8819 25365.2 0
25365.2 -41.262 0
0    0    0

67.5255 24496.2 0
24496.2 199.365 0
0    0    0

195.737 25128.5 0
25128.5 237.161 0
0    0    0

57.9659 25773 0
25773 100.172 0
0    0    0

4.48758 25054.8 0
25054.8 134.636 0
0    0    0

190.135 25965.6 0
25965.6 281.792 0
0    0    0

36.4203 25219 0
25219 -167.066 0
0    0    0

-53.1257 24627.6 0
24627.6 71.9029 0
0    0    0

113.701 24595.1 0
24595.1 -61.526 0
0    0    0

-57.9002 24115.2 0
24115.2 139.331 0
0    0    0

-33.742 23899.6 0
23899.6 -174.422 0
0    0    0

63.9586 23435.3 0
23435.3 296.505 0
0    0    0

-88.0824 22125.4 0
22125.4 -121.375 0
0    0    0

286.935 24018.1 0
24018.1 230.686 0
0    0    0

9.8974 23187 0
23187 -196.194 0
0    0    0

30.5604 23622.7 0
23622.7 -190.5 0
0    0    0

-30.2163 23770.6 0
23770.6 -356.272 0
0    0    0

139.514 28286.5 0
28286.5 0.0631264 0
0    0    0

-124.32 27842.2 0
27842.2 -283.729 0
0    0    0

-25.9315 31097.5 0
31097.5 224.289 0
0    0    0

-452.049 31263.9 0
31263.9 -207.054 0
0    0    0

-79.851 30727.9 0
30727.9 -283.467 0
0    0    0

84.4883 30185.7 0
30185.7 -74.3493 0
0    0    0

-238.724 30331.9 0
30331.9 -104.171 0
0    0    0

-109.241 29743.9 0
29743.9 -282.4 0
0    0    0

46.5593 29192.7 0
29192.7 143.844 0
0    0    0

66.5595 29933.8 0
29933.8 -132.98 0
0    0    0

80.1358 28979.2 0
28979.2 -202.803 0
0    0    0

-75.645 28685 0
28685 -58.5538 0
0    0    0

9.7476 28989.5 0
28989.5 -149.816 0
0    0    0

-205.419 28581.7 0
28581.7 -70.0994 0
0    0    0

-75.1396 28631.3 0
28631.3 -195.792 0
0    0    0

-265.483 29113.4 0
29113.4 21.4902 0
0    0    0

43.8781 28678.7 0
28678.7 158.795 0
0    0    0

323.603 28289.9 0
28289.9 180.304 0
0    0    0

150.34 27800.1 0
27800.1 -20.9611 0
0    0    0

33.6819 28434.6 0
28434.6 267.419 0
0    0    0

30.8554 28206.7 0
28206.7 176.781 0
0    0    0

198.609 29032.6 0
29032.6 325.972 0
0    0    0

101.988 26696 0
26696 102.311 0
0    0    0

21.2172 28197 0
28197 -119.751 0
0    0    0

-147.497 29649.9 0
29649.9 -296.042 0
0    0    0

187.983 29350.4 0
29350.4 234.269 0
0    0    0

-38.4868 28460.1 0
28460.1 193.125 0
0    0    0

-123.548 29210.1 0
29210.1 -144.344 0
0    0    0

1.07843 28944 0
28944 120.796 0
0    0    0

293.545 28150.3 0
28150.3 -123.566 0
0    0    0

-137.644 28427.2 0
28427.2 -315.991 0
0    0    0

-112.452 26832.6 0
26832.6 -210.106 0
0    0    0

-65.4193 29034.4 0
29034.4 -228.772 0
0    0    0

273.133 28822.5 0
28822.5 201.51 0
0    0    0

122.036 28661.7 0
28661.7 93.4639 0
0    0    0

-16.9709 27782 0
27782 94.1298 0
0    0    0

-48.4825 28761.7 0
28761.7 105.145 0
0    0    0

241.484 28055.6 0
28055.6 133.367 0
0    0    0

61.5723 27602.4 0
27602.4 47.6739 0
0    0    0

-29.6553 27431.8 0
27431.8 -426.865 0
0    0    0

104.269 28320.3 0
28320.3 -246.997 0
0    0    0

-34.6736 28715.1 0
28715.1 0.230791 0
0    0    0

101.269 28359.8 0
28359.8 -182.512 0
0    0    0

127.769 27609 0
27609 140.854 0
0    0    0

-199.996 28422.1 0
28422.1 -125.172 0
0    0    0

-64.1443 27874.4 0
27874.4 -135.012 0
0    0    0

-133.343 28076.9 0
28076.9 -117.663 0
0    0    0

61.2889 27655.5 0
27655.5 342.056 0
0    0    0

327.77 28733.1 0
28733.1 107.472 0
0    0    0

-81.3042 27818.2 0
27818.2 -144.99 0
0    0    0

-169.177 28554.9 0
28554.9 -309.213 0
0    0    0

-206.103 26257 0
26257 -331.308 0
0    0    0

-277.152 29123.2 0
29123.2 -175.755 0
0    0    0

-237.146 28442.3 0
28442.3 -182.45 0
0    0    0

158.774 28062.9 0
28062.9 209.07 0
0    0    0

-104.452 27330.8 0
27330.8 -287.567 0
0    0    0

-144.972 28189.6 0
28189.6 218.907 0
0    0    0

326.825 27559.3 0
27559.3 366.05 0
0    0    0

-202.663 56188 0
56188 -309.171 0
0    0    0

-102.328 55113.6 0
55113.6 -107.014 0
0    0    0

241.258 54468.4 0
54468.4 367.468 0
0    0    0

224.555 55659.9 0
55659.9 123.734 0
0    0    0

250.364 55289.1 0
55289.1 367.32 0
0    0    0

-296.665 54782.3 0
54782.3 -285.269 0
0    0    0

250.146 54133.3 0
54133.3 377.693 0
0    0    0

-3.60732 52852.7 0
52852.7 93.8015 0
0    0    0

210.651 52855.6 0
52855.6 9.13076 0
0    0    0

-283.565 53889.7 0
53889.7 -271.016 0
0    0    0

114.326 53602.2 0
53602.2 -126.354 0
0    0    0

-72.8506 52721.9 0
52721.9 -255.196 0
0    0    0

-242.963 53706.7 0
53706.7 -167.716 0
0    0    0

257.051 52453.1 0
52453.1 203.364 0
0    0    0

32.6223 53493.3 0
53493.3 211.47 0
0    0    0

-42.8856 53845.8 0
53845.8 -221.602 0
0    0    0

-251.318 54127.3 0
54127.3 45.2982 0
0    0    0

-230.787 54354.9 0
54354.9 -143.003 0
0    0    0

-40.7042 52268.5 0
52268.5 -200.743 0
0    0    0

1.24833 51537.1 0
51537.1 -231.477 0
0    0    0

72.1075 54157.6 0
54157.6 -140.173 0
0    0    0

95.9157 54603.2 0
54603.2 -194.245 0
0    0    0

274.505 54375 0
54375 237.014 0
0    0    0

-68.7862 55380.7 0
55380.7 -38.3156 0
0    0    0

146.77 52936.2 0
52936.2 172.085 0
0    0    0

94.9991 51790.4 0
51790.4 231.862 0
0    0    0

0.143706 53312.4 0
53312.4 -190.92 0
0    0    0

-33.9823 52567.2 0
52567.2 -196.399 0
0    0    0

-196.422 54923.6 0
54923.6 -154.914 0
0    0    0

-70.405 53100 0
53100 206.055 0
0    0    0

-187.553 52554.7 0
52554.7 -175.849 0
0    0    0

-59.9672 51235.1 0
51235.1 151.578 0
0    0    0

6.90502 54369.3 0
54369.3 83.1001 0
0    0    0

47.6341 53300.7 0
53300.7 -145.762 0
0    0    0

-35.3586 51946.8 0
51946.8 161.387 0
0    0    0

128.441 51696.2 0
51696.2 76.3964 0
0    0    0

119.256 51228.1 0
51228.1 -52.5722 0
0    0    0

72.223 52847 0
52847 108.272 0
0    0    0

-297.563 54487.1 0
54487.1 -293.085 0
0    0    0

107.057 53844.9 0
53844.9 152.399 0
0    0    0

198.671 54108.3 0
54108.3 327.275 0
0    0    0

267.386 54688.9 0
54688.9 163.206 0
0    0    0

-265.682 54099.8 0
54099.8 -239.881 0
0    0    0

225.468 53789 0
53789 351.046 0
0    0    0

37.3273 52301.1 0
52301.1 209.328 0
0    0    0

-84.7483 51460.2 0
51460.2 84.8578 0
0    0    0

-77.9479 51969 0
51969 -181.066 0
0    0    0

-24.6716 51872.8 0
51872.8 221.506 0
0    0    0

-103.399 52596 0
52596 -175.986 0
0    0    0

-76.1445 52045.2 0
52045.2 -247.943 0
0    0    0

-206.672 52698.7 0
52698.7 -226.285 0
0    0    0

16.7668 51660.1 0
51660.1 -135.083 0
0    0    0

-79.7321 55926 0
55926 -45.7727 0
0    0    0

183.955 57617.2 0
57617.2 289.221 0
0    0    0

151.55 54916.6 0
54916.6 39.4645 0
0    0    0

-250.774 54318.6 0
54318.6 -221.054 0
0    0    0

-53.8179 53093.4 0
53093.4 -263.196 0
0    0    0

-17.4505 53290.2 0
53290.2 32.9127 0
0    0    0

239.252 53403.4 0
53403.4 237.37 0
0    0    0

137.356 52390.8 0
52390.8 190.813 0
0    0    0

3.81497 51074.3 0
51074.3 -11.5644 0
0    0    0

74.1936 51706.4 0
51706.4 -103.498 0
0    0    0

-51.8018 53645.8 0
53645.8 -191.479 0
0    0    0

109.163 52208.6 0
52208.6 10.2867 0
0    0    0

92.6404 52875.7 0
52875.7 250.549 0
0    0    0

-86.5785 52644.5 0
52644.5 -257.855 0
0    0    0

67.3463 52406.4 0
52406.4 199.435 0
0    0    0

-11.025 52110.9 0
52110.9 -199.365 0
0    0    0

-46.0871 52644.4 0
52644.4 -263.904 0
0    0    0

-65.2404 51214.6 0
51214.6 162.441 0
0    0    0

115.582 51083.1 0
51083.1 161.904 0
0    0    0

85.637 51389.8 0
51389.8 -37.0531 0
0    0    0

110.792 50878.8 0
50878.8 -198.403 0
0    0    0

-68.3195 51247.4 0
51247.4 -212.611 0
0    0    0

312.018 54859.8 0
54859.8 227.561 0
0    0    0

-53.1712 56157.1 0
56157.1 139.607 0
0    0    0

-215.743 54599.7 0
54599.7 -340.348 0
0    0    0

-164.735 55028 0
55028 -89.8421 0
0    0    0

-306.307 54750.8 0
54750.8 -128.884 0
0    0    0

105.107 53865.5 0
53865.5 180.423 0
0    0    0

240.82 52239.6 0
52239.6 357.2 0
0    0    0

120.296 52853.6 0
52853.6 27.2896 0
0    0    0

6.92023 51573.5 0
51573.5 161.33 0
0    0    0

59.1489 51961.9 0
51961.9 239.438 0
0    0    0

-231.858 53331.2 0
53331.2 -242.5 0
0    0    0

-14.8559 53906.1 0
53906.1 -245.165 0
0    0    0

-183.175 52665.7 0
52665.7 -177.372 0
0    0    0

-168.468 52390.6 0
52390.6 -331.242 0
0    0    0

142.767 53150.1 0
53150.1 -57.3009 0
0    0    0

173.044 52822.1 0
52822.1 97.5045 0
0    0    0

47.4859 52916.5 0
52916.5 241.226 0
0    0    0

-211.534 53740.8 0
53740.8 -224.817 0
0    0    0

-142.771 53032.5 0
53032.5 -181.636 0
0    0    0

-253.557 52923.6 0
52923.6 -351.715 0
0    0    0

96.0166 52976.9 0
52976.9 308.01 0
0    0    0

-176.636 54152.9 0
54152.9 -0.680405 0
0    0    0

108.762 54020.8 0
54020.8 -10.3748 0
0    0    0

93.6911 53490.8 0
53490.8 247.133 0
0    0    0

-105.759 51345.5 0
51345.5 -55.2103 0
0    0    0

172.463 51345.2 0
51345.2 192.029 0
0    0    0

-213.864 52205.3 0
52205.3 -192.223 0
0    0    0

204.777 50771.5 0
50771.5 320.41 0
0    0    0

111.359 51038 0
51038 193.381 0
0    0    0

252.202 51265.3 0
51265.3 103.912 0
0    0    0

-246.826 51466.7 0
51466.7 -86.3142 0
0    0    0

64.1816 50439 0
50439 -55.6397 0
0    0    0

-244.347 51669.4 0
51669.4 -144.509 0
0    0    0

150.217 51033.8 0
51033.8 21.9845 0
0    0    0

53.9235 52061 0
52061 -282.409 0
0    0    0

118.474 52444.6 0
52444.6 368.031 0
0    0    0

-115.917 54425.4 0
54425.4 -72.0686 0
0    0    0

128.133 52529.7 0
52529.7 248.407 0
0    0    0

-181.686 54584.6 0
54584.6 -116.719 0
0    0    0

-193.708 54359.1 0
54359.1 -253.969 0
0    0    0

199.588 52022.1 0
52022.1 310.198 0
0    0    0

170.731 52596.5 0
52596.5 302.349 0
0    0    0

203.787 53177.8 0
53177.8 55.0649 0
0    0    0

-19.3423 54062.6 0
54062.6 -24.6813 0
0    0    0

288.806 51477 0
51477 151.494 0
0    0    0

124.949 52130.1 0
52130.1 311.983 0
0    0    0

-174.207 52339.7 0
52339.7 -257.038 0
0    0    0

318.422 51877.3 0
51877.3 295.047 0
0    0    0

-63.0515 52870.4 0
52870.4 -121.688 0
0    0    0

-240.114 51910.4 0
51910.4 -129.598 0
0    0    0

42.6856 51142.6 0
51142.6 202.327 0
0    0    0

-217.755 51178.1 0
51178.1 -26.3999 0
0    0    0

-243.978 52756.4 0
52756.4 -134.152 0
0    0    0

5.89727 48578.5 0
48578.5 148.175 0
0    0    0

167.341 51395 0
51395 96.6789 0
0    0    0

-48.1626 50977.1 0
50977.1 -216.629 0
0    0    0

-11.0607 50216.3 0
50216.3 228.715 0
0    0    0

206.419 50652.6 0
50652.6 235.178 0
0    0    0

-112.201 55046.5 0
55046.5 41.8883 0
0    0    0

181.104 55095 0
55095 101.387 0
0    0    0

-282.533 53299.5 0
53299.5 -592.535 0
0    0    0

-167.085 53331 0
53331 -312.061 0
0    0    0

228.425 51701.9 0
51701.9 182.957 0
0    0    0

-129.353 51477.2 0
51477.2 -280.355 0
0    0    0

-269.858 50663 0
50663 -213.882 0
0    0    0

-111.109 48881.8 0
48881.8 5.41873 0
0    0    0

101.97 50743.5 0
50743.5 -72.2552 0
0    0    0

116.569 49883.1 0
49883.1 -84.9307 0
0    0    0

-145.433 53441.7 0
53441.7 -247.38 0
0    0    0

121.923 54113 0
54113 224.719 0
0    0    0

-148.885 53756.8 0
53756.8 2.32775 0
0    0    0

51.528 53811.6 0
53811.6 253.684 0
0    0    0

24.2159 56187 0
56187 67.0843 0
0    0    0

-92.14 57843.3 0
57843.3 15.5208 0
0    0    0

-184.245 53425.8 0
53425.8 -337.176 0
0    0    0

-162.168 52374 0
52374 -155.62 0
0    0    0

126.65 54632.7 0
54632.7 219.057 0
0    0    0

69.7017 53923.7 0
53923.7 -97.8643 0
0    0    0

58.0141 52308.8 0
52308.8 22.8395 0
0    0    0

-300.997 52930.2 0
52930.2 -104.817 0
0    0    0

-148.148 51519.9 0
51519.9 -130.918 0
0    0    0

192.325 51897.7 0
51897.7 143.491 0
0    0    0

136.252 49832.6 0
49832.6 258.749 0
0    0    0

102.395 50342.4 0
50342.4 -2.55204 0
0    0    0

110.192 56209.3 0
56209.3 -71.761 0
0    0    0

160.05 55699.1 0
55699.1 122.242 0
0    0    0

-123.425 55343.2 0
55343.2 -139.493 0
0    0    0

-254.618 55830.9 0
55830.9 -214.336 0
0    0    0

35.1323 53071.4 0
53071.4 286.101 0
0    0    0

-47.6182 54002.7 0
54002.7 120.449 0
0    0    0

216.114 53605.9 0
53605.9 239.799 0
0    0    0

38.8367 53578.8 0
53578.8 108.054 0
0    0    0

-73.6708 54792 0
54792 -159.002 0
0    0    0

-206.673 53878.7 0
53878.7 -300.444 0
0    0    0

199.873 52652 0
52652 281.712 0
0    0    0

132.116 53104.6 0
53104.6 333.061 0
0    0    0

141.933 52553.4 0
52553.4 165.422 0
0    0    0

20.0724 53178.5 0
53178.5 -131.659 0
0    0    0

-349.294 54911.5 0
54911.5 -118.82 0
0    0    0

-16.7319 55106.5 0
55106.5 147.223 0
0    0    0

302.674 54693.3 0
54693.3 46.9185 0
0    0    0

144.657 55468.2 0
55468.2 114.588 0
0    0    0

236.931 52953.8 0
52953.8 517.693 0
0    0    0

-267.115 52702.7 0
52702.7 -179.597 0
0    0    0

-238.177 49058.1 0
49058.1 -289.348 0
0    0    0

-292.931 49394.3 0
49394.3 -8.19924 0
0    0    0

244.568 48940.7 0
48940.7 132.785 0
0    0    0

4.07118 49606 0
49606 -13.5156 0
0    0    0

-107.367 50237.6 0
50237.6 83.2602 0
0    0    0

42.994 50717.4 0
50717.4 175.09 0
0    0    0

-14.9438 46083.1 0
46083.1 -121.173 0
0    0    0

-4.96007 46477.6 0
46477.6 123.868 0
0    0    0

-177.907 46022.1 0
46022.1 -60.0145 0
0    0    0

183.953 43908.8 0
43908.8 126.917 0
0    0    0

99.1988 43877.3 0
43877.3 343.446 0
0    0    0

74.8356 43814.2 0
43814.2 262.216 0
0    0    0

-10.2801 44055.2 0
44055.2 -334.038 0
0    0    0

154.623 43832 0
43832 392.186 0
0    0    0

99.8187 44461.2 0
44461.2 69.1416 0
0    0    0

-172.28 44899.1 0
44899.1 -285.366 0
0    0    0

189.576 43730.5 0
43730.5 380.597 0
0    0    0

-126.187 43542.4 0
43542.4 -294.303 0
0    0    0

-79.3038 44052.8 0
44052.8 -239.603 0
0    0    0

100.928 42710.7 0
42710.7 294.275 0
0    0    0

-193.922 44358.3 0
44358.3 144.782 0
0    0    0

145.649 43115.2 0
43115.2 -170.24 0
0    0    0

180.899 44881.1 0
44881.1 22.8843 0
0    0    0

356.217 43844.9 0
43844.9 165.516 0
0    0    0

-141.877 45223.1 0
45223.1 -240.918 0
0    0    0

32.0575 44843.4 0
44843.4 23.7915 0
0    0    0

-162.661 43951.7 0
43951.7 101.691 0
0    0    0

38.4901 44620 0
44620 -285.759 0
0    0    0

170.586 43598.3 0
43598.3 -60.6609 0
0    0    0

-347.455 43633.7 0
43633.7 -199.634 0
0    0    0

-17.5326 44913.6 0
44913.6 168.721 0
0    0    0

126.531 44881.9 0
44881.9 120.959 0
0    0    0

-180.665 45176.4 0
45176.4 -279.051 0
0    0    0

-159.674 44548.3 0
44548.3 150.921 0
0    0    0

59.2115 44169.8 0
44169.8 226.115 0
0    0    0

153.989 42990.8 0
42990.8 -55.4572 0
0    0    0

-147.621 42696.8 0
42696.8 -353.362 0
0    0    0

-101.406 41649.2 0
41649.2 133.791 0
0    0    0

63.3047 43340.2 0
43340.2 -16.2711 0
0    0    0

-295.412 41935.7 0
41935.7 -451.052 0
0    0    0

-228.022 44350.3 0
44350.3 -427.87 0
0    0    0

39.0105 45432.7 0
45432.7 227.572 0
0    0    0

-169.17 43552.2 0
43552.2 141.79 0
0    0    0

-200.867 42640.9 0
42640.9 -438.544 0
0    0    0

189.982 44647.5 0
44647.5 196.106 0
0    0    0

-134.595 43945.3 0
43945.3 -101.912 0
0    0    0

270.714 43511.8 0
43511.8 318.434 0
0    0    0

332.165 42958.7 0
42958.7 391.085 0
0    0    0

160.71 43980.7 0
43980.7 358.02 0
0    0    0

-123.921 43053.1 0
43053.1 -3.68781 0
0    0    0

-166.187 41897.4 0
41897.4 -100.044 0
0    0    0

270.929 43257.1 0
43257.1 61.2937 0
0    0    0

-51.5905 41396.8 0
41396.8 -186.143 0
0    0    0

199.92 43033.9 0
43033.9 531.535 0
0    0    0

-38.9537 42797.6 0
42797.6 106.102 0
0    0    0

-142.77 42443 0
42443 31.1434 0
0    0    0

-5.75329 42250.9 0
42250.9 -223.367 0
0    0    0

-110.137 42297.4 0
42297.4 -345.791 0
0    0    0

-48.3383 42261.7 0
42261.7 103.65 0
0    0    0

103.753 42861.2 0
42861.2 -270.252 0
0    0    0

111.419 42415 0
42415 103.22 0
0    0    0

213.692 41591.4 0
41591.4 301.209 0
0    0    0

-15.7184 42549.8 0
42549.8 33.8448 0
0    0    0

-88.2538 41952.5 0
41952.5 9.08965 0
0    0    0

-207.087 41376.4 0
41376.4 -279.383 0
0    0    0

-160.639 41867.5 0
41867.5 -141.89 0
0    0    0

154.063 42143.4 0
42143.4 483.333 0
0    0    0

-25.2992 41686.4 0
41686.4 -247.739 0
0    0    0

27.8654 42055.9 0
42055.9 222.114 0
0    0    0

62.2689 41530.4 0
41530.4 153.48 0
0    0    0

177.132 43516.7 0
43516.7 -106.725 0
0    0    0

-189.961 44198.7 0
44198.7 -224.816 0
0    0    0

56.0465 41435.3 0
41435.3 -103.208 0
0    0    0

115.072 40460.4 0
40460.4 22.5455 0
0    0    0

-61.7768 38377.8 0
38377.8 -69.8243 0
0    0    0

-155.597 41445.5 0
41445.5 -155.672 0
0    0    0

155.006 41070.9 0
41070.9 226.664 0
0    0    0

-166.457 40937.6 0
40937.6 -205.539 0
0    0    0

20.2083 39783.8 0
39783.8 97.4063 0
0    0    0

166.892 40633.3 0
40633.3 313.361 0
0    0    0

-133.886 42923.4 0
42923.4 -421.591 0
0    0    0

-330.208 41865.1 0
41865.1 -186.053 0
0    0    0

-160.332 42647.8 0
42647.8 -248.766 0
0    0    0

-64.2004 42139.3 0
42139.3 -131.368 0
0    0    0

-145.497 43340.5 0
43340.5 159.777 0
0    0    0

72.0958 42860.2 0
42860.2 76.1173 0
0    0    0

0.352419 42482.6 0
42482.6 286.436 0
0    0    0

231.69 42318.3 0
42318.3 162.836 0
0    0    0

224.391 42797.3 0
42797.3 68.6933 0
0    0    0

-98.9899 41825.9 0
41825.9 155.764 0
0    0    0

113.082 43253.3 0
43253.3 111.546 0
0    0    0

-42.149 42336.7 0
42336.7 191.615 0
0    0    0

-175.283 42835.7 0
42835.7 -58.7229 0
0    0    0

11.2918 42525.1 0
42525.1 346.644 0
0    0    0

110.394 41870.3 0
41870.3 8.79184 0
0    0    0

9.35424 40469.5 0
40469.5 152.405 0
0    0    0

-48.9483 41116.1 0
41116.1 -68.0959 0
0    0    0

-161.021 40556.2 0
40556.2 -389.267 0
0    0    0

-111.108 41456 0
41456 -304.067 0
0    0    0

-119.23 41775 0
41775 -237.421 0
0    0    0

-64.6102 41406 0
41406 -69.8236 0
0    0    0

-151.327 42260.7 0
42260.7 -57.9506 0
0    0    0

458.476 42187 0
42187 300.413 0
0    0    0

-193.158 41449.8 0
41449.8 -200.103 0
0    0    0

-390.31 42550.1 0
42550.1 -231.366 0
0    0    0

168.507 41610.7 0
41610.7 143.22 0
0    0    0

163.622 41767.1 0
41767.1 73.1584 0
0    0    0

-302.751 41945.6 0
41945.6 -205.029 0
0    0    0

-219.961 58774.9 0
58774.9 -134.29 0
0    0    0

-70.9462 57943.7 0
57943.7 102.204 0
0    0    0

253.09 56298.8 0
56298.8 110.66 0
0    0    0

-66.9239 57369 0
57369 14.4113 0
0    0    0

-168.47 56159.4 0
56159.4 -3.29642 0
0    0    0

106.044 56866.8 0
56866.8 16.6099 0
0    0    0

-39.7992 55790.7 0
55790.7 61.9636 0
0    0    0

-18.0931 56524.5 0
56524.5 -247.72 0
0    0    0

32.8836 57297 0
57297 -218.156 0
0    0    0

-5.36936 57545 0
57545 270.351 0
0    0    0

-63.2953 57967.5 0
57967.5 -145.442 0
0    0    0

55.7651 57700.5 0
57700.5 -111.119 0
0    0    0

181.363 58230.3 0
58230.3 126.328 0
0    0    0

-355.49 58639.3 0
58639.3 -55.8188 0
0    0    0

52.6146 57491.9 0
57491.9 -157.794 0
0    0    0

11.5074 57749.1 0
57749.1 454.848 0
0    0    0

139.735 58563.9 0
58563.9 -6.19253 0
0    0    0

-185.321 58727.6 0
58727.6 -111.311 0
0    0    0

166 57829 0
57829 347.03 0
0    0    0

-116.751 58380.9 0
58380.9 45.8082 0
0    0    0

325.267 59070.9 0
59070.9 345.614 0
0    0    0

207.424 58892.4 0
58892.4 328.001 0
0    0    0

72.3231 57298.2 0
57298.2 175.857 0
0    0    0

-64.4129 57186.6 0
57186.6 -342.464 0
0    0    0

263.467 60016.1 0
60016.1 259.117 0
0    0    0

43.5352 58227.2 0
58227.2 117.276 0
0    0    0

-197.809 58062.7 0
58062.7 -254.696 0
0    0    0

-20.2323 58742.8 0
58742.8 -101.824 0
0    0    0

-180.612 60034.6 0
60034.6 -163.531 0
0    0    0

178.859 58855.9 0
58855.9 224.94 0
0    0    0

286.124 58425.8 0
58425.8 180.356 0
0    0    0

-164.863 59303.6 0
59303.6 -194.201 0
0    0    0

246.779 59500.2 0
59500.2 170.11 0
0    0    0

-147.766 59308.9 0
59308.9 -154.399 0
0    0    0

-190.465 59724.5 0
59724.5 -164.874 0
0    0    0

-135.567 59003.3 0
59003.3 111.089 0
0    0    0

146.653 59260.5 0
59260.5 81.2881 0
0    0    0

-146.635 60804 0
60804 -250.418 0
0    0    0

86.0563 59868.2 0
59868.2 -71.1951 0
0    0    0

77.8421 60109.4 0
60109.4 -102.575 0
0    0    0

-257.702 60220.9 0
60220.9 -374.96 0
0    0    0

106.872 60454.1 0
60454.1 208.424 0
0    0    0

-48.0195 60366.2 0
60366.2 -122.157 0
0    0    0

282.369 60603.8 0
60603.8 191.427 0
0    0    0

192.76 59762 0
59762 194.541 0
0    0    0

-128.181 60702.2 0
60702.2 -520.924 0
0    0    0

92.901 60180.3 0
60180.3 -66.1982 0
0    0    0

204.063 60472.8 0
60472.8 405.213 0
0    0    0

317.647 61090.9 0
61090.9 571.285 0
0    0    0

133.909 61640.5 0
61640.5 152.87 0
0    0    0

-191.231 61038 0
61038 67.1181 0
0    0    0

-212.273 60318.9 0
60318.9 -323.972 0
0    0    0

3.74444 59913.5 0
59913.5 125.49 0
0    0    0

111.701 59674.5 0
59674.5 110.715 0
0    0    0

-192.95 60863.1 0
60863.1 -133.465 0
0    0    0

-191.289 60243.9 0
60243.9 -130.304 0
0    0    0

-194.391 59586.9 0
59586.9 -360.415 0
0    0    0

-322.271 59678.7 0
59678.7 -244.532 0
0    0    0

104.297 60535.9 0
60535.9 344.272 0
0    0    0

171.018 60499.4 0
60499.4 329.675 0
0    0    0

296.829 61240.4 0
61240.4 332.425 0
0    0    0

-74.3311 60693.6 0
60693.6 -347.908 0
0    0    0

-4.71428 61774.4 0
61774.4 286.812 0
0    0    0

-412.661 61477.2 0
61477.2 -427.469 0
0    0    0

152.942 59177.3 0
59177.3 312.064 0
0    0    0

334.391 61170.3 0
61170.3 473.147 0
0    0    0

298.562 59913.9 0
59913.9 311.64 0
0    0    0

-182.157 60313.2 0
60313.2 -173.293 0
0    0    0

-98.5556 60030.6 0
60030.6 -101.189 0
0    0    0

89.2784 60196 0
60196 146.314 0
0    0    0

-182.244 55578.2 0
55578.2 -51.7627 0
0    0    0

-138.511 53950.1 0
53950.1 -34.2792 0
0    0    0

-160.799 55084 0
55084 -249.183 0
0    0    0

103.185 54545.7 0
54545.7 -238.158 0
0    0    0

-23.1197 54804.3 0
54804.3 233.57 0
0    0    0

62.6994 55094.2 0
55094.2 -18.2842 0
0    0    0

168.579 53814.5 0
53814.5 206.573 0
0    0    0

-129.697 54684.7 0
54684.7 -171.448 0
0    0    0

119.284 55260.5 0
55260.5 266.871 0
0    0    0

43.3421 55099.6 0
55099.6 -14.6814 0
0    0    0

-57.7714 54264.2 0
54264.2 60.9401 0
0    0    0

-333.614 53774.1 0
53774.1 -41.1266 0
0    0    0

71.7046 55415.1 0
55415.1 -43.2403 0
0    0    0

-103.796 54703.4 0
54703.4 110.839 0
0    0    0

15.6596 53831.7 0
53831.7 -120.608 0
0    0    0

-156.115 54212.8 0
54212.8 -69.7985 0
0    0    0

220.335 56914.9 0
56914.9 182.967 0
0    0    0

50.8781 56415.5 0
56415.5 -59.1866 0
0    0    0

23.6611 57737.5 0
57737.5 -386.937 0
0    0    0

167.112 57532.9 0
57532.9 308.492 0
0    0    0

-13.7947 57398.7 0
57398.7 225.192 0
0    0    0

-232.888 57345.1 0
57345.1 -345.27 0
0    0    0

105.481 51920.9 0
51920.9 -50.542 0
0    0    0

268.266 52609.1 0
52609.1 217.603 0
0    0    0

-305.332 52988.6 0
52988.6 -409.122 0
0    0    0

291.107 53248.2 0
53248.2 220.7 0
0    0    0

161.619 52652.6 0
52652.6 332.115 0
0    0    0

-59.5266 53220.8 0
53220.8 -13.2288 0
0    0    0

320.054 53878.2 0
53878.2 273.423 0
0    0    0

191.588 53767.2 0
53767.2 223.121 0
0    0    0

-177.164 54193.6 0
54193.6 -237.309 0
0    0    0

193.208 54505.3 0
54505.3 327.427 0
0    0    0

160.662 53546.8 0
53546.8 67.0381 0
0    0    0

303.864 54864 0
54864 273.132 0
0    0    0

114.278 54412.3 0
54412.3 153.305 0
0    0    0

-198.093 54943.6 0
54943.6 -44.5959 0
0    0    0

-109.02 53891.8 0
53891.8 -14.1333 0
0    0    0

54.649 54530.9 0
54530.9 -137.25 0
0    0    0

-162.179 56698.2 0
56698.2 39.1616 0
0    0    0

-322.95 55976.9 0
55976.9 -85.1211 0
0    0    0

88.8231 57340.9 0
57340.9 -141.557 0
0    0    0

0.183172 56846.8 0
56846.8 117.275 0
0    0    0

-207.727 58750.7 0
58750.7 -268.33 0
0    0    0

-155.989 58069.1 0
58069.1 -413.392 0
0    0    0

273.322 57697.8 0
57697.8 499.02 0
0    0    0

163.93 56404.5 0
56404.5 101.658 0
0    0    0

-151.49 57093.7 0
57093.7 -180.076 0
0    0    0

156.772 57084.7 0
57084.7 360.143 0
0    0    0

347.273 56820.2 0
56820.2 511.691 0
0    0    0

0.833338 56984.6 0
56984.6 183.986 0
0    0    0

-65.9078 57878.6 0
57878.6 26.1792 0
0    0    0

-164.808 56780.5 0
56780.5 -327.544 0
0    0    0

123.086 57892.7 0
57892.7 -89.533 0
0    0    0

-337.299 57443.4 0
57443.4 -543.972 0
0    0    0

-212.02 58115.1 0
58115.1 -114.666 0
0    0    0

107.567 58638.9 0
58638.9 610.051 0
0    0    0

-258.297 56576.6 0
56576.6 -562.751 0
0    0    0

71.761 56933.6 0
56933.6 -176.076 0
0    0    0

-56.4428 57321.8 0
57321.8 187.043 0
0    0    0

35.3296 57410.4 0
57410.4 290.897 0
0    0    0

105.693 59720.1 0
59720.1 -146.379 0
0    0    0

28.7391 59058.7 0
59058.7 259.939 0
0    0    0

-42.2773 58559.8 0
58559.8 -248.065 0
0    0    0

226.397 56978.5 0
56978.5 338.672 0
0    0    0

98.1657 58046.7 0
58046.7 -235.108 0
0    0    0

-209.48 57204.5 0
57204.5 -239.717 0
0    0    0

111.429 57838.8 0
57838.8 223.096 0
0    0    0

-229.901 59224.4 0
59224.4 -394.169 0
0    0    0

-136.615 58816.3 0
58816.3 26.0306 0
0    0    0

-151.992 58060.3 0
58060.3 -428.805 0
0    0    0

174.518 57724.4 0
57724.4 571.289 0
0    0    0

-286.376 57502.3 0
57502.3 -253.576 0
0    0    0

42.1826 58226.4 0
58226.4 135.6 0
0    0    0

-64.0682 58745.2 0
58745.2 -297.059 0
0    0    0

35.638 57289.4 0
57289.4 -112.577 0
0    0    0

104.442 57512.5 0
57512.5 262.446 0
0    0    0

-124.642 58365 0
58365 -278.86 0
0    0    0

192.519 59035.6 0
59035.6 279.313 0
0    0    0

160.243 56827 0
56827 203.446 0
0    0    0

-130.486 58245.4 0
58245.4 -178.985 0
0    0    0

304.682 58413.3 0
58413.3 209.896 0
0    0    0

197.291 58273.1 0
58273.1 117.554 0
0    0    0

22.9184 57614.9 0
57614.9 -65.621 0
0    0    0

-117.866 57605.4 0
57605.4 -315.276 0
0    0    0

-242.954 58816.8 0
58816.8 -284.781 0
0    0    0

106.19 58943.9 0
58943.9 291.09 0
0    0    0

-156.321 59511.3 0
59511.3 -61.5988 0
0    0    0

49.2865 59634.8 0
59634.8 -164.606 0
0    0    0

-147.444 59568.3 0
59568.3 159.848 0
0    0    0

265.542 59893.2 0
59893.2 91.7883 0
0    0    0

198.896 58701.4 0
58701.4 184.461 0
0    0    0

41.4899 59214.4 0
59214.4 -117.421 0
0    0    0

105.142 59418.5 0
59418.5 98.0512 0
0    0    0

227.629 59725.6 0
59725.6 244.145 0
0    0    0

203.471 58408.5 0
58408.5 -97.4011 0
0    0    0

258.161 58292.4 0
58292.4 276.006 0
0    0    0

123.299 58380.9 0
58380.9 386.546 0
0    0    0

0.954594 57307.5 0
57307.5 69.3019 0
0    0    0

-245.436 60496.4 0
60496.4 -309.285 0
0    0    0

-262.521 60186.1 0
60186.1 -80.405 0
0    0    0

152.573 61148.6 0
61148.6 255.382 0
0    0    0

-146.46 60834.1 0
60834.1 -99.2578 0
0    0    0

71.8288 58610.7 0
58610.7 -133.376 0
0    0    0

-155.2 59489 0
59489 -135.943 0
0    0    0

211.969 59421.3 0
59421.3 274.917 0
0    0    0

226.278 59200.7 0
59200.7 13.6337 0
0    0    0

-45.3239 57904.2 0
57904.2 176.415 0
0    0    0

-196.318 58116.9 0
58116.9 -148.357 0
0    0    0

83.0101 57637.2 0
57637.2 -44.344 0
0    0    0

-12.4267 57363.6 0
57363.6 270.252 0
0    0    0

94.4652 59827.9 0
59827.9 -57.8412 0
0    0    0

-310.489 60090.9 0
60090.9 8.93577 0
0    0    0

-106.469 55844.2 0
55844.2 -392.966 0
0    0    0

5.16452 56075.9 0
56075.9 181.134 0
0    0    0

136.777 55527.6 0
55527.6 267.149 0
0    0    0

-163.343 59024.8 0
59024.8 -35.8744 0
0    0    0

-167.21 55830.2 0
55830.2 -214.127 0
0    0    0

-189.423 56443.6 0
56443.6 39.613 0
0    0    0

-166.268 55127.4 0
55127.4 14.5582 0
0    0    0

71.1753 56151.2 0
56151.2 -103.075 0
0    0    0

116.976 55252.2 0
55252.2 185.793 0
0    0    0

-198.22 56651 0
56651 -161.646 0
0    0    0

219.803 54914 0
54914 54.9538 0
0    0    0

-198.212 54326.5 0
54326.5 71.1675 0
0    0    0

-84.0912 55110.3 0
55110.3 140.128 0
0    0    0

236.861 55229.4 0
55229.4 288.784 0
0    0    0

-335.106 55010.1 0
55010.1 -202.502 0
0    0    0

13.8162 55373.4 0
55373.4 335.3 0
0    0    0

-120.882 55931.3 0
55931.3 -27.2798 0
0    0    0

74.9702 55203.3 0
55203.3 -119.08 0
0    0    0

215.925 54832.3 0
54832.3 50.0484 0
0    0    0

-23.5699 55447.7 0
55447.7 -164.164 0
0    0    0

-240.042 55917.8 0
55917.8 -32.8634 0
0    0    0

26.2343 57433.3 0
57433.3 -116.773 0
0    0    0

91.4026 54780.2 0
54780.2 -39.7898 0
0    0    0

-27.6818 55403.4 0
55403.4 133.964 0
0    0    0

76.9496 44120.4 0
44120.4 296.776 0
0    0    0

210.177 46288.1 0
46288.1 62.4877 0
0    0    0

232.136 44521.3 0
44521.3 68.5016 0
0    0    0

161.899 45363.6 0
45363.6 133.496 0
0    0    0

-15.4538 48292.7 0
48292.7 -63.9765 0
0    0    0

-299.362 48319.2 0
48319.2 -339.604 0
0    0    0

-271.59 49000.4 0
49000.4 -109.661 0
0    0    0

-128.913 50018.8 0
50018.8 -23.0544 0
0    0    0

-179.919 39649.5 0
39649.5 -164.457 0
0    0    0

172.096 39021 0
39021 70.7084 0
0    0    0

48.0362 37101.3 0
37101.3 119.838 0
0    0    0

-105.696 39362.7 0
39362.7 -257.778 0
0    0    0

21.4292 40042.4 0
40042.4 278.749 0
0    0    0

147.631 38914.3 0
38914.3 32.5473 0
0    0    0

349.875 35112.6 0
35112.6 305.524 0
0    0    0

134.629 36966.5 0
36966.5 -9.57365 0
0    0    0

95.0687 37660.7 0
37660.7 -8.13938 0
0    0    0

-177.361 38564.4 0
38564.4 107.868 0
0    0    0

-118.459 38618.8 0
38618.8 4.59246 0
0    0    0

109.685 37813.7 0
37813.7 247.614 0
0    0    0

-141.692 37508.2 0
37508.2 -211.564 0
0    0    0

-34.4724 37722 0
37722 -233.661 0
0    0    0

162.58 37311.5 0
37311.5 117.108 0
0    0    0

-198.888 37743 0
37743 -196.48 0
0    0    0

90.4472 38451.3 0
38451.3 -98.6186 0
0    0    0

53.3397 38292.5 0
38292.5 -159.66 0
0    0    0

-93.9654 36736 0
36736 -31.684 0
0    0    0

-246.989 36248.3 0
36248.3 -288.113 0
0    0    0

77.4655 36484.4 0
36484.4 333.69 0
0    0    0

218.655 36303.7 0
36303.7 165.142 0
0    0    0

35.1195 37978.1 0
37978.1 -141.535 0
0    0    0

194.258 37908.5 0
37908.5 232.344 0
0    0    0

-103.192 37436.3 0
37436.3 44.8054 0
0    0    0

227.098 36877.5 0
36877.5 98.9488 0
0    0    0

150.364 36560 0
36560 48.923 0
0    0    0

-221.524 37122.4 0
37122.4 -162.303 0
0    0    0

-60.7132 36743.7 0
36743.7 33.0931 0
0    0    0

216.1 37069.4 0
37069.4 321.452 0
0    0    0

-133.55 36461.6 0
36461.6 -108.107 0
0    0    0

-13.3786 35949.2 0
35949.2 229.573 0
0    0    0

-132.834 37099.5 0
37099.5 -14.9134 0
0    0    0

34.3465 36235.4 0
36235.4 -13.3962 0
0    0    0

125.719 36151.2 0
36151.2 269.166 0
0    0    0

-105.173 34638.9 0
34638.9 343.022 0
0    0    0

-297.371 36133.1 0
36133.1 -209.388 0
0    0    0

267.021 35254.9 0
35254.9 328.481 0
0    0    0

-31.2251 35292.3 0
35292.3 51.6989 0
0    0    0

-12.4039 35542.2 0
35542.2 -264.338 0
0    0    0

146.002 37226.5 0
37226.5 272.403 0
0    0    0

-110.568 36897.5 0
36897.5 -187.632 0
0    0    0

127.288 36634.1 0
36634.1 162.098 0
0    0    0

55.4998 35920 0
35920 162.586 0
0    0    0

-64.6043 36190.2 0
36190.2 -135.398 0
0    0    0

-139.499 36375.7 0
36375.7 100.672 0
0    0    0

11.2588 37703.8 0
37703.8 2.45202 0
0    0    0

100.044 37033 0
37033 213.581 0
0    0    0

151.722 36510.1 0
36510.1 -33.3754 0
0    0    0

284.573 36482 0
36482 325.46 0
0    0    0

-101.279 34529.1 0
34529.1 -183.039 0
0    0    0

35.4109 34940.5 0
34940.5 188.391 0
0    0    0

-274.403 36781.4 0
36781.4 -0.439578 0
0    0    0

-132.681 36230.3 0
36230.3 -124.99 0
0    0    0

-221.311 38043.4 0
38043.4 23.731 0
0    0    0

13.6438 37599.6 0
37599.6 131.719 0
0    0    0

-222.055 35659.5 0
35659.5 -180.653 0
0    0    0

-239.231 34905.5 0
34905.5 -250.887 0
0    0    0

195.873 34521.6 0
34521.6 312.313 0
0    0    0

55.2213 34113 0
34113 -285.325 0
0    0    0

-199.898 34198.7 0
34198.7 -87.6362 0
0    0    0

77.4922 33886.2 0
33886.2 -30.4666 0
0    0    0

-43.7392 35560.1 0
35560.1 -169.826 0
0    0    0

-108.595 32155.6 0
32155.6 126.189 0
0    0    0

176.572 33127.5 0
33127.5 142.286 0
0    0    0

-118.557 33346.4 0
33346.4 95.4414 0
0    0    0

102.402 30255.9 0
30255.9 424.367 0
0    0    0

45.3681 29136.2 0
29136.2 105.73 0
0    0    0

198.433 32525.7 0
32525.7 39.562 0
0    0    0

-139.61 31227.9 0
31227.9 -236.153 0
0    0    0

125.204 30835.6 0
30835.6 49.9848 0
0    0    0

-183.158 31429.9 0
31429.9 -39.8344 0
0    0    0

295.847 31554.7 0
31554.7 181.944 0
0    0    0

222.688 31286 0
31286 39.0424 0
0    0    0

88.9215 39961.1 0
39961.1 256.077 0
0    0    0

162.562 39718.2 0
39718.2 254.529 0
0    0    0

100.996 39147 0
39147 246.454 0
0    0    0

196.439 39347.6 0
39347.6 480.114 0
0    0    0

-9.05446 38740 0
38740 85.2319 0
0    0    0

-196.246 39032.3 0
39032.3 -31.7098 0
0    0    0

27.118 39748.5 0
39748.5 44.7574 0
0    0    0

31.0911 39450.9 0
39450.9 332.574 0
0    0    0

-107.528 39573.4 0
39573.4 -439.437 0
0    0    0

-213.047 39766.2 0
39766.2 -244.564 0
0    0    0

2.2825 36704.1 0
36704.1 72.4674 0
0    0    0

100.504 36656.1 0
36656.1 417.447 0
0    0    0

-95.7247 38027.6 0
38027.6 -63.1694 0
0    0    0

30.8797 39617.4 0
39617.4 182.711 0
0    0    0

-248.142 39100.2 0
39100.2 -290.983 0
0    0    0

-282.334 38378.1 0
38378.1 -177.811 0
0    0    0

190.02 36392.1 0
36392.1 396.04 0
0    0    0

107.256 36821.8 0
36821.8 188.536 0
0    0    0

-135.172 35818.1 0
35818.1 -471.738 0
0    0    0

112.476 35950.8 0
35950.8 214.379 0
0    0    0

136.602 37517.3 0
37517.3 -154.205 0
0    0    0

252.258 37934.2 0
37934.2 350.857 0
0    0    0

-29.962 36909.8 0
36909.8 -273.604 0
0    0    0

37.9295 37879.1 0
37879.1 229.507 0
0    0    0

-139.651 37799.6 0
37799.6 -139.512 0
0    0    0

-63.7124 37609.9 0
37609.9 -65.0648 0
0    0    0

-312.726 37664.9 0
37664.9 -257.697 0
0    0    0

-190.174 38270.7 0
38270.7 -258.732 0
0    0    0

199.821 37346.8 0
37346.8 327.745 0
0    0    0

118.471 38618.9 0
38618.9 -92.9581 0
0    0    0

-267.101 37758.9 0
37758.9 -428.148 0
0    0    0

-84.0965 37252.6 0
37252.6 -178.537 0
0    0    0

-117.511 38761.4 0
38761.4 153.176 0
0    0    0

233.288 38479.6 0
38479.6 281.541 0
0    0    0

54.2528 37419.7 0
37419.7 305.849 0
0    0    0

31.7517 37865.3 0
37865.3 -16.7888 0
0    0    0

83.5157 39389.4 0
39389.4 109.826 0
0    0    0

64.4463 37766.2 0
37766.2 18.8734 0
0    0    0

-100.8 36538.9 0
36538.9 -417.153 0
0    0    0

-34.7947 36558 0
36558 -341.182 0
0    0    0

177.684 37212 0
37212 -6.86376 0
0    0    0

-122.517 37848.2 0
37848.2 -208.491 0
0    0    0

11.3855 31280.8 0
31280.8 275.77 0
0    0    0

-247.004 31722 0
31722 -4.82023 0
0    0    0

-109.177 31013.2 0
31013.2 -213.786 0
0    0    0

-2.43216 31579.8 0
31579.8 -168.166 0
0    0    0

-395.64 31460 0
31460 -210.358 0
0    0    0

212.489 30652.2 0
30652.2 181.874 0
0    0    0

-194.735 30494.5 0
30494.5 -201.048 0
0    0    0

108.758 30766.5 0
30766.5 174.334 0
0    0    0

83.3296 30176.3 0
30176.3 -159.907 0
0    0    0

-66.2488 33394.2 0
33394.2 -411.251 0
0    0    0

61.83 31311.6 0
31311.6 -98.659 0
0    0    0

225.563 31043.6 0
31043.6 157.413 0
0    0    0

-66.8237 30616.7 0
30616.7 34.549 0
0    0    0

-233.507 31979.4 0
31979.4 -94.1095 0
0    0    0

-223.881 29622.8 0
29622.8 -299.364 0
0    0    0

24.2187 29401.3 0
29401.3 -15.8517 0
0    0    0

-180.194 30026.1 0
30026.1 -219.541 0
0    0    0

-123.025 30860.3 0
30860.3 -4.24823 0
0    0    0

-143.934 31495.9 0
31495.9 -186.288 0
0    0    0

-159.308 33704.1 0
33704.1 -134.892 0
0    0    0

-50.2246 31192.3 0
31192.3 -45.6388 0
0    0    0

-48.3808 30642.7 0
30642.7 195.051 0
0    0    0

200.003 31582.6 0
31582.6 152.375 0
0    0    0

-151.247 32461.6 0
32461.6 -438.106 0
0    0    0

278.829 33430.4 0
33430.4 427.095 0
0    0    0

-215.534 33711 0
33711 -261.06 0
0    0    0

243.882 32757.1 0
32757.1 336.899 0
0    0    0

-249.218 32142.1 0
32142.1 -408.583 0
0    0    0

-186.361 32222.5 0
32222.5 -209.988 0
0    0    0

176.04 31757.1 0
31757.1 229.38 0
0    0    0

-22.8234 32458.6 0
32458.6 188.519 0
0    0    0

237.738 31864.8 0
31864.8 371.052 0
0    0    0

-189.806 35123 0
35123 -297.777 0
0    0    0

-148.42 36477.2 0
36477.2 -283.116 0
0    0    0

-173.904 37899.7 0
37899.7 -320.499 0
0    0    0

-212.707 36767.6 0
36767.6 -474.535 0
0    0    0

-21.6586 38172.1 0
38172.1 323.886 0
0    0    0

183.807 39106.1 0
39106.1 242.59 0
0    0    0

212.635 37192.7 0
37192.7 113.167 0
0    0    0

-80.3837 37746.3 0
37746.3 -366.669 0
0    0    0

-52.787 37268.2 0
37268.2 207.808 0
0    0    0

-146.262 38718.2 0
38718.2 -243.552 0
0    0    0

107.878 37287.1 0
37287.1 -136.784 0
0    0    0

-28.8979 37671.9 0
37671.9 171.953 0
0    0    0

91.3945 37164.1 0
37164.1 304.244 0
0    0    0

118.294 36917.4 0
36917.4 190.336 0
0    0    0

-199.421 38470.5 0
38470.5 -114.811 0
0    0    0

-66.7064 38041.4 0
38041.4 -265.349 0
0    0    0

-123.075 39309.2 0
39309.2 -221.694 0
0    0    0

-106.642 38572.7 0
38572.7 -244 0
0    0    0

90.0715 36555.3 0
36555.3 263.052 0
0    0    0

-198.882 37289 0
37289 -390.173 0
0    0    0

-200.236 36983.3 0
36983.3 -236.214 0
0    0    0

139.628 37011.4 0
37011.4 168.196 0
0    0    0

171.053 37569.1 0
37569.1 383.076 0
0    0    0

-104.253 37159 0
37159 -375.111 0
0    0    0

211.776 36779.5 0
36779.5 313.836 0
0    0    0

-109.392 38828.3 0
38828.3 -0.455713 0
0    0    0

-25.212 36364.5 0
36364.5 254.534 0
0    0    0

-79.3928 37676.4 0
37676.4 -209.911 0
0    0    0

-144.675 36808.7 0
36808.7 -300.126 0
0    0    0

-99.7845 37099.7 0
37099.7 -9.93622 0
0    0    0

-82.3439 39725.8 0
39725.8 -374.21 0
0    0    0

-112.742 39442.6 0
39442.6 -166.524 0
0    0    0

-138.783 37305.5 0
37305.5 88.4125 0
0    0    0

-40.4678 37191.7 0
37191.7 -262.623 0
0    0    0

236.59 38596.4 0
38596.4 5.60831 0
0    0    0

-108.168 37869.1 0
37869.1 -201.23 0
0    0    0

113.783 40140.9 0
40140.9 307 0
0    0    0

123.324 39687.3 0
39687.3 341.271 0
0    0    0

-278.586 36558 0
36558 -417.661 0
0    0    0

57.8267 36895.9 0
36895.9 304.871 0
0    0    0

-38.7717 38091.8 0
38091.8 156.094 0
0    0    0

78.7157 38386.5 0
38386.5 51.4644 0
0    0    0

233.55 38191.6 0
38191.6 11.4333 0
0    0    0

-307.823 39042.6 0
39042.6 -101.607 0
0    0    0

-282.521 37942.9 0
37942.9 89.8326 0
0    0    0

153.58 38920.7 0
38920.7 155.447 0
0    0    0

68.3869 38270.8 0
38270.8 -105.876 0
0    0    0

-143.195 39292.3 0
39292.3 89.05 0
0    0    0

63.3709 38989 0
38989 273.385 0
0    0    0

213.941 38853.5 0
38853.5 -82.4179 0
0    0    0

-42.3526 37327.3 0
37327.3 -255.931 0
0    0    0

72.0522 37470.3 0
37470.3 173.786 0
0    0    0

-247.778 40345.5 0
40345.5 -190.696 0
0    0    0

147.849 38125.4 0
38125.4 213.171 0
0    0    0

122.358 39867.3 0
39867.3 89.4975 0
0    0    0

87.2354 37721.2 0
37721.2 420.614 0
0    0    0

35.0931 38278 0
38278 4.86503 0
0    0    0

-144.913 38526.4 0
38526.4 35.5635 0
0    0    0

74.6063 38351.8 0
38351.8 -124.349 0
0    0    0

102.949 38042.8 0
38042.8 167.114 0
0    0    0

-212.634 39437.1 0
39437.1 -314.182 0
0    0    0

12.8661 38805.4 0
38805.4 -151.84 0
0    0    0

-154.637 39740.1 0
39740.1 236.484 0
0    0    0

58.6185 39097.6 0
39097.6 297.907 0
0    0    0

341.311 28663.9 0
28663.9 237.251 0
0    0    0

55.6153 28225.3 0
28225.3 -176.98 0
0    0    0

-345.832 28922.4 0
28922.4 -133.108 0
0    0    0

138.73 28218.4 0
28218.4 273.709 0
0    0    0

199.669 26942 0
26942 195.185 0
0    0    0

-50.7838 28227.3 0
28227.3 -84.9156 0
0    0    0

73.045 27318.5 0
27318.5 116.879 0
0    0    0

110.426 28439.5 0
28439.5 368.641 0
0    0    0

151.539 28930 0
28930 384.736 0
0    0    0

214.918 28810.6 0
28810.6 227.525 0
0    0    0

2.55137 26961.7 0
26961.7 -144.193 0
0    0    0

-95.596 28222.9 0
28222.9 70.9273 0
0    0    0

-81.0753 28122.9 0
28122.9 -412.641 0
0    0    0

-16.5295 27791.8 0
27791.8 73.2698 0
0    0    0

-83.7684 27610.1 0
27610.1 -267.533 0
0    0    0

-13.7374 27723.4 0
27723.4 -250.832 0
0    0    0

213.103 27719.1 0
27719.1 90.8402 0
0    0    0

23.4689 26521.6 0
26521.6 177.892 0
0    0    0

-100.423 28477.3 0
28477.3 54.8782 0
0    0    0

50.8894 27993.5 0
27993.5 -224.468 0
0    0    0

-21.0651 27935.8 0
27935.8 228.252 0
0    0    0

-0.124996 27422.3 0
27422.3 255.071 0
0    0    0

36.0612 26702.8 0
26702.8 171.402 0
0    0    0

77.7705 24465 0
24465 367.962 0
0    0    0

7.03873 27407.1 0
27407.1 12.1333 0
0    0    0

210.835 26209 0
26209 63.1548 0
0    0    0

-18.4519 27247 0
27247 -128.447 0
0    0    0

200.911 26850.5 0
26850.5 -151.006 0
0    0    0

-137.172 26365.7 0
26365.7 -209.941 0
0    0    0

32.5018 26081 0
26081 250.282 0
0    0    0

-40.5792 27542.3 0
27542.3 -143.36 0
0    0    0

18.3426 27019 0
27019 -158.958 0
0    0    0

110.689 27342.1 0
27342.1 228.971 0
0    0    0

90.8536 27242.9 0
27242.9 382.798 0
0    0    0

-62.0448 27505.3 0
27505.3 108.374 0
0    0    0

-267.139 26769 0
26769 43.9665 0
0    0    0

-154.989 27965.8 0
27965.8 -289.603 0
0    0    0

-113.642 27965.9 0
27965.9 -265.448 0
0    0    0

111.963 26803.9 0
26803.9 -54.7644 0
0    0    0

6.83149 26942.6 0
26942.6 9.08131 0
0    0    0

-50.2311 25945.5 0
25945.5 38.2149 0
0    0    0

-297.878 25116.1 0
25116.1 -110.941 0
0    0    0

10.7246 27139.5 0
27139.5 -118.653 0
0    0    0

127.694 26255 0
26255 261.593 0
0    0    0

-220.957 25959.6 0
25959.6 62.5899 0
0    0    0

167.43 26444.4 0
26444.4 109.686 0
0    0    0

356.929 25547.6 0
25547.6 199.071 0
0    0    0

-294.599 24599.6 0
24599.6 -238.028 0
0    0    0

421.476 27522.7 0
27522.7 168.703 0
0    0    0

-35.8193 26956.7 0
26956.7 -228.633 0
0    0    0

-123.09 26297.3 0
26297.3 25.2058 0
0    0    0

-60.2477 25490.4 0
25490.4 118.699 0
0    0    0

-408.379 25673.5 0
25673.5 -87.847 0
0    0    0

-37.4435 24761.8 0
24761.8 -193.539 0
0    0    0

-208.833 25342.1 0
25342.1 -272.401 0
0    0    0

-52.4558 24718 0
24718 145.673 0
0    0    0

63.4999 28167.4 0
28167.4 235.151 0
0    0    0

27.0346 28354.9 0
28354.9 96.2038 0
0    0    0

-55.6073 28498.5 0
28498.5 -85.2241 0
0    0    0

-234.018 28742.8 0
28742.8 92.1431 0
0    0    0

-0.248111 28646.4 0
28646.4 -7.85163 0
0    0    0

-247.391 28201.2 0
28201.2 -283.068 0
0    0    0

-457.61 27581.6 0
27581.6 -144.14 0
0    0    0

104.666 27005.1 0
27005.1 -144.599 0
0    0    0

275.261 27554.5 0
27554.5 88.636 0
0    0    0

-359.996 27268.5 0
27268.5 -15.291 0
0    0    0

149.71 25595.1 0
25595.1 177.192 0
0    0    0

265.636 26044 0
26044 228.761 0
0    0    0

24.9442 25100.6 0
25100.6 16.2266 0
0    0    0

238.215 24793.6 0
24793.6 210.917 0
0    0    0

23.1333 24082.6 0
24082.6 138.447 0
0    0    0

117.497 24294.6 0
24294.6 -175.903 0
0    0    0

-31.4746 22657.6 0
22657.6 127.116 0
0    0    0

36.4619 22031 0
22031 314.088 0
0    0    0

-285.593 21629.1 0
21629.1 -203.433 0
0    0    0

232.799 19759.1 0
19759.1 227.515 0
0    0    0

-114.657 22499.5 0
22499.5 162.084 0
0    0    0

-98.2165 22062.4 0
22062.4 -227.485 0
0    0    0

287.836 21354.1 0
21354.1 275.207 0
0    0    0

91.0523 21733.9 0
21733.9 -208.213 0
0    0    0

-221.288 22504.8 0
22504.8 -37.31 0
0    0    0

216.294 23188.2 0
23188.2 478.784 0
0    0    0

-60.0827 23228.5 0
23228.5 200.015 0
0    0    0

149.97 22876.7 0
22876.7 -95.7361 0
0    0    0

-172.134 23372.4 0
23372.4 141.039 0
0    0    0

-303.76 23625.7 0
23625.7 -481.739 0
0    0    0

81.3477 25232.1 0
25232.1 171.599 0
0    0    0

-206.745 26404 0
26404 -223.435 0
0    0    0

158.869 26584.5 0
26584.5 250.761 0
0    0    0

-78.3506 26123.1 0
26123.1 45.4901 0
0    0    0

-8.40231 26211.6 0
26211.6 -493.323 0
0    0    0

37.2988 26760.2 0
26760.2 319.828 0
0    0    0

33.8672 26615.9 0
26615.9 134.335 0
0    0    0

-6.12786 26231.4 0
26231.4 -275.888 0
0    0    0

489.776 26397 0
26397 173.006 0
0    0    0

296.293 22438.9 0
22438.9 201.762 0
0    0    0

179.548 25391.2 0
25391.2 333.484 0
0    0    0

-179.155 24948.7 0
24948.7 -271.202 0
0    0    0

-273.247 25873.1 0
25873.1 -287.054 0
0    0    0

120.026 25135.5 0
25135.5 297.094 0
0    0    0

81.3097 23942.6 0
23942.6 -98.9763 0
0    0    0

-255.274 24329.7 0
24329.7 -97.1636 0
0    0    0

-6.05932 24848.3 0
24848.3 -253.004 0
0    0    0

-235.696 24406.5 0
24406.5 -235.5 0
0    0    0

-154.212 25639.1 0
25639.1 -322.46 0
0    0    0

154.477 25939.2 0
25939.2 -44.7862 0
0    0    0

-332.505 26583.9 0
26583.9 -88.8219 0
0    0    0

-34.1355 25881.5 0
25881.5 73.0049 0
0    0    0

62.9997 24860.5 0
24860.5 -224.702 0
0    0    0

63.3277 23209.7 0
23209.7 301.816 0
0    0    0

-261.743 26175.7 0
26175.7 -144.502 0
0    0    0

-128.687 25604.3 0
25604.3 -78.2782 0
0    0    0

-71.2508 22297.7 0
22297.7 -260.039 0
0    0    0

-176.081 23813.2 0
23813.2 -276.181 0
0    0    0

188.952 24490.9 0
24490.9 237.421 0
0    0    0

181.398 23128.9 0
23128.9 8.39311 0
0    0    0

-137.025 25353.4 0
25353.4 140.746 0
0    0    0

-6.88205 23401.7 0
23401.7 -272.221 0
0    0    0

281.16 23228.2 0
23228.2 -154.798 0
0    0    0

217.642 23968 0
23968 195.636 0
0    0    0

205.885 23554 0
23554 254.662 0
0    0    0

-66.5545 22791.2 0
22791.2 346.996 0
0    0    0

-74.8992 24250.9 0
24250.9 -193.237 0
0    0    0

46.6781 23547.7 0
23547.7 141.089 0
0    0    0

-103.78 24329.8 0
24329.8 158.581 0
0    0    0

104.498 23876.3 0
23876.3 22.0521 0
0    0    0

-31.9796 22534.7 0
22534.7 -282.761 0
0    0    0

-7.34364 22541.3 0
22541.3 -67.8651 0
0    0    0

46.3976 22982.4 0
22982.4 -184.145 0
0    0    0

-149.42 22974.6 0
22974.6 -57.1586 0
0    0    0

-95.5797 23235.6 0
23235.6 -343.972 0
0    0    0

26.6441 23418.7 0
23418.7 278.779 0
0    0    0

86.9709 22878.4 0
22878.4 177.506 0
0    0    0

63.0744 22613 0
22613 99.8954 0
0    0    0

-212.977 28029 0
28029 -58.2605 0
0    0    0

28.934 27389.2 0
27389.2 124.505 0
0    0    0

-194.556 26459.5 0
26459.5 -30.3244 0
0    0    0

-109.361 27093.6 0
27093.6 -306.149 0
0    0    0

-77.2258 27819 0
27819 231.975 0
0    0    0

85.4604 27617.6 0
27617.6 107.61 0
0    0    0

-166.779 27919.1 0
27919.1 -173.299 0
0    0    0

-112.91 27231.1 0
27231.1 41.9125 0
0    0    0

37.0379 25325.6 0
25325.6 -58.1635 0
0    0    0

-84.0701 27213.5 0
27213.5 -242.165 0
0    0    0

-243.417 25839.7 0
25839.7 -98.5306 0
0    0    0

109.98 23976.5 0
23976.5 -51.279 0
0    0    0

-42.6056 27400.8 0
27400.8 -250.765 0
0    0    0

123.919 25720.1 0
25720.1 -132.213 0
0    0    0

153.87 26609.5 0
26609.5 344.116 0
0    0    0

209.122 26299.5 0
26299.5 -13.3527 0
0    0    0

87.7201 27057.9 0
27057.9 159.521 0
0    0    0

-131.241 27412.2 0
27412.2 -137.934 0
0    0    0

226.5 25605.1 0
25605.1 97.9325 0
0    0    0

-109.506 26808 0
26808 -348.246 0
0    0    0

58.8181 26651 0
26651 213.957 0
0    0    0

-107.444 26027.1 0
26027.1 44.3121 0
0    0    0

100.035 25078.3 0
25078.3 310.241 0
0    0    0

190.453 26057.3 0
26057.3 207.74 0
0    0    0

183.36 24386.2 0
24386.2 112.136 0
0    0    0

107.181 22346.5 0
22346.5 -132.96 0
0    0    0

149.686 24023.3 0
24023.3 529.452 0
0    0    0

-80.0264 26061.6 0
26061.6 17.1592 0
0    0    0

-200.268 25434.3 0
25434.3 -89.7176 0
0    0    0

-97.8424 25437.4 0
25437.4 -359.231 0
0    0    0

298.48 25034.4 0
25034.4 433.022 0
0    0    0

-144.412 24281.8 0
24281.8 -276.267 0
0    0    0

125.764 25141.5 0
25141.5 470.55 0
0    0    0

-73.8314 24659.9 0
24659.9 136.146 0
0    0    0

145.508 26499.8 0
26499.8 190.063 0
0    0    0

28.4996 27146.3 0
27146.3 301.4 0
0    0    0

148.514 27807.3 0
27807.3 322.974 0
0    0    0

-110.343 22670.8 0
22670.8 224.223 0
0    0    0

-68.5373 24890.5 0
24890.5 -271.271 0
0    0    0

-168.131 24711.7 0
24711.7 -315.583 0
0    0    0

-42.6831 23765.8 0
23765.8 184.73 0
0    0    0

35.5014 24042 0
24042 250.304 0
0    0    0

200.922 23713.7 0
23713.7 96.9708 0
0    0    0

-33.685 23858 0
23858 -289.695 0
0    0    0

-136.087 20832.5 0
20832.5 -299.847 0
0    0    0

97.0495 23353.4 0
23353.4 -139.776 0
0    0    0

-128.241 24106.2 0
24106.2 42.6881 0
0    0    0

183.186 22372 0
22372 162.136 0
0    0    0

-36.9606 22811.2 0
22811.2 -251.554 0
0    0    0

51.2959 23296.6 0
23296.6 -25.5959 0
0    0    0

84.9705 24121.1 0
24121.1 24.2177 0
0    0    0

-175.118 23458 0
23458 -106.939 0
0    0    0

-178.663 26075.7 0
26075.7 42.0316 0
0    0    0

-41.7689 25683.5 0
25683.5 221.491 0
0    0    0

89.577 25518.5 0
25518.5 267.651 0
0    0    0

-53.6909 24550.5 0
24550.5 107.869 0
0    0    0

178.354 29309.3 0
29309.3 260.358 0
0    0    0

240.822 29317.4 0
29317.4 333.529 0
0    0    0

207.16 29763.8 0
29763.8 196.481 0
0    0    0

114.164 28829.9 0
28829.9 -49.6016 0
0    0    0

126.055 30113 0
30113 -166.715 0
0    0    0

289.398 29180.2 0
29180.2 329.064 0
0    0    0

-1.40356 29471.5 0
29471.5 86.5193 0
0    0    0

66.0531 28927.8 0
28927.8 103.3 0
0    0    0

-320.561 29606.8 0
29606.8 -272.813 0
0    0    0

-116.649 28690.3 0
28690.3 70.4858 0
0    0    0

422.771 29925.4 0
29925.4 196.868 0
0    0    0

154.447 29722.2 0
29722.2 -41.4905 0
0    0    0

-158.159 29027.9 0
29027.9 -184.747 0
0    0    0

-92.5348 28592.2 0
28592.2 -148.939 0
0    0    0

-294.01 29600.4 0
29600.4 -123.99 0
0    0    0

-82.9183 28967.7 0
28967.7 2.2847 0
0    0    0

-69.8284 29995.8 0
29995.8 -137.131 0
0    0    0

-322.853 30250.5 0
30250.5 -84.4632 0
0    0    0

171.938 30363.7 0
30363.7 -53.7585 0
0    0    0

9.63874 30183.6 0
30183.6 180.786 0
0    0    0

-176.922 30463.3 0
30463.3 -358.399 0
0    0    0

-178.246 30008.7 0
30008.7 -341.783 0
0    0    0

-86.0719 29267.4 0
29267.4 -294.756 0
0    0    0

-235.536 29424.7 0
29424.7 -131.378 0
0    0    0

127.716 30945.6 0
30945.6 238.473 0
0    0    0

54.0746 28625.3 0
28625.3 -50.8138 0
0    0    0

253.345 30687.5 0
30687.5 340.542 0
0    0    0

61.5341 30423.1 0
30423.1 17.3128 0
0    0    0

-97.0042 28097.3 0
28097.3 -188.048 0
0    0    0

68.4144 28917 0
28917 191.423 0
0    0    0

-203.437 28057.7 0
28057.7 -1.97838 0
0    0    0

-388.747 28014.9 0
28014.9 -418.183 0
0    0    0

-267.783 28956.5 0
28956.5 -168.864 0
0    0    0

208.433 28059.1 0
28059.1 376.924 0
0    0    0

161.681 28201.6 0
28201.6 44.0307 0
0    0    0

-345.428 28370.6 0
28370.6 -426.786 0
0    0    0

129.514 27142.1 0
27142.1 120.696 0
0    0    0

294.68 28348.1 0
28348.1 395.289 0
0    0    0

144.458 27284.9 0
27284.9 217.465 0
0    0    0

-42.8665 28389.3 0
28389.3 -39.0603 0
0    0    0

238.17 29632.5 0
29632.5 227.264 0
0    0    0

251.366 28433.1 0
28433.1 326.597 0
0    0    0

-278.341 29954.9 0
29954.9 -365.982 0
0    0    0

-246.453 28775.1 0
28775.1 -298.389 0
0    0    0

-195.301 28746.7 0
28746.7 -435.612 0
0    0    0

-26.7289 26840.3 0
26840.3 -278.023 0
0    0    0

187.544 28240.9 0
28240.9 195.675 0
0    0    0

61.0049 26982.5 0
26982.5 -279.224 0
0    0    0

200.881 26589.7 0
26589.7 248.756 0
0    0    0

362.45 24161.7 0
24161.7 321.386 0
0    0    0

230.838 29095.7 0
29095.7 -52.1821 0
0    0    0

188.083 28388 0
28388 202.365 0
0    0    0

188.811 27786.8 0
27786.8 233.196 0
0    0    0

56.239 26806 0
26806 304.655 0
0    0    0

164.159 28560.8 0
28560.8 245.229 0
0    0    0

284.397 26710.7 0
26710.7 362.391 0
0    0    0

133.324 27868.3 0
27868.3 76.8214 0
0    0    0

163.324 27557.7 0
27557.7 177.272 0
0    0    0

-160.028 28173.9 0
28173.9 -230.385 0
0    0    0

-278.407 28059.1 0
28059.1 -164.264 0
0    0    0

141.953 27713 0
27713 184.35 0
0    0    0

-244.471 27555.2 0
27555.2 -298.583 0
0    0    0

-67.8697 27578.2 0
27578.2 -180.583 0
0    0    0

167.248 27115.3 0
27115.3 217.929 0
0    0    0

89.4618 27229.3 0
27229.3 377.904 0
0    0    0

-163.266 27727.3 0
27727.3 43.8699 0
0    0    0

78.3239 25937.1 0
25937.1 -8.41764 0
0    0    0

154.155 26338.6 0
26338.6 493.35 0
0    0    0

51.4007 27428 0
27428 -135.614 0
0    0    0

-84.5251 26862.6 0
26862.6 -311.706 0
0    0    0

14.0348 27199.9 0
27199.9 67.3201 0
0    0    0

-160.203 27430 0
27430 -415.319 0
0    0    0

149.547 27098.8 0
27098.8 140.927 0
0    0    0

-121.777 27420.8 0
27420.8 -170.879 0
0    0    0

275.72 27131.9 0
27131.9 258.755 0
0    0    0

-21.1534 27877.6 0
27877.6 220.876 0
0    0    0

-5.37884 26169.5 0
26169.5 205.007 0
0    0    0

-28.9873 27375.5 0
27375.5 -277.056 0
0    0    0

-182.123 27882.7 0
27882.7 -226.415 0
0    0    0

356.79 26984.1 0
26984.1 235.197 0
0    0    0

52.9789 26685.6 0
26685.6 118.628 0
0    0    0

-176.753 27329.2 0
27329.2 -275.628 0
0    0    0

-112.789 26674.4 0
26674.4 -148.464 0
0    0    0

-232.237 26725.6 0
26725.6 -365.765 0
0    0    0

-190.571 26933.5 0
26933.5 -438.572 0
0    0    0

15.8018 27216.1 0
27216.1 279.724 0
0    0    0

-135.076 57044.1 0
57044.1 -282.138 0
0    0    0

-230.053 55921.9 0
55921.9 -271.386 0
0    0    0

-34.9337 54402.4 0
54402.4 49.8949 0
0    0    0

-76.0532 55447.2 0
55447.2 -444.495 0
0    0    0

66.0445 54556.5 0
54556.5 -383.468 0
0    0    0

63.1789 54662.6 0
54662.6 -120.291 0
0    0    0

-258.934 54819.7 0
54819.7 -306.565 0
0    0    0

282.887 55059.5 0
55059.5 275.363 0
0    0    0

76.6431 55648.4 0
55648.4 112.986 0
0    0    0

-15.0156 58053.5 0
58053.5 279.492 0
0    0    0

153.41 54886.1 0
54886.1 300.061 0
0    0    0

-95.5704 55509.2 0
55509.2 44.019 0
0    0    0

8.35586 55861.8 0
55861.8 407.034 0
0    0    0

134.441 55603.2 0
55603.2 270.915 0
0    0    0

-253.753 53531.7 0
53531.7 -357.232 0
0    0    0

307.776 53186.8 0
53186.8 294.172 0
0    0    0

205.373 57889.9 0
57889.9 318.082 0
0    0    0

184.237 55443.8 0
55443.8 17.177 0
0    0    0

175.671 54309.4 0
54309.4 179.391 0
0    0    0

177.624 55295.3 0
55295.3 22.0992 0
0    0    0

134.897 54516 0
54516 33.0926 0
0    0    0

164.161 55081.8 0
55081.8 69.9732 0
0    0    0

-14.9859 54452.5 0
54452.5 144.25 0
0    0    0

-100.223 53435.6 0
53435.6 106.953 0
0    0    0

-151.344 53172.6 0
53172.6 -321.437 0
0    0    0

-221.323 53731.2 0
53731.2 -182.993 0
0    0    0

-147.879 53174.6 0
53174.6 -250.726 0
0    0    0

237.26 53339.9 0
53339.9 146.834 0
0    0    0

74.0671 53394.9 0
53394.9 248.733 0
0    0    0

-200.088 54160.1 0
54160.1 -163.925 0
0    0    0

-95.3425 54611.5 0
54611.5 -319.765 0
0    0    0

284.855 55545.5 0
55545.5 171.742 0
0    0    0

16.4517 54943.8 0
54943.8 247.668 0
0    0    0

-8.68859 54693.6 0
54693.6 -156.343 0
0    0    0

18.1172 54798.5 0
54798.5 -203.568 0
0    0    0

340.908 53977.5 0
53977.5 230.518 0
0    0    0

100.482 54285.4 0
54285.4 -38.3197 0
0    0    0

160.062 53878.7 0
53878.7 174.968 0
0    0    0

-11.7138 53510.8 0
53510.8 -192.037 0
0    0    0

-84.9709 54065.2 0
54065.2 -231.631 0
0    0    0

-128.919 51577.4 0
51577.4 -191.251 0
0    0    0

-98.411 51874.5 0
51874.5 -109.459 0
0    0    0

-85.9661 49320.4 0
49320.4 64.3179 0
0    0    0

202.246 48657.5 0
48657.5 162.824 0
0    0    0

-151.294 49112.7 0
49112.7 -69.5881 0
0    0    0

-145.568 48524.2 0
48524.2 -33.9272 0
0    0    0

-117.968 50181.4 0
50181.4 80.1213 0
0    0    0

158.339 49514.9 0
49514.9 44.0054 0
0    0    0

186.583 54085.7 0
54085.7 237.768 0
0    0    0

-214.565 55533.2 0
55533.2 -228.534 0
0    0    0

-1.02498 55478.2 0
55478.2 -181.63 0
0    0    0

207.641 55017.9 0
55017.9 267.096 0
0    0    0

-19.5231 54337.7 0
54337.7 -199.329 0
0    0    0

-125.304 54866.9 0
54866.9 -181.098 0
0    0    0

-123.41 55908.7 0
55908.7 74.4486 0
0    0    0

-256.323 54971.6 0
54971.6 -437.251 0
0    0    0

-19.095 56232.3 0
56232.3 8.77602 0
0    0    0

254.74 55237.2 0
55237.2 303.3 0
0    0    0

56.4603 55887.7 0
55887.7 -11.1907 0
0    0    0

143.386 58018.2 0
58018.2 -60.8152 0
0    0    0

-104.317 56517.7 0
56517.7 -134.893 0
0    0    0

298.848 55177.1 0
55177.1 -0.141996 0
0    0    0

-45.1624 55533.4 0
55533.4 -34.4703 0
0    0    0

171.319 56261.8 0
56261.8 87.9682 0
0    0    0

120.72 56715.5 0
56715.5 76.2501 0
0    0    0

-292.586 56681.6 0
56681.6 -215.321 0
0    0    0

-57.1483 57157.2 0
57157.2 -169.324 0
0    0    0

-139.314 55915.8 0
55915.8 -208.007 0
0    0    0

212.954 55613.6 0
55613.6 281.656 0
0    0    0

-276.967 55327.4 0
55327.4 -312.401 0
0    0    0

-144.809 56442.6 0
56442.6 -310.598 0
0    0    0

66.4511 55131.3 0
55131.3 99.2575 0
0    0    0

234.142 56103.1 0
56103.1 304.268 0
0    0    0

-41.1502 56662.2 0
56662.2 -45.312 0
0    0    0

-177.043 55949.5 0
55949.5 -55.6428 0
0    0    0

-147.917 55424.5 0
55424.5 -48.7751 0
0    0    0

182.266 54828.6 0
54828.6 -73.2702 0
0    0    0

221.963 54574.9 0
54574.9 391.604 0
0    0    0

-200.306 54607 0
54607 81.7919 0
0    0    0

-77.4998 53894.6 0
53894.6 -91.0902 0
0    0    0

-108.278 56372.2 0
56372.2 21.8744 0
0    0    0

319.233 57822.3 0
57822.3 -1.70333 0
0    0    0

-224.652 54580.3 0
54580.3 -81.7585 0
0    0    0

69.784 52452.8 0
52452.8 -57.9463 0
0    0    0

91.4827 56675.4 0
56675.4 -43.2076 0
0    0    0

-125.716 56996.9 0
56996.9 -166.384 0
0    0    0

70.4718 56947.2 0
56947.2 216.636 0
0    0    0

-354.138 57049.4 0
57049.4 -93.6227 0
0    0    0

-16.7536 58626.4 0
58626.4 -137.118 0
0    0    0

-148.286 57203.3 0
57203.3 -4.07022 0
0    0    0

85.2956 56966.1 0
56966.1 173.291 0
0    0    0

-9.18257 57280.7 0
57280.7 -174.406 0
0    0    0

41.2686 57788.3 0
57788.3 -120.064 0
0    0    0

-305.117 57564.7 0
57564.7 -62.1549 0
0    0    0

93.5786 57609.8 0
57609.8 -205.238 0
0    0    0

-406.135 57730.5 0
57730.5 -123.002 0
0    0    0

291.375 56888.4 0
56888.4 34.3326 0
0    0    0

180.716 57468.3 0
57468.3 46.2352 0
0    0    0

-26.7538 57581.4 0
57581.4 205.994 0
0    0    0

40.9508 58419 0
58419 -173.005 0
0    0    0

94.0286 57029.9 0
57029.9 -77.5896 0
0    0    0

1.28049 58281.3 0
58281.3 212.492 0
0    0    0

-17.2186 58564.8 0
58564.8 290.978 0
0    0    0

155.989 58984.1 0
58984.1 346.733 0
0    0    0

-48.5656 58867.6 0
58867.6 155.076 0
0    0    0

-55.257 58081.9 0
58081.9 148.645 0
0    0    0

115.103 58795.6 0
58795.6 55.6328 0
0    0    0

160.146 58042.2 0
58042.2 -65.119 0
0    0    0

-80.1537 58439.4 0
58439.4 98.4364 0
0    0    0

100.505 58268.2 0
58268.2 124.151 0
0    0    0

135.198 59594.7 0
59594.7 -135.914 0
0    0    0

-140.16 58663.6 0
58663.6 54.0691 0
0    0    0

-132.618 54703.6 0
54703.6 224.166 0
0    0    0

132.541 54227.9 0
54227.9 196.167 0
0    0    0

134.768 58707.8 0
58707.8 58.6685 0
0    0    0

21.2597 58869.5 0
58869.5 98.1287 0
0    0    0

-17.8076 58506.5 0
58506.5 -347.725 0
0    0    0

-45.4796 57916.5 0
57916.5 -260.762 0
0    0    0

-123.483 58595.3 0
58595.3 -263.308 0
0    0    0

12.641 58294.1 0
58294.1 -279.471 0
0    0    0

174.882 57220.2 0
57220.2 72.7878 0
0    0    0

140.323 57316.5 0
57316.5 150.376 0
0    0    0

208.88 57531.4 0
57531.4 113.828 0
0    0    0

-86.9328 58309.9 0
58309.9 -286.626 0
0    0    0

-56.3037 58730.7 0
58730.7 -93.6038 0
0    0    0

33.1946 58635.6 0
58635.6 179.914 0
0    0    0

-161.164 58190.6 0
58190.6 17.7294 0
0    0    0

160.859 57564.5 0
57564.5 -87.1026 0
0    0    0

-100.217 58150.5 0
58150.5 54.474 0
0    0    0

-208.876 56986.9 0
56986.9 -129.092 0
0    0    0

61.6101 56446.3 0
56446.3 52.2856 0
0    0    0

6.62511 56929.9 0
56929.9 -17.9401 0
0    0    0

-251.893 60168.5 0
60168.5 -235.097 0
0    0    0

-150.304 60144 0
60144 -25.9527 0
0    0    0

45.623 57685.3 0
57685.3 -144.478 0
0    0    0

46.7711 56776.3 0
56776.3 -118.577 0
0    0    0

-129.882 58449.6 0
58449.6 23.8552 0
0    0    0

-63.1949 59119.7 0
59119.7 -103.018 0
0    0    0

185.739 58108.8 0
58108.8 314.898 0
0    0    0

-343.848 57254.3 0
57254.3 -185.864 0
0    0    0

62.4706 58503.5 0
58503.5 -113.193 0
0    0    0

-88.2044 58364.6 0
58364.6 -285.505 0
0    0    0

85.268 57945.8 0
57945.8 39.6072 0
0    0    0

-242.322 56532.8 0
56532.8 -323.853 0
0    0    0

231.802 59667.1 0
59667.1 434.736 0
0    0    0

-21.6648 59040.3 0
59040.3 -183.544 0
0    0    0

-298.287 55366 0
55366 -203.949 0
0    0    0

-242.644 57900.8 0
57900.8 -260.785 0
0    0    0

-166.109 59170.9 0
59170.9 60.2117 0
0    0    0

56.7243 59282.2 0
59282.2 204.943 0
0    0    0

341.095 57495.8 0
57495.8 369.187 0
0    0    0

-252.299 57442.1 0
57442.1 -147.313 0
0    0    0

-261.012 59444.5 0
59444.5 -220.856 0
0    0    0

-205.14 60314.3 0
60314.3 -27.4218 0
0    0    0

-277.159 58784.7 0
58784.7 -472.608 0
0    0    0

12.8733 59774.3 0
59774.3 214.818 0
0    0    0

58.5206 58431 0
58431 166.761 0
0    0    0

-4.9055 60659.1 0
60659.1 23.2617 0
0    0    0

-40.6905 60520.1 0
60520.1 -142.208 0
0    0    0

94.4053 60689.1 0
60689.1 -51.8526 0
0    0    0

201.023 59004.3 0
59004.3 208.362 0
0    0    0

-43.7141 59832.4 0
59832.4 41.3695 0
0    0    0

63.228 59415.5 0
59415.5 -142.899 0
0    0    0

88.5118 59823.1 0
59823.1 150.739 0
0    0    0

40.7835 60087 0
60087 83.4583 0
0    0    0

197.196 60005 0
60005 15.49 0
0    0    0

236.066 61159.9 0
61159.9 295.921 0
0    0    0

-70.6983 60455.5 0
60455.5 -239.077 0
0    0    0

277.142 60152.6 0
60152.6 105.342 0
0    0    0

146.334 61084.5 0
61084.5 300.435 0
0    0    0

-219.75 61018.7 0
61018.7 -25.0946 0
0    0    0

259.228 61496.9 0
61496.9 138.974 0
0    0    0

-66.822 60991 0
60991 15.1558 0
0    0    0

196.455 61415 0
61415 109.523 0
0    0    0

-301.332 60781.7 0
60781.7 22.4159 0
0    0    0

-46.3899 59609 0
59609 -147.47 0
0    0    0

-24.1714 60391.5 0
60391.5 91.7656 0
0    0    0

-15.1539 59098.6 0
59098.6 -43.0138 0
0    0    0

-101.083 56918 0
56918 -53.1601 0
0    0    0

-41.2397 57056.1 0
57056.1 147.101 0
0    0    0

-147.001 57888.9 0
57888.9 -51.7583 0
0    0    0

-140.643 57405.2 0
57405.2 -181.21 0
0    0    0

282.929 57243.5 0
57243.5 5.07589 0
0    0    0

69.246 56849 0
56849 121.818 0
0    0    0

108.022 60374.4 0
60374.4 267.116 0
0    0    0

62.1415 60211.2 0
60211.2 40.3223 0
0    0    0

148.169 59452.7 0
59452.7 148.479 0
0    0    0

130.408 59782.9 0
59782.9 -4.86055 0
0    0    0

302.767 57051.2 0
57051.2 100.774 0
0    0    0

-197.217 57693.9 0
57693.9 -96.7113 0
0    0    0

-245.956 56817.2 0
56817.2 -126.612 0
0    0    0

190.522 55696.8 0
55696.8 -79.2523 0
0    0    0

-111.041 57337.3 0
57337.3 -218.855 0
0    0    0

137.17 58485.8 0
58485.8 197.922 0
0    0    0

2.48099 56113.1 0
56113.1 301.648 0
0    0    0

214.607 55284.7 0
55284.7 204.745 0
0    0    0

126.649 56448 0
56448 -27.4935 0
0    0    0

23.1542 57713.9 0
57713.9 178.793 0
0    0    0

240.964 58349.3 0
58349.3 463.779 0
0    0    0

-241.734 58130 0
58130 -331.743 0
0    0    0

100.596 56342.4 0
56342.4 -66.4682 0
0    0    0

129.306 56140 0
56140 1.9201 0
0    0    0

61.3571 56974.6 0
56974.6 131.741 0
0    0    0

208.961 55997.3 0
55997.3 354.521 0
0    0    0

-112.152 55532.9 0
55532.9 -48.0917 0
0    0    0

-217.688 55894.7 0
55894.7 -149.344 0
0    0    0

-19.0864 55701.8 0
55701.8 -162.872 0
0    0    0

-38.2702 55811.6 0
55811.6 117.309 0
0    0    0

160.927 57559 0
57559 -18.6406 0
0    0    0

7.65946 58027.6 0
58027.6 -198.058 0
0    0    0

-151.142 56994.9 0
56994.9 -31.0089 0
0    0    0

110.733 57224.9 0
57224.9 -34.5021 0
0    0    0

-80.5283 56340.7 0
56340.7 124.15 0
0    0    0

227.806 57627.5 0
57627.5 5.36659 0
0    0    0

-112.762 57395.9 0
57395.9 49.6602 0
0    0    0

-258.739 55783.3 0
55783.3 37.0192 0
0    0    0

-195.427 57097.5 0
57097.5 -193.521 0
0    0    0

219.141 56552.5 0
56552.5 193.715 0
0    0    0

-153.284 56701.5 0
56701.5 -278.259 0
0    0    0

111.298 55964.6 0
55964.6 336.519 0
0    0    0

216.809 56425.3 0
56425.3 120.006 0
0    0    0

-136.637 56926.5 0
56926.5 -108.832 0
0    0    0

250.136 56687.1 0
56687.1 183.998 0
0    0    0

188.866 57313.1 0
57313.1 94.0866 0
0    0    0

-183.604 56506.7 0
56506.7 -182.369 0
0    0    0

-277.02 56724.8 0
56724.8 -44.1359 0
0    0    0

191.717 56812.8 0
56812.8 21.6825 0
0    0    0

-121.577 56268.3 0
56268.3 -308.581 0
0    0    0

86.365 56378.1 0
56378.1 -122.757 0
0    0    0

13.7774 54946.3 0
54946.3 193.567 0
0    0    0

125.683 56047.6 0
56047.6 236.741 0
0    0    0

-203.993 55504.7 0
55504.7 -30.0568 0
0    0    0

-64.5145 55189.8 0
55189.8 -258.678 0
0    0    0

210.158 55685.6 0
55685.6 25.2802 0
0    0    0

-201.125 56237.3 0
56237.3 -251.653 0
0    0    0

-228.268 55666.1 0
55666.1 -222.889 0
0    0    0

308.317 56480.3 0
56480.3 193.22 0
0    0    0

-144.978 56276 0
56276 -223.735 0
0    0    0

-119.836 56036.4 0
56036.4 138.044 0
0    0    0

302.95 55407.2 0
55407.2 256.866 0
0    0    0

-208.771 55171 0
55171 -141.092 0
0    0    0

239.579 54937.2 0
54937.2 97.4299 0
0    0    0

-84.5831 54764.4 0
54764.4 72.2828 0
0    0    0

77.3158 55033.9 0
55033.9 237.809 0
0    0    0

64.45 55190.4 0
55190.4 -141.037 0
0    0    0

-225.834 55909.3 0
55909.3 -72.1551 0
0    0    0

250.485 45877.5 0
45877.5 163.238 0
0    0    0

159.448 45121.1 0
45121.1 -221.98 0
0    0    0

277.868 42015.1 0
42015.1 93.1409 0
0    0    0

172.011 42305.5 0
42305.5 53.551 0
0    0    0

155.113 43313.6 0
43313.6 393.902 0
0    0    0

-101.99 43263.9 0
43263.9 135.814 0
0    0    0

-308.354 43054.8 0
43054.8 22.8613 0
0    0    0

-185.163 42503 0
42503 -583.505 0
0    0    0

79.9119 41040.6 0
41040.6 270.288 0
0    0    0

-1.21473 42744.3 0
42744.3 -28.9198 0
0    0    0

-37.398 41979.8 0
41979.8 113.497 0
0    0    0

230.42 41603.2 0
41603.2 236.467 0
0    0    0

199.276 39864 0
39864 319.6 0
0    0    0

188.907 39976.2 0
39976.2 195.981 0
0    0    0

-155.11 42097.3 0
42097.3 -38.4795 0
0    0    0

-56.8178 42058.1 0
42058.1 -274.242 0
0    0    0

142.902 41137 0
41137 242.197 0
0    0    0

210.832 41140.3 0
41140.3 356.281 0
0    0    0

135.979 40598.9 0
40598.9 189.225 0
0    0    0

-61.7071 41345 0
41345 -221.296 0
0    0    0

176.12 41802.9 0
41802.9 422.317 0
0    0    0

268.827 41597.8 0
41597.8 146.518 0
0    0    0

135.334 42911.8 0
42911.8 -56.1177 0
0    0    0

-161.872 40591.2 0
40591.2 38.5948 0
0    0    0

-192.057 41155.7 0
41155.7 -384.879 0
0    0    0

353.819 40358 0
40358 289.443 0
0    0    0

162.707 42051.6 0
42051.6 208.155 0
0    0    0

132.25 41802.7 0
41802.7 220.756 0
0    0    0

-235.056 43672.6 0
43672.6 -154.855 0
0    0    0

58.7388 41788.8 0
41788.8 -61.6643 0
0    0    0

-233.092 42235.4 0
42235.4 -156.585 0
0    0    0

-309.777 41354.8 0
41354.8 -6.8511 0
0    0    0

148.347 42484.9 0
42484.9 212.379 0
0    0    0

-66.5889 41941.5 0
41941.5 207.652 0
0    0    0

-122.81 40651 0
40651 -204.293 0
0    0    0

17.3247 41036.1 0
41036.1 145.982 0
0    0    0

74.5356 41474.1 0
41474.1 33.1643 0
0    0    0

282.409 41144.3 0
41144.3 161.787 0
0    0    0

-47.1013 40903.5 0
40903.5 153.336 0
0    0    0

59.5586 40699.1 0
40699.1 256.214 0
0    0    0

-40.9074 40911.2 0
40911.2 -301.798 0
0    0    0

109.174 40728.7 0
40728.7 -178.367 0
0    0    0

-2.4446 40058.1 0
40058.1 -110.445 0
0    0    0

118.022 40164.8 0
40164.8 48.9011 0
0    0    0

140.21 41046.1 0
41046.1 -135.186 0
0    0    0

-3.03657 39940.9 0
39940.9 -205.25 0
0    0    0

54.9869 40880.4 0
40880.4 213.53 0
0    0    0

58.2867 40542 0
40542 -72.1445 0
0    0    0

-130.827 41206 0
41206 -268.385 0
0    0    0

-181.681 40414.6 0
40414.6 -86.5679 0
0    0    0

-264.558 40028.4 0
40028.4 -133.631 0
0    0    0

83.5231 40430.2 0
40430.2 228.083 0
0    0    0

-59.022 41464.7 0
41464.7 167.743 0
0    0    0

-22.3776 41192.8 0
41192.8 -43.0048 0
0    0    0

54.1693 41693.1 0
41693.1 -116.777 0
0    0    0

-28.5347 42069.9 0
42069.9 -283.368 0
0    0    0

17.3788 39617.4 0
39617.4 239.835 0
0    0    0

-22.779 38033.6 0
38033.6 262.89 0
0    0    0

-1.83971 40236.5 0
40236.5 215.156 0
0    0    0

172.944 39675.9 0
39675.9 -24.8931 0
0    0    0

65.1183 40034.5 0
40034.5 -144.809 0
0    0    0

185.437 41226.1 0
41226.1 204.62 0
0    0    0

-140.241 39909.1 0
39909.1 -65.7074 0
0    0    0

17.2155 40280.1 0
40280.1 5.56637 0
0    0    0

205.475 40421.5 0
40421.5 108.762 0
0    0    0

30.2135 40850.2 0
40850.2 21.7057 0
0    0    0

258.004 41042 0
41042 138.363 0
0    0    0

-175.547 41454.5 0
41454.5 -280.571 0
0    0    0

10.0387 40694.7 0
40694.7 -238.899 0
0    0    0

-31.7802 41117.1 0
41117.1 203.626 0
0    0    0

14.0989 41578.5 0
41578.5 63.2687 0
0    0    0

176.477 40393.7 0
40393.7 -28.7333 0
0    0    0

159.461 40789.7 0
40789.7 261.386 0
0    0    0

-467.077 40752.2 0
40752.2 108.85 0
0    0    0

155.769 40578.3 0
40578.3 90.2778 0
0    0    0

-75.1356 40296.2 0
40296.2 -217.444 0
0    0    0

6.09006 41460.3 0
41460.3 -135.715 0
0    0    0

-145.795 41429.7 0
41429.7 -246.917 0
0    0    0

-90.1948 41151.2 0
41151.2 -50.5072 0
0    0    0

295.002 41770.5 0
41770.5 -99.0941 0
0    0    0

170.527 41426.5 0
41426.5 15.2688 0
0    0    0

249.355 41213.4 0
41213.4 63.7933 0
0    0    0

336.093 58383.8 0
58383.8 510.57 0
0    0    0

67.8018 59234.8 0
59234.8 53.2167 0
0    0    0

-194.443 57093 0
57093 -569.523 0
0    0    0

110.074 58004.6 0
58004.6 109.702 0
0    0    0

-234.643 58070.9 0
58070.9 -430.681 0
0    0    0

-123.579 58611.5 0
58611.5 15.0994 0
0    0    0

-11.1655 61481 0
61481 -149.065 0
0    0    0

-217.954 62178.4 0
62178.4 -472.312 0
0    0    0

130.087 61225.4 0
61225.4 -132.637 0
0    0    0

224.359 60511 0
60511 233.901 0
0    0    0

39.0672 60925.5 0
60925.5 6.63405 0
0    0    0

128.184 63369.3 0
63369.3 357.687 0
0    0    0

122.192 55072.4 0
55072.4 -40.2227 0
0    0    0

186.253 54815.9 0
54815.9 -4.98033 0
0    0    0

-23.0115 52958.5 0
52958.5 -216.599 0
0    0    0

21.7966 54450.4 0
54450.4 116.119 0
0    0    0

-51.4364 53213 0
53213 7.35561 0
0    0    0

-121.368 54106.2 0
54106.2 -57.1579 0
0    0    0

354.582 56324.4 0
56324.4 93.4297 0
0    0    0

-121.824 56550.8 0
56550.8 45.4206 0
0    0    0

224.055 56816.3 0
56816.3 99.8951 0
0    0    0

20.2165 56527.5 0
56527.5 -16.1697 0
0    0    0

96.4907 56854.7 0
56854.7 -30.3243 0
0    0    0

99.7548 56421.9 0
56421.9 -160.805 0
0    0    0

-235.323 56425.7 0
56425.7 14.8284 0
0    0    0

-122.911 55583 0
55583 70.0415 0
0    0    0

164.728 56170.2 0
56170.2 -63.3949 0
0    0    0

-75.3648 56193.3 0
56193.3 72.4011 0
0    0    0

-352.549 59385.8 0
59385.8 -353.992 0
0    0    0

-143.311 59590.6 0
59590.6 -82.524 0
0    0    0

228.13 58931.1 0
58931.1 125.188 0
0    0    0

-156.916 58532.8 0
58532.8 -397.552 0
0    0    0

253.416 59098.1 0
59098.1 362.019 0
0    0    0

-198.906 60072.3 0
60072.3 -265.156 0
0    0    0

-215.427 59242.9 0
59242.9 -215.082 0
0    0    0

-23.597 59924.5 0
59924.5 77.2762 0
0    0    0

-248.238 59118.5 0
59118.5 -140.496 0
0    0    0

209.472 59414.7 0
59414.7 219.402 0
0    0    0

289.048 59410.8 0
59410.8 370.738 0
0    0    0

-262.576 58972.7 0
58972.7 -294.139 0
0    0    0

233.626 58829 0
58829 367.667 0
0    0    0

-19.6981 59491.7 0
59491.7 -275.63 0
0    0    0

79.27 60149.8 0
60149.8 -95.2622 0
0    0    0

111.752 59270.7 0
59270.7 150.001 0
0    0    0

-31.6814 59758.2 0
59758.2 -93.2218 0
0    0    0

-94.2563 58911.5 0
58911.5 357.382 0
0    0    0

-180.772 59792.8 0
59792.8 -432.054 0
0    0    0

138.582 59659.2 0
59659.2 434.629 0
0    0    0

-45.9917 59083.5 0
59083.5 -287.91 0
0    0    0

138.095 59419 0
59419 -46.8178 0
0    0    0

-297.658 58212.8 0
58212.8 -378.22 0
0    0    0

201.126 58440.7 0
58440.7 -88.689 0
0    0    0

-236.496 58380.4 0
58380.4 137.289 0
0    0    0

-295.18 57713 0
57713 -279.845 0
0    0    0

-149.738 57550.2 0
57550.2 -538.41 0
0    0    0

-42.2804 57553.4 0
57553.4 -152.02 0
0    0    0

221.545 57929.7 0
57929.7 260.997 0
0    0    0

111.41 57636.2 0
57636.2 219.281 0
0    0    0

60.8256 57930 0
57930 -94.1768 0
0    0    0

172.83 57748.7 0
57748.7 253.742 0
0    0    0

248.175 57439 0
57439 656.103 0
0    0    0

-7.91244 57059.4 0
57059.4 43.906 0
0    0    0

88.8938 60241.8 0
60241.8 10.8461 0
0    0    0

9.78464 59716 0
59716 304.983 0
0    0    0

-53.5172 60855.8 0
60855.8 -277.222 0
0    0    0

-190.127 61089 0
61089 -173.479 0
0    0    0

132.65 60599 0
60599 40.675 0
0    0    0

17.2389 60753.9 0
60753.9 177.31 0
0    0    0

-97.7191 60265.6 0
60265.6 114.873 0
0    0    0

-140.685 60847.5 0
60847.5 -324.215 0
0    0    0

-114.932 54730.6 0
54730.6 -80.9011 0
0    0    0

-166.443 54588 0
54588 -285.42 0
0    0    0

-50.3485 55390.6 0
55390.6 207.704 0
0    0    0

-212.382 55193.7 0
55193.7 -103.636 0
0    0    0

-90.0033 54377.1 0
54377.1 -40.3663 0
0    0    0

90.7134 54023.8 0
54023.8 17.0469 0
0    0    0

-99.8137 53450.8 0
53450.8 -269.222 0
0    0    0

251.015 54311.3 0
54311.3 409.622 0
0    0    0

169.013 52887.9 0
52887.9 97.3171 0
0    0    0

-93.1581 55575.2 0
55575.2 -251.728 0
0    0    0

-233.049 53799.5 0
53799.5 -40.7198 0
0    0    0

-120.672 53693.3 0
53693.3 43.7243 0
0    0    0

-96.8432 52976.9 0
52976.9 -77.6013 0
0    0    0

-11.4866 53181.9 0
53181.9 201.441 0
0    0    0

-24.7606 54652.5 0
54652.5 -370.966 0
0    0    0

-34.0267 55192.9 0
55192.9 -176.207 0
0    0    0

154.96 53624.8 0
53624.8 233.565 0
0    0    0

85.0365 53500.2 0
53500.2 -35.0549 0
0    0    0

-140.62 53600.6 0
53600.6 38.1939 0
0    0    0

39.9989 52922.2 0
52922.2 53.8721 0
0    0    0

260.534 51656.8 0
51656.8 226.985 0
0    0    0

118.888 49716.4 0
49716.4 382.381 0
0    0    0

134.026 52671.1 0
52671.1 206.957 0
0    0    0

88.7213 52188.8 0
52188.8 292.397 0
0    0    0

95.2225 51014.7 0
51014.7 8.48892 0
0    0    0

320.015 51924.1 0
51924.1 287.084 0
0    0    0

84.4986 52429.6 0
52429.6 -97.6535 0
0    0    0

-70.6594 52417 0
52417 -298.729 0
0    0    0

-133.286 56152.1 0
56152.1 165.743 0
0    0    0

235.408 56606.2 0
56606.2 -13.2398 0
0    0    0

-3.01178 56485.6 0
56485.6 122.795 0
0    0    0

-46.8771 56865.8 0
56865.8 300.688 0
0    0    0

160.096 56088.4 0
56088.4 -105.618 0
0    0    0

-51.3347 56058.8 0
56058.8 -213.941 0
0    0    0

-313.909 45125.3 0
45125.3 -420.832 0
0    0    0

259.004 46528.5 0
46528.5 328.628 0
0    0    0

87.8131 48776.7 0
48776.7 178.688 0
0    0    0

194.445 49541.1 0
49541.1 66.3286 0
0    0    0

247.386 49154.2 0
49154.2 48.2208 0
0    0    0

-88.3787 49277.3 0
49277.3 132.818 0
0    0    0

-158.563 51646.6 0
51646.6 -276.48 0
0    0    0

257.001 50263 0
50263 133.081 0
0    0    0

-56.5595 49120 0
49120 201.634 0
0    0    0

64.1462 50007.2 0
50007.2 -18.3844 0
0    0    0

185.965 51643.1 0
51643.1 142.827 0
0    0    0

134.655 50551.6 0
50551.6 -16.156 0
0    0    0

-156.532 51900.4 0
51900.4 -272.804 0
0    0    0

74.8741 51726.4 0
51726.4 180.397 0
0    0    0

-80.2236 51051.3 0
51051.3 93.9384 0
0    0    0

92.0668 50151.4 0
50151.4 -140.616 0
0    0    0

-150.746 52048.5 0
52048.5 -199.117 0
0    0    0

-216.735 51888.5 0
51888.5 -154.852 0
0    0    0

25.4914 49595.5 0
49595.5 -13.261 0
0    0    0

-473.843 49927.6 0
49927.6 -353.713 0
0    0    0

102.03 51329.6 0
51329.6 -52.6447 0
0    0    0

-113.932 50371.4 0
50371.4 185.445 0
0    0    0

148.423 50949.8 0
50949.8 102.627 0
0    0    0

-45.4783 50851.1 0
50851.1 -272.283 0
0    0    0

-9.69341 52239.4 0
52239.4 220.844 0
0    0    0

-235.68 51457.1 0
51457.1 -167.466 0
0    0    0

-168.285 52571.2 0
52571.2 -386.579 0
0    0    0

277.561 52109.8 0
52109.8 413.354 0
0    0    0

202.692 52786.6 0
52786.6 -33.1061 0
0    0    0

-115.413 52387.3 0
52387.3 -346.074 0
0    0    0

-266.315 52401.9 0
52401.9 -160.991 0
0    0    0

-13.2491 51613.2 0
51613.2 195.689 0
0    0    0

171.875 50680 0
50680 274.608 0
0    0    0

-287.937 51631.3 0
51631.3 -326.52 0
0    0    0

-128.273 51048.8 0
51048.8 -58.3009 0
0    0    0

42.0193 51314.7 0
51314.7 -18.802 0
0    0    0

-245.911 50506.1 0
50506.1 -164.453 0
0    0    0

-111.185 50707 0
50707 12.6731 0
0    0    0

159.917 51830 0
51830 266.971 0
0    0    0

5.04574 51559.4 0
51559.4 -95.2745 0
0    0    0

-28.2678 51255 0
51255 -362.563 0
0    0    0

-22.4169 51508 0
51508 214.634 0
0    0    0

85.0906 35882.6 0
35882.6 -49.7974 0
0    0    0

-143.224 35467.9 0
35467.9 -166.316 0
0    0    0

-24.4486 35780.6 0
35780.6 -378.541 0
0    0    0

115.975 35604.8 0
35604.8 -112.532 0
0    0    0

49.9554 35068.6 0
35068.6 -150.168 0
0    0    0

-99.8161 31944 0
31944 -400.581 0
0    0    0

147.741 32211.5 0
32211.5 336.714 0
0    0    0

154.591 33645.6 0
33645.6 77.697 0
0    0    0

-95.3157 36192.4 0
36192.4 -254.429 0
0    0    0

68.153 35269.6 0
35269.6 136.666 0
0    0    0

-297.646 35406.7 0
35406.7 -243.251 0
0    0    0

-60.4908 34728.4 0
34728.4 88.8443 0
0    0    0

111.925 34896.2 0
34896.2 94.36 0
0    0    0

19.9363 34235.8 0
34235.8 111.892 0
0    0    0

-145.114 34909.5 0
34909.5 -20.7273 0
0    0    0

63.9105 34983.5 0
34983.5 -147.904 0
0    0    0

-23.1288 35531.1 0
35531.1 -267.958 0
0    0    0

-28.5025 35166.9 0
35166.9 -118.9 0
0    0    0

0.675994 35962.7 0
35962.7 174.212 0
0    0    0

121.205 35880.9 0
35880.9 323.049 0
0    0    0

106.56 33306.8 0
33306.8 -130.977 0
0    0    0

109.02 33324.1 0
33324.1 53.3909 0
0    0    0

-4.04685 35774.5 0
35774.5 204.193 0
0    0    0

16.7044 35159.4 0
35159.4 71.524 0
0    0    0

-73.8884 34631.6 0
34631.6 -41.5746 0
0    0    0

-101.837 33706.8 0
33706.8 -3.8214 0
0    0    0

-83.8553 35104.7 0
35104.7 113.639 0
0    0    0

60.0182 34543.8 0
34543.8 262.184 0
0    0    0

-45.0239 33988.8 0
33988.8 118.562 0
0    0    0

-243.211 34302.7 0
34302.7 -18.4033 0
0    0    0

135.041 33792.5 0
33792.5 194.429 0
0    0    0

-367.94 34667.4 0
34667.4 -296.042 0
0    0    0

70.2982 34856.2 0
34856.2 -53.0689 0
0    0    0

-121.501 34267.2 0
34267.2 61.3753 0
0    0    0

-223.957 34152.7 0
34152.7 -204.284 0
0    0    0

-191.412 33501.4 0
33501.4 -236.589 0
0    0    0

-169.623 34844.1 0
34844.1 -237.729 0
0    0    0

271.493 34352.2 0
34352.2 274.15 0
0    0    0

269.489 34565.1 0
34565.1 117.559 0
0    0    0

412.458 34541.3 0
34541.3 678.692 0
0    0    0

-83.7847 32919.9 0
32919.9 -16.5084 0
0    0    0

-67.7158 31988.5 0
31988.5 -155.609 0
0    0    0

-6.74812 33724.1 0
33724.1 -152.781 0
0    0    0

124.794 33376.7 0
33376.7 197.95 0
0    0    0

248.412 31610.1 0
31610.1 176.618 0
0    0    0

133.533 31862.2 0
31862.2 152.584 0
0    0    0

103.169 32472.2 0
32472.2 -91.2119 0
0    0    0

-206.451 32832.8 0
32832.8 -78.3858 0
0    0    0

-329.74 34534 0
34534 -100.53 0
0    0    0

-106.203 34106.6 0
34106.6 -64.1498 0
0    0    0

218.106 31035.8 0
31035.8 69.5553 0
0    0    0

75.3272 31621.4 0
31621.4 137.516 0
0    0    0

37.32 29798.1 0
29798.1 -193.788 0
0    0    0

222.666 28973.4 0
28973.4 238.749 0
0    0    0

99.2711 32966 0
32966 74.8655 0
0    0    0

149.891 33417.8 0
33417.8 100.743 0
0    0    0

-301.98 34132.1 0
34132.1 -244.841 0
0    0    0

-211.367 33709 0
33709 -198.227 0
0    0    0

95.251 34163.5 0
34163.5 52.1297 0
0    0    0

235.798 33872.5 0
33872.5 172.002 0
0    0    0

-111.683 34405.6 0
34405.6 38.0117 0
0    0    0

158.63 32326.5 0
32326.5 175.619 0
0    0    0

-244.619 32128.7 0
32128.7 -286.042 0
0    0    0

-249.608 31403.5 0
31403.5 -212.335 0
0    0    0

202.076 34695.9 0
34695.9 158.773 0
0    0    0

111.021 34489.9 0
34489.9 25.6106 0
0    0    0

-64.7691 34736.1 0
34736.1 -187.658 0
0    0    0

-212.567 34242.7 0
34242.7 -218.409 0
0    0    0

-183.71 39473.7 0
39473.7 -266.265 0
0    0    0

-243.969 39490.1 0
39490.1 -259.185 0
0    0    0

202.032 39215.9 0
39215.9 313.13 0
0    0    0

184.517 38664.8 0
38664.8 76.1322 0
0    0    0

65.6749 39260 0
39260 326.749 0
0    0    0

52.2409 40042.2 0
40042.2 -185.876 0
0    0    0

50.245 39037.1 0
39037.1 -182.36 0
0    0    0

280.564 38613.6 0
38613.6 107.977 0
0    0    0

148.301 39396.2 0
39396.2 -115.923 0
0    0    0

-181.582 40472.6 0
40472.6 51.994 0
0    0    0

299.582 38268.6 0
38268.6 -48.2793 0
0    0    0

-35.2842 38858 0
38858 -40.343 0
0    0    0

-261.948 39179 0
39179 -14.7438 0
0    0    0

239.654 40148.5 0
40148.5 169.751 0
0    0    0

-167.417 40334.7 0
40334.7 -43.4828 0
0    0    0

-14.4332 39782.3 0
39782.3 131.251 0
0    0    0

-4.28972 38964 0
38964 -163.22 0
0    0    0

-217.405 39020.5 0
39020.5 -251.472 0
0    0    0

232.106 39053 0
39053 118.187 0
0    0    0

-82.2265 39966.2 0
39966.2 -91.1667 0
0    0    0

-268.897 36178.5 0
36178.5 -68.6224 0
0    0    0

100.636 36518.5 0
36518.5 347.539 0
0    0    0

-36.233 37080 0
37080 -275.833 0
0    0    0

-225.926 38165.9 0
38165.9 -272.737 0
0    0    0

-47.2149 36754.8 0
36754.8 339.224 0
0    0    0

-87.4723 37487.9 0
37487.9 -131.991 0
0    0    0

192.097 38498.2 0
38498.2 -12.7342 0
0    0    0

-209.911 38099.3 0
38099.3 -191.574 0
0    0    0

202.832 37186.2 0
37186.2 217.166 0
0    0    0

71.4712 36803 0
36803 -117.489 0
0    0    0

-16.3689 29103.3 0
29103.3 66.1988 0
0    0    0

-170.974 30310.8 0
30310.8 -133.929 0
0    0    0

-161.077 30530.9 0
30530.9 -24.7706 0
0    0    0

-106.753 29939.8 0
29939.8 -213.414 0
0    0    0

81.3953 28750.5 0
28750.5 167.412 0
0    0    0

-31.1066 29718.3 0
29718.3 103.054 0
0    0    0

95.8367 28913.3 0
28913.3 -100.873 0
0    0    0

258.007 29732.1 0
29732.1 347.393 0
0    0    0

227.135 30753.7 0
30753.7 143.783 0
0    0    0

217.577 30457.3 0
30457.3 110.336 0
0    0    0

-286.199 33576.8 0
33576.8 51.6253 0
0    0    0

101.367 32870.1 0
32870.1 89.7267 0
0    0    0

231.245 31971 0
31971 242.731 0
0    0    0

174.528 35779.1 0
35779.1 40.1532 0
0    0    0

57.8026 36605 0
36605 -79.0134 0
0    0    0

83.2321 36200.6 0
36200.6 -148.419 0
0    0    0

-184.254 36280 0
36280 -164.31 0
0    0    0

-281.069 35618.2 0
35618.2 -185.069 0
0    0    0

-164.936 33635.2 0
33635.2 -101.881 0
0    0    0

106.074 35070.2 0
35070.2 116.772 0
0    0    0

-147.138 35884.6 0
35884.6 -271.669 0
0    0    0

-200.682 33912.9 0
33912.9 -181.508 0
0    0    0

176.011 37439 0
37439 73.0897 0
0    0    0

-260.943 38694.8 0
38694.8 -237.322 0
0    0    0

-34.7228 37980.6 0
37980.6 241.634 0
0    0    0

220.378 38311 0
38311 347.256 0
0    0    0

207.728 37605.9 0
37605.9 -141.054 0
0    0    0

-133.579 36728.9 0
36728.9 -487.462 0
0    0    0

-29.542 39427.8 0
39427.8 -143.74 0
0    0    0

-91.514 40651 0
40651 81.238 0
0    0    0

-174.979 39012.5 0
39012.5 -255.855 0
0    0    0

-322.999 38336.5 0
38336.5 -375.105 0
0    0    0

-184.79 23770.4 0
23770.4 -161.225 0
0    0    0

214.785 24315.4 0
24315.4 78.787 0
0    0    0

-99.8663 25152 0
25152 68.6273 0
0    0    0

74.3745 25038.9 0
25038.9 -158.797 0
0    0    0

220.106 23840.8 0
23840.8 234.966 0
0    0    0

71.2644 24790.4 0
24790.4 -31.1701 0
0    0    0

116.444 26296.1 0
26296.1 202.697 0
0    0    0

117.836 26666.9 0
26666.9 95.8637 0
0    0    0

-77.5776 24838.5 0
24838.5 -62.7706 0
0    0    0

152.294 25373.7 0
25373.7 190.373 0
0    0    0

70.9728 25766.2 0
25766.2 -222.89 0
0    0    0

-151.64 25852 0
25852 -208.707 0
0    0    0

-49.3175 25760.7 0
25760.7 295.534 0
0    0    0

-221.118 25202.9 0
25202.9 -146.221 0
0    0    0

75.8757 25308.5 0
25308.5 -97.1994 0
0    0    0

-160.962 26622.5 0
26622.5 -49.0801 0
0    0    0

234.924 24957.9 0
24957.9 86.2563 0
0    0    0

-75.7825 24705.6 0
24705.6 -309.135 0
0    0    0

-147.239 25495.4 0
25495.4 60.3847 0
0    0    0

183.86 26007.3 0
26007.3 224.458 0
0    0    0

-199.591 24785.7 0
24785.7 -307.11 0
0    0    0

300.949 23958.1 0
23958.1 289.938 0
0    0    0

-130.057 26340.2 0
26340.2 -257.058 0
0    0    0

254.434 26018.5 0
26018.5 218.384 0
0    0    0

177.037 26721.8 0
26721.8 -227.055 0
0    0    0

-161.794 25546 0
25546 -95.6021 0
0    0    0

-169.002 26107.4 0
26107.4 -76.3198 0
0    0    0

243.161 25596.6 0
25596.6 64.7793 0
0    0    0

201.197 22846.6 0
22846.6 308.141 0
0    0    0

9.08889 24070.1 0
24070.1 -118.797 0
0    0    0

-317.334 26246.3 0
26246.3 -219.649 0
0    0    0

-76.9738 26554.3 0
26554.3 -36.7342 0
0    0    0

92.3196 25884.5 0
25884.5 14.4609 0
0    0    0

-154.114 25865.4 0
25865.4 -334.934 0
0    0    0

125.631 24520.4 0
24520.4 422.51 0
0    0    0

137.592 24569 0
24569 94.0854 0
0    0    0

-266.553 24294.7 0
24294.7 -386.608 0
0    0    0

21.0815 24482.1 0
24482.1 305.241 0
0    0    0

-228.783 24146.6 0
24146.6 -142.343 0
0    0    0

205.43 23793.3 0
23793.3 174.899 0
0    0    0

-172.295 23394.3 0
23394.3 -355.972 0
0    0    0

-34.1318 24248.3 0
24248.3 -116.668 0
0    0    0

25.9724 23350.3 0
23350.3 167.775 0
0    0    0

-146.769 21901.4 0
21901.4 131.834 0
0    0    0

-210.2 24114.2 0
24114.2 -238.929 0
0    0    0

-91.3221 23199.3 0
23199.3 219.498 0
0    0    0

-2.49105 23596.7 0
23596.7 -60.8168 0
0    0    0

-15.7798 23532.4 0
23532.4 -305.199 0
0    0    0

83.0231 23058.6 0
23058.6 -229.721 0
0    0    0

111.236 22525.8 0
22525.8 3.20142 0
0    0    0

213.573 23133.9 0
23133.9 213.823 0
0    0    0

-312.956 23447.4 0
23447.4 -323.538 0
0    0    0

34.326 23217.8 0
23217.8 -18.108 0
0    0    0

53.342 23154.1 0
23154.1 -262.244 0
0    0    0

22.0585 23659 0
23659 130.007 0
0    0    0

266.454 22533.9 0
22533.9 355.377 0
0    0    0

164.726 24286.2 0
24286.2 173.065 0
0    0    0

-42.3415 24561.9 0
24561.9 -221.706 0
0    0    0

-22.7305 21481.2 0
21481.2 -202.996 0
0    0    0

-70.5865 22692.7 0
22692.7 122.058 0
0    0    0

59.1815 23613.4 0
23613.4 502.47 0
0    0    0

172.851 22355.2 0
22355.2 170.845 0
0    0    0

208.768 22822.6 0
22822.6 175.646 0
0    0    0

151.799 21932.4 0
21932.4 -45.7885 0
0    0    0

187.464 23666.8 0
23666.8 395.622 0
0    0    0

181.323 23017 0
23017 387.703 0
0    0    0

43.1483 24335.6 0
24335.6 -25.0001 0
0    0    0

-40.4532 23915.6 0
23915.6 -293.532 0
0    0    0

-86.9324 25039.8 0
25039.8 152.291 0
0    0    0

63.4197 25141.9 0
25141.9 210.05 0
0    0    0

1.82165 24817 0
24817 270.299 0
0    0    0

37.1724 24300.2 0
24300.2 108.469 0
0    0    0

23.6896 23855.8 0
23855.8 -69.714 0
0    0    0

53.4565 23733.7 0
23733.7 212.117 0
0    0    0

-96.6242 24047.1 0
24047.1 -340.743 0
0    0    0

-90.2422 24501.2 0
24501.2 216.161 0
0    0    0

-21.3454 22408.3 0
22408.3 -1.2266 0
0    0    0

282.458 22123.2 0
22123.2 43.3615 0
0    0    0

-330.36 20987.3 0
20987.3 -441.225 0
0    0    0

88.4262 22115.4 0
22115.4 3.97707 0
0    0    0

-209.388 23471.8 0
23471.8 -278.394 0
0    0    0

-17.8483 23948.3 0
23948.3 139.979 0
0    0    0

233.229 22485.5 0
22485.5 61.8588 0
0    0    0

-121.454 22321 0
22321 -292.58 0
0    0    0

90.2678 24124.4 0
24124.4 -84.4106 0
0    0    0

-213.312 25426.7 0
25426.7 -112.723 0
0    0    0

182.207 26090.3 0
26090.3 280.914 0
0    0    0

-70.9333 25097.8 0
25097.8 -249.863 0
0    0    0

-251.66 22848.6 0
22848.6 -80.8794 0
0    0    0

-266.77 22252.7 0
22252.7 -214.107 0
0    0    0

-52.866 23603.1 0
23603.1 158.219 0
0    0    0

116.673 22676.6 0
22676.6 109.288 0
0    0    0

-45.3727 23390.7 0
23390.7 -392.714 0
0    0    0

-63.7711 23157.3 0
23157.3 106.142 0
0    0    0

258.096 22014.6 0
22014.6 313.421 0
0    0    0

64.6723 22954 0
22954 213.418 0
0    0    0

188.52 23313.9 0
23313.9 408.759 0
0    0    0

-17.0099 22085.9 0
22085.9 66.7289 0
0    0    0

165.127 21434.6 0
21434.6 224.067 0
0    0    0

-200.261 21793.7 0
21793.7 -73.476 0
0    0    0

162.087 23772.4 0
23772.4 298.383 0
0    0    0

-262.795 24006.2 0
24006.2 -327.825 0
0    0    0

-208.504 23934.3 0
23934.3 -3.06364 0
0    0    0

-209.41 21798.9 0
21798.9 -372.805 0
0    0    0

79.0149 22818 0
22818 -137.545 0
0    0    0

295.492 20934.7 0
20934.7 235.409 0
0    0    0

134.797 23530.4 0
23530.4 76.0476 0
0    0    0

-46.0278 22836.5 0
22836.5 86.9211 0
0    0    0

-172.182 22566.9 0
22566.9 30.9722 0
0    0    0

94.5119 21994.7 0
21994.7 212.134 0
0    0    0

-122.326 22939.7 0
22939.7 -301.766 0
0    0    0

154.05 21440.7 0
21440.7 276.67 0
0    0    0

82.091 22323.9 0
22323.9 86.7799 0
0    0    0

-264.584 19154 0
19154 -252.921 0
0    0    0

-191.835 24808.4 0
24808.4 -378.319 0
0    0    0

103.438 24104.4 0
24104.4 261.027 0
0    0    0

49.5372 30084.7 0
30084.7 296.715 0
0    0    0

-47.761 29328.4 0
29328.4 -235.041 0
0    0    0

-159.322 29389.7 0
29389.7 -269.176 0
0    0    0

178.757 29484.3 0
29484.3 340.173 0
0    0    0

91.2136 30303.8 0
30303.8 464.941 0
0    0    0

-223.254 30569.9 0
30569.9 -414.15 0
0    0    0

-193.317 29825.8 0
29825.8 -345.432 0
0    0    0

-208 29230.5 0
29230.5 -50.4305 0
0    0    0

-46.3125 31317.1 0
31317.1 -21.0914 0
0    0    0

-19.5927 30430.1 0
30430.1 -82.7237 0
0    0    0

-112.131 28584.6 0
28584.6 91.1686 0
0    0    0

57.488 29083.8 0
29083.8 297.99 0
0    0    0

38.9661 31687.7 0
31687.7 195.618 0
0    0    0

-255.908 32505.2 0
32505.2 -420.854 0
0    0    0

103.595 28841.8 0
28841.8 -286.644 0
0    0    0

-258.852 29737.7 0
29737.7 -196.782 0
0    0    0

153.348 30833.5 0
30833.5 -82.1405 0
0    0    0

-64.4402 30455.4 0
30455.4 -218.779 0
0    0    0

-157.125 30523.7 0
30523.7 -110.106 0
0    0    0

334.766 29962 0
29962 59.7652 0
0    0    0

237.093 29497.4 0
29497.4 248.566 0
0    0    0

7.18587 28845.6 0
28845.6 -179.135 0
0    0    0

278.138 31153.3 0
31153.3 272.076 0
0    0    0

-134.397 31271.6 0
31271.6 135.073 0
0    0    0

-81.3583 30022.3 0
30022.3 106.008 0
0    0    0

190.971 29389.5 0
29389.5 402.674 0
0    0    0

-290.165 30782 0
30782 -349.805 0
0    0    0

-99.7722 28893.3 0
28893.3 -242.244 0
0    0    0

101.197 28908.3 0
28908.3 103.258 0
0    0    0

-165.327 29567.1 0
29567.1 109.603 0
0    0    0

-68.7863 31924 0
31924 -197.582 0
0    0    0

205.677 31497.1 0
31497.1 130.241 0
0    0    0

155.598 29396.4 0
29396.4 26.8288 0
0    0    0

-42.5819 30227.9 0
30227.9 -219.05 0
0    0    0

-171.78 31355.2 0
31355.2 -160.293 0
0    0    0

49.982 30456.3 0
30456.3 -247.522 0
0    0    0

-121.017 30359.8 0
30359.8 -149.981 0
0    0    0

-151.361 29691.1 0
29691.1 -157.041 0
0    0    0

194.424 30672.2 0
30672.2 -118.446 0
0    0    0

55.0147 30456.5 0
30456.5 143.24 0
0    0    0

-240.179 31178.3 0
31178.3 30.4837 0
0    0    0

20.9243 29997.8 0
29997.8 163.728 0
0    0    0

168.878 29955.9 0
29955.9 88.9685 0
0    0    0

113.214 29624.3 0
29624.3 -28.7986 0
0    0    0

162.765 26259.1 0
26259.1 383.455 0
0    0    0

-101.486 26067.9 0
26067.9 183.474 0
0    0    0

-114.396 26874.7 0
26874.7 -444.444 0
0    0    0

-296.777 25362 0
25362 -125.254 0
0    0    0

-71.5269 26737.2 0
26737.2 -187.541 0
0    0    0

-269.138 24610.3 0
24610.3 -438.109 0
0    0    0

223.36 27644.4 0
27644.4 395.126 0
0    0    0

18.3732 27569.8 0
27569.8 268.891 0
0    0    0

-409.138 55469 0
55469 -280.224 0
0    0    0

444.126 55103.6 0
55103.6 330.589 0
0    0    0

-143.298 56585.4 0
56585.4 -308.442 0
0    0    0

188.995 56740.4 0
56740.4 118.372 0
0    0    0

317.704 49235.1 0
49235.1 158.225 0
0    0    0

11.2817 47424.2 0
47424.2 393.434 0
0    0    0

-159.66 56673.2 0
56673.2 -271.606 0
0    0    0

-316.438 55277.3 0
55277.3 -68.3038 0
0    0    0

235.58 53563 0
53563 192.662 0
0    0    0

127.891 54368.1 0
54368.1 -18.8505 0
0    0    0

380.571 55283.5 0
55283.5 338.704 0
0    0    0

204.822 53602.9 0
53602.9 251.492 0
0    0    0

211.769 54145.3 0
54145.3 -13.1737 0
0    0    0

211.079 53615 0
53615 -48.3196 0
0    0    0

7.3055 53077 0
53077 134.888 0
0    0    0

-84.3287 53109.9 0
53109.9 363.67 0
0    0    0

19.2091 59140.4 0
59140.4 -25.2499 0
0    0    0

-91.106 58451.4 0
58451.4 83.705 0
0    0    0

-209.67 59272.6 0
59272.6 -249.169 0
0    0    0

338.859 59338.1 0
59338.1 322.769 0
0    0    0

-147.016 59068.9 0
59068.9 -320.181 0
0    0    0

-193.071 57743.3 0
57743.3 13.4914 0
0    0    0

-91.8674 59492.9 0
59492.9 26.4418 0
0    0    0

156.621 58321.8 0
58321.8 319.03 0
0    0    0

-180.715 58791.6 0
58791.6 -152.402 0
0    0    0

145.849 58258.7 0
58258.7 89.4613 0
0    0    0

91.2688 58787.8 0
58787.8 314.048 0
0    0    0

172.962 58618.2 0
58618.2 163.228 0
0    0    0

-182.422 59616.7 0
59616.7 -128.759 0
0    0    0

-61.0931 59020.1 0
59020.1 -0.685963 0
0    0    0

184.242 58968.6 0
58968.6 89.5681 0
0    0    0

26.7367 59040.7 0
59040.7 -16.5406 0
0    0    0

-139.58 58569.5 0
58569.5 -314.71 0
0    0    0

-233.155 57558.9 0
57558.9 33.9027 0
0    0    0

115.446 59300.9 0
59300.9 -113.26 0
0    0    0

-113.003 58527 0
58527 -142.172 0
0    0    0

-70.0502 59556.2 0
59556.2 33.2533 0
0    0    0

-235.966 59121.1 0
59121.1 -194.355 0
0    0    0

67.9169 58073.5 0
58073.5 -155.122 0
0    0    0

-80.7728 57850.5 0
57850.5 2.35596 0
0    0    0

-119.604 57151.9 0
57151.9 -109.338 0
0    0    0

257.773 57424.5 0
57424.5 168.153 0
0    0    0

54.1851 57894.1 0
57894.1 262.718 0
0    0    0

149.993 57451.6 0
57451.6 108.815 0
0    0    0

-174.679 56825.8 0
56825.8 286.148 0
0    0    0

166.114 57284.6 0
57284.6 94.0386 0
0    0    0

-21.9891 56372.4 0
56372.4 -259.013 0
0    0    0

-277.422 56361.4 0
56361.4 -357.695 0
0    0    0

16.8679 56648.1 0
56648.1 166.758 0
0    0    0

177.459 56064.2 0
56064.2 202.93 0
0    0    0

-316.854 55797.2 0
55797.2 46.5891 0
0    0    0

139.591 56055.6 0
56055.6 186.368 0
0    0    0

202.175 57566.5 0
57566.5 290.74 0
0    0    0

-205.073 57403.5 0
57403.5 -116.399 0
0    0    0

-31.0219 57037 0
57037 -99.732 0
0    0    0

259.079 56713.3 0
56713.3 202.887 0
0    0    0

155.573 59030.9 0
59030.9 181.092 0
0    0    0

-152.895 59975.4 0
59975.4 -310.281 0
0    0    0

-114.762 58745.3 0
58745.3 -337.959 0
0    0    0

18.9811 59338.8 0
59338.8 -68.8739 0
0    0    0

15.3475 63367.6 0
63367.6 89.7795 0
0    0    0

-244.957 61735.4 0
61735.4 -256.698 0
0    0    0

143.858 61012.1 0
61012.1 135.261 0
0    0    0

94.0135 60674.8 0
60674.8 12.6951 0
0    0    0

-275.748 62057.8 0
62057.8 -278.701 0
0    0    0

-225.094 60698.1 0
60698.1 -110.619 0
0    0    0

35.8889 59779.3 0
59779.3 -257.986 0
0    0    0

-174.818 59636.6 0
59636.6 -50.2735 0
0    0    0

-51.9634 58901.7 0
58901.7 66.3699 0
0    0    0

-24.5275 60013.1 0
60013.1 213.018 0
0    0    0

-35.0285 60519.6 0
60519.6 -76.012 0
0    0    0

123.153 59579.1 0
59579.1 44.9577 0
0    0    0

-12.6504 58957.7 0
58957.7 -111.077 0
0    0    0

135.658 59042.3 0
59042.3 153.221 0
0    0    0

108.168 57474.5 0
57474.5 -114.738 0
0    0    0

153.476 59493.5 0
59493.5 308.693 0
0    0    0

-92.1974 56263.1 0
56263.1 -74.7828 0
0    0    0

-108.826 56605.7 0
56605.7 -108.721 0
0    0    0

-163.303 56371 0
56371 -304.843 0
0    0    0

-44.2624 56611.8 0
56611.8 -151.356 0
0    0    0

-80.2325 57072.9 0
57072.9 98.8532 0
0    0    0

154.793 56861.4 0
56861.4 204.812 0
0    0    0

-149.908 57628.6 0
57628.6 69.6403 0
0    0    0

-50.9642 56732.6 0
56732.6 -178.977 0
0    0    0

-14.9194 56119.2 0
56119.2 -210.729 0
0    0    0

-63.8149 57177.9 0
57177.9 -134.069 0
0    0    0

-331.698 46386.3 0
46386.3 -167.484 0
0    0    0

-174.126 45692.2 0
45692.2 -428.85 0
0    0    0

-4.99134 46797.9 0
46797.9 -197.243 0
0    0    0

67.7659 45667.7 0
45667.7 -131.896 0
0    0    0

-31.7978 44039.6 0
44039.6 114.825 0
0    0    0

174.511 43468.4 0
43468.4 -34.5104 0
0    0    0

-181.546 44094.3 0
44094.3 -360.281 0
0    0    0

141.48 43854.5 0
43854.5 512.015 0
0    0    0

77.6732 41929.5 0
41929.5 -193.03 0
0    0    0

63.5001 42529.2 0
42529.2 -75.673 0
0    0    0

-112.834 43509.8 0
43509.8 220.775 0
0    0    0

80.4392 42126.5 0
42126.5 -88.5061 0
0    0    0

145.503 41561.7 0
41561.7 -139.082 0
0    0    0

200.292 41491.9 0
41491.9 -60.4698 0
0    0    0

-235.632 40418.3 0
40418.3 -185.084 0
0    0    0

-146.26 40026.2 0
40026.2 -138.403 0
0    0    0

-165.315 61538.2 0
61538.2 152.631 0
0    0    0

152.137 61051.5 0
61051.5 -48.4831 0
0    0    0

-176.234 61280.5 0
61280.5 76.3161 0
0    0    0

-150.287 61491.4 0
61491.4 93.9618 0
0    0    0

168.838 61066.1 0
61066.1 307.05 0
0    0    0

-216.762 63693.9 0
63693.9 -308.397 0
0    0    0

179.179 63903.7 0
63903.7 279.541 0
0    0    0

224.639 63232.6 0
63232.6 53.0214 0
0    0    0

302.03 61796.7 0
61796.7 431.559 0
0    0    0

-237.127 62574.3 0
62574.3 -320.142 0
0    0    0

349.277 62263 0
62263 225.488 0
0    0    0

-138.938 62053.2 0
62053.2 -356.356 0
0    0    0

-165.904 63096.8 0
63096.8 -17.4708 0
0    0    0

305.717 61832.7 0
61832.7 152.777 0
0    0    0

159.534 62744.3 0
62744.3 -106.076 0
0    0    0

-234.018 62509.9 0
62509.9 -89.3665 0
0    0    0

-202.071 58754.4 0
58754.4 -98.4148 0
0    0    0

119.763 59014.5 0
59014.5 143.494 0
0    0    0

-370.458 61567.2 0
61567.2 -483.458 0
0    0    0

-25.0309 61997.5 0
61997.5 55.9355 0
0    0    0

45.7022 60251.9 0
60251.9 217.928 0
0    0    0

-181.672 60076.7 0
60076.7 -242.966 0
0    0    0

-79.7072 59904 0
59904 -34.2247 0
0    0    0

95.643 59822.3 0
59822.3 109.447 0
0    0    0

-279.884 58172.6 0
58172.6 -359.104 0
0    0    0

-141.932 57636.5 0
57636.5 -240.583 0
0    0    0

38.784 57055.5 0
57055.5 48.8706 0
0    0    0

19.9306 56916.3 0
56916.3 -155.554 0
0    0    0

-138.377 56731.6 0
56731.6 67.3141 0
0    0    0

-70.1495 57054.9 0
57054.9 90.3112 0
0    0    0

24.3436 56325.6 0
56325.6 -69.9331 0
0    0    0

235.533 56075.5 0
56075.5 -32.048 0
0    0    0

-16.7577 56284.5 0
56284.5 269.012 0
0    0    0

96.1369 55740.8 0
55740.8 139.876 0
0    0    0

122.356 60469.6 0
60469.6 320.923 0
0    0    0

-90.0892 61337.4 0
61337.4 -227.073 0
0    0    0

-123.561 60463 0
60463 -213.155 0
0    0    0

-128.385 60045.3 0
60045.3 81.0649 0
0    0    0

-84.17 61296.2 0
61296.2 34.0778 0
0    0    0

176.681 61537.5 0
61537.5 269.756 0
0    0    0

2.56924 60627.7 0
60627.7 122.938 0
0    0    0

109.027 61236.1 0
61236.1 -54.4578 0
0    0    0

-187.185 60719 0
60719 40.3595 0
0    0    0

-156.933 60962.1 0
60962.1 0.786168 0
0    0    0

-80.4461 62537.2 0
62537.2 -21.1262 0
0    0    0

-304.222 61611.5 0
61611.5 -164.498 0
0    0    0

90.1786 61446.6 0
61446.6 258.728 0
0    0    0

-242.176 61349.2 0
61349.2 -580.083 0
0    0    0

-103.034 61775.5 0
61775.5 -230.338 0
0    0    0

-93.7018 61237.9 0
61237.9 -129.918 0
0    0    0

-309.119 63414.6 0
63414.6 -374.815 0
0    0    0

33.4923 63463.9 0
63463.9 -183.941 0
0    0    0

43.4527 62034.6 0
62034.6 -56.4851 0
0    0    0

237.293 62428.4 0
62428.4 39.3697 0
0    0    0

131.191 61581.3 0
61581.3 -133.007 0
0    0    0

268.41 62147.2 0
62147.2 -16.9174 0
0    0    0

-158.129 62503.3 0
62503.3 -82.321 0
0    0    0

-202.23 61965.8 0
61965.8 40.7253 0
0    0    0

358.606 61750.7 0
61750.7 -26.4814 0
0    0    0

-145.767 62592.3 0
62592.3 -126.317 0
0    0    0

153.132 54005.1 0
54005.1 36.3969 0
0    0    0

164.529 53741.3 0
53741.3 29.1229 0
0    0    0

278.891 45384.5 0
45384.5 242.175 0
0    0    0

-173.84 45685.2 0
45685.2 -216.947 0
0    0    0

-204.588 47374.6 0
47374.6 -198.328 0
0    0    0

-253.792 46673.8 0
46673.8 37.6197 0
0    0    0

-221.557 48303.1 0
48303.1 -61.3614 0
0    0    0

282.428 48711.6 0
48711.6 201.719 0
0    0    0

105.055 47974.5 0
47974.5 389.569 0
0    0    0

220.744 47347.1 0
47347.1 283.77 0
0    0    0

-23.764 47614.3 0
47614.3 191.937 0
0    0    0

178.068 47558.1 0
47558.1 314.917 0
0    0    0

67.3316 48070.8 0
48070.8 307.323 0
0    0    0

220.718 47513 0
47513 407.367 0
0    0    0

80.7898 48113.4 0
48113.4 -134.919 0
0    0    0

-181.184 47657 0
47657 -299.733 0
0    0    0

-262.543 48511.3 0
48511.3 -116.892 0
0    0    0

208.326 48505.4 0
48505.4 265.134 0
0    0    0

-86.7408 47510 0
47510 -25.0284 0
0    0    0

85.829 46344.5 0
46344.5 103.615 0
0    0    0

138.664 46932.7 0
46932.7 253.382 0
0    0    0

-21.7236 46578.2 0
46578.2 -339.765 0
0    0    0

-216.538 47243.1 0
47243.1 -415.478 0
0    0    0

258.12 47349.6 0
47349.6 191.914 0
0    0    0

211.832 48006.6 0
48006.6 360.031 0
0    0    0

2.07733 47754.3 0
47754.3 -261.331 0
0    0    0

129.738 46262.8 0
46262.8 47.4327 0
0    0    0

66.9628 46626.4 0
46626.4 -20.8732 0
0    0    0

118.412 48042 0
48042 227.781 0
0    0    0

277.809 48594.6 0
48594.6 222.804 0
0    0    0

-98.0269 48648.2 0
48648.2 70.8618 0
0    0    0

-18.3632 48258.8 0
48258.8 -279.989 0
0    0    0

-155.39 46591 0
46591 -57.4347 0
0    0    0

-75.2736 47076.5 0
47076.5 21.6218 0
0    0    0

78.6362 46919.2 0
46919.2 245.138 0
0    0    0

171.435 46741.5 0
46741.5 343.011 0
0    0    0

1.96957 49192.4 0
49192.4 149.711 0
0    0    0

-0.450062 49518 0
49518 66.7593 0
0    0    0

-68.1557 49444.2 0
49444.2 -191.202 0
0    0    0

-98.6686 49986.9 0
49986.9 -42.0812 0
0    0    0

158.805 48470.2 0
48470.2 -47.1363 0
0    0    0

-188.663 49016.1 0
49016.1 -219.923 0
0    0    0

-100.349 35633 0
35633 -294.483 0
0    0    0

49.315 36772.5 0
36772.5 -253.349 0
0    0    0

222.528 35818.1 0
35818.1 329.263 0
0    0    0

161.301 36208.8 0
36208.8 148.194 0
0    0    0

-165.939 36142.5 0
36142.5 -251.832 0
0    0    0

-166.074 35554 0
35554 -314.575 0
0    0    0

165.703 34890.2 0
34890.2 275.831 0
0    0    0

77.0153 34621 0
34621 192.126 0
0    0    0

258.857 32831.4 0
32831.4 48.0423 0
0    0    0

82.1546 33958.7 0
33958.7 -156.001 0
0    0    0

209.644 33436.7 0
33436.7 209.5 0
0    0    0

199.897 32727.4 0
32727.4 154.257 0
0    0    0

-13.2171 34160.5 0
34160.5 -81.3625 0
0    0    0

116.247 33309 0
33309 84.0416 0
0    0    0

78.4371 32427.8 0
32427.8 -41.2506 0
0    0    0

-15.5876 32905.2 0
32905.2 94.322 0
0    0    0

-188.372 32657.7 0
32657.7 -271.582 0
0    0    0

261.826 33213 0
33213 239.698 0
0    0    0

-271.456 33658.5 0
33658.5 -365.21 0
0    0    0

95.37 33893 0
33893 320.353 0
0    0    0

-171.33 34176.1 0
34176.1 70.1323 0
0    0    0

-15.184 32288.2 0
32288.2 -108.766 0
0    0    0

-229.863 33036.2 0
33036.2 -173.225 0
0    0    0

-83.3345 32544.8 0
32544.8 -304.778 0
0    0    0

50.9737 31260.4 0
31260.4 19.4086 0
0    0    0

51.1894 32092.9 0
32092.9 336.468 0
0    0    0

-176.389 33601.4 0
33601.4 -132.706 0
0    0    0

-206.248 32885 0
32885 -15.6303 0
0    0    0

-112.517 33281.4 0
33281.4 -39.0217 0
0    0    0

31.0476 33717 0
33717 -36.7441 0
0    0    0

184.015 26842.4 0
26842.4 -102.461 0
0    0    0

-58.4736 29266.5 0
29266.5 -124.204 0
0    0    0

274.145 28159.6 0
28159.6 109.09 0
0    0    0

-192.863 28596.6 0
28596.6 72.5635 0
0    0    0

152.44 28221.6 0
28221.6 -32.9754 0
0    0    0

84.4596 28215.1 0
28215.1 123.237 0
0    0    0

6.88209 28581.4 0
28581.4 -67.1503 0
0    0    0

-304.016 29485.7 0
29485.7 -286.799 0
0    0    0

223.464 28287.7 0
28287.7 334.214 0
0    0    0

-229.913 28886.7 0
28886.7 -240.383 0
0    0    0

109.804 29330 0
29330 60.9372 0
0    0    0

-108.255 28993.2 0
28993.2 -49.0447 0
0    0    0

118.687 28374.4 0
28374.4 302.586 0
0    0    0

246.427 28853.5 0
28853.5 242.033 0
0    0    0

-119.333 28512.3 0
28512.3 -263.286 0
0    0    0

-241.382 27952 0
27952 100.155 0
0    0    0

150.675 32435.4 0
32435.4 -47.8384 0
0    0    0

224.839 31289.7 0
31289.7 200 0
0    0    0

-33.2552 30859.2 0
30859.2 -206.584 0
0    0    0

-218.008 31074.5 0
31074.5 -64.5301 0
0    0    0

161.943 30955.1 0
30955.1 -140.847 0
0    0    0

-258.455 31758 0
31758 -340.298 0
0    0    0

-107.248 32757.6 0
32757.6 27.5684 0
0    0    0

304 31687.8 0
31687.8 350.461 0
0    0    0

264.398 33590.9 0
33590.9 463.952 0
0    0    0

209.964 32098.1 0
32098.1 88.4884 0
0    0    0

-215.152 32190.3 0
32190.3 -143.288 0
0    0    0

57.4396 32517.6 0
32517.6 -64.7042 0
0    0    0

161.936 35013.5 0
35013.5 365.106 0
0    0    0

-110.693 34170.5 0
34170.5 -85.9065 0
0    0    0

122.518 34817.7 0
34817.7 281.874 0
0    0    0

-165.68 35263.3 0
35263.3 -249.682 0
0    0    0

148.393 34312.8 0
34312.8 -163.81 0
0    0    0

266.322 34835.8 0
34835.8 268.111 0
0    0    0

365.532 36293.6 0
36293.6 733.626 0
0    0    0

172.725 35568.3 0
35568.3 383.989 0
0    0    0

-83.7304 35810.5 0
35810.5 24.0757 0
0    0    0

94.7861 36336 0
36336 192.315 0
0    0    0

222.813 35426.2 0
35426.2 181.985 0
0    0    0

183.78 34637.3 0
34637.3 30.3065 0
0    0    0

-254.822 34655.9 0
34655.9 -182.238 0
0    0    0

-415.076 35968 0
35968 -563.349 0
0    0    0

250.196 35221.4 0
35221.4 196.183 0
0    0    0

-295.266 36181.7 0
36181.7 -33.8603 0
0    0    0

-79.5642 34872.4 0
34872.4 -87.4762 0
0    0    0

-233.739 35244.8 0
35244.8 -468.985 0
0    0    0

-161.027 34636.8 0
34636.8 127.998 0
0    0    0

57.2052 34014.2 0
34014.2 -147.976 0
0    0    0

-105.267 35319.4 0
35319.4 -341.374 0
0    0    0

169.938 35665.5 0
35665.5 407.499 0
0    0    0

-159.409 38150.3 0
38150.3 -314.659 0
0    0    0

-28.1618 38774.7 0
38774.7 -37.8482 0
0    0    0

-31.0128 37967.5 0
37967.5 -50.5013 0
0    0    0

-275.194 38103.6 0
38103.6 -534.969 0
0    0    0

5.91549 38015.8 0
38015.8 -238.729 0
0    0    0

-205.512 38423.3 0
38423.3 -339.635 0
0    0    0

14.3869 39027.5 0
39027.5 339.186 0
0    0    0

87.3167 39185.4 0
39185.4 -17.628 0
0    0    0

203.017 37784.5 0
37784.5 267.478 0
0    0    0

49.2202 38597.7 0
38597.7 -296.92 0
0    0    0

346.241 38351 0
38351 160.695 0
0    0    0

-84.7757 39379.7 0
39379.7 21.0425 0
0    0    0

103.898 36377.4 0
36377.4 101.341 0
0    0    0

-77.7187 38419.2 0
38419.2 148.196 0
0    0    0

223.583 39339 0
39339 590.183 0
0    0    0

-92.8095 38813.3 0
38813.3 52.0412 0
0    0    0

130.385 39862.1 0
39862.1 236.893 0
0    0    0

-264.121 40074.1 0
40074.1 -222.184 0
0    0    0

-386.225 37424.1 0
37424.1 -247.807 0
0    0    0

-220.047 37782.3 0
37782.3 19.2765 0
0    0    0

49.9433 37831.5 0
37831.5 -49.8969 0
0    0    0

209.011 37607.9 0
37607.9 251.626 0
0    0    0

179.611 38382.4 0
38382.4 34.9712 0
0    0    0

58.7925 39193 0
39193 -166.075 0
0    0    0

44.4096 37335 0
37335 179.353 0
0    0    0

164.205 36882.4 0
36882.4 56.877 0
0    0    0

-162.223 36862.6 0
36862.6 -279.122 0
0    0    0

213.398 37740.6 0
37740.6 338.284 0
0    0    0

146.245 34921.3 0
34921.3 266.705 0
0    0    0

6.63343 37312.5 0
37312.5 119.607 0
0    0    0

-276.271 37608.7 0
37608.7 -132.252 0
0    0    0

-143.524 36706.1 0
36706.1 -86.0578 0
0    0    0

-227.131 37022 0
37022 -274.12 0
0    0    0

220.212 37201.5 0
37201.5 137.964 0
0    0    0

-351.637 35755.7 0
35755.7 -205.362 0
0    0    0

318.524 36593.4 0
36593.4 139.172 0
0    0    0

251.788 33606.8 0
33606.8 354.066 0
0    0    0

240.056 35979.7 0
35979.7 156.072 0
0    0    0

420.942 35822.9 0
35822.9 402.248 0
0    0    0

-253.001 35550.1 0
35550.1 -227.117 0
0    0    0

-134.355 37374.3 0
37374.3 -76.9615 0
0    0    0

267.266 37044 0
37044 163.277 0
0    0    0

318.228 35404.3 0
35404.3 275.638 0
0    0    0

62.8695 36340.8 0
36340.8 -95.4036 0
0    0    0

18.4637 35535.4 0
35535.4 -6.99353 0
0    0    0

-143.57 36461.2 0
36461.2 -221.125 0
0    0    0

-233.572 36156.7 0
36156.7 -321.863 0
0    0    0

215.726 35950.9 0
35950.9 264.46 0
0    0    0

282.926 34740.9 0
34740.9 354.901 0
0    0    0

-129.038 35681 0
35681 -108.738 0
0    0    0

79.7187 36824.1 0
36824.1 -28.1781 0
0    0    0

-183.304 36827.7 0
36827.7 -279.781 0
0    0    0

53.3039 35964.7 0
35964.7 84.2198 0
0    0    0

282.988 36401 0
36401 389.244 0
0    0    0

-161.76 36371 0
36371 -344.06 0
0    0    0

-221.335 37394.5 0
37394.5 -44.7055 0
0    0    0

-360.044 36125.2 0
36125.2 -273.953 0
0    0    0

-115.829 35482.7 0
35482.7 -63.4047 0
0    0    0

144.403 34245.6 0
34245.6 353.344 0
0    0    0

-165.452 35035.1 0
35035.1 -223.446 0
0    0    0

-59.3523 37343.9 0
37343.9 -225.495 0
0    0    0

112.048 37006 0
37006 74.7754 0
0    0    0

105.332 38960 0
38960 -44.8631 0
0    0    0

-70.1086 40313 0
40313 29.1942 0
0    0    0

19.0106 38684.9 0
38684.9 71.5063 0
0    0    0

-4.46736 39306.9 0
39306.9 -86.7881 0
0    0    0

161.728 19961.1 0
19961.1 283.572 0
0    0    0

203.104 21122 0
21122 194.287 0
0    0    0

-82.2043 23267.5 0
23267.5 -370.409 0
0    0    0

-274.501 22018.2 0
22018.2 -151.728 0
0    0    0

208.73 22349.8 0
22349.8 85.347 0
0    0    0

35.2759 21888.9 0
21888.9 -14.7596 0
0    0    0

258.887 23028.6 0
23028.6 304.064 0
0    0    0

32.4944 21497.4 0
21497.4 -73.5389 0
0    0    0

-155.635 23301.6 0
23301.6 -283.024 0
0    0    0

209.051 23102.5 0
23102.5 172.836 0
0    0    0

-60.6693 22747.5 0
22747.5 -487.381 0
0    0    0

-296.226 22809.2 0
22809.2 -233.328 0
0    0    0

-90.6372 19135.6 0
19135.6 -270.558 0
0    0    0

-66.6995 21637.2 0
21637.2 46.66 0
0    0    0

-54.7385 22508.6 0
22508.6 -21.9509 0
0    0    0

-146.095 22770.9 0
22770.9 65.941 0
0    0    0

215.312 21225.5 0
21225.5 200.907 0
0    0    0

108.245 21088.6 0
21088.6 -77.0335 0
0    0    0

-57.8791 20971.1 0
20971.1 175.064 0
0    0    0

17.6517 21309.8 0
21309.8 181.526 0
0    0    0

160.09 21755.6 0
21755.6 -54.5821 0
0    0    0

51.2522 21664.7 0
21664.7 47.1299 0
0    0    0

156.315 20210.9 0
20210.9 304.005 0
0    0    0

-17.479 19740.2 0
19740.2 237.305 0
0    0    0

151.053 18832.6 0
18832.6 343.487 0
0    0    0

-40.7149 21524 0
21524 109.254 0
0    0    0

-225.68 20568.5 0
20568.5 -466.904 0
0    0    0

231.626 20632.4 0
20632.4 89.1079 0
0    0    0

55.235 20788.8 0
20788.8 52.2321 0
0    0    0

-259.596 21038.7 0
21038.7 -195.294 0
0    0    0

-78.1886 20451.2 0
20451.2 -312.842 0
0    0    0

118.717 20355.8 0
20355.8 135.815 0
0    0    0

-149.512 20252.6 0
20252.6 -89.3319 0
0    0    0

161.547 19977.5 0
19977.5 303.595 0
0    0    0

37.2268 21056.2 0
21056.2 -194.28 0
0    0    0

-224.068 20613.9 0
20613.9 -463.667 0
0    0    0

116.445 19831.8 0
19831.8 68.4997 0
0    0    0

28.4161 19265 0
19265 -250.886 0
0    0    0

-239.162 21191 0
21191 -422.91 0
0    0    0

-277.596 22329.8 0
22329.8 -76.9239 0
0    0    0

256.106 21222.4 0
21222.4 231.984 0
0    0    0

127.547 21760 0
21760 173.036 0
0    0    0

182.429 20906 0
20906 -40.1159 0
0    0    0

-195.644 21511 0
21511 -323.733 0
0    0    0

-187.134 23968.1 0
23968.1 -230.76 0
0    0    0

184.462 23048.9 0
23048.9 24.9282 0
0    0    0

187.335 21213.4 0
21213.4 156.286 0
0    0    0

-269.492 22268.5 0
22268.5 38.9129 0
0    0    0

-40.6845 22012.7 0
22012.7 141.596 0
0    0    0

-202.254 22742.9 0
22742.9 -237.466 0
0    0    0

121.249 22341.3 0
22341.3 86.6501 0
0    0    0

171.759 23363.9 0
23363.9 300.115 0
0    0    0

-91.0337 22613.8 0
22613.8 -26.6542 0
0    0    0

128.53 23258.7 0
23258.7 260.322 0
0    0    0

307.883 22513.3 0
22513.3 107.285 0
0    0    0

97.6939 22735.9 0
22735.9 16.0167 0
0    0    0

-104.316 22662.4 0
22662.4 -47.9913 0
0    0    0

-151.928 23004.8 0
23004.8 -130.385 0
0    0    0

197.731 23341.7 0
23341.7 281.081 0
0    0    0

-214.27 24334.4 0
24334.4 -200.678 0
0    0    0

-76.1381 24899.6 0
24899.6 -16.696 0
0    0    0

-55.7787 24733.7 0
24733.7 168.323 0
0    0    0

-57.7941 24979.7 0
24979.7 -158.436 0
0    0    0

-20.1482 24303.2 0
24303.2 160.581 0
0    0    0

-18.5269 26186 0
26186 44.5031 0
0    0    0

-251.904 26446 0
26446 -254.877 0
0    0    0

-68.5533 26423.1 0
26423.1 175.885 0
0    0    0

-52.0344 25557.7 0
25557.7 61.0393 0
0    0    0

290.55 23811.6 0
23811.6 410.143 0
0    0    0

19.3926 24297.5 0
24297.5 50.8729 0
0    0    0

272.766 25432.1 0
25432.1 368.946 0
0    0    0

-25.8822 24964.1 0
24964.1 295.13 0
0    0    0

-87.5766 25461.4 0
25461.4 42.4073 0
0    0    0

161.979 25466 0
25466 284.908 0
0    0    0

-291.055 25730.3 0
25730.3 -275.03 0
0    0    0

249.799 25243.1 0
25243.1 24.9566 0
0    0    0

-29.2799 24616.9 0
24616.9 -213.467 0
0    0    0

-75.4941 24792.6 0
24792.6 -91.4578 0
0    0    0

355.328 24791.9 0
24791.9 46.8471 0
0    0    0

98.7151 23716.3 0
23716.3 422.409 0
0    0    0

170.582 24232.5 0
24232.5 235.379 0
0    0    0

-77.6896 23905.2 0
23905.2 -211.227 0
0    0    0

-84.518 23426.3 0
23426.3 168.84 0
0    0    0

-207.508 24138.7 0
24138.7 -210.466 0
0    0    0

62.5226 24234.9 0
24234.9 -80.248 0
0    0    0

97.9081 23399.5 0
23399.5 326.415 0
0    0    0

-331.065 24604 0
24604 -136.874 0
0    0    0

-228.035 23807 0
23807 -407.066 0
0    0    0

-182.476 23558.4 0
23558.4 -397.246 0
0    0    0

142.401 22827.2 0
22827.2 307.186 0
0    0    0

156.09 23377.8 0
23377.8 488.559 0
0    0    0

-31.7418 22580.7 0
22580.7 -308.544 0
0    0    0

-189.909 23180.7 0
23180.7 -291.248 0
0    0    0

-158.356 23016.5 0
23016.5 -346.775 0
0    0    0

-141.945 24284.6 0
24284.6 -163.377 0
0    0    0

-58.1275 23587.3 0
23587.3 -365.856 0
0    0    0

69.5707 26993 0
26993 -130.675 0
0    0    0

164.294 24477.2 0
24477.2 261.372 0
0    0    0

-191.306 22658.6 0
22658.6 -200.711 0
0    0    0

137.999 22088.1 0
22088.1 -9.4116 0
0    0    0

210.669 23472.9 0
23472.9 194.36 0
0    0    0

-109.722 22630.7 0
22630.7 94.3977 0
0    0    0

-53.7302 22528.8 0
22528.8 -27.8955 0
0    0    0

201.307 22427 0
22427 105.414 0
0    0    0

-84.1304 23594.6 0
23594.6 40.6965 0
0    0    0

-56.9978 22845.2 0
22845.2 90.059 0
0    0    0

-47.1265 21975.4 0
21975.4 -336.828 0
0    0    0

175.173 21632.4 0
21632.4 254.228 0
0    0    0

73.9417 23026.7 0
23026.7 288.177 0
0    0    0

-65.5472 22213.4 0
22213.4 152.605 0
0    0    0

54.731 23176.8 0
23176.8 -120.181 0
0    0    0

81.0036 23706.6 0
23706.6 222.244 0
0    0    0

384.046 24070.7 0
24070.7 214.332 0
0    0    0

-232.355 23280.1 0
23280.1 -384.491 0
0    0    0

-315.323 21338.8 0
21338.8 -203.509 0
0    0    0

142.495 20784.8 0
20784.8 187.093 0
0    0    0

-167.757 24764.1 0
24764.1 -180.84 0
0    0    0

-145.85 25115.5 0
25115.5 172.185 0
0    0    0

-17.0863 23948.1 0
23948.1 35.9782 0
0    0    0

-211.771 24399.4 0
24399.4 -260.832 0
0    0    0

9.04655 21639.8 0
21639.8 290.239 0
0    0    0

-195.477 21434.2 0
21434.2 -189.391 0
0    0    0

-106.899 25374.1 0
25374.1 21.5808 0
0    0    0

-112.478 27521.8 0
27521.8 -5.9839 0
0    0    0

215.067 25746.4 0
25746.4 449.155 0
0    0    0

207.585 28018.5 0
28018.5 -66.6188 0
0    0    0

-178.097 24316.3 0
24316.3 -423.652 0
0    0    0

-231.232 23678.6 0
23678.6 -362.342 0
0    0    0

81.238 22983.7 0
22983.7 40.5073 0
0    0    0

8.19919 21074.2 0
21074.2 -283.704 0
0    0    0

-48.6207 23572.1 0
23572.1 23.4009 0
0    0    0

-184.85 21915.4 0
21915.4 -351.414 0
0    0    0

143.974 24883.3 0
24883.3 32.0776 0
0    0    0

-65.1808 24452.2 0
24452.2 -266.1 0
0    0    0

144.141 22141.8 0
22141.8 377.584 0
0    0    0

23.7203 21821.1 0
21821.1 -5.27964 0
0    0    0

309.274 21179.3 0
21179.3 218.017 0
0    0    0

-213.428 20963.6 0
20963.6 -129.452 0
0    0    0

165.61 26519.2 0
26519.2 -53.0482 0
0    0    0

-147.087 26497.7 0
26497.7 -276.942 0
0    0    0

-283.981 23903.8 0
23903.8 -183.303 0
0    0    0

-100.694 24803.4 0
24803.4 58.6948 0
0    0    0

-285.629 24235.2 0
24235.2 -331.342 0
0    0    0

-63.1028 24520.1 0
24520.1 105.309 0
0    0    0

49.235 24852.9 0
24852.9 46.9341 0
0    0    0

-53.9244 25485.8 0
25485.8 -16.7333 0
0    0    0

-198.404 24425.3 0
24425.3 -280.12 0
0    0    0

-232.15 25112.6 0
25112.6 -205.108 0
0    0    0

103.777 24976.2 0
24976.2 -23.3512 0
0    0    0

-198.905 25930.7 0
25930.7 -129.915 0
0    0    0

-126.606 24902.8 0
24902.8 -108.188 0
0    0    0

32.6166 25237.2 0
25237.2 -292.117 0
0    0    0

148.443 24653.2 0
24653.2 354.673 0
0    0    0

240.092 25360.4 0
25360.4 256.754 0
0    0    0

111.658 21580.4 0
21580.4 299.658 0
0    0    0

-109.098 20984.7 0
20984.7 -138.306 0
0    0    0

-246.099 19312.5 0
19312.5 -272.695 0
0    0    0

-116.493 20372.1 0
20372.1 -281.345 0
0    0    0

-234.372 22174.9 0
22174.9 -23.3437 0
0    0    0

-201.168 21293.5 0
21293.5 -338.098 0
0    0    0

284.112 21063.8 0
21063.8 256.904 0
0    0    0

-186.55 21607.7 0
21607.7 -73.1122 0
0    0    0

-274.176 20849.6 0
20849.6 -260.631 0
0    0    0

169.82 20531 0
20531 244.31 0
0    0    0

-45.0272 20654.6 0
20654.6 280.483 0
0    0    0

102.148 20475.4 0
20475.4 302.452 0
0    0    0

-113.58 20009 0
20009 -85.3773 0
0    0    0

125.567 20799.7 0
20799.7 128.939 0
0    0    0

-123.809 20159.6 0
20159.6 -371.451 0
0    0    0

211.939 19897.9 0
19897.9 301.459 0
0    0    0

-33.4578 20072.9 0
20072.9 96.2656 0
0    0    0

55.7008 18250.2 0
18250.2 236.625 0
0    0    0

69.4385 20405 0
20405 -127.947 0
0    0    0

238.951 19851.3 0
19851.3 226.999 0
0    0    0

117.831 19136.8 0
19136.8 231.336 0
0    0    0

-144.884 19645.9 0
19645.9 -369.682 0
0    0    0

-117.309 26207.5 0
26207.5 -366.293 0
0    0    0

-220.492 26944.2 0
26944.2 -398.424 0
0    0    0

50.1049 27301.7 0
27301.7 253.918 0
0    0    0

20.2468 27067.8 0
27067.8 85.4326 0
0    0    0

292.269 23764.7 0
23764.7 -63.7693 0
0    0    0

-14.3005 24296.5 0
24296.5 -148.853 0
0    0    0

245.133 23897.8 0
23897.8 256.438 0
0    0    0

-8.92914 24672.6 0
24672.6 -187.891 0
0    0    0

258.227 24067.7 0
24067.7 253.85 0
0    0    0

20.756 24404.3 0
24404.3 215.298 0
0    0    0

-112.868 25168.5 0
25168.5 39.7662 0
0    0    0

52.3113 24485.2 0
24485.2 -163.493 0
0    0    0

52.5586 25096.1 0
25096.1 22.834 0
0    0    0

-54.5721 25093.6 0
25093.6 98.3241 0
0    0    0

-185.849 25601.1 0
25601.1 -127.176 0
0    0    0

-147.196 24771.1 0
24771.1 113.479 0
0    0    0

52.9461 25994.7 0
25994.7 -123.914 0
0    0    0

209.029 26341.8 0
26341.8 -150.787 0
0    0    0

141.906 26105.4 0
26105.4 131.932 0
0    0    0

-50.8547 26424.5 0
26424.5 -90.6675 0
0    0    0

-129.166 18946.5 0
18946.5 -93.3188 0
0    0    0

-195.374 18570.5 0
18570.5 -263.176 0
0    0    0

-2.92943 20616.8 0
20616.8 -333.014 0
0    0    0

-38.9117 20209.8 0
20209.8 141.865 0
0    0    0

-140.353 18978.4 0
18978.4 206.696 0
0    0    0

-48.5892 18575.3 0
18575.3 -304.017 0
0    0    0

-101.73 18618.5 0
18618.5 -247.342 0
0    0    0

32.7622 19025.2 0
19025.2 218.134 0
0    0    0

39.4919 18443.8 0
18443.8 -242.961 0
0    0    0

-238.724 19053.9 0
19053.9 -173.315 0
0    0    0

-256.553 25764.3 0
25764.3 78.5343 0
0    0    0

205.416 26184 0
26184 42.1094 0
0    0    0

-128.01 27393.5 0
27393.5 -318.96 0
0    0    0

-154.986 26432.7 0
26432.7 -371.776 0
0    0    0

-58.6189 25657.3 0
25657.3 -488.665 0
0    0    0

64.0637 26180.8 0
26180.8 309.511 0
0    0    0

-147.923 19674.7 0
19674.7 -321.623 0
0    0    0

-172.427 19902.2 0
19902.2 -232.953 0
0    0    0

-22.3573 20700.9 0
20700.9 191.547 0
0    0    0

163.07 20968.4 0
20968.4 345.286 0
0    0    0

107.449 20150.3 0
20150.3 -49.4648 0
0    0    0

160.791 20043.9 0
20043.9 -255.489 0
0    0    0

-93.3738 21198.5 0
21198.5 -232.241 0
0    0    0

-264.765 21886.9 0
21886.9 -310.988 0
0    0    0

-127.659 21230.6 0
21230.6 -71.2596 0
0    0    0

139.077 21641.3 0
21641.3 351.127 0
0    0    0

49.6671 25205.5 0
25205.5 -160.269 0
0    0    0

70.6301 25891.7 0
25891.7 290.772 0
0    0    0

-42.1674 25357.6 0
25357.6 -159.597 0
0    0    0

-221.535 25654.6 0
25654.6 -163.126 0
0    0    0

70.1648 20884.6 0
20884.6 242.072 0
0    0    0

-111.96 21604.1 0
21604.1 -94.4754 0
0    0    0

-127.273 22290.2 0
22290.2 -454.932 0
0    0    0

4.52041 22348.6 0
22348.6 138.861 0
0    0    0

166.997 20808.8 0
20808.8 153.638 0
0    0    0

164.38 21996.2 0
21996.2 257.798 0
0    0    0

152.51 22644.9 0
22644.9 317.041 0
0    0    0

-3.40041 22338.6 0
22338.6 -62.9912 0
0    0    0

84.2931 21544.1 0
21544.1 227.723 0
0    0    0

110.715 22126.9 0
22126.9 489.059 0
0    0    0

-0.0538629 21898 0
21898 -284.044 0
0    0    0

155.662 21693 0
21693 22.0709 0
0    0    0

227.241 21349 0
21349 125.434 0
0    0    0

-203.349 21504.8 0
21504.8 -91.6395 0
0    0    0

254.546 21235.3 0
21235.3 385.827 0
0    0    0

316.067 22583.8 0
22583.8 -53.5536 0
0    0    0

-245.114 20558.5 0
20558.5 -197.142 0
0    0    0

187.844 19356 0
19356 325.677 0
0    0    0

-155.344 21741.8 0
21741.8 -382.856 0
0    0    0

-150.996 21250.6 0
21250.6 55.7348 0
0    0    0

113.9 20508.4 0
20508.4 289.213 0
0    0    0

151.738 21510.7 0
21510.7 336.577 0
0    0    0

-220.504 22518.9 0
22518.9 -369.887 0
0    0    0

112.555 22096.7 0
22096.7 127.144 0
0    0    0

-133.981 21732.8 0
21732.8 -330.897 0
0    0    0

74.9816 22248.1 0
22248.1 439.64 0
0    0    0

49.5403 22137.5 0
22137.5 142.936 0
0    0    0

25.5652 21644.4 0
21644.4 -140.1 0
0    0    0

-349.103 22356.7 0
22356.7 -195.708 0
0    0    0

128.449 21529.2 0
21529.2 150.994 0
0    0    0

209.578 21226.1 0
21226.1 266.949 0
0    0    0

233.412 21835.8 0
21835.8 174.694 0
0    0    0

214.166 20206.1 0
20206.1 250.979 0
0    0    0

97.1985 20968.2 0
20968.2 196.453 0
0    0    0

-55.7489 22237.3 0
22237.3 92.5277 0
0    0    0

157.41 22248.4 0
22248.4 251.969 0
0    0    0

-221.829 21426.8 0
21426.8 78.473 0
0    0    0

57.4038 20767.5 0
20767.5 192.305 0
0    0    0

92.0751 20988.5 0
20988.5 -30.6476 0
0    0    0

-15.8917 20995.3 0
20995.3 -230.847 0
0    0    0

148.764 24509.1 0
24509.1 184.468 0
0    0    0

46.8324 24970.1 0
24970.1 -62.973 0
0    0    0

164.277 23450.9 0
23450.9 14.0431 0
0    0    0

191.524 24493.6 0
24493.6 187.976 0
0    0    0

-242.058 23507.3 0
23507.3 -265.936 0
0    0    0

-56.4728 23512.9 0
23512.9 -197.496 0
0    0    0

98.796 23549.2 0
23549.2 182.303 0
0    0    0

-20.1299 24015.2 0
24015.2 -169.975 0
0    0    0

-92.5121 31934.8 0
31934.8 -327.855 0
0    0    0

-87.7978 30948.9 0
30948.9 51.1667 0
0    0    0

34.7463 30506.9 0
30506.9 234.625 0
0    0    0

185.563 31223.5 0
31223.5 -144.47 0
0    0    0

-27.8263 31654.3 0
31654.3 7.49561 0
0    0    0

-122.351 31851.1 0
31851.1 -374.439 0
0    0    0

-279.529 28320.3 0
28320.3 -343.99 0
0    0    0

115.929 28783.9 0
28783.9 147.745 0
0    0    0

-24.7807 27119.7 0
27119.7 -160.724 0
0    0    0

-266.352 26468.6 0
26468.6 -334.221 0
0    0    0

82.3128 26585.7 0
26585.7 -84.1257 0
0    0    0

64.12 24721.4 0
24721.4 -93.7038 0
0    0    0

-165.98 25356.5 0
25356.5 -211.777 0
0    0    0

-25.6813 26878.2 0
26878.2 -329.407 0
0    0    0

158.904 25650.6 0
25650.6 -186.132 0
0    0    0

87.2288 26367.7 0
26367.7 390.049 0
0    0    0

-0.837878 25860.2 0
25860.2 89.5183 0
0    0    0

148.7 24959.9 0
24959.9 130.628 0
0    0    0

40.3629 56081 0
56081 -124.967 0
0    0    0

-204.637 55487.5 0
55487.5 -287.07 0
0    0    0

338.697 56232.6 0
56232.6 496.228 0
0    0    0

136.673 55970.9 0
55970.9 306.883 0
0    0    0

-44.8646 57252 0
57252 59.6296 0
0    0    0

-185.296 56570.1 0
56570.1 -421.129 0
0    0    0

-153.331 58147.6 0
58147.6 40.1762 0
0    0    0

-205.925 57349 0
57349 78.4099 0
0    0    0

383.638 56807.8 0
56807.8 171.923 0
0    0    0

27.3551 57274.8 0
57274.8 42.5908 0
0    0    0

-64.2843 59815.9 0
59815.9 191.894 0
0    0    0

-171.509 59151.6 0
59151.6 -143.78 0
0    0    0

-209.575 56951.1 0
56951.1 -42.4429 0
0    0    0

127.687 57157.4 0
57157.4 75.518 0
0    0    0

315.675 56452.3 0
56452.3 365.522 0
0    0    0

-274.935 56691.9 0
56691.9 -105.745 0
0    0    0

-156.573 57607.1 0
57607.1 75.7927 0
0    0    0

163.269 57793.6 0
57793.6 -35.7478 0
0    0    0

129.255 56815 0
56815 90.3843 0
0    0    0

-80.6999 57247.1 0
57247.1 -80.3715 0
0    0    0

113.457 57557.3 0
57557.3 -227.211 0
0    0    0

-0.648015 57914.8 0
57914.8 145.172 0
0    0    0

173.735 58294 0
58294 74.0519 0
0    0    0

-144.017 58892.3 0
58892.3 -221.669 0
0    0    0

117.484 58881.4 0
58881.4 117.27 0
0    0    0

174.332 58631.3 0
58631.3 218.835 0
0    0    0

-29.0971 59458 0
59458 -84.287 0
0    0    0

-147.081 60740.5 0
60740.5 -43.1151 0
0    0    0

-17.1796 60160.3 0
60160.3 -162.697 0
0    0    0

107.834 59502.8 0
59502.8 -79.3481 0
0    0    0

38.4567 58213.7 0
58213.7 -234.394 0
0    0    0

31.5151 58435.7 0
58435.7 275.928 0
0    0    0

-182.792 61394.1 0
61394.1 -435.612 0
0    0    0

-50.8907 59210.7 0
59210.7 -89.3372 0
0    0    0

2.32113 57916.2 0
57916.2 -30.074 0
0    0    0

-23.2118 57965.5 0
57965.5 -62.1704 0
0    0    0

-57.5319 59962.4 0
59962.4 107.644 0
0    0    0

-108.237 60269.3 0
60269.3 -328.996 0
0    0    0

-118.805 60628.4 0
60628.4 -86.3984 0
0    0    0

198.588 59617.4 0
59617.4 246.7 0
0    0    0

-126.831 59934.6 0
59934.6 -40.2417 0
0    0    0

-23.6341 59482.2 0
59482.2 103.238 0
0    0    0

-6.58925 59744.8 0
59744.8 -274.008 0
0    0    0

-95.7615 59625.9 0
59625.9 -376.72 0
0    0    0

44.5104 57635.9 0
57635.9 -162.133 0
0    0    0

286.983 58323.4 0
58323.4 3.36738 0
0    0    0

189.838 58069 0
58069 380.619 0
0    0    0

-327.847 58041.9 0
58041.9 -1.45934 0
0    0    0

-278.219 48998.4 0
48998.4 18.3703 0
0    0    0

2.26226 48916.4 0
48916.4 417.688 0
0    0    0

163.894 56082.5 0
56082.5 288.024 0
0    0    0

-314.355 56329.4 0
56329.4 -95.5662 0
0    0    0

-165.154 55137.2 0
55137.2 -230.396 0
0    0    0

231.64 55492.9 0
55492.9 96.2546 0
0    0    0

-376.422 55631.4 0
55631.4 -392.627 0
0    0    0

44.5336 54908 0
54908 -325.615 0
0    0    0

-149.33 54629.2 0
54629.2 -126.243 0
0    0    0

8.08098 55074 0
55074 -122.432 0
0    0    0

-102.703 53696.6 0
53696.6 87.3409 0
0    0    0

-242.034 53987.5 0
53987.5 -2.79719 0
0    0    0

78.6678 54513.1 0
54513.1 90.7924 0
0    0    0

-166.571 54183 0
54183 70.3061 0
0    0    0

235.363 54309.3 0
54309.3 407.719 0
0    0    0

-153.105 53947.4 0
53947.4 -321.097 0
0    0    0

74.83 54064.3 0
54064.3 -79.6983 0
0    0    0

-92.4608 52766.2 0
52766.2 195.26 0
0    0    0

258.841 54828.2 0
54828.2 -40.1455 0
0    0    0

161.255 53016.2 0
53016.2 125.333 0
0    0    0

62.832 54733.9 0
54733.9 245.648 0
0    0    0

111.489 53446.7 0
53446.7 250.131 0
0    0    0

106.492 60569 0
60569 -98.7058 0
0    0    0

136.687 59861.8 0
59861.8 15.9241 0
0    0    0

171.863 60568.3 0
60568.3 206.688 0
0    0    0

82.6779 59914.1 0
59914.1 -198.433 0
0    0    0

254.785 56888.2 0
56888.2 211.781 0
0    0    0

6.31874 56385.9 0
56385.9 -62.6794 0
0    0    0

-245.783 57718.2 0
57718.2 -227.223 0
0    0    0

87.8847 56491 0
56491 -84.4992 0
0    0    0

-256.128 57153 0
57153 -169.692 0
0    0    0

174.994 56770.9 0
56770.9 34.0816 0
0    0    0

119.856 58707.1 0
58707.1 87.7363 0
0    0    0

248.238 57615.2 0
57615.2 278.272 0
0    0    0

-234.877 56994.1 0
56994.1 -113.126 0
0    0    0

-104.237 56210.6 0
56210.6 69.8844 0
0    0    0

-140.458 57434.8 0
57434.8 -269.706 0
0    0    0

132.86 55921.8 0
55921.8 220.25 0
0    0    0

93.7609 55825.4 0
55825.4 -46.0524 0
0    0    0

76.0802 55864.1 0
55864.1 66.0666 0
0    0    0

291.688 57259.4 0
57259.4 22.0784 0
0    0    0

27.7297 57235.5 0
57235.5 191.011 0
0    0    0

-153.211 58827.7 0
58827.7 -297.163 0
0    0    0

137.458 58865 0
58865 370.66 0
0    0    0

232.496 54727.9 0
54727.9 355.35 0
0    0    0

-76.363 54945.3 0
54945.3 114.149 0
0    0    0

-176.61 54623.3 0
54623.3 -102.555 0
0    0    0

102.253 55162.6 0
55162.6 38.7928 0
0    0    0

-186.634 55675.8 0
55675.8 23.1624 0
0    0    0

-123.344 55015.4 0
55015.4 -291.601 0
0    0    0

230.132 56448 0
56448 114.479 0
0    0    0

-33.8164 56232.6 0
56232.6 -72.6374 0
0    0    0

189.176 57171.5 0
57171.5 346.247 0
0    0    0

-118.461 57724.5 0
57724.5 -189.307 0
0    0    0

-158.74 57555.7 0
57555.7 -359.814 0
0    0    0

131.585 58266 0
58266 100.374 0
0    0    0

-27.6607 56040.6 0
56040.6 -124.972 0
0    0    0

217.529 55208.3 0
55208.3 296.824 0
0    0    0

125.358 54884.7 0
54884.7 124.027 0
0    0    0

-52.8948 54093.2 0
54093.2 -2.4577 0
0    0    0

-195.374 55504.8 0
55504.8 -353.835 0
0    0    0

-183.595 54511.8 0
54511.8 -247.388 0
0    0    0

-13.0589 56436.1 0
56436.1 194.226 0
0    0    0

-114.005 55061.5 0
55061.5 266.332 0
0    0    0

19.6185 55746.2 0
55746.2 256.9 0
0    0    0

38.9862 55489.8 0
55489.8 -293.653 0
0    0    0

-86.4465 54099.2 0
54099.2 -312.572 0
0    0    0

-21.6975 53615 0
53615 117.147 0
0    0    0

-100.835 55265 0
55265 -168.606 0
0    0    0

-84.9471 55456.8 0
55456.8 163.706 0
0    0    0

-165.842 56279.3 0
56279.3 -370.398 0
0    0    0

-29.589 56013.9 0
56013.9 166.61 0
0    0    0

-15.1687 56755.1 0
56755.1 -182.448 0
0    0    0

-222.406 56889.4 0
56889.4 -349.602 0
0    0    0

-150.538 52772.6 0
52772.6 -8.11366 0
0    0    0

210.225 53779.5 0
53779.5 138.473 0
0    0    0

-84.6558 51433.4 0
51433.4 -312.494 0
0    0    0

268.448 52922.4 0
52922.4 169.295 0
0    0    0

-199.705 53171.9 0
53171.9 -218.254 0
0    0    0

-316.869 53298.4 0
53298.4 -277.101 0
0    0    0

51.6533 52705.2 0
52705.2 -19.1547 0
0    0    0

83.793 53810.7 0
53810.7 -237.125 0
0    0    0

20.9705 54402.9 0
54402.9 -147.62 0
0    0    0

-208.587 54018.4 0
54018.4 -246.309 0
0    0    0

109.909 53473.2 0
53473.2 -130.438 0
0    0    0

178.415 51710 0
51710 288.353 0
0    0    0

27.0879 53149.7 0
53149.7 58.6929 0
0    0    0

294.33 53665 0
53665 415.94 0
0    0    0

-177.285 52448.6 0
52448.6 72.5863 0
0    0    0

-74.1528 53555.5 0
53555.5 28.5436 0
0    0    0

68.757 51775.5 0
51775.5 234.644 0
0    0    0

118.758 50874.6 0
50874.6 -93.7644 0
0    0    0

-4.0942 51790.6 0
51790.6 46.1749 0
0    0    0

-244.852 52231.8 0
52231.8 -315.181 0
0    0    0

199.447 52323.8 0
52323.8 79.7574 0
0    0    0

3.17875 52830.5 0
52830.5 -78.7547 0
0    0    0

61.3671 52063.5 0
52063.5 -137.458 0
0    0    0

-246.06 52167.1 0
52167.1 -265.452 0
0    0    0

-69.6591 51824 0
51824 -27.3939 0
0    0    0

171.764 51879.8 0
51879.8 250.149 0
0    0    0

404.752 52401.4 0
52401.4 123.952 0
0    0    0

58.894 51312.9 0
51312.9 213.124 0
0    0    0

182.341 51815.6 0
51815.6 403.482 0
0    0    0

298.917 52440.4 0
52440.4 188.018 0
0    0    0

-223.412 53441.5 0
53441.5 -109.076 0
0    0    0

208.084 53311.8 0
53311.8 -81.1428 0
0    0    0

-199.962 51066.8 0
51066.8 -159.277 0
0    0    0

-132.341 51529.2 0
51529.2 -323.187 0
0    0    0

-229.959 53025 0
53025 -327.838 0
0    0    0

60.7391 51820.4 0
51820.4 182.542 0
0    0    0

-251.727 52163.5 0
52163.5 -177.507 0
0    0    0

127.456 51480.7 0
51480.7 96.8938 0
0    0    0

-268.234 52519.6 0
52519.6 2.69216 0
0    0    0

-194.921 51863.4 0
51863.4 -98.8976 0
0    0    0

30.1188 61012.8 0
61012.8 -75.0496 0
0    0    0

2.20533 60626 0
60626 97.8158 0
0    0    0

158.93 61213.9 0
61213.9 404.683 0
0    0    0

-182.514 61435.1 0
61435.1 -295.763 0
0    0    0

38.1393 60315.4 0
60315.4 264.472 0
0    0    0

-131.799 62684.6 0
62684.6 -281.554 0
0    0    0

100.369 61968.7 0
61968.7 -242.992 0
0    0    0

-142.456 61313.9 0
61313.9 -239.03 0
0    0    0

-192.202 61193.7 0
61193.7 -104.808 0
0    0    0

-23.0264 61772.7 0
61772.7 107.169 0
0    0    0

60.3398 62416 0
62416 183.215 0
0    0    0

187.176 62198.9 0
62198.9 232.22 0
0    0    0

120.005 61716.6 0
61716.6 -100.132 0
0    0    0

275.396 63358.9 0
63358.9 -63.3425 0
0    0    0

-102.554 62086.3 0
62086.3 -42.1138 0
0    0    0

193.788 62163.5 0
62163.5 275.647 0
0    0    0

-218.76 62394.1 0
62394.1 -263.448 0
0    0    0

-183.078 62655.7 0
62655.7 -331.081 0
0    0    0

-260.312 61979.2 0
61979.2 -131.741 0
0    0    0

299.295 61966.7 0
61966.7 324.675 0
0    0    0

299.45 61738.2 0
61738.2 156.929 0
0    0    0

-90.3155 62515.4 0
62515.4 -248.427 0
0    0    0

-61.6726 62690.3 0
62690.3 120.833 0
0    0    0

138.986 63073.7 0
63073.7 -130.584 0
0    0    0

257.771 62841.5 0
62841.5 143.301 0
0    0    0

-98.1982 61528.6 0
61528.6 -81.2028 0
0    0    0

131.236 62860 0
62860 -125.324 0
0    0    0

146.833 63831.9 0
63831.9 137.476 0
0    0    0

-227.398 63760.9 0
63760.9 -47.0825 0
0    0    0

204.942 62565.1 0
62565.1 142.504 0
0    0    0

-279.651 59905.3 0
59905.3 92.7851 0
0    0    0

99.6887 61898.7 0
61898.7 146.028 0
0    0    0

-267.662 63120.2 0
63120.2 -45.2496 0
0    0    0

-214.053 63587.1 0
63587.1 -230.639 0
0    0    0

-136.275 63006.6 0
63006.6 -34.2097 0
0    0    0

-43.2165 63269.6 0
63269.6 -178.002 0
0    0    0

-78.6159 62818.9 0
62818.9 -160.142 0
0    0    0

342.083 62319.1 0
62319.1 409.995 0
0    0    0

-105.55 63426.5 0
63426.5 -71.1908 0
0    0    0

-181.973 64185.6 0
64185.6 -348.957 0
0    0    0

-42.7442 63766.2 0
63766.2 -41.3189 0
0    0    0

110.305 63631.6 0
63631.6 -206.481 0
0    0    0

13.4232 61272.1 0
61272.1 133.09 0
0    0    0

-133.975 61237.4 0
61237.4 -84.9585 0
0    0    0

-53.3558 62649.3 0
62649.3 -129.553 0
0    0    0

192.7 62932.2 0
62932.2 300.82 0
0    0    0

-114.106 62686.6 0
62686.6 -239.389 0
0    0    0

-153.778 63193.2 0
63193.2 -266.777 0
0    0    0

-143.077 62582.5 0
62582.5 -194.631 0
0    0    0

92.4196 61799.4 0
61799.4 108.483 0
0    0    0

422.506 61001.7 0
61001.7 216.765 0
0    0    0

10.4725 60767.2 0
60767.2 99.4957 0
0    0    0

-88.6211 60922.7 0
60922.7 -65.594 0
0    0    0

-387.794 61291 0
61291 -221.578 0
0    0    0

260.154 61449 0
61449 20.3009 0
0    0    0

35.6432 61321.8 0
61321.8 146.954 0
0    0    0

130.107 62167.8 0
62167.8 65.4368 0
0    0    0

271.43 61026.7 0
61026.7 -126.637 0
0    0    0

31.2178 61119.7 0
61119.7 -43.2587 0
0    0    0

-140.415 60285 0
60285 -34.3489 0
0    0    0

-334.427 63543.1 0
63543.1 -336.51 0
0    0    0

235.515 60631.2 0
60631.2 149.896 0
0    0    0

-67.6843 61669.2 0
61669.2 -120.243 0
0    0    0

-215.626 60635.5 0
60635.5 -116.749 0
0    0    0

180.338 59845.7 0
59845.7 160.499 0
0    0    0

-253.312 60616.9 0
60616.9 -76.3372 0
0    0    0

-215.725 59704.9 0
59704.9 -167.475 0
0    0    0

-282.266 60149.2 0
60149.2 -148.329 0
0    0    0

230.707 59376.3 0
59376.3 -31.1541 0
0    0    0

-97.925 60207.1 0
60207.1 -30.9355 0
0    0    0

78.0496 60280.4 0
60280.4 -99.7124 0
0    0    0

265.224 60164.5 0
60164.5 54.6835 0
0    0    0

-207.313 60401.6 0
60401.6 -78.0422 0
0    0    0

-218.615 59267 0
59267 -240.762 0
0    0    0

108.836 60580.2 0
60580.2 120.492 0
0    0    0

167.306 59798.9 0
59798.9 156.272 0
0    0    0

5.95166 59724.9 0
59724.9 132.277 0
0    0    0

128.26 60045.2 0
60045.2 10.7059 0
0    0    0

-102.478 62271.5 0
62271.5 -65.178 0
0    0    0

24.3146 62319.8 0
62319.8 -2.74124 0
0    0    0

-278.657 62184.8 0
62184.8 -128.462 0
0    0    0

116.997 61846.3 0
61846.3 78.1822 0
0    0    0

-154.928 61050.9 0
61050.9 -363.531 0
0    0    0

378.194 60338.6 0
60338.6 275.212 0
0    0    0

-125.609 60187.3 0
60187.3 35.8502 0
0    0    0

193.191 60778.7 0
60778.7 84.2926 0
0    0    0

121.088 61378.2 0
61378.2 -65.2569 0
0    0    0

-142.141 61745.1 0
61745.1 -276.042 0
0    0    0

148.255 62718.7 0
62718.7 220.133 0
0    0    0

28.8052 63025.5 0
63025.5 -236.43 0
0    0    0

-94.7564 61883.8 0
61883.8 211.545 0
0    0    0

118.382 62330 0
62330 213.374 0
0    0    0

288.858 62860.9 0
62860.9 277.018 0
0    0    0

-4.25233 63496.4 0
63496.4 95.1577 0
0    0    0

114.998 61477.2 0
61477.2 235.705 0
0    0    0

-249.117 61721.5 0
61721.5 5.93651 0
0    0    0

3.08367 63364.8 0
63364.8 129.837 0
0    0    0

-88.2811 64111.2 0
64111.2 56.7962 0
0    0    0

164.295 63421.5 0
63421.5 -58.2464 0
0    0    0

2.78013 61917.4 0
61917.4 108.57 0
0    0    0

-31.8536 62822.7 0
62822.7 52.7785 0
0    0    0

148.792 62675.5 0
62675.5 339.059 0
0    0    0

264.222 63323.3 0
63323.3 230.984 0
0    0    0

212.508 64032.9 0
64032.9 188.208 0
0    0    0

-244.857 63115.7 0
63115.7 -286.241 0
0    0    0

66.1078 63530.4 0
63530.4 215.903 0
0    0    0

-166.744 63798.5 0
63798.5 -166.47 0
0    0    0

-230.231 63193.3 0
63193.3 -357.099 0
0    0    0

162.734 59294.2 0
59294.2 13.0478 0
0    0    0

64.5573 59566.6 0
59566.6 237.22 0
0    0    0

-158.505 58838.2 0
58838.2 -171.759 0
0    0    0

195.501 59441.8 0
59441.8 248.562 0
0    0    0

196.255 56359.7 0
56359.7 102.709 0
0    0    0

103.216 55972 0
55972 -72.9367 0
0    0    0

177.944 46590.2 0
46590.2 338.187 0
0    0    0

182.014 46195.5 0
46195.5 154.858 0
0    0    0

-147.959 47346.7 0
47346.7 -320.627 0
0    0    0

-79.6042 49114.2 0
49114.2 -346.157 0
0    0    0

-104.766 45802.6 0
45802.6 -41.7355 0
0    0    0

-114.238 47041.5 0
47041.5 28.7692 0
0    0    0

161.252 45966.5 0
45966.5 16.8495 0
0    0    0

122.777 44157.3 0
44157.3 71.7875 0
0    0    0

148.002 46573.9 0
46573.9 46.9919 0
0    0    0

-5.10113 45707.6 0
45707.6 -138.985 0
0    0    0

47.0142 45488.5 0
45488.5 -68.2089 0
0    0    0

-78.6349 44724.5 0
44724.5 183.916 0
0    0    0

-82.0495 45590.9 0
45590.9 216.332 0
0    0    0

-39.0264 44887.5 0
44887.5 -309.089 0
0    0    0

115.17 44281.2 0
44281.2 -71.0202 0
0    0    0

195.939 44085.1 0
44085.1 277.047 0
0    0    0

233.311 44419 0
44419 315.05 0
0    0    0

-261.007 44648.7 0
44648.7 -360.636 0
0    0    0

134.529 43566.1 0
43566.1 -78.7943 0
0    0    0

104.536 43390.1 0
43390.1 141.111 0
0    0    0

117.907 43780.7 0
43780.7 26.0406 0
0    0    0

60.8988 43040.1 0
43040.1 -129.687 0
0    0    0

-58.5913 42958.7 0
42958.7 -137.823 0
0    0    0

111.858 43035.2 0
43035.2 163.225 0
0    0    0

-230.749 44258.3 0
44258.3 103.949 0
0    0    0

-87.6902 43336.2 0
43336.2 -51.6079 0
0    0    0

-193.616 43381.8 0
43381.8 -104.047 0
0    0    0

-108.413 42714.9 0
42714.9 -209.016 0
0    0    0

-65.6907 44185.2 0
44185.2 -441.907 0
0    0    0

-25.6739 44623.6 0
44623.6 -53.1334 0
0    0    0

-69.0428 44920.6 0
44920.6 145.349 0
0    0    0

-193.564 45154.4 0
45154.4 -306.986 0
0    0    0

-205.893 45665.3 0
45665.3 41.7064 0
0    0    0

-73.5471 45185.2 0
45185.2 -271.288 0
0    0    0

182.575 45838.1 0
45838.1 237.723 0
0    0    0

50.4338 44819.6 0
44819.6 217.676 0
0    0    0

-166.699 45954.8 0
45954.8 -163.399 0
0    0    0

-136.146 43854.8 0
43854.8 -29.2677 0
0    0    0

272.384 44890 0
44890 303.714 0
0    0    0

146.178 44576.2 0
44576.2 46.7164 0
0    0    0

-180.182 43016.1 0
43016.1 -288.024 0
0    0    0

17.2146 42072.8 0
42072.8 -52.1368 0
0    0    0

212.468 44338 0
44338 8.30599 0
0    0    0

99.6647 43237.3 0
43237.3 -104.443 0
0    0    0

159.61 42778.1 0
42778.1 -8.44816 0
0    0    0

-59.7378 42717.4 0
42717.4 -232.724 0
0    0    0

5.27763 42457.3 0
42457.3 260.375 0
0    0    0

139.888 42939.7 0
42939.7 344.358 0
0    0    0

71.9719 42392.2 0
42392.2 -97.2101 0
0    0    0

-98.7452 42293.2 0
42293.2 -90.7255 0
0    0    0

66.9204 40698.4 0
40698.4 -52.5687 0
0    0    0

-57.4189 41820.9 0
41820.9 132.528 0
0    0    0

-129.638 44407 0
44407 -135.391 0
0    0    0

-74.7803 44675 0
44675 -228.975 0
0    0    0

23.9119 44837.4 0
44837.4 309.764 0
0    0    0

151.167 44606 0
44606 249.163 0
0    0    0

-164.409 44478 0
44478 129.69 0
0    0    0

-152.345 43617 0
43617 -193.092 0
0    0    0

-272.394 44362.4 0
44362.4 -140.19 0
0    0    0

-71.0561 45396 0
45396 37.9616 0
0    0    0

-380.645 39788.3 0
39788.3 -161.516 0
0    0    0

176.735 40214.5 0
40214.5 60.1271 0
0    0    0

91.6631 40907.2 0
40907.2 318.677 0
0    0    0

201.17 41334.8 0
41334.8 149.255 0
0    0    0

-261.097 41563.7 0
41563.7 -191.97 0
0    0    0

60.3304 41157.2 0
41157.2 46.2759 0
0    0    0

132.255 41751.5 0
41751.5 104.841 0
0    0    0

-8.92212 41462.4 0
41462.4 -242.414 0
0    0    0

-118.973 41435.5 0
41435.5 72.5701 0
0    0    0

78.8448 40261.6 0
40261.6 -27.4815 0
0    0    0

421.273 39953.4 0
39953.4 205.917 0
0    0    0

-6.23651 39241.5 0
39241.5 147.744 0
0    0    0

53.8841 40524.8 0
40524.8 -152.518 0
0    0    0

83.4094 40987.4 0
40987.4 439.753 0
0    0    0

125.584 40476.2 0
40476.2 -58.2811 0
0    0    0

101.724 38520.7 0
38520.7 133.103 0
0    0    0

231.779 39710.4 0
39710.4 311.392 0
0    0    0

173.898 39491.6 0
39491.6 17.871 0
0    0    0

-195.307 40138.7 0
40138.7 -258.271 0
0    0    0

267.983 38586.9 0
38586.9 167.275 0
0    0    0

-303.607 40154.5 0
40154.5 -9.70564 0
0    0    0

105.892 39435.8 0
39435.8 235.259 0
0    0    0

-258.162 39728.9 0
39728.9 -264.228 0
0    0    0

-144.771 39434.7 0
39434.7 -312.83 0
0    0    0

190.818 38912.6 0
38912.6 181.714 0
0    0    0

174.385 39125.9 0
39125.9 3.18949 0
0    0    0

229.118 37587.9 0
37587.9 299.244 0
0    0    0

165.544 39035.8 0
39035.8 174.927 0
0    0    0

144.477 39766.9 0
39766.9 367.344 0
0    0    0

-165.108 39409.5 0
39409.5 -460.286 0
0    0    0

-17.8015 39310.1 0
39310.1 229.171 0
0    0    0

170.91 38621.8 0
38621.8 223.566 0
0    0    0

-134.229 37392.5 0
37392.5 -205.775 0
0    0    0

-165.457 38356.1 0
38356.1 -256.813 0
0    0    0

-242.463 38874 0
38874 -349.437 0
0    0    0

-86.2144 39158.5 0
39158.5 66.2486 0
0    0    0

-194.883 38748.4 0
38748.4 -118.269 0
0    0    0

-126.62 38403 0
38403 -374.53 0
0    0    0

-196.393 37345.5 0
37345.5 -525.759 0
0    0    0

83.9248 38047.9 0
38047.9 331.399 0
0    0    0

-160.101 37862.3 0
37862.3 -271.177 0
0    0    0

47.8964 37719.7 0
37719.7 -217.961 0
0    0    0

178.209 38927.7 0
38927.7 69.9673 0
0    0    0

-89.664 38215.8 0
38215.8 135.96 0
0    0    0

95.1256 36804.5 0
36804.5 258.655 0
0    0    0

-151.428 35698.2 0
35698.2 23.2542 0
0    0    0

-132.402 36234.6 0
36234.6 -364.355 0
0    0    0

302.824 36436.8 0
36436.8 479.312 0
0    0    0

144.419 38140.6 0
38140.6 363.102 0
0    0    0

391.286 37014.9 0
37014.9 348.267 0
0    0    0

-17.2512 37481.6 0
37481.6 117.551 0
0    0    0

154.686 36996.8 0
36996.8 245.334 0
0    0    0

46.2761 38050.1 0
38050.1 275.651 0
0    0    0

-208.219 36931.1 0
36931.1 -257.909 0
0    0    0

-10.9165 35406.9 0
35406.9 246.132 0
0    0    0

-55.0675 37112.9 0
37112.9 404.261 0
0    0    0

252.382 37556.9 0
37556.9 362.575 0
0    0    0

229.501 37159.3 0
37159.3 175.423 0
0    0    0

176.605 37526 0
37526 170.786 0
0    0    0

244.343 36429.8 0
36429.8 363.078 0
0    0    0

-256.798 39322.1 0
39322.1 -357.935 0
0    0    0

-198.231 38452.1 0
38452.1 -220.513 0
0    0    0

83.5387 38406.3 0
38406.3 53.0849 0
0    0    0

-253.685 38947.1 0
38947.1 -107.6 0
0    0    0

63.6765 38121.1 0
38121.1 127.211 0
0    0    0

107.924 37742 0
37742 30.5105 0
0    0    0

-66.9841 39184.7 0
39184.7 16.2807 0
0    0    0

-235.901 36768.4 0
36768.4 -185.014 0
0    0    0

56.0315 35442.8 0
35442.8 -31.2834 0
0    0    0

169.56 36446.2 0
36446.2 99.7362 0
0    0    0

-189.711 34656.4 0
34656.4 -336.054 0
0    0    0

-53.7336 36733.4 0
36733.4 -156.699 0
0    0    0

-185.772 35525.1 0
35525.1 -58.8053 0
0    0    0

-6.86848 35247.3 0
35247.3 -238.562 0
0    0    0

-87.7125 39056.9 0
39056.9 -281.492 0
0    0    0

-205.051 38556.4 0
38556.4 -173.458 0
0    0    0

-183.417 38023.4 0
38023.4 -113.754 0
0    0    0

316.375 37015.3 0
37015.3 156.863 0
0    0    0

-147.968 38318.4 0
38318.4 -214.911 0
0    0    0

-224.617 37790.7 0
37790.7 -222.433 0
0    0    0

-115.56 37162.1 0
37162.1 -54.2825 0
0    0    0

469.388 36728.3 0
36728.3 186.349 0
0    0    0

-190.828 38842.5 0
38842.5 -269.887 0
0    0    0

67.7138 38333 0
38333 114.117 0
0    0    0

-293.197 37282.6 0
37282.6 -288.253 0
0    0    0

-312.097 36734.7 0
36734.7 -107.598 0
0    0    0

51.4039 42442.1 0
42442.1 402.371 0
0    0    0

202.405 42419.8 0
42419.8 247.716 0
0    0    0

-160.524 42788.3 0
42788.3 -304.609 0
0    0    0

157.388 43228.7 0
43228.7 83.5943 0
0    0    0

-49.3257 42865 0
42865 49.6562 0
0    0    0

-93.429 43121.8 0
43121.8 -210.036 0
0    0    0

309.661 40998.1 0
40998.1 291.767 0
0    0    0

262.631 40735.6 0
40735.6 188.522 0
0    0    0

73.9331 41187.6 0
41187.6 257.308 0
0    0    0

216.963 40484.9 0
40484.9 401.326 0
0    0    0

-154.478 61812.5 0
61812.5 -165.492 0
0    0    0

-114.907 62056.2 0
62056.2 -192.209 0
0    0    0

-31.0425 63615.2 0
63615.2 -97.6357 0
0    0    0

68.353 64226.6 0
64226.6 -72.3234 0
0    0    0

-66.1689 62728.5 0
62728.5 135.644 0
0    0    0

-121.815 61579.2 0
61579.2 -121.545 0
0    0    0

10.4508 61202.4 0
61202.4 276.648 0
0    0    0

-171.465 59622.5 0
59622.5 -87.3207 0
0    0    0

-219.484 59466.8 0
59466.8 -455.109 0
0    0    0

-98.055 59692.2 0
59692.2 -296.69 0
0    0    0

-287.242 60649.7 0
60649.7 -206.018 0
0    0    0

234.054 60758.8 0
60758.8 238.449 0
0    0    0

141.755 60320.1 0
60320.1 206.42 0
0    0    0

164.703 61108.9 0
61108.9 -133.596 0
0    0    0

120.923 61555.7 0
61555.7 264.839 0
0    0    0

74.2876 61852.4 0
61852.4 -17.876 0
0    0    0

211.326 60818.3 0
60818.3 135.876 0
0    0    0

-241.721 61691 0
61691 -374.264 0
0    0    0

-60.0799 61701.8 0
61701.8 -340.235 0
0    0    0

192.686 61386.7 0
61386.7 313.276 0
0    0    0

303.1 62191.1 0
62191.1 222.872 0
0    0    0

-411.135 62576.6 0
62576.6 -317.418 0
0    0    0

304.651 62679 0
62679 235.065 0
0    0    0

-208.528 62615.1 0
62615.1 -291.698 0
0    0    0

-368.118 62816.2 0
62816.2 -212.549 0
0    0    0

51.4647 62152.7 0
62152.7 -147.669 0
0    0    0

162.592 62094.2 0
62094.2 61.8033 0
0    0    0

-10.6607 62330.9 0
62330.9 48.6729 0
0    0    0

200.305 62242.6 0
62242.6 259.002 0
0    0    0

-79.0596 62476.9 0
62476.9 205.606 0
0    0    0

-172.814 60540.5 0
60540.5 -171.215 0
0    0    0

-247.545 60997.9 0
60997.9 -342.781 0
0    0    0

193.076 59743.9 0
59743.9 211.545 0
0    0    0

81.8634 60499.5 0
60499.5 48.1358 0
0    0    0

-50.9215 59819.6 0
59819.6 -323.646 0
0    0    0

159.073 60350.8 0
60350.8 109.149 0
0    0    0

-165.233 60301 0
60301 -150.778 0
0    0    0

222.193 61057.8 0
61057.8 564.389 0
0    0    0

122.957 60077 0
60077 337.371 0
0    0    0

186.879 60631.3 0
60631.3 289.17 0
0    0    0

-333.884 61313.3 0
61313.3 -340.973 0
0    0    0

-32.6707 62012 0
62012 -332.187 0
0    0    0

-48.774 63971.1 0
63971.1 -70.9288 0
0    0    0

-178.583 63223.5 0
63223.5 -75.2615 0
0    0    0

-7.17651 65633.6 0
65633.6 -134.806 0
0    0    0

11.7926 64818.8 0
64818.8 130.356 0
0    0    0

136.304 63966.8 0
63966.8 43.9562 0
0    0    0

-152.306 63033 0
63033 -187.724 0
0    0    0

159.973 63027.1 0
63027.1 321.273 0
0    0    0

29.9471 63321 0
63321 271.099 0
0    0    0

191.779 62377.1 0
62377.1 192.121 0
0    0    0

-232.027 64004.2 0
64004.2 -106.005 0
0    0    0

-116.696 63522.3 0
63522.3 -432.815 0
0    0    0

-110.879 63255.3 0
63255.3 64.596 0
0    0    0

-205.164 64163.6 0
64163.6 -294.366 0
0    0    0

153.433 65305.9 0
65305.9 298.293 0
0    0    0

-92.8798 63090.7 0
63090.7 -282.954 0
0    0    0

66.7175 63414.5 0
63414.5 311.278 0
0    0    0

201.824 63898 0
63898 298.718 0
0    0    0

184.103 63557 0
63557 241.053 0
0    0    0

31.4345 62938.4 0
62938.4 173.59 0
0    0    0

60.2628 63247 0
63247 22.8713 0
0    0    0

-89.0419 45254.6 0
45254.6 -60.0076 0
0    0    0

-209.445 45225.5 0
45225.5 -193.935 0
0    0    0

-231.665 47760 0
47760 -255.794 0
0    0    0

-239.661 47139.8 0
47139.8 -131.87 0
0    0    0

-194.874 46321.9 0
46321.9 -239.932 0
0    0    0

164.273 49613.3 0
49613.3 254.235 0
0    0    0

-105.607 47808.8 0
47808.8 11.8248 0
0    0    0

-137.271 48433.2 0
48433.2 -154.29 0
0    0    0

-163.814 49080.2 0
49080.2 -223.788 0
0    0    0

93.3594 48686.7 0
48686.7 143.174 0
0    0    0

77.4581 47833.6 0
47833.6 -95.7414 0
0    0    0

-178.244 47790.3 0
47790.3 -371.006 0
0    0    0

-86.1373 34804.5 0
34804.5 -264.242 0
0    0    0

243.988 34705.7 0
34705.7 270.183 0
0    0    0

107.626 33915.8 0
33915.8 262.383 0
0    0    0

253.405 34474.2 0
34474.2 255.496 0
0    0    0

214.766 35314.9 0
35314.9 202.813 0
0    0    0

93.8341 35409.3 0
35409.3 64.3123 0
0    0    0

14.171 34840.3 0
34840.3 127.62 0
0    0    0

-80.485 34302.9 0
34302.9 52.668 0
0    0    0

-127.566 35638.6 0
35638.6 -85.3873 0
0    0    0

-230.017 35048.8 0
35048.8 -269.697 0
0    0    0

-178.538 32648.5 0
32648.5 -106.999 0
0    0    0

55.0807 31654 0
31654 246.979 0
0    0    0

102.794 34098.6 0
34098.6 181.809 0
0    0    0

-39.3848 33629.9 0
33629.9 160.398 0
0    0    0

20.2963 33915.9 0
33915.9 -136.848 0
0    0    0

-181.082 33946.6 0
33946.6 -226.182 0
0    0    0

247.335 36349.2 0
36349.2 119.992 0
0    0    0

-91.8967 36740.5 0
36740.5 34.5637 0
0    0    0

75.1526 32615.8 0
32615.8 -77.3764 0
0    0    0

-446.863 32587.5 0
32587.5 -374.825 0
0    0    0

-213.126 30136.1 0
30136.1 -197.436 0
0    0    0

-144.527 30367.2 0
30367.2 50.0307 0
0    0    0

99.6941 30603.6 0
30603.6 -24.6653 0
0    0    0

95.9619 30180.3 0
30180.3 -199.001 0
0    0    0

167.369 32861.1 0
32861.1 -85.7408 0
0    0    0

-218.544 33874.8 0
33874.8 -293.758 0
0    0    0

146.171 33278 0
33278 214.152 0
0    0    0

144.762 33879.8 0
33879.8 293.001 0
0    0    0

6.34692 32543 0
32543 -72.1918 0
0    0    0

-196.876 33303.6 0
33303.6 -275.026 0
0    0    0

170.743 32637.6 0
32637.6 188.075 0
0    0    0

125.666 32623.6 0
32623.6 248.986 0
0    0    0

203.03 33531.5 0
33531.5 181.724 0
0    0    0

-49.4747 33206.3 0
33206.3 -22.7124 0
0    0    0

-89.9783 34006.5 0
34006.5 -325.109 0
0    0    0

-129.604 34471.6 0
34471.6 37.5861 0
0    0    0

55.005 33734.1 0
33734.1 188.621 0
0    0    0

-80.0734 33866.9 0
33866.9 -182.948 0
0    0    0

190.618 34938.3 0
34938.3 143.396 0
0    0    0

-57.9686 34549.5 0
34549.5 -337.936 0
0    0    0

282.313 33028.8 0
33028.8 255.188 0
0    0    0

-217.294 33301.7 0
33301.7 -222.002 0
0    0    0

-401.077 34454.2 0
34454.2 -308.294 0
0    0    0

145.657 34452.5 0
34452.5 258.221 0
0    0    0

183.682 34050.7 0
34050.7 159.27 0
0    0    0

-208.372 34277 0
34277 -34.5799 0
0    0    0

-210.279 32257.2 0
32257.2 -299.079 0
0    0    0

97.6242 33032.8 0
33032.8 313.964 0
0    0    0

295.474 31989.7 0
31989.7 105.746 0
0    0    0

58.6065 32702.9 0
32702.9 -78.1744 0
0    0    0

118.351 32956.9 0
32956.9 353.413 0
0    0    0

257.774 33093.5 0
33093.5 239.017 0
0    0    0

69.3376 32437.6 0
32437.6 292.741 0
0    0    0

141.726 31428.2 0
31428.2 9.54039 0
0    0    0

242.968 32999.4 0
32999.4 198.974 0
0    0    0

-167.573 34511.4 0
34511.4 3.55666 0
0    0    0

-141.654 32581.2 0
32581.2 -119.705 0
0    0    0

-211.56 32911.3 0
32911.3 -71.7896 0
0    0    0

-289.118 33369.1 0
33369.1 -330.676 0
0    0    0

21.6509 33742 0
33742 139.648 0
0    0    0

228.799 31749.1 0
31749.1 -13.3524 0
0    0    0

179.349 30613.2 0
30613.2 251.492 0
0    0    0

17.3912 32711.2 0
32711.2 149.69 0
0    0    0

-302.343 33370.1 0
33370.1 -312.431 0
0    0    0

-126.112 32736.9 0
32736.9 -503.749 0
0    0    0

366.763 33242.9 0
33242.9 400.971 0
0    0    0

-91.1709 32666.6 0
32666.6 -369.113 0
0    0    0

121.582 31833 0
31833 341.02 0
0    0    0

-119.784 31359.1 0
31359.1 161.552 0
0    0    0

-74.6798 32096.9 0
32096.9 -118.544 0
0    0    0

132.873 30308.5 0
30308.5 -73.9651 0
0    0    0

-157.167 30804.3 0
30804.3 30.6693 0
0    0    0

-167.77 31818.1 0
31818.1 122.308 0
0    0    0

160.513 31202.9 0
31202.9 109.045 0
0    0    0

197.535 30228.2 0
30228.2 94.4115 0
0    0    0

115.042 32280.2 0
32280.2 -109.9 0
0    0    0

98.2303 31987.4 0
31987.4 -59.9272 0
0    0    0

-16.8951 31561 0
31561 -351.767 0
0    0    0

96.6171 31303.8 0
31303.8 76.2358 0
0    0    0

108.479 30614.2 0
30614.2 -84.6025 0
0    0    0

-113.268 32258.2 0
32258.2 72.8023 0
0    0    0

143.766 30980.2 0
30980.2 204.723 0
0    0    0

-69.1834 31406.2 0
31406.2 -113.182 0
0    0    0

-201.476 31819.5 0
31819.5 -52.8742 0
0    0    0

154.832 30838.9 0
30838.9 116.609 0
0    0    0

-126.18 30660 0
30660 -44.9517 0
0    0    0

198.719 29547 0
29547 224.607 0
0    0    0

-201.85 35283.5 0
35283.5 17.7348 0
0    0    0

214.325 29905.7 0
29905.7 196.636 0
0    0    0

-177.838 29735 0
29735 -92.0858 0
0    0    0

-194.637 29543.2 0
29543.2 -383.183 0
0    0    0

-96.4904 31116.7 0
31116.7 65.1849 0
0    0    0

-231.649 30406.6 0
30406.6 -170.511 0
0    0    0

52.3076 30343.4 0
30343.4 198.79 0
0    0    0

265.355 31591.7 0
31591.7 307.718 0
0    0    0

157.297 34932.2 0
34932.2 -157.996 0
0    0    0

-38.8365 29343.8 0
29343.8 46.1757 0
0    0    0

-183.414 30027.3 0
30027.3 -152.001 0
0    0    0

204.311 28871.3 0
28871.3 488.785 0
0    0    0

244.161 29756.8 0
29756.8 240.305 0
0    0    0

319.546 27529.5 0
27529.5 319.979 0
0    0    0

176.282 29063.8 0
29063.8 303.69 0
0    0    0

291.13 29496.5 0
29496.5 292.57 0
0    0    0

-240.17 29249.8 0
29249.8 -410.937 0
0    0    0

-152.09 26947.5 0
26947.5 -37.8329 0
0    0    0

-9.38967 28750.5 0
28750.5 254.644 0
0    0    0

4.92438 29910.8 0
29910.8 -67.3317 0
0    0    0

132.286 31617.9 0
31617.9 277.896 0
0    0    0

49.7901 32594.7 0
32594.7 -204.695 0
0    0    0

128.399 33335.9 0
33335.9 180.354 0
0    0    0

190.464 28143.8 0
28143.8 412.581 0
0    0    0

-97.7317 30261.1 0
30261.1 65.9336 0
0    0    0

-207.823 30060.9 0
30060.9 -284.369 0
0    0    0

-114.46 30774.5 0
30774.5 80.7964 0
0    0    0

24.1829 29179.3 0
29179.3 311.327 0
0    0    0

9.42579 30463.9 0
30463.9 -162.987 0
0    0    0

125.413 26770.7 0
26770.7 -71.6045 0
0    0    0

34.0013 28542.8 0
28542.8 -98.4718 0
0    0    0

-56.2144 30089.5 0
30089.5 98.3183 0
0    0    0

74.251 31081 0
31081 305.361 0
0    0    0

114.45 29798.2 0
29798.2 210.486 0
0    0    0

3.32948 29997.4 0
29997.4 91.4573 0
0    0    0

129.39 27984.2 0
27984.2 358.416 0
0    0    0

116.913 28758.7 0
28758.7 -64.512 0
0    0    0

43.4334 29572.6 0
29572.6 133.034 0
0    0    0

-143.068 28949.6 0
28949.6 -288.705 0
0    0    0

5.96811 38483.4 0
38483.4 -215.595 0
0    0    0

290.771 38189.5 0
38189.5 406.535 0
0    0    0

92.3997 40742.5 0
40742.5 -35.4672 0
0    0    0

-215.12 39671.2 0
39671.2 -299.625 0
0    0    0

-260.289 39555.2 0
39555.2 -22.0649 0
0    0    0

-127.906 39015.6 0
39015.6 -435.493 0
0    0    0

89.1612 39463.4 0
39463.4 197.903 0
0    0    0

-20.2681 39423 0
39423 126.278 0
0    0    0

-14.1307 38885.5 0
38885.5 43.7283 0
0    0    0

126.407 39952.9 0
39952.9 349.789 0
0    0    0

-109.468 37020.5 0
37020.5 -88.8735 0
0    0    0

-65.3559 39091.5 0
39091.5 38.3809 0
0    0    0

-26.08 38162.6 0
38162.6 145.895 0
0    0    0

151.912 38628.9 0
38628.9 343.069 0
0    0    0

-21.7283 38890.6 0
38890.6 -177.831 0
0    0    0

127.721 38764.2 0
38764.2 -102.857 0
0    0    0

-128.692 39994.6 0
39994.6 -249.73 0
0    0    0

28.8737 41337.9 0
41337.9 -92.3432 0
0    0    0

114.007 39988.8 0
39988.8 -5.48843 0
0    0    0

291.165 40302.7 0
40302.7 76.8845 0
0    0    0

-61.6028 41281.9 0
41281.9 169.692 0
0    0    0

-326.134 40296.1 0
40296.1 -200.005 0
0    0    0

-237.476 40745.8 0
40745.8 39.6035 0
0    0    0

131.308 40063.6 0
40063.6 -96.3622 0
0    0    0

177.689 41023.6 0
41023.6 0.780357 0
0    0    0

-75.2606 41096.1 0
41096.1 118.432 0
0    0    0

-201.347 41501.4 0
41501.4 -151.913 0
0    0    0

-236.216 41985.1 0
41985.1 -315.422 0
0    0    0

89.1527 40865.5 0
40865.5 -144.151 0
0    0    0

51.2952 40655.4 0
40655.4 -122.781 0
0    0    0

23.1644 41644.7 0
41644.7 391.025 0
0    0    0

-47.5917 39800.1 0
39800.1 -293.667 0
0    0    0

290.448 40512.4 0
40512.4 173.749 0
0    0    0

-198.688 39445.1 0
39445.1 44.4538 0
0    0    0

362.82 40362.1 0
40362.1 -51.5574 0
0    0    0

154.872 39072.1 0
39072.1 -101.579 0
0    0    0

43.9382 39189.7 0
39189.7 21.574 0
0    0    0

228.167 39699.8 0
39699.8 183.052 0
0    0    0

-275.572 41258 0
41258 -109.848 0
0    0    0

144.941 43224.2 0
43224.2 320.067 0
0    0    0

21.9013 41710.6 0
41710.6 364.203 0
0    0    0

-129.814 40956.9 0
40956.9 -73.7313 0
0    0    0

-249.806 40731.5 0
40731.5 -14.4028 0
0    0    0

145.156 39917.3 0
39917.3 146.481 0
0    0    0

-95.9079 41410.5 0
41410.5 -179.116 0
0    0    0

157.922 40687.5 0
40687.5 278.935 0
0    0    0

-54.3354 39639.4 0
39639.4 -180.454 0
0    0    0

-233.88 40432.8 0
40432.8 -365.188 0
0    0    0

221.106 41067.9 0
41067.9 3.13237 0
0    0    0

110.333 40635.3 0
40635.3 -49.5864 0
0    0    0

-89.2051 44294.1 0
44294.1 92.4262 0
0    0    0

105.919 42069 0
42069 129.716 0
0    0    0

-175.23 41107.4 0
41107.4 -23.8111 0
0    0    0

137.918 42147.2 0
42147.2 153.857 0
0    0    0

-178.636 40931.2 0
40931.2 -294.242 0
0    0    0

-85.3579 40478.6 0
40478.6 -220.997 0
0    0    0

-56.5901 42328 0
42328 -97.3249 0
0    0    0

-150.227 41110.3 0
41110.3 -205.311 0
0    0    0

-188.457 41852.5 0
41852.5 -573.487 0
0    0    0

-15.3024 41881.4 0
41881.4 -406.799 0
0    0    0

-36.8139 41549.4 0
41549.4 -199.986 0
0    0    0

5.09951 41913.3 0
41913.3 -269.71 0
0    0    0

-7.03609 41529.8 0
41529.8 -151.956 0
0    0    0

179.313 40956.7 0
40956.7 90.078 0
0    0    0

108.348 40231.4 0
40231.4 99.9815 0
0    0    0

-181.324 39843.2 0
39843.2 143.485 0
0    0    0

49.4169 40331.5 0
40331.5 -79.7763 0
0    0    0

117.664 40051.6 0
40051.6 -56.4107 0
0    0    0

221.508 41690.4 0
41690.4 347.924 0
0    0    0

-23.3007 42488.1 0
42488.1 -264.969 0
0    0    0

-126.083 42157.6 0
42157.6 -312.438 0
0    0    0

-117.142 42230.8 0
42230.8 -38.5366 0
0    0    0

-96.1045 43548.6 0
43548.6 -485.531 0
0    0    0

-72.0636 42832.4 0
42832.4 -35.7746 0
0    0    0

-13.8368 42263.8 0
42263.8 157.432 0
0    0    0

-36.039 42092.7 0
42092.7 271.888 0
0    0    0

38.2275 39580.2 0
39580.2 316.364 0
0    0    0

1.3817 40690.6 0
40690.6 182.128 0
0    0    0

-52.009 39782.9 0
39782.9 -226.734 0
0    0    0

130.901 40110.4 0
40110.4 271.804 0
0    0    0

49.4373 39531.8 0
39531.8 218.461 0
0    0    0

16.5379 40075.5 0
40075.5 332.378 0
0    0    0

45.943 40729.3 0
40729.3 193.392 0
0    0    0

-112.568 40403.7 0
40403.7 -236.99 0
0    0    0

126.192 42467.4 0
42467.4 216.442 0
0    0    0

-53.0087 40974.4 0
40974.4 -280.926 0
0    0    0

245.555 40658.2 0
40658.2 446.478 0
0    0    0

129.963 41413.1 0
41413.1 -115.051 0
0    0    0

-177.681 39253.5 0
39253.5 -261.669 0
0    0    0

-81.8067 39456.7 0
39456.7 -128.05 0
0    0    0

-69.9337 41622.7 0
41622.7 -90.6749 0
0    0    0

-210.556 42054 0
42054 -215.993 0
0    0    0

-95.7529 41280 0
41280 97.763 0
0    0    0

164.367 41152.9 0
41152.9 -68.9426 0
0    0    0

225.23 41235.4 0
41235.4 254.05 0
0    0    0

253.476 40540.6 0
40540.6 175.998 0
0    0    0

23.0488 42443.7 0
42443.7 11.8144 0
0    0    0

2.03011 41941.6 0
41941.6 -141.902 0
0    0    0

17.2049 42296.5 0
42296.5 -400.573 0
0    0    0

2.25979 44017 0
44017 281.675 0
0    0    0

139.386 41676.7 0
41676.7 268.921 0
0    0    0

48.4497 41258.7 0
41258.7 95.3597 0
0    0    0

133.775 41079.8 0
41079.8 199.15 0
0    0    0

-135.852 40998.6 0
40998.6 -354.212 0
0    0    0

49.1738 41360.6 0
41360.6 -143.03 0
0    0    0

-140.178 42585.2 0
42585.2 -166.567 0
0    0    0

-176.248 41981 0
41981 -143.186 0
0    0    0

-70.0947 42021.2 0
42021.2 -10.1355 0
0    0    0

104.158 40353.7 0
40353.7 161.367 0
0    0    0

-183.657 39424.2 0
39424.2 -223.711 0
0    0    0

235.164 42861.3 0
42861.3 265.937 0
0    0    0

136.285 41706.9 0
41706.9 122.595 0
0    0    0

153.249 42150 0
42150 259.284 0
0    0    0

38.471 41667 0
41667 225.308 0
0    0    0

-189.952 43144.3 0
43144.3 -284.591 0
0    0    0

-171.06 41975.7 0
41975.7 127.848 0
0    0    0

49.9043 40609.3 0
40609.3 -154.034 0
0    0    0

-139.418 37956.1 0
37956.1 79.8786 0
0    0    0

388.532 38618 0
38618 313.832 0
0    0    0

279.669 38928.6 0
38928.6 54.5898 0
0    0    0

-37.0091 39987.1 0
39987.1 -123.125 0
0    0    0

-92.0718 38305.7 0
38305.7 37.0217 0
0    0    0

171.876 37837.2 0
37837.2 106.117 0
0    0    0

-103.503 38822.8 0
38822.8 -256.15 0
0    0    0

-234.581 38455.3 0
38455.3 -88.977 0
0    0    0

130.708 38460.7 0
38460.7 226.204 0
0    0    0

192.865 38224.6 0
38224.6 76.0193 0
0    0    0

-226.309 39273.9 0
39273.9 10.7517 0
0    0    0

-264.791 40050.8 0
40050.8 -465.649 0
0    0    0

-90.0957 38954.4 0
38954.4 -58.2832 0
0    0    0

207.073 40261.8 0
40261.8 -81.1664 0
0    0    0

60.8475 39809.1 0
39809.1 327.71 0
0    0    0

-122.57 39433 0
39433 -22.6653 0
0    0    0

222.435 40013.9 0
40013.9 282.14 0
0    0    0

157.757 38069.5 0
38069.5 406.396 0
0    0    0

-97.3967 38185.1 0
38185.1 -338.756 0
0    0    0

401.062 39195 0
39195 161.233 0
0    0    0

-267.83 39457.2 0
39457.2 -120.585 0
0    0    0

136.867 40348.1 0
40348.1 155.012 0
0    0    0

-162.196 39915.2 0
39915.2 -361.66 0
0    0    0

63.5449 39365.6 0
39365.6 -177.644 0
0    0    0

167.822 38933.6 0
38933.6 63.3068 0
0    0    0

72.4784 38553.7 0
38553.7 227.173 0
0    0    0

-3.12046 38215.8 0
38215.8 -244.935 0
0    0    0

14.0446 39720.6 0
39720.6 296.477 0
0    0    0

15.3609 39865.1 0
39865.1 -254.942 0
0    0    0

59.0634 39090.2 0
39090.2 288.927 0
0    0    0

-178.825 40536.8 0
40536.8 -277.599 0
0    0    0

26.2658 39215.8 0
39215.8 -208.395 0
0    0    0

23.1505 39620.4 0
39620.4 158.39 0
0    0    0

-32.1815 40529.3 0
40529.3 110.83 0
0    0    0

11.0321 39891.5 0
39891.5 124.319 0
0    0    0

-76.707 38905 0
38905 33.0131 0
0    0    0

223.484 39561.6 0
39561.6 92.8312 0
0    0    0

-14.8609 39993.5 0
39993.5 -228.277 0
0    0    0

-245.611 40624.7 0
40624.7 -271.323 0
0    0    0

109.493 41140.3 0
41140.3 12.3197 0
0    0    0

-126.657 40629.3 0
40629.3 -234.32 0
0    0    0

-94.9769 41426.2 0
41426.2 -203.449 0
0    0    0

-225.542 40342.7 0
40342.7 -220.322 0
0    0    0

124.22 39974 0
39974 325.29 0
0    0    0

342.888 39405.5 0
39405.5 262.744 0
0    0    0

172.228 39568.6 0
39568.6 38.7631 0
0    0    0

-60.059 40154.7 0
40154.7 -46.6888 0
0    0    0

174.841 40466.1 0
40466.1 497.247 0
0    0    0

-111.164 39698.7 0
39698.7 -130.36 0
0    0    0

194.282 39313.3 0
39313.3 -10.2171 0
0    0    0

15.539 38475 0
38475 -233.216 0
0    0    0

-158.827 39521.4 0
39521.4 -88.544 0
0    0    0

-177.613 39058.6 0
39058.6 158.927 0
0    0    0

-301.043 38887.3 0
38887.3 -216.191 0
0    0    0

29.233 39074.3 0
39074.3 208.97 0
0    0    0

-47.9486 38574.9 0
38574.9 232.232 0
0    0    0

-168.406 38128.1 0
38128.1 -400.808 0
0    0    0

-277.346 39160.8 0
39160.8 -315.558 0
0    0    0

113.56 38583.9 0
38583.9 -176.188 0
0    0    0

-180.819 37810.6 0
37810.6 49.7957 0
0    0    0

75.375 38469 0
38469 243.238 0
0    0    0

-228.136 39764 0
39764 -207 0
0    0    0

-60.7795 39201.9 0
39201.9 -233.493 0
0    0    0

94.8726 37569.1 0
37569.1 257.341 0
0    0    0

211.111 38125.1 0
38125.1 -223.144 0
0    0    0

-107.55 34028.9 0
34028.9 -321.655 0
0    0    0

-15.3979 34737.8 0
34737.8 248.17 0
0    0    0

-364.087 33604.9 0
33604.9 -458.428 0
0    0    0

55.8604 34568.2 0
34568.2 -111.853 0
0    0    0

228.781 34179.7 0
34179.7 80.9437 0
0    0    0

239.357 34737.1 0
34737.1 341.484 0
0    0    0

27.0148 33713 0
33713 -293.295 0
0    0    0

-97.9329 34800.6 0
34800.6 -8.24826 0
0    0    0

-46.2215 34270 0
34270 -122.221 0
0    0    0

-105.24 34442.5 0
34442.5 -60.0586 0
0    0    0

-133.019 33426.1 0
33426.1 -29.7425 0
0    0    0

103.211 33972.5 0
33972.5 563.255 0
0    0    0

208.046 35518.5 0
35518.5 259.442 0
0    0    0

-66.7039 35189.5 0
35189.5 170.946 0
0    0    0

-87.4676 34937.4 0
34937.4 193.239 0
0    0    0

158.154 35694.6 0
35694.6 -64.2441 0
0    0    0

44.9618 34235.1 0
34235.1 52.9654 0
0    0    0

-31.7466 35079.2 0
35079.2 145.08 0
0    0    0

69.0806 33905.7 0
33905.7 42.833 0
0    0    0

146.305 34644.1 0
34644.1 -167.74 0
0    0    0

-230.689 33794.7 0
33794.7 -170.99 0
0    0    0

-55.6632 34249.1 0
34249.1 275.971 0
0    0    0

-217.128 36893.7 0
36893.7 -155.324 0
0    0    0

138.463 36598.1 0
36598.1 244.549 0
0    0    0

-160.318 35848.5 0
35848.5 -240.584 0
0    0    0

104.68 35542.2 0
35542.2 223.872 0
0    0    0

-56.694 37124.2 0
37124.2 -277.019 0
0    0    0

-15.0718 36682.9 0
36682.9 124.684 0
0    0    0

243.705 36035.7 0
36035.7 232.644 0
0    0    0

-19.9278 37738.6 0
37738.6 -163.367 0
0    0    0

-14.9133 35400.8 0
35400.8 -131.393 0
0    0    0

150.207 36106.4 0
36106.4 203.699 0
0    0    0

41.7831 35092.5 0
35092.5 -127.948 0
0    0    0

27.6841 36314.3 0
36314.3 -218.486 0
0    0    0

-81.0981 38947.3 0
38947.3 7.59598 0
0    0    0

200.592 37228.1 0
37228.1 267.84 0
0    0    0

-33.4941 34394.5 0
34394.5 -151.739 0
0    0    0

-42.0274 36096.7 0
36096.7 115.942 0
0    0    0

-130.618 35923 0
35923 -233.273 0
0    0    0

-95.898 35556.6 0
35556.6 182.224 0
0    0    0

52.3057 35342.2 0
35342.2 203.489 0
0    0    0

150.753 35826.9 0
35826.9 31.0012 0
0    0    0

-78.5941 36759.5 0
36759.5 -138.918 0
0    0    0

-213.982 37634.5 0
37634.5 -101.518 0
0    0    0

-137.139 33912 0
33912 41.1571 0
0    0    0

150.404 34808 0
34808 139.101 0
0    0    0

-91.5048 37650.8 0
37650.8 -152.801 0
0    0    0

69.6023 37462.6 0
37462.6 48.1631 0
0    0    0

31.4066 36991.6 0
36991.6 -252.162 0
0    0    0

-428.482 37500.3 0
37500.3 -301.808 0
0    0    0

-54.4331 38314.7 0
38314.7 -273.746 0
0    0    0

-123.901 38774.4 0
38774.4 -337.723 0
0    0    0

233.334 37122.4 0
37122.4 123.314 0
0    0    0

179.438 37730.4 0
37730.4 204.373 0
0    0    0

17.1718 38187.4 0
38187.4 228.619 0
0    0    0

-69.972 38217.4 0
38217.4 199.584 0
0    0    0

45.6986 22792.2 0
22792.2 -151.099 0
0    0    0

-88.7125 21999.7 0
21999.7 -28.8492 0
0    0    0

245.206 21643.1 0
21643.1 576.705 0
0    0    0

-233.832 22386.9 0
22386.9 -187.65 0
0    0    0

71.7586 22414.8 0
22414.8 96.8321 0
0    0    0

-187.151 22286.9 0
22286.9 -253.952 0
0    0    0

-120.27 22497.6 0
22497.6 156.476 0
0    0    0

-6.19265 21827.9 0
21827.9 -230.826 0
0    0    0

-161.766 21533.7 0
21533.7 -45.6615 0
0    0    0

378.816 22004 0
22004 155.69 0
0    0    0

115.071 23375 0
23375 -95.1741 0
0    0    0

270.851 22725.6 0
22725.6 -22.2936 0
0    0    0

-280.268 23434.1 0
23434.1 -214.708 0
0    0    0

-96.6856 22748 0
22748 -19.312 0
0    0    0

-186.552 22745.4 0
22745.4 -182.221 0
0    0    0

-157.905 22377.8 0
22377.8 -34.4581 0
0    0    0

-121.639 23655.8 0
23655.8 165.027 0
0    0    0

132.021 22364 0
22364 -69.5805 0
0    0    0

125.123 24019.4 0
24019.4 135.901 0
0    0    0

-25.9106 23142.7 0
23142.7 -97.054 0
0    0    0

86.5053 22082.1 0
22082.1 -198.296 0
0    0    0

25.117 21594.8 0
21594.8 -172.387 0
0    0    0

-48.8778 23319 0
23319 23.4218 0
0    0    0

-215.79 23491.8 0
23491.8 104.572 0
0    0    0

171.378 23659.1 0
23659.1 56.9738 0
0    0    0

-158.44 23186.4 0
23186.4 -115.083 0
0    0    0

-122.725 22730.4 0
22730.4 58.4136 0
0    0    0

26.0211 21987.6 0
21987.6 203.677 0
0    0    0

-296.537 24068.5 0
24068.5 -310.849 0
0    0    0

192.49 24436.5 0
24436.5 291.637 0
0    0    0

69.1333 21778 0
21778 -4.771 0
0    0    0

-258.45 20990.6 0
20990.6 -350.207 0
0    0    0

-154.604 23686.2 0
23686.2 -398.84 0
0    0    0

-161.976 23810.6 0
23810.6 -185.58 0
0    0    0

312.36 23871.9 0
23871.9 -20.2853 0
0    0    0

-221.333 24645.2 0
24645.2 -436.802 0
0    0    0

-86.1463 25200.9 0
25200.9 -205.443 0
0    0    0

6.46926 25094.9 0
25094.9 208.396 0
0    0    0

-172.23 21773.8 0
21773.8 153.499 0
0    0    0

283.316 20700.5 0
20700.5 315.555 0
0    0    0

-100.495 24691 0
24691 -352.492 0
0    0    0

156.712 24963.4 0
24963.4 475.404 0
0    0    0

132.535 25409.5 0
25409.5 334.083 0
0    0    0

132.647 25259.4 0
25259.4 18.4043 0
0    0    0

268.077 25645 0
25645 299.362 0
0    0    0

-14.868 24563 0
24563 110.95 0
0    0    0

-181.435 25675.1 0
25675.1 109.39 0
0    0    0

163.758 24843.5 0
24843.5 -80.5807 0
0    0    0

142.02 24486.8 0
24486.8 180.873 0
0    0    0

118.332 25299.8 0
25299.8 30.8797 0
0    0    0

78.5958 21577.9 0
21577.9 -225.664 0
0    0    0

-88.4595 21276 0
21276 -16.7568 0
0    0    0

188.22 21613.6 0
21613.6 28.1684 0
0    0    0

144.418 20845.5 0
20845.5 67.1698 0
0    0    0

-183.847 20561.5 0
20561.5 -171.754 0
0    0    0

-159.421 20085.8 0
20085.8 67.4297 0
0    0    0

379.899 21873.2 0
21873.2 175.698 0
0    0    0

188.517 20633.1 0
20633.1 100.026 0
0    0    0

43.3506 21318.8 0
21318.8 78.9383 0
0    0    0

-220.948 20886.3 0
20886.3 204.465 0
0    0    0

23.9718 21266.6 0
21266.6 -132.5 0
0    0    0

-74.0017 20877.6 0
20877.6 -176.564 0
0    0    0

-255.384 21597.4 0
21597.4 -57.5259 0
0    0    0

-52.51 21130.6 0
21130.6 -154.724 0
0    0    0

-244.189 22024.8 0
22024.8 -23.5758 0
0    0    0

-109.927 21270.4 0
21270.4 126.605 0
0    0    0

37.3282 27813.6 0
27813.6 154.22 0
0    0    0

-15.8168 25914.5 0
25914.5 68.7926 0
0    0    0

80.4736 26453.1 0
26453.1 -99.0967 0
0    0    0

-131.059 27723.5 0
27723.5 -299.031 0
0    0    0

113.73 26692.5 0
26692.5 269.877 0
0    0    0

-60.1729 27456.7 0
27456.7 234.677 0
0    0    0

-60.7062 26995.1 0
26995.1 -232.373 0
0    0    0

-219.499 27026.5 0
27026.5 -52.9395 0
0    0    0

205.431 25512.1 0
25512.1 84.7254 0
0    0    0

-159.924 26024.2 0
26024.2 -142.387 0
0    0    0

9.22754 25328.6 0
25328.6 177.071 0
0    0    0

152.686 25534 0
25534 314.427 0
0    0    0

-61.0543 26725.5 0
26725.5 141.557 0
0    0    0

160.82 26667.9 0
26667.9 354.989 0
0    0    0

-93.4865 23133.6 0
23133.6 3.38082 0
0    0    0

-41.6893 22661.1 0
22661.1 75.3081 0
0    0    0

-27.5703 22837.8 0
22837.8 -219.284 0
0    0    0

261.993 22865.1 0
22865.1 532.066 0
0    0    0

98.9802 22476.9 0
22476.9 -32.1908 0
0    0    0

156.692 21831 0
21831 292.629 0
0    0    0

113.264 21038.4 0
21038.4 212.32 0
0    0    0

-131.798 21602 0
21602 -285.129 0
0    0    0

64.7943 22031.7 0
22031.7 -186.998 0
0    0    0

-80.5031 21218.9 0
21218.9 -97.0061 0
0    0    0

-163.561 22335.4 0
22335.4 -69.7703 0
0    0    0

127.364 22161.2 0
22161.2 -32.2756 0
0    0    0

197.597 21338.9 0
21338.9 247.14 0
0    0    0

-212.153 20609.5 0
20609.5 102.796 0
0    0    0

-70.15 21236 0
21236 -158.923 0
0    0    0

112.844 20838.4 0
20838.4 -54.9203 0
0    0    0

241.279 20214.2 0
20214.2 246.121 0
0    0    0

210.759 19539.9 0
19539.9 110.406 0
0    0    0

-70.1247 20901.8 0
20901.8 106.853 0
0    0    0

-165.969 18081.1 0
18081.1 -200.875 0
0    0    0

9.61508 21610.1 0
21610.1 34.8064 0
0    0    0

216.145 19233.6 0
19233.6 -76.723 0
0    0    0

-11.6331 21418.4 0
21418.4 129.6 0
0    0    0

194.047 20170.5 0
20170.5 -22.5845 0
0    0    0

33.2279 19876 0
19876 -79.4848 0
0    0    0

356.83 18882.2 0
18882.2 460.606 0
0    0    0

75.2363 20399.6 0
20399.6 161.833 0
0    0    0

177.359 18749.8 0
18749.8 -51.4127 0
0    0    0

45.1514 22034.3 0
22034.3 142.501 0
0    0    0

-252.69 21311.7 0
21311.7 -376.362 0
0    0    0

-258.575 17710 0
17710 -130.433 0
0    0    0

320.323 18852.9 0
18852.9 345.929 0
0    0    0

-236.559 20575.1 0
20575.1 -145.184 0
0    0    0

-14.6138 19598.9 0
19598.9 -30.0337 0
0    0    0

124.402 20419.8 0
20419.8 224.769 0
0    0    0

5.53142 19898.7 0
19898.7 -88.2537 0
0    0    0

208.884 21059.7 0
21059.7 -109.894 0
0    0    0

14.5365 21620.7 0
21620.7 -23.8614 0
0    0    0

-126.871 22063.4 0
22063.4 -116.065 0
0    0    0

-149.163 22420.3 0
22420.3 -187.657 0
0    0    0

253.488 22608.7 0
22608.7 350.13 0
0    0    0

-138.454 21793.5 0
21793.5 -472.163 0
0    0    0

-55.6919 22846.8 0
22846.8 -234.571 0
0    0    0

-213.974 22411.6 0
22411.6 -63.384 0
0    0    0

-174.537 23687.8 0
23687.8 -272.628 0
0    0    0

43.1897 22733.4 0
22733.4 173.953 0
0    0    0

-147.031 23055.5 0
23055.5 -158.457 0
0    0    0

226.869 23439.3 0
23439.3 222.742 0
0    0    0

-31.823 19283.8 0
19283.8 48.3333 0
0    0    0

243.377 18020.4 0
18020.4 81.6321 0
0    0    0

47.2213 19595.8 0
19595.8 -63.7861 0
0    0    0

43.1335 18793.3 0
18793.3 55.3833 0
0    0    0

259.583 22580.6 0
22580.6 241.28 0
0    0    0

31.0904 20005.2 0
20005.2 39.4533 0
0    0    0

-233.853 21683.6 0
21683.6 -10.6701 0
0    0    0

-54.0291 21953.6 0
21953.6 -63.6057 0
0    0    0

62.1065 22781.2 0
22781.2 -175.209 0
0    0    0

-66.8944 23295.6 0
23295.6 92.0513 0
0    0    0

-292.527 23760.7 0
23760.7 -183.429 0
0    0    0

-102.582 23041.4 0
23041.4 -142.342 0
0    0    0

-114.11 19674.4 0
19674.4 -55.7865 0
0    0    0

-214.352 19953.4 0
19953.4 -89.0335 0
0    0    0

-22.4267 19980.7 0
19980.7 52.7137 0
0    0    0

-188.074 19272.1 0
19272.1 -296.841 0
0    0    0

-127.01 20723.8 0
20723.8 -201.089 0
0    0    0

154.723 18226.5 0
18226.5 123.543 0
0    0    0

188.285 21499.6 0
21499.6 141.284 0
0    0    0

-6.54378 21220.8 0
21220.8 -131.392 0
0    0    0

-128.788 18284.9 0
18284.9 9.6227 0
0    0    0

-229.175 18552.4 0
18552.4 -253.772 0
0    0    0

41.3393 18766.9 0
18766.9 84.3034 0
0    0    0

-103.516 19309 0
19309 -73.5982 0
0    0    0

56.7857 17820.8 0
17820.8 101.355 0
0    0    0

303.288 18772.7 0
18772.7 216.193 0
0    0    0

-230.179 17988.9 0
17988.9 -143.254 0
0    0    0

-34.3363 19224.8 0
19224.8 221.959 0
0    0    0

213.123 17588 0
17588 198.023 0
0    0    0

199.399 18147.4 0
18147.4 228.921 0
0    0    0

206.548 16809.2 0
16809.2 137.294 0
0    0    0

-216.255 16654.1 0
16654.1 -171.578 0
0    0    0

-141.611 18141.8 0
18141.8 37.8858 0
0    0    0

138.903 18486.8 0
18486.8 177.934 0
0    0    0

-164.29 17016.4 0
17016.4 -116.807 0
0    0    0

-93.2982 17855.9 0
17855.9 -68.7108 0
0    0    0

154.602 17759 0
17759 -71.2474 0
0    0    0

157.037 18591.6 0
18591.6 288.399 0
0    0    0

136.648 17093.6 0
17093.6 6.90005 0
0    0    0

255.635 17977.8 0
17977.8 214.814 0
0    0    0

-151.145 18848.1 0
18848.1 -264.862 0
0    0    0

-163.658 19628.5 0
19628.5 -220.31 0
0    0    0

-195.733 17430.3 0
17430.3 -167.673 0
0    0    0

-18.8857 17690.6 0
17690.6 -120.978 0
0    0    0

155.508 18028.1 0
18028.1 155.502 0
0    0    0

-142.849 19418.1 0
19418.1 -252.708 0
0    0    0

300.693 18276.9 0
18276.9 309.312 0
0    0    0

137.967 18717.2 0
18717.2 -66.8204 0
0    0    0

193.008 19614.1 0
19614.1 257.567 0
0    0    0

176.394 19475.7 0
19475.7 227.574 0
0    0    0

161.766 19800.5 0
19800.5 187.469 0
0    0    0

61.496 19379.7 0
19379.7 105.184 0
0    0    0

36.443 27603.6 0
27603.6 295.098 0
0    0    0

61.3341 26830.7 0
26830.7 -245.759 0
0    0    0

138.031 28058.4 0
28058.4 46.2888 0
0    0    0

-176.894 27142.4 0
27142.4 80.7252 0
0    0    0

51.497 27656.5 0
27656.5 51.6916 0
0    0    0

64.2743 27354.1 0
27354.1 -58.05 0
0    0    0

-55.0597 19848 0
19848 -276.046 0
0    0    0

-92.1581 20442.7 0
20442.7 136.291 0
0    0    0

198.152 19134.6 0
19134.6 489.622 0
0    0    0

-233.199 20700.8 0
20700.8 -295.171 0
0    0    0

-108.185 20706 0
20706 -72.5271 0
0    0    0

-121.399 21134.4 0
21134.4 -368.234 0
0    0    0

-117.812 19425.4 0
19425.4 -280.492 0
0    0    0

122.727 20172 0
20172 0.891805 0
0    0    0

-188.065 21199.8 0
21199.8 -207.349 0
0    0    0

162.892 20336.8 0
20336.8 437.99 0
0    0    0

162.525 19813.7 0
19813.7 51.7216 0
0    0    0

-208.451 20370.2 0
20370.2 -61.9343 0
0    0    0

194.553 20793.8 0
20793.8 219.2 0
0    0    0

-32.0519 20693.7 0
20693.7 -71.0197 0
0    0    0

16.0647 21642.1 0
21642.1 159.879 0
0    0    0

-152.9 21974.6 0
21974.6 -214.139 0
0    0    0

234.955 19609.5 0
19609.5 76.6046 0
0    0    0

-77.6908 21111.3 0
21111.3 76.8407 0
0    0    0

32.5766 31727.3 0
31727.3 328.525 0
0    0    0

188.875 30992.7 0
30992.7 17.1487 0
0    0    0

-80.2041 30420.7 0
30420.7 -5.2847 0
0    0    0

-87.17 30791.4 0
30791.4 52.8446 0
0    0    0

130.862 30754.7 0
30754.7 -68.849 0
0    0    0

-275.755 31479.5 0
31479.5 -178.556 0
0    0    0

259.53 30986 0
30986 133.356 0
0    0    0

240.613 31591.5 0
31591.5 458.681 0
0    0    0

164.015 29756.5 0
29756.5 251.194 0
0    0    0

-103.183 29141.2 0
29141.2 120.104 0
0    0    0

-158.982 26978.2 0
26978.2 -147.261 0
0    0    0

220.584 25378 0
25378 259.083 0
0    0    0

-60.7527 25104.9 0
25104.9 -119.057 0
0    0    0

205.594 24825.5 0
24825.5 153.16 0
0    0    0

-119.908 25656.3 0
25656.3 -416.332 0
0    0    0

-129.683 25234.5 0
25234.5 -112.81 0
0    0    0

-141.88 25816.8 0
25816.8 -196.995 0
0    0    0

-72.3146 26461.4 0
26461.4 37.5971 0
0    0    0

-213.865 25165.2 0
25165.2 -254.34 0
0    0    0

39.9255 25475.8 0
25475.8 208.924 0
0    0    0

115.758 25595.4 0
25595.4 233.524 0
0    0    0

-212.181 25846.8 0
25846.8 -55.3985 0
0    0    0

-164.24 24821.9 0
24821.9 -165.789 0
0    0    0

292.458 26051.1 0
26051.1 159.089 0
0    0    0

63.951 26336.9 0
26336.9 -19.8855 0
0    0    0

-72.6817 26411.4 0
26411.4 -279.468 0
0    0    0

25.1656 26189.7 0
26189.7 -61.012 0
0    0    0

66.363 26357.9 0
26357.9 216.877 0
0    0    0

240.006 25539.2 0
25539.2 255.537 0
0    0    0

121.244 26057.5 0
26057.5 182.509 0
0    0    0

99.1908 26691.3 0
26691.3 341.187 0
0    0    0

20.8445 26163.1 0
26163.1 61.6874 0
0    0    0

-172.301 25917.3 0
25917.3 -114.872 0
0    0    0

237.68 24834.2 0
24834.2 250.533 0
0    0    0

-202.762 24686.1 0
24686.1 -404.25 0
0    0    0

37.7276 25525.3 0
25525.3 292.753 0
0    0    0

113.01 24391.4 0
24391.4 407.358 0
0    0    0

-87.9808 24386.7 0
24386.7 -272.163 0
0    0    0

215.524 24917.3 0
24917.3 360.796 0
0    0    0

136.27 24426.3 0
24426.3 43.4248 0
0    0    0

-109.236 25240.6 0
25240.6 -156.85 0
0    0    0

126.843 24372.6 0
24372.6 469.301 0
0    0    0

-121.875 23194.9 0
23194.9 -323.533 0
0    0    0

-349.365 24028.1 0
24028.1 -399.992 0
0    0    0

-108.524 21607.7 0
21607.7 61.7504 0
0    0    0

100.918 23061.4 0
23061.4 154.762 0
0    0    0

35.1328 24367.7 0
24367.7 175.545 0
0    0    0

-164.305 23440.3 0
23440.3 -235.438 0
0    0    0

-8.7188 26393 0
26393 407.902 0
0    0    0

-31.6737 25649.8 0
25649.8 -210.653 0
0    0    0

102.885 25788 0
25788 -56.523 0
0    0    0

-92.3426 25609.6 0
25609.6 162.949 0
0    0    0

-231.996 23783.1 0
23783.1 -82.0258 0
0    0    0

196.776 24344.6 0
24344.6 49.9389 0
0    0    0

71.756 24826.8 0
24826.8 -208.009 0
0    0    0

-295.962 25182.9 0
25182.9 -109.261 0
0    0    0

76.1446 59870.7 0
59870.7 -32.2813 0
0    0    0

40.1996 60351 0
60351 11.7679 0
0    0    0

68.3213 59142 0
59142 171.028 0
0    0    0

13.6376 59981.8 0
59981.8 -242.473 0
0    0    0

-268.72 60886.4 0
60886.4 -329.708 0
0    0    0

241.819 61894.3 0
61894.3 218.888 0
0    0    0

-231.838 58761.7 0
58761.7 -132.663 0
0    0    0

-139.055 58754 0
58754 -113.189 0
0    0    0

41.694 60323.9 0
60323.9 -50.6311 0
0    0    0

244.072 60959.7 0
60959.7 228.051 0
0    0    0

75.3805 60490.3 0
60490.3 219.005 0
0    0    0

-361.794 60777.5 0
60777.5 -145.328 0
0    0    0

71.7523 59306.4 0
59306.4 -227.351 0
0    0    0

-7.12774 59289 0
59289 -300.652 0
0    0    0

331.585 58413.1 0
58413.1 158.591 0
0    0    0

225.426 59016.7 0
59016.7 282.454 0
0    0    0

-105.627 59116.2 0
59116.2 135.238 0
0    0    0

170.485 58831.4 0
58831.4 342.854 0
0    0    0

-88.528 58252.7 0
58252.7 -165.032 0
0    0    0

31.4281 58019.8 0
58019.8 204.83 0
0    0    0

-205.97 59213.6 0
59213.6 -351.427 0
0    0    0

137.287 59756.7 0
59756.7 36.832 0
0    0    0

147.515 58047.7 0
58047.7 38.837 0
0    0    0

-178.129 58976.3 0
58976.3 -306.994 0
0    0    0

-227.867 58822.5 0
58822.5 -257.751 0
0    0    0

193.465 59308.4 0
59308.4 437.089 0
0    0    0

180.546 59431.8 0
59431.8 391.97 0
0    0    0

-39.8684 60201.7 0
60201.7 -215.367 0
0    0    0

84.0613 59426.9 0
59426.9 361.572 0
0    0    0

-265.007 59166.3 0
59166.3 -397.273 0
0    0    0

285.394 58727.2 0
58727.2 135.187 0
0    0    0

-131.855 58484.9 0
58484.9 4.17193 0
0    0    0

259.694 58416.9 0
58416.9 352.287 0
0    0    0

-221.346 58342.6 0
58342.6 -326.893 0
0    0    0

-314.007 59677.6 0
59677.6 -440.202 0
0    0    0

-208.876 59810.2 0
59810.2 -420.215 0
0    0    0

-183.599 61521.4 0
61521.4 -54.4981 0
0    0    0

181.528 61620.7 0
61620.7 143.864 0
0    0    0

-43.6794 62529.6 0
62529.6 -18.1133 0
0    0    0

-102.247 62146.9 0
62146.9 182.691 0
0    0    0

-245.68 59436 0
59436 -175.489 0
0    0    0

282.019 59188.9 0
59188.9 512.456 0
0    0    0

-27.5191 60357.3 0
60357.3 172.416 0
0    0    0

147.5 60737.2 0
60737.2 210.978 0
0    0    0

77.4128 60311.7 0
60311.7 328.087 0
0    0    0

268.167 61423.8 0
61423.8 350.061 0
0    0    0

-143.115 58890.8 0
58890.8 -214.083 0
0    0    0

32.4382 59363.3 0
59363.3 268.863 0
0    0    0

-132.931 59760.3 0
59760.3 -405.549 0
0    0    0

118.583 60520.2 0
60520.2 229.891 0
0    0    0

190.455 61004.3 0
61004.3 235.882 0
0    0    0

-244.339 60814.1 0
60814.1 -391.444 0
0    0    0

94.8932 61318.2 0
61318.2 368.345 0
0    0    0

56.9046 60680 0
60680 70.9096 0
0    0    0

-118.04 60549 0
60549 -289.46 0
0    0    0

-171.585 61121.1 0
61121.1 -195.554 0
0    0    0

100.828 60315.1 0
60315.1 212.732 0
0    0    0

87.12 60992.1 0
60992.1 -193.197 0
0    0    0

-150.762 49684.2 0
49684.2 112.347 0
0    0    0

-156.829 49864.4 0
49864.4 60.0448 0
0    0    0

278.875 48183.5 0
48183.5 246.463 0
0    0    0

160.58 47738.9 0
47738.9 199.9 0
0    0    0

213.715 49026.5 0
49026.5 92.2069 0
0    0    0

-102.577 49271.2 0
49271.2 -83.3139 0
0    0    0

-149.803 48177 0
48177 -88.5578 0
0    0    0

169.746 48370 0
48370 80.8338 0
0    0    0

-86.6703 59952.1 0
59952.1 -132.244 0
0    0    0

134.054 59389.5 0
59389.5 3.79791 0
0    0    0

113.119 58719 0
58719 229.485 0
0    0    0

230.283 59438.4 0
59438.4 240.437 0
0    0    0

68.6121 60300.9 0
60300.9 -124.68 0
0    0    0

-8.42371 59885.9 0
59885.9 -50.4069 0
0    0    0

-149.794 59503.2 0
59503.2 23.8443 0
0    0    0

-103.22 59116.5 0
59116.5 41.9729 0
0    0    0

-55.9121 58380.3 0
58380.3 138.16 0
0    0    0

-67.0456 58852.2 0
58852.2 339.129 0
0    0    0

239.304 59826.8 0
59826.8 288.758 0
0    0    0

290.832 58297.6 0
58297.6 242.578 0
0    0    0

-31.3456 58650.4 0
58650.4 -257.535 0
0    0    0

181.152 58190.2 0
58190.2 213.942 0
0    0    0

240.348 57772.1 0
57772.1 223.342 0
0    0    0

-281.077 58857.2 0
58857.2 -48.6321 0
0    0    0

39.8717 59795.6 0
59795.6 35.0586 0
0    0    0

116.407 59381.2 0
59381.2 148.269 0
0    0    0

67.4854 59101.1 0
59101.1 65.7207 0
0    0    0

-277.513 58438.9 0
58438.9 -322.402 0
0    0    0

85.0682 59050.6 0
59050.6 129.96 0
0    0    0

398.539 58689.1 0
58689.1 264.264 0
0    0    0

-238.142 59888 0
59888 -311.996 0
0    0    0

-374.631 59316.2 0
59316.2 -603.815 0
0    0    0

189.458 58541.9 0
58541.9 407.696 0
0    0    0

-217.579 58209.7 0
58209.7 -486.235 0
0    0    0

349.545 59631.8 0
59631.8 472.552 0
0    0    0

75.5235 59113.2 0
59113.2 -71.8564 0
0    0    0

40.0098 54553.6 0
54553.6 -118.115 0
0    0    0

-60.3525 54646.1 0
54646.1 -295.45 0
0    0    0

173.443 54087.1 0
54087.1 377.501 0
0    0    0

28.1823 52923.3 0
52923.3 313.172 0
0    0    0

-164.436 54383.9 0
54383.9 -377.676 0
0    0    0

69.6104 53083.1 0
53083.1 -136.321 0
0    0    0

-18.7066 54245.5 0
54245.5 160.153 0
0    0    0

-173.871 53948.5 0
53948.5 24.0715 0
0    0    0

134.023 54294.2 0
54294.2 388.455 0
0    0    0

162.92 53693.5 0
53693.5 266.771 0
0    0    0

45.6787 53982.9 0
53982.9 -61.079 0
0    0    0

-141.737 53486.3 0
53486.3 -158.616 0
0    0    0

25.4077 56710.2 0
56710.2 227.865 0
0    0    0

-208.348 56946.8 0
56946.8 22.8668 0
0    0    0

160.086 56576.3 0
56576.3 375.264 0
0    0    0

141.77 56281.1 0
56281.1 -71.0553 0
0    0    0

-245.863 57958.3 0
57958.3 -280.436 0
0    0    0

-4.26003 57495.2 0
57495.2 -331.758 0
0    0    0

223.993 56526.9 0
56526.9 54.2806 0
0    0    0

191.482 55650.7 0
55650.7 -116.859 0
0    0    0

-199.227 60063.1 0
60063.1 45.3914 0
0    0    0

-73.4111 57588.5 0
57588.5 -263.858 0
0    0    0

104.797 56611.7 0
56611.7 369.891 0
0    0    0

-158.77 54915.5 0
54915.5 -266.629 0
0    0    0

208.503 57571.1 0
57571.1 155.005 0
0    0    0

-266.024 58677.2 0
58677.2 -291.192 0
0    0    0

130.462 55516.4 0
55516.4 92.699 0
0    0    0

33.4369 55232.5 0
55232.5 -92.647 0
0    0    0

-303.655 58637.5 0
58637.5 -257.015 0
0    0    0

307.577 57923.5 0
57923.5 361.588 0
0    0    0

103.811 55856.5 0
55856.5 -98.0618 0
0    0    0

84.8913 56910.2 0
56910.2 -129.802 0
0    0    0

-152.214 57280 0
57280 2.19041 0
0    0    0

117.253 57122.3 0
57122.3 238.165 0
0    0    0

141.149 57875.7 0
57875.7 422.474 0
0    0    0

-271.883 58107.8 0
58107.8 -331.1 0
0    0    0

-203.2 57465 0
57465 -443.599 0
0    0    0

157.176 57623.9 0
57623.9 209.551 0
0    0    0

-44.8603 57187.9 0
57187.9 147.569 0
0    0    0

55.0741 56464.3 0
56464.3 14.7297 0
0    0    0

-231.297 56723.3 0
56723.3 -353.867 0
0    0    0

-198.451 55966 0
55966 3.16844 0
0    0    0

-161.559 51274.2 0
51274.2 -234.576 0
0    0    0

114.37 47628.2 0
47628.2 145.121 0
0    0    0

-120.8 63957.6 0
63957.6 -270.212 0
0    0    0

27.7891 63867 0
63867 241.354 0
0    0    0

8.7062 62465.8 0
62465.8 100.385 0
0    0    0

8.91385 62972.1 0
62972.1 248.607 0
0    0    0

-30.5669 64216.7 0
64216.7 -203.831 0
0    0    0

63.8001 63652.6 0
63652.6 -49.7302 0
0    0    0

-51.9534 64765 0
64765 -167.325 0
0    0    0

50.798 64671.1 0
64671.1 327.381 0
0    0    0

-155.902 63701.8 0
63701.8 -343.218 0
0    0    0

183.339 63957.9 0
63957.9 332.948 0
0    0    0

197.205 61191.2 0
61191.2 17.4555 0
0    0    0

94.1457 61889.5 0
61889.5 259.5 0
0    0    0

60.9641 64068.1 0
64068.1 208.845 0
0    0    0

-157.683 64444.3 0
64444.3 -66.6142 0
0    0    0

-64.8196 64001.6 0
64001.6 290.807 0
0    0    0

-169.025 63369.9 0
63369.9 -47.9949 0
0    0    0

-302.04 59982.4 0
59982.4 -142.829 0
0    0    0

-195.008 59387.1 0
59387.1 42.6528 0
0    0    0

-33.8266 59070.6 0
59070.6 150.21 0
0    0    0

193.529 58602.8 0
58602.8 339.102 0
0    0    0

40.7898 58250 0
58250 -184.397 0
0    0    0

108.405 58209.9 0
58209.9 -207.533 0
0    0    0

-122.248 57942.2 0
57942.2 87.674 0
0    0    0

-122.501 58495.9 0
58495.9 79.1797 0
0    0    0

-128.94 44431.3 0
44431.3 -307.279 0
0    0    0

-175.251 44939.7 0
44939.7 -166.072 0
0    0    0

239.664 45634.6 0
45634.6 199.858 0
0    0    0

78.6669 45255.3 0
45255.3 -59.7129 0
0    0    0

99.9332 44488.6 0
44488.6 211.397 0
0    0    0

-70.2349 44703.7 0
44703.7 46.9102 0
0    0    0

-85.5649 42420.3 0
42420.3 -73.2059 0
0    0    0

27.726 42560.2 0
42560.2 279.442 0
0    0    0

173.667 44133.9 0
44133.9 -45.1247 0
0    0    0

-161.212 44892.5 0
44892.5 -352.148 0
0    0    0

-223.82 43737.7 0
43737.7 -278.946 0
0    0    0

-64.7269 44068 0
44068 -25.2891 0
0    0    0

79.4755 45081.5 0
45081.5 227.823 0
0    0    0

8.77586 44895.1 0
44895.1 -154.62 0
0    0    0

-95.3995 45504.6 0
45504.6 -108.888 0
0    0    0

-252.349 46414.8 0
46414.8 -130.521 0
0    0    0

-251.605 44934.2 0
44934.2 -367.96 0
0    0    0

-0.545537 43678.6 0
43678.6 191.221 0
0    0    0

195.709 44562.1 0
44562.1 402.531 0
0    0    0

130.949 44142.6 0
44142.6 -1.15036 0
0    0    0

170.113 45126.6 0
45126.6 167.168 0
0    0    0

116.751 43928.1 0
43928.1 79.3943 0
0    0    0

-66.0952 44027.6 0
44027.6 -28.4307 0
0    0    0

-130.417 44957.4 0
44957.4 -96.9278 0
0    0    0

98.5693 44686.7 0
44686.7 252.5 0
0    0    0

-49.2716 43977 0
43977 -30.8888 0
0    0    0

107.383 45232.1 0
45232.1 -52.5626 0
0    0    0

-83.1865 44787.5 0
44787.5 -111.8 0
0    0    0

-138.822 45794.6 0
45794.6 -230.962 0
0    0    0

40.124 45787.4 0
45787.4 211.792 0
0    0    0

-25.159 43649.8 0
43649.8 193.994 0
0    0    0

-119.187 43823.1 0
43823.1 -49.7074 0
0    0    0

-111.472 46069.7 0
46069.7 -433.102 0
0    0    0

221.7 45543.4 0
45543.4 -36.1953 0
0    0    0

114.164 45203.7 0
45203.7 51.1868 0
0    0    0

-46.4374 45551.5 0
45551.5 -188.535 0
0    0    0

-138.86 45246.5 0
45246.5 -61.7949 0
0    0    0

-170.421 44082.1 0
44082.1 -101.686 0
0    0    0

-107.618 48322.8 0
48322.8 -226.04 0
0    0    0

-204.515 46221.4 0
46221.4 -90.8894 0
0    0    0

322.05 45464.5 0
45464.5 178.902 0
0    0    0

-147.854 44936.9 0
44936.9 76.5247 0
0    0    0

-117.469 44798.8 0
44798.8 148.465 0
0    0    0

-27.8452 44156.4 0
44156.4 61.5878 0
0    0    0

-158.846 42925.3 0
42925.3 -261.921 0
0    0    0

203.22 43181.5 0
43181.5 279.125 0
0    0    0

183.56 48202.9 0
48202.9 222.2 0
0    0    0

-194.677 46347 0
46347 -155.145 0
0    0    0

-27.0438 45999.7 0
45999.7 169.227 0
0    0    0

-76.0469 45232.6 0
45232.6 -117.575 0
0    0    0

45.0412 44434.4 0
44434.4 -139.208 0
0    0    0

-194.028 45589.8 0
45589.8 -2.18528 0
0    0    0

171.233 43860.6 0
43860.6 81.3197 0
0    0    0

150.055 43449 0
43449 -18.0328 0
0    0    0

-137.641 43548.7 0
43548.7 -210.157 0
0    0    0

-48.4223 43765.9 0
43765.9 -188.187 0
0    0    0

167.681 46359.4 0
46359.4 334.171 0
0    0    0

137.516 46079.7 0
46079.7 164.325 0
0    0    0

53.4936 46424.7 0
46424.7 7.57544 0
0    0    0

-238.242 45718.2 0
45718.2 -197.898 0
0    0    0

137.347 46720.4 0
46720.4 -79.4477 0
0    0    0

239.136 45341.8 0
45341.8 134.721 0
0    0    0

182.93 44217.6 0
44217.6 222.613 0
0    0    0

-206.563 44087.1 0
44087.1 -384.114 0
0    0    0

103.513 44936 0
44936 -89.1899 0
0    0    0

-192.003 44443.7 0
44443.7 -257.743 0
0    0    0

61.1438 44819.1 0
44819.1 7.53104 0
0    0    0

79.1545 44568.9 0
44568.9 16.9495 0
0    0    0

-7.26489 46805.7 0
46805.7 -114.669 0
0    0    0

-4.65894 46853.6 0
46853.6 207.8 0
0    0    0

-108.916 47108.4 0
47108.4 -210.879 0
0    0    0

40.487 44950.9 0
44950.9 -158.261 0
0    0    0

133.501 46351.8 0
46351.8 111.463 0
0    0    0

108.161 45720 0
45720 92.3031 0
0    0    0

176.563 46400.7 0
46400.7 301.05 0
0    0    0

-202.781 45940.8 0
45940.8 -15.6612 0
0    0    0

-56.6363 47446.6 0
47446.6 132.299 0
0    0    0

-126.098 46619.2 0
46619.2 -159.058 0
0    0    0

317.107 46791 0
46791 636.631 0
0    0    0

-9.58505 46025.5 0
46025.5 -120.884 0
0    0    0

85.7853 47108.2 0
47108.2 -140.371 0
0    0    0

20.5383 47513.5 0
47513.5 75.3843 0
0    0    0

-214.617 46413 0
46413 -116.401 0
0    0    0

65.044 44159.9 0
44159.9 -103.19 0
0    0    0

-89.3273 44693.2 0
44693.2 -29.2498 0
0    0    0

-273.84 45268 0
45268 -200.774 0
0    0    0

-96.2393 43291.9 0
43291.9 114.917 0
0    0    0

182.243 45064.6 0
45064.6 9.5701 0
0    0    0

6.79812 45061 0
45061 133.898 0
0    0    0

-173.658 44711.8 0
44711.8 16.9766 0
0    0    0

-95.16 45556.8 0
45556.8 75.885 0
0    0    0

119.661 45025.8 0
45025.8 208.641 0
0    0    0

-122.239 44674.9 0
44674.9 -33.1774 0
0    0    0

54.6748 44664.7 0
44664.7 -79.9074 0
0    0    0

54.012 44892.4 0
44892.4 281.229 0
0    0    0

-164.764 43892.1 0
43892.1 -363.879 0
0    0    0

-87.8118 44182 0
44182 -160.087 0
0    0    0

4.77002 44533 0
44533 273.719 0
0    0    0

22.7979 43614.3 0
43614.3 -217.163 0
0    0    0

32.1303 42803.4 0
42803.4 101.624 0
0    0    0

78.994 43339.8 0
43339.8 190.782 0
0    0    0

22.3933 43290.1 0
43290.1 -30.8587 0
0    0    0

-307.622 44100.1 0
44100.1 -266.761 0
0    0    0

-65.3956 43133.4 0
43133.4 -277.846 0
0    0    0

246.157 42960.5 0
42960.5 331.801 0
0    0    0

146.005 43907.8 0
43907.8 171.829 0
0    0    0

19.1147 44486.7 0
44486.7 -342.34 0
0    0    0

333.955 43608.8 0
43608.8 484.653 0
0    0    0

31.1406 44015 0
44015 -221.698 0
0    0    0

12.9254 44329.1 0
44329.1 53.8502 0
0    0    0

-306.824 43330.4 0
43330.4 -388.737 0
0    0    0

-90.0476 43684.4 0
43684.4 124.203 0
0    0    0

275.729 42519 0
42519 176.802 0
0    0    0

180.917 43088.1 0
43088.1 176.721 0
0    0    0

74.8015 43865.2 0
43865.2 222.793 0
0    0    0

-78.7554 41631.7 0
41631.7 233.248 0
0    0    0

72.1716 43014.6 0
43014.6 240.927 0
0    0    0

225.541 43599.8 0
43599.8 390.251 0
0    0    0

-209.215 42310.1 0
42310.1 -221.372 0
0    0    0

-181.911 42747.7 0
42747.7 -286.39 0
0    0    0

-106.421 42304.6 0
42304.6 -186.418 0
0    0    0

-159.712 41789.3 0
41789.3 12.7437 0
0    0    0

-116.01 44098.4 0
44098.4 -384.011 0
0    0    0

-118.496 43674.8 0
43674.8 33.5078 0
0    0    0

14.4345 44408.4 0
44408.4 267.344 0
0    0    0

219.616 45616.3 0
45616.3 190.064 0
0    0    0

-121.648 43633.6 0
43633.6 -257.269 0
0    0    0

-29.3835 43925 0
43925 265.432 0
0    0    0

35.4786 44510.4 0
44510.4 -75.269 0
0    0    0

29.9429 44263.2 0
44263.2 140.107 0
0    0    0

-77.9816 45354.7 0
45354.7 -204.325 0
0    0    0

258.156 46144.9 0
46144.9 284.382 0
0    0    0

89.5491 40382.7 0
40382.7 157.705 0
0    0    0

-162.095 42426.3 0
42426.3 -130.908 0
0    0    0

179.156 41741 0
41741 79.9767 0
0    0    0

209.387 42266.5 0
42266.5 164.527 0
0    0    0

63.664 42546.2 0
42546.2 221.219 0
0    0    0

302.443 41979.7 0
41979.7 268.332 0
0    0    0

68.7687 42849.1 0
42849.1 -75.3468 0
0    0    0

-228.246 42237.8 0
42237.8 -141.085 0
0    0    0

6.31529 40952.4 0
40952.4 199.115 0
0    0    0

-150.827 41797.2 0
41797.2 -184.104 0
0    0    0

-90.2107 40523.9 0
40523.9 -200.973 0
0    0    0

-255.409 42075.4 0
42075.4 -182.907 0
0    0    0

-26.0561 41252.3 0
41252.3 -223.744 0
0    0    0

235.733 40180.5 0
40180.5 218.433 0
0    0    0

188.233 41798.6 0
41798.6 38.6643 0
0    0    0

81.5195 42600.8 0
42600.8 322.951 0
0    0    0

196.677 42540.4 0
42540.4 253.546 0
0    0    0

-176.894 43550.2 0
43550.2 -184.117 0
0    0    0

50.4157 45151 0
45151 274.115 0
0    0    0

-223.739 44019.6 0
44019.6 112.792 0
0    0    0

-227.502 46127.1 0
46127.1 -303.706 0
0    0    0

43.9331 44677.3 0
44677.3 95.1201 0
0    0    0

158.422 44560.3 0
44560.3 -137.588 0
0    0    0

331.134 44354.8 0
44354.8 366.842 0
0    0    0

114.362 44263 0
44263 42.0546 0
0    0    0

177.431 44987.8 0
44987.8 -62.305 0
0    0    0

84.8996 45788.5 0
45788.5 -317.741 0
0    0    0

-74.8542 45903.8 0
45903.8 -136.666 0
0    0    0

26.8966 46282.1 0
46282.1 149.517 0
0    0    0

135.516 46222.8 0
46222.8 377.31 0
0    0    0

106.559 46428.4 0
46428.4 -143.913 0
0    0    0

168.414 45241.2 0
45241.2 203.041 0
0    0    0

-36.5785 46943 0
46943 -30.314 0
0    0    0

-273.413 45930.1 0
45930.1 -239.259 0
0    0    0

295.699 46759.5 0
46759.5 74.7422 0
0    0    0

-172.674 46851.1 0
46851.1 69.8767 0
0    0    0

90.6153 45468.6 0
45468.6 165.962 0
0    0    0

-132.303 45435.4 0
45435.4 -231.439 0
0    0    0

-252.833 45691.9 0
45691.9 -324.458 0
0    0    0

-160.85 45139.2 0
45139.2 -242.567 0
0    0    0

113.83 42479.8 0
42479.8 -87.0212 0
0    0    0

152.991 42433.8 0
42433.8 22.2837 0
0    0    0

-62.2725 41558.8 0
41558.8 189.83 0
0    0    0

250.566 39115.4 0
39115.4 178.77 0
0    0    0

-251.318 40987.3 0
40987.3 -266.343 0
0    0    0

-260.323 41625.3 0
41625.3 -307.386 0
0    0    0

-141.175 42252.8 0
42252.8 4.42195 0
0    0    0

10.44 41368.5 0
41368.5 52.3925 0
0    0    0

199.127 41597.8 0
41597.8 141.973 0
0    0    0

-165.593 41678.2 0
41678.2 -117.991 0
0    0    0

224.695 41183.2 0
41183.2 234.809 0
0    0    0

-172.256 41407.2 0
41407.2 -44.612 0
0    0    0

126.772 45780.6 0
45780.6 1.8095 0
0    0    0

129.123 43299.8 0
43299.8 -84.3105 0
0    0    0

-352.273 47181.5 0
47181.5 -158.572 0
0    0    0

-237.486 46585.4 0
46585.4 -227.759 0
0    0    0

-188.954 47616.9 0
47616.9 -247.79 0
0    0    0

140.272 48025.8 0
48025.8 299.07 0
0    0    0

-26.3834 46548.6 0
46548.6 248.623 0
0    0    0

-203.193 45626.1 0
45626.1 -113.648 0
0    0    0

62.7268 44814.5 0
44814.5 -186.679 0
0    0    0

-120.111 45383.3 0
45383.3 53.9074 0
0    0    0

343.359 45932.5 0
45932.5 164.398 0
0    0    0

-271.583 46128.1 0
46128.1 -81.3023 0
0    0    0

269.282 44822.2 0
44822.2 221.805 0
0    0    0

199.13 45338.9 0
45338.9 316.959 0
0    0    0

-215.804 44648.9 0
44648.9 -180.214 0
0    0    0

34.3419 44934.3 0
44934.3 69.1188 0
0    0    0

73.8878 41447.6 0
41447.6 195.446 0
0    0    0

-165.22 40720.8 0
40720.8 -389.637 0
0    0    0

-154.721 41795.8 0
41795.8 -250.325 0
0    0    0

75.7614 40975.5 0
40975.5 186.11 0
0    0    0

5.75295 39654.8 0
39654.8 193.099 0
0    0    0

125.417 39966.5 0
39966.5 41.0475 0
0    0    0

205.077 42004.1 0
42004.1 226.085 0
0    0    0

-150.999 41953.8 0
41953.8 -183.255 0
0    0    0

-92.1796 39872.7 0
39872.7 188.519 0
0    0    0

-120.593 40042.6 0
40042.6 -114.067 0
0    0    0

-252.175 40648.2 0
40648.2 -386.825 0
0    0    0

-63.8233 41332.5 0
41332.5 -152.716 0
0    0    0

21.653 40760 0
40760 -49.8013 0
0    0    0

-147.356 41150.9 0
41150.9 -354.411 0
0    0    0

241.213 43539.5 0
43539.5 -174.71 0
0    0    0

29.619 40927.4 0
40927.4 196.504 0
0    0    0

238.478 47399.9 0
47399.9 284.953 0
0    0    0

31.5656 46892.5 0
46892.5 15.7878 0
0    0    0

-1.60351 46835.9 0
46835.9 -246.81 0
0    0    0

119.887 46515.7 0
46515.7 -53.1432 0
0    0    0

-145.564 46490.6 0
46490.6 -25.4759 0
0    0    0

341.3 45092.4 0
45092.4 253.568 0
0    0    0

-204.527 39028.8 0
39028.8 -132.084 0
0    0    0

141.773 37975 0
37975 438.315 0
0    0    0

54.4741 39991.4 0
39991.4 -124.9 0
0    0    0

159.206 40795.9 0
40795.9 183.132 0
0    0    0

29.2239 40714.6 0
40714.6 119.708 0
0    0    0

-97.4912 40227.2 0
40227.2 -236.941 0
0    0    0

-173.532 42577.7 0
42577.7 -63.3131 0
0    0    0

-197.242 42243.6 0
42243.6 -48.9405 0
0    0    0

-218.508 41172.7 0
41172.7 -323.325 0
0    0    0

-299.591 42055.9 0
42055.9 41.7419 0
0    0    0

-63.7963 45124.7 0
45124.7 -165.151 0
0    0    0

235.23 43742.3 0
43742.3 310.542 0
0    0    0

66.3002 45704.5 0
45704.5 155.469 0
0    0    0

144.489 44867.3 0
44867.3 -15.8733 0
0    0    0

-126.829 46818.1 0
46818.1 -42.756 0
0    0    0

-107.876 46156.4 0
46156.4 -126.3 0
0    0    0

163.034 47495.3 0
47495.3 153.548 0
0    0    0

-3.43341 47318.8 0
47318.8 210.552 0
0    0    0

104.679 38647.3 0
38647.3 -152.574 0
0    0    0

-103.569 38853.2 0
38853.2 21.0268 0
0    0    0

391.378 39355.3 0
39355.3 -45.7687 0
0    0    0

-136.634 40092.5 0
40092.5 85.227 0
0    0    0

139.574 39272.1 0
39272.1 249.215 0
0    0    0

23.9194 40530.5 0
40530.5 -251.498 0
0    0    0

-181.894 40139.1 0
40139.1 80.2255 0
0    0    0

115.915 41779.5 0
41779.5 -66.821 0
0    0    0

-136.021 45457.1 0
45457.1 -217.239 0
0    0    0

-301.556 44828.3 0
44828.3 -427.676 0
0    0    0

181.976 46320.5 0
46320.5 219.039 0
0    0    0

-212.996 45305.8 0
45305.8 8.5472 0
0    0    0

287.717 46096.1 0
46096.1 242.225 0
0    0    0

36.9285 44827 0
44827 240.18 0
0    0    0

-63.6975 45886.4 0
45886.4 233.284 0
0    0    0

-60.0087 45711 0
45711 -78.4473 0
0    0    0

228.579 46572.8 0
46572.8 -45.0736 0
0    0    0

160.671 46023.7 0
46023.7 -5.91476 0
0    0    0

-116.238 47808 0
47808 -337.585 0
0    0    0

30.4985 46721 0
46721 -161.444 0
0    0    0

12.3354 39379.8 0
39379.8 -225.366 0
0    0    0

-100.048 39423.6 0
39423.6 -303.703 0
0    0    0

-195.102 38888.2 0
38888.2 -149.269 0
0    0    0

125.356 39756.8 0
39756.8 -84.0603 0
0    0    0

-24.4938 40952.8 0
40952.8 256.893 0
0    0    0

52.629 41229.6 0
41229.6 -258.766 0
0    0    0

116.286 42280.1 0
42280.1 81.828 0
0    0    0

114.57 41953.8 0
41953.8 214.068 0
0    0    0

-117.512 46673.4 0
46673.4 -17.7674 0
0    0    0

-153.191 44699.5 0
44699.5 -88.0603 0
0    0    0

-42.4603 48358 0
48358 135.783 0
0    0    0

89.1909 46979 0
46979 -168.827 0
0    0    0

21.4086 47207.9 0
47207.9 240.194 0
0    0    0

97.5959 47756.4 0
47756.4 327.197 0
0    0    0

58.5652 46875.8 0
46875.8 72.5414 0
0    0    0

-177.139 48132.8 0
48132.8 -221.917 0
0    0    0

101.673 39897.1 0
39897.1 320.149 0
0    0    0

-35.1424 39858.2 0
39858.2 -108.027 0
0    0    0

-186.586 39545.8 0
39545.8 -350.151 0
0    0    0

-57.1589 39796.7 0
39796.7 38.9751 0
0    0    0

12.3438 39390.8 0
39390.8 72.1203 0
0    0    0

-319.62 39117.2 0
39117.2 -109.542 0
0    0    0

-106.545 39503 0
39503 132.696 0
0    0    0

39.723 41465 0
41465 214.942 0
0    0    0

-77.4398 39013.2 0
39013.2 40.0446 0
0    0    0

67.9674 39950.8 0
39950.8 167.162 0
0    0    0

-40.8502 40530.4 0
40530.4 210.478 0
0    0    0

85.1591 40969.3 0
40969.3 323.279 0
0    0    0

65.6966 42666.3 0
42666.3 163.217 0
0    0    0

-125.868 43106.7 0
43106.7 -171.371 0
0    0    0

307.352 41350.2 0
41350.2 179.688 0
0    0    0

110.523 42000.1 0
42000.1 16.7943 0
0    0    0

16.6057 45369 0
45369 243.415 0
0    0    0

245.224 44397.3 0
44397.3 253.641 0
0    0    0

118.87 45559 0
45559 -113.082 0
0    0    0

-149.701 46282 0
46282 -127.923 0
0    0    0

-86.7428 47661.5 0
47661.5 169.991 0
0    0    0

67.4976 47214.2 0
47214.2 65.963 0
0    0    0

135.802 48972.7 0
48972.7 139.97 0
0    0    0

-112.577 49571.9 0
49571.9 -360.209 0
0    0    0

-69.2352 47476.8 0
47476.8 -263.701 0
0    0    0

-136.119 47914.7 0
47914.7 148.056 0
0    0    0

123.18 38541.8 0
38541.8 170.092 0
0    0    0

23.3627 39372.1 0
39372.1 -56.4329 0
0    0    0

54.1599 38031.5 0
38031.5 136.421 0
0    0    0

-19.557 38126 0
38126 -283.647 0
0    0    0

-201.219 38382.5 0
38382.5 -220.722 0
0    0    0

-135.932 38531.2 0
38531.2 134.212 0
0    0    0

142.134 39740.7 0
39740.7 40.7428 0
0    0    0

138.839 39114.5 0
39114.5 4.79661 0
0    0    0

-14.0935 39624.2 0
39624.2 189.599 0
0    0    0

-82.254 39209.5 0
39209.5 23.3983 0
0    0    0

-111.979 37602.8 0
37602.8 -112.287 0
0    0    0

-270.589 38179.6 0
38179.6 -540.576 0
0    0    0

122.341 40102 0
40102 251.012 0
0    0    0

-170.875 41387.6 0
41387.6 -183.695 0
0    0    0

44.5373 42232 0
42232 -70.6858 0
0    0    0

-300.661 42623.5 0
42623.5 -212.47 0
0    0    0

211.022 42788.9 0
42788.9 165.899 0
0    0    0

-97.7635 42910.5 0
42910.5 -114.062 0
0    0    0

-89.0256 49323 0
49323 -262.428 0
0    0    0

-48.5752 48017.6 0
48017.6 -220.869 0
0    0    0

138.579 39007.4 0
39007.4 -67.1183 0
0    0    0

1.70671 38414.9 0
38414.9 267.223 0
0    0    0

21.9654 37853.8 0
37853.8 -158.099 0
0    0    0

-0.0945905 37413.1 0
37413.1 320.196 0
0    0    0

-197.035 39679.9 0
39679.9 20.7086 0
0    0    0

221.738 38785.8 0
38785.8 176.491 0
0    0    0

-36.6883 39054.9 0
39054.9 34.2735 0
0    0    0

-334.778 38483.2 0
38483.2 -129.076 0
0    0    0

113.303 40833.1 0
40833.1 186.445 0
0    0    0

153.14 41128.3 0
41128.3 338.312 0
0    0    0

131.399 41584.9 0
41584.9 -87.6775 0
0    0    0

-121.595 42090.5 0
42090.5 -159.849 0
0    0    0

-110.878 40386.3 0
40386.3 -207.639 0
0    0    0

-130.759 40736.3 0
40736.3 -196.077 0
0    0    0

255.323 40903.3 0
40903.3 272.332 0
0    0    0

185.409 40323.9 0
40323.9 152.16 0
0    0    0

-108.082 43293.6 0
43293.6 47.8062 0
0    0    0

-182.679 42858.5 0
42858.5 -346.024 0
0    0    0

-95.3915 39570.7 0
39570.7 90.3565 0
0    0    0

125.477 39262.3 0
39262.3 -120.139 0
0    0    0

117.594 38633.3 0
38633.3 -169.145 0
0    0    0

-155.974 39325.6 0
39325.6 54.1692 0
0    0    0

23.9946 38364.6 0
38364.6 -169.835 0
0    0    0

87.7072 37528.8 0
37528.8 -74.6257 0
0    0    0

-126.43 40260.3 0
40260.3 -173.434 0
0    0    0

-236.472 40669.3 0
40669.3 -266.282 0
0    0    0

-191.048 37855.1 0
37855.1 146.923 0
0    0    0

187.415 37165 0
37165 124.181 0
0    0    0

-61.9344 37046.1 0
37046.1 -7.87652 0
0    0    0

56.6575 37743.9 0
37743.9 241.438 0
0    0    0

27.8661 38126.9 0
38126.9 172.842 0
0    0    0

-141.944 36490.8 0
36490.8 -37.7916 0
0    0    0

59.3931 35684.4 0
35684.4 -164.09 0
0    0    0

-55.2069 37433.7 0
37433.7 -213.721 0
0    0    0

224.714 37765.6 0
37765.6 205.479 0
0    0    0

43.7799 37231.9 0
37231.9 43.2528 0
0    0    0

0.432115 36982.6 0
36982.6 -267.431 0
0    0    0

-41.6154 37117.8 0
37117.8 -265.1 0
0    0    0

-134.838 37925.6 0
37925.6 -204.663 0
0    0    0

-124.209 38643.6 0
38643.6 -388.206 0
0    0    0

141.483 37250.5 0
37250.5 207.598 0
0    0    0

-222.152 36412.1 0
36412.1 -127.109 0
0    0    0

-90.4375 37607.6 0
37607.6 -202.389 0
0    0    0

9.45766 36709.4 0
36709.4 60.9271 0
0    0    0

166.694 37578.3 0
37578.3 165.297 0
0    0    0

11.6772 38355.4 0
38355.4 63.8618 0
0    0    0

175.929 38915.4 0
38915.4 273.534 0
0    0    0

-45.2832 38715.3 0
38715.3 41.5071 0
0    0    0

-103.254 39170.7 0
39170.7 -256.092 0
0    0    0

268.812 39546 0
39546 249.344 0
0    0    0

-177.259 38758.2 0
38758.2 -222.714 0
0    0    0

-23.5289 39881.8 0
39881.8 -144.87 0
0    0    0

-16.8027 40650.6 0
40650.6 165.565 0
0    0    0

-405 39899.8 0
39899.8 -218.81 0
0    0    0

150.947 41005.4 0
41005.4 2.30262 0
0    0    0

-132.236 40634.7 0
40634.7 -169.846 0
0    0    0

382.862 39547.8 0
39547.8 320.169 0
0    0    0

204.673 40087.1 0
40087.1 178.176 0
0    0    0

117.685 40545.9 0
40545.9 -7.54121 0
0    0    0

122.507 41293.7 0
41293.7 -243.022 0
0    0    0

-215.495 40965.3 0
40965.3 30.1878 0
0    0    0

298.823 40887.4 0
40887.4 116.52 0
0    0    0

148.268 35827 0
35827 24.5423 0
0    0    0

1.80579 35762.9 0
35762.9 49.5083 0
0    0    0

221.054 34951.6 0
34951.6 25.9665 0
0    0    0

-203.291 36751.9 0
36751.9 -191.437 0
0    0    0

-183.782 36768.9 0
36768.9 -198.365 0
0    0    0

-120.008 36512.7 0
36512.7 300.158 0
0    0    0

-42.7845 36013.3 0
36013.3 -246.48 0
0    0    0

-53.6686 35756.3 0
35756.3 132.732 0
0    0    0

165.61 39611 0
39611 266.769 0
0    0    0

186.504 40168.1 0
40168.1 154.755 0
0    0    0

-133.338 39479 0
39479 -94.4715 0
0    0    0

156.478 39482.5 0
39482.5 9.58524 0
0    0    0

-226.117 39915.9 0
39915.9 -233.614 0
0    0    0

214.704 39828.7 0
39828.7 260.474 0
0    0    0

-99.6028 40584.7 0
40584.7 -131.169 0
0    0    0

-252.428 41012.1 0
41012.1 -183.441 0
0    0    0

-229.28 41545 0
41545 -495.407 0
0    0    0

-65.4982 40877.2 0
40877.2 -323.271 0
0    0    0

-187.372 40955 0
40955 -283.688 0
0    0    0

122.32 41374.5 0
41374.5 373.823 0
0    0    0

-172.555 40372.1 0
40372.1 -259.102 0
0    0    0

207.727 37307.1 0
37307.1 239.332 0
0    0    0

-40.3233 62867.9 0
62867.9 -193.907 0
0    0    0

-118.948 63893.6 0
63893.6 22.413 0
0    0    0

-222.07 62439.2 0
62439.2 -81.496 0
0    0    0

42.9242 62956 0
62956 302.456 0
0    0    0

-179.138 62782.1 0
62782.1 -95.3019 0
0    0    0

159.91 62492.2 0
62492.2 171.413 0
0    0    0

311.452 62483.6 0
62483.6 363.895 0
0    0    0

-242.943 63518.4 0
63518.4 -221.161 0
0    0    0

74.4708 62908.6 0
62908.6 -174.875 0
0    0    0

416.254 62027.4 0
62027.4 205.216 0
0    0    0

27.5615 63112.6 0
63112.6 -245.267 0
0    0    0

-69.3779 64270.4 0
64270.4 -240.237 0
0    0    0

-155.568 64876.2 0
64876.2 -348.307 0
0    0    0

-262.319 64219.3 0
64219.3 -249.416 0
0    0    0

-57.1165 63611.9 0
63611.9 -61.4601 0
0    0    0

17.2104 63048.8 0
63048.8 163.86 0
0    0    0

98.814 63957.4 0
63957.4 -87.673 0
0    0    0

-198.141 63440.7 0
63440.7 26.8208 0
0    0    0

-135.785 64723.9 0
64723.9 6.7882 0
0    0    0

162.201 65770.2 0
65770.2 -5.21747 0
0    0    0

-58.6002 63499 0
63499 134.394 0
0    0    0

-186.709 62230.2 0
62230.2 -53.6879 0
0    0    0

39.6245 63377 0
63377 232.061 0
0    0    0

23.6314 63330.1 0
63330.1 291.295 0
0    0    0

-40.9454 63804.7 0
63804.7 -199.836 0
0    0    0

147.075 63570.2 0
63570.2 -45.2504 0
0    0    0

186.287 63424.8 0
63424.8 187.241 0
0    0    0

199.461 62271.7 0
62271.7 18.2435 0
0    0    0

-105.341 63937.3 0
63937.3 92.8358 0
0    0    0

-183.523 63262 0
63262 -254.94 0
0    0    0

-98.2822 64333.6 0
64333.6 -163.63 0
0    0    0

-203.505 63709.8 0
63709.8 -272.894 0
0    0    0

294.602 62851.7 0
62851.7 261.679 0
0    0    0

-422.207 62119.1 0
62119.1 -58.4008 0
0    0    0

1.1165 63324.8 0
63324.8 -225.878 0
0    0    0

127.039 63030.9 0
63030.9 84.5347 0
0    0    0

60.3668 65240.7 0
65240.7 -193.098 0
0    0    0

-210.688 66907.8 0
66907.8 -359.188 0
0    0    0

-99.2596 64045.8 0
64045.8 142.01 0
0    0    0

178.842 65258.5 0
65258.5 315.792 0
0    0    0

118.648 63347 0
63347 275.316 0
0    0    0

121.42 62681.2 0
62681.2 54.1542 0
0    0    0

315.803 62580.5 0
62580.5 6.28784 0
0    0    0

-280.565 62675.4 0
62675.4 -95.1093 0
0    0    0

68.9847 65559.2 0
65559.2 -212.938 0
0    0    0

183.356 65213.6 0
65213.6 -205.429 0
0    0    0

172.179 63875.1 0
63875.1 226.225 0
0    0    0

36.9374 63614.5 0
63614.5 -138.721 0
0    0    0

189.225 64197.4 0
64197.4 133.663 0
0    0    0

-193.82 64762.5 0
64762.5 -33.8141 0
0    0    0

93.8111 62090.8 0
62090.8 256.435 0
0    0    0

-150.735 62281.7 0
62281.7 -354.747 0
0    0    0

202.858 64961 0
64961 124.579 0
0    0    0

253.829 64515.1 0
64515.1 47.3931 0
0    0    0

52.9802 64431.8 0
64431.8 343.428 0
0    0    0

-186.816 64345.9 0
64345.9 39.2807 0
0    0    0

-220.512 64795.9 0
64795.9 -250.798 0
0    0    0

265.619 65525.9 0
65525.9 173.292 0
0    0    0

-157.888 63187.8 0
63187.8 -192.31 0
0    0    0

-120.139 62452.1 0
62452.1 -214.16 0
0    0    0

-11.891 63624.2 0
63624.2 38.1029 0
0    0    0

83.4628 62670.5 0
62670.5 362.171 0
0    0    0

-86.3829 61143.9 0
61143.9 -92.1888 0
0    0    0

-30.8821 61243.3 0
61243.3 11.9131 0
0    0    0

-89.9549 65420.2 0
65420.2 22.9308 0
0    0    0

-278.994 65339.7 0
65339.7 -237.891 0
0    0    0

91.8261 61460.1 0
61460.1 -222.827 0
0    0    0

28.4729 62724.1 0
62724.1 266.743 0
0    0    0

197.865 64621.6 0
64621.6 236.431 0
0    0    0

-250.905 65923.1 0
65923.1 -146.223 0
0    0    0

222.366 63855.7 0
63855.7 252.74 0
0    0    0

-158.302 63453.6 0
63453.6 -349.991 0
0    0    0

144.539 63215.7 0
63215.7 167.546 0
0    0    0

-128.219 62946.2 0
62946.2 -309.25 0
0    0    0

164.518 63119.1 0
63119.1 52.749 0
0    0    0

-258.221 62965.5 0
62965.5 -137.873 0
0    0    0

-33.0331 63001.4 0
63001.4 -210.637 0
0    0    0

71.254 62461.4 0
62461.4 -2.13076 0
0    0    0

-66.759 64354.8 0
64354.8 172.737 0
0    0    0

-146.082 62970.7 0
62970.7 71.1612 0
0    0    0

6.91649 64315.6 0
64315.6 -3.36569 0
0    0    0

-261.876 65121.4 0
65121.4 -408.974 0
0    0    0

-189.456 65357 0
65357 -480.08 0
0    0    0

182.785 64890.8 0
64890.8 58.3212 0
0    0    0

56.6597 61259.5 0
61259.5 312.23 0
0    0    0

-51.9767 61847.9 0
61847.9 -342.655 0
0    0    0

-114.082 65056.6 0
65056.6 80.3631 0
0    0    0

-27.4689 64703.8 0
64703.8 40.4524 0
0    0    0

318.954 65055.7 0
65055.7 192.181 0
0    0    0

-164.032 65570.3 0
65570.3 -83.5274 0
0    0    0

-204.729 64799.7 0
64799.7 -364.199 0
0    0    0

220.749 65339.4 0
65339.4 234.524 0
0    0    0

46.65 65407 0
65407 -229.922 0
0    0    0

-39.4878 66171.3 0
66171.3 127.233 0
0    0    0

-16.2964 65954.5 0
65954.5 248.229 0
0    0    0

199.644 66824.8 0
66824.8 178.79 0
0    0    0

174.473 65533.9 0
65533.9 81.5294 0
0    0    0

-271.286 67129.5 0
67129.5 -49.235 0
0    0    0

22.5302 64050.1 0
64050.1 141.974 0
0    0    0

174.609 64499.4 0
64499.4 420.942 0
0    0    0

220.186 61945 0
61945 -13.1951 0
0    0    0

80.0348 61410.2 0
61410.2 -170.608 0
0    0    0

91.0471 60397.1 0
60397.1 -120.737 0
0    0    0

-334.143 60975.6 0
60975.6 -191.604 0
0    0    0

282.53 61743.9 0
61743.9 15.1786 0
0    0    0

205.431 61092 0
61092 263.908 0
0    0    0

-62.3424 61680.3 0
61680.3 169.019 0
0    0    0

163.842 61406.8 0
61406.8 -93.7018 0
0    0    0

-149.391 62009.1 0
62009.1 18.9034 0
0    0    0

-58.2543 61081.3 0
61081.3 -69.8796 0
0    0    0

47.9217 60720.1 0
60720.1 -82.6604 0
0    0    0

167.974 60443.7 0
60443.7 276.022 0
0    0    0

-221.847 61580.6 0
61580.6 -409 0
0    0    0

6.47116 60748.9 0
60748.9 82.6123 0
0    0    0

-161.978 60186.2 0
60186.2 -126.92 0
0    0    0

17.3904 60557.1 0
60557.1 230.613 0
0    0    0

-156.692 64483 0
64483 -9.05785 0
0    0    0

-112.293 63913.2 0
63913.2 57.0646 0
0    0    0

119.236 63149.5 0
63149.5 255.435 0
0    0    0

-233.356 63668.8 0
63668.8 -157.461 0
0    0    0

-156.333 62890.5 0
62890.5 -257.041 0
0    0    0

253.055 64510.8 0
64510.8 -107.17 0
0    0    0

-15.1778 62213.2 0
62213.2 -467.53 0
0    0    0

204.6 63229.2 0
63229.2 139.706 0
0    0    0

-75.045 61617.5 0
61617.5 -277.565 0
0    0    0

-90.9367 63648.2 0
63648.2 -382.612 0
0    0    0

-362.188 62784.4 0
62784.4 -308.026 0
0    0    0

198.419 61880.3 0
61880.3 310.709 0
0    0    0

-351.88 62181.6 0
62181.6 -225.598 0
0    0    0

265.563 62811.6 0
62811.6 239.403 0
0    0    0

141.922 63984 0
63984 570.006 0
0    0    0

-275.968 64307.7 0
64307.7 -350.677 0
0    0    0

184.681 63849.2 0
63849.2 4.72014 0
0    0    0

151.49 65721.1 0
65721.1 204.356 0
0    0    0

31.8273 63467.7 0
63467.7 -134.738 0
0    0    0

-35.9277 64951.8 0
64951.8 41.0068 0
0    0    0

313.19 62521 0
62521 77.8222 0
0    0    0

-90.3216 63146.2 0
63146.2 62.264 0
0    0    0

-214.337 61671.6 0
61671.6 -243.909 0
0    0    0

68.5628 62051.4 0
62051.4 337.477 0
0    0    0

193.39 61812.5 0
61812.5 157.333 0
0    0    0

80.4753 62977.5 0
62977.5 -182.77 0
0    0    0

-247.145 62868.3 0
62868.3 18.3495 0
0    0    0

317.781 63028.7 0
63028.7 267.014 0
0    0    0

-201.416 63097.1 0
63097.1 -305.987 0
0    0    0

-231.776 62322.9 0
62322.9 -368.643 0
0    0    0

156.875 60303.6 0
60303.6 358.92 0
0    0    0

-54.5225 60208.1 0
60208.1 224.334 0
0    0    0

-147.142 60571.1 0
60571.1 -231.898 0
0    0    0

-200.487 61084.3 0
61084.3 -135.131 0
0    0    0

100.176 60460.9 0
60460.9 202.158 0
0    0    0

306.401 60732.2 0
60732.2 259.577 0
0    0    0

-311.511 61511.4 0
61511.4 -261.734 0
0    0    0

64.8342 60517.3 0
60517.3 -135.881 0
0    0    0

191.988 61262.5 0
61262.5 331.304 0
0    0    0

251.821 61257.4 0
61257.4 393.182 0
0    0    0

-247.357 60745.7 0
60745.7 -181.479 0
0    0    0

-179.216 61040.5 0
61040.5 -177.843 0
0    0    0

43.6908 61762.4 0
61762.4 183.671 0
0    0    0

89.8188 62299.4 0
62299.4 27.0889 0
0    0    0

185.5 63477 0
63477 0.664144 0
0    0    0

268.447 64184.1 0
64184.1 263.599 0
0    0    0

-111.273 64420.2 0
64420.2 -134.881 0
0    0    0

-99.2585 63636.5 0
63636.5 163.371 0
0    0    0

92.1226 65091.1 0
65091.1 -261.975 0
0    0    0

-185.64 64429.2 0
64429.2 -148.367 0
0    0    0

-192.902 65800 0
65800 -394.507 0
0    0    0

176.136 65971.9 0
65971.9 165.652 0
0    0    0

162.125 64970.2 0
64970.2 107.373 0
0    0    0

-149.922 66151.1 0
66151.1 -222.509 0
0    0    0

-41.8986 64886.4 0
64886.4 68.1581 0
0    0    0

-161.745 65131.8 0
65131.8 -64.3415 0
0    0    0

88.6214 49272.8 0
49272.8 133.214 0
0    0    0

67.676 51803.3 0
51803.3 227.484 0
0    0    0

-281.24 49536.6 0
49536.6 -315.686 0
0    0    0

-199.456 48956.3 0
48956.3 -199.155 0
0    0    0

59.896 32310.1 0
32310.1 264.868 0
0    0    0

38.5884 32292.9 0
32292.9 358.149 0
0    0    0

-41.3777 33071.1 0
33071.1 213.625 0
0    0    0

-115.543 33112.7 0
33112.7 102.769 0
0    0    0

39.7174 33138.1 0
33138.1 -99.8692 0
0    0    0

-144.913 33766.8 0
33766.8 -124.072 0
0    0    0

-50.224 35097.1 0
35097.1 126.544 0
0    0    0

-156.882 35253.9 0
35253.9 152.444 0
0    0    0

234.889 32362.6 0
32362.6 330.921 0
0    0    0

-161.252 32108.2 0
32108.2 -108.576 0
0    0    0

-61.2865 31635.5 0
31635.5 -52.5562 0
0    0    0

-216.401 31031.5 0
31031.5 -185.2 0
0    0    0

52.3084 29388.1 0
29388.1 -160.932 0
0    0    0

16.7317 29356.9 0
29356.9 -252.533 0
0    0    0

62.2078 43064.1 0
43064.1 -224.39 0
0    0    0

-264.574 42509.6 0
42509.6 -390.247 0
0    0    0

202.731 42141.7 0
42141.7 242.388 0
0    0    0

250.649 42838.1 0
42838.1 296.458 0
0    0    0

-97.8724 42129.5 0
42129.5 7.37064 0
0    0    0

169.493 42734.9 0
42734.9 57.2425 0
0    0    0

-326.261 42957.3 0
42957.3 -219.629 0
0    0    0

-95.6098 43360.8 0
43360.8 102.626 0
0    0    0

182.329 43724.1 0
43724.1 220.076 0
0    0    0

-93.1295 43054.4 0
43054.4 -86.5809 0
0    0    0

-229.303 43881.8 0
43881.8 1.90277 0
0    0    0

-190.19 43079 0
43079 -318.313 0
0    0    0

191.319 43194.2 0
43194.2 388.582 0
0    0    0

4.40541 42448.3 0
42448.3 26.2582 0
0    0    0

-73.8013 43817 0
43817 92.4395 0
0    0    0

37.8036 43961.2 0
43961.2 -125.748 0
0    0    0

-132.688 43354.2 0
43354.2 -174.107 0
0    0    0

-32.8976 44621.7 0
44621.7 283.744 0
0    0    0

157.929 42684.8 0
42684.8 338.489 0
0    0    0

167.082 43247 0
43247 378.82 0
0    0    0

-155.101 42956 0
42956 -142.248 0
0    0    0

74.6947 43125.1 0
43125.1 144.813 0
0    0    0

190.558 42626.7 0
42626.7 189.487 0
0    0    0

-208.236 43591.9 0
43591.9 -231.549 0
0    0    0

-79.9482 46121.7 0
46121.7 104.595 0
0    0    0

-27.2779 43437.1 0
43437.1 -171.401 0
0    0    0

32.7812 43097.8 0
43097.8 73.1408 0
0    0    0

135.31 43683.5 0
43683.5 164.17 0
0    0    0

211.6 44326.1 0
44326.1 100.736 0
0    0    0

-144.402 44489.1 0
44489.1 -22.5079 0
0    0    0

-130.465 44332.2 0
44332.2 -271.297 0
0    0    0

250.211 45024.8 0
45024.8 363.979 0
0    0    0

-266.078 44145.3 0
44145.3 -291.995 0
0    0    0

-167.415 45357.8 0
45357.8 -366.151 0
0    0    0

8.82257 43376.6 0
43376.6 -177.992 0
0    0    0

-248.918 44740.6 0
44740.6 86.2207 0
0    0    0

279.098 43805.8 0
43805.8 412.144 0
0    0    0

228.234 44616.9 0
44616.9 34.9668 0
0    0    0

221.028 43243 0
43243 259.11 0
0    0    0

19.9318 44105.1 0
44105.1 222.828 0
0    0    0

39.5054 42590.3 0
42590.3 -90.6952 0
0    0    0

-47.7555 42827.4 0
42827.4 -453.738 0
0    0    0

313.583 45587.7 0
45587.7 307.085 0
0    0    0

65.6661 44746.3 0
44746.3 -171.514 0
0    0    0

-217.66 44799 0
44799 -298.783 0
0    0    0

69.3336 45004.2 0
45004.2 114.559 0
0    0    0

-74.1397 42723 0
42723 46.2104 0
0    0    0

-62.5584 42771.4 0
42771.4 225.815 0
0    0    0

288.406 45971.2 0
45971.2 20.7594 0
0    0    0

129.796 45293.5 0
45293.5 10.8172 0
0    0    0

-16.1117 47232.4 0
47232.4 125.719 0
0    0    0

-309.219 45902.1 0
45902.1 -410.145 0
0    0    0

158.776 45579.5 0
45579.5 145.662 0
0    0    0

-158.457 45411.6 0
45411.6 89.0352 0
0    0    0

84.91 45317.8 0
45317.8 217.944 0
0    0    0

3.476 44225 0
44225 -285.609 0
0    0    0

17.0666 44911.9 0
44911.9 -27.889 0
0    0    0

-262.173 44692.6 0
44692.6 -14.445 0
0    0    0

77.2218 46796.7 0
46796.7 351.29 0
0    0    0

-338.911 43800.6 0
43800.6 -321.082 0
0    0    0

230.476 44901.7 0
44901.7 98.8229 0
0    0    0

101.243 44320.6 0
44320.6 399.784 0
0    0    0

-91.5871 46272.9 0
46272.9 28.1248 0
0    0    0

67.7196 44964.8 0
44964.8 298.702 0
0    0    0

-66.5968 44501.8 0
44501.8 -317.483 0
0    0    0

113.821 44421.5 0
44421.5 -176.132 0
0    0    0

-138.341 44557.6 0
44557.6 -66.1552 0
0    0    0

57.7358 43667.1 0
43667.1 -5.23187 0
0    0    0

19.8443 44891 0
44891 -109.939 0
0    0    0

-129.418 45199.7 0
45199.7 -112.53 0
0    0    0

229.67 39051.1 0
39051.1 132.327 0
0    0    0

130.109 39667.4 0
39667.4 497.383 0
0    0    0

132.625 42166.6 0
42166.6 142.072 0
0    0    0

28.8445 40159.7 0
40159.7 222.416 0
0    0    0

-48.7079 41181.4 0
41181.4 -174.714 0
0    0    0

40.4029 40539 0
40539 -81.5336 0
0    0    0

149.896 42351.2 0
42351.2 228.17 0
0    0    0

-333.554 40909.3 0
40909.3 -94.8429 0
0    0    0

18.8616 40340.4 0
40340.4 239.201 0
0    0    0

-97.9652 41131.8 0
41131.8 -13.372 0
0    0    0

204.281 40782.4 0
40782.4 -41.7988 0
0    0    0

-133.993 42604.9 0
42604.9 -271.546 0
0    0    0

244.187 40736.7 0
40736.7 175.887 0
0    0    0

281.029 41830.3 0
41830.3 464.669 0
0    0    0

23.4459 42439.2 0
42439.2 168.89 0
0    0    0

-116.199 40726 0
40726 -491.418 0
0    0    0

240.58 41400.7 0
41400.7 72.7829 0
0    0    0

202.366 41795.3 0
41795.3 315.549 0
0    0    0

-149.986 42709.6 0
42709.6 -360.354 0
0    0    0

178.573 41393.8 0
41393.8 271.006 0
0    0    0

48.6259 41145.1 0
41145.1 170.948 0
0    0    0

-17.5253 40972 0
40972 165.349 0
0    0    0

77.7103 41379.6 0
41379.6 -119.007 0
0    0    0

-68.2001 41630.3 0
41630.3 83.6855 0
0    0    0

234.221 42309.6 0
42309.6 358.719 0
0    0    0

-37.4135 42109.1 0
42109.1 -298.347 0
0    0    0

-197.465 42682.3 0
42682.3 -189.087 0
0    0    0

97.0782 41323.2 0
41323.2 177.196 0
0    0    0

-103.361 43493.5 0
43493.5 -141.807 0
0    0    0

138.586 41917.1 0
41917.1 421.179 0
0    0    0

-192.613 42141.3 0
42141.3 -209.325 0
0    0    0

-99.8275 41750.7 0
41750.7 -297.005 0
0    0    0

-200.948 41582.1 0
41582.1 -279.527 0
0    0    0

-28.1632 41894.3 0
41894.3 73.2167 0
0    0    0

163.166 42968.8 0
42968.8 -51.0779 0
0    0    0

173.516 44096.6 0
44096.6 131.383 0
0    0    0

-96.9914 43148.2 0
43148.2 -388.444 0
0    0    0

48.4704 43017.8 0
43017.8 375.882 0
0    0    0

-157.493 42830.7 0
42830.7 -124.817 0
0    0    0

42.4552 42948.7 0
42948.7 269.074 0
0    0    0

-133.439 41941.5 0
41941.5 152.028 0
0    0    0

-210.063 43545.3 0
43545.3 -202.91 0
0    0    0

124.325 43530.4 0
43530.4 272.924 0
0    0    0

22.5026 43239.8 0
43239.8 -99.223 0
0    0    0

-196.514 43855.4 0
43855.4 -12.1236 0
0    0    0

-99.8707 44384.7 0
44384.7 -70.1746 0
0    0    0

-328.849 43330 0
43330 81.0386 0
0    0    0

-62.0132 44374.9 0
44374.9 -214.775 0
0    0    0

-184.103 44176.3 0
44176.3 -220.737 0
0    0    0

-282.13 44603 0
44603 -374.555 0
0    0    0

212.15 45401.6 0
45401.6 343.446 0
0    0    0

-183.641 43799.1 0
43799.1 -123.064 0
0    0    0

273.133 43594.5 0
43594.5 73.407 0
0    0    0

-119.447 44718.5 0
44718.5 -61.6311 0
0    0    0

130.473 44160.7 0
44160.7 441.063 0
0    0    0

10.6806 44117.8 0
44117.8 257.539 0
0    0    0

75.6301 42833.3 0
42833.3 210.646 0
0    0    0

-83.412 41939.3 0
41939.3 116.086 0
0    0    0

-34.6998 43755.9 0
43755.9 -286.511 0
0    0    0

-20.8398 43313.5 0
43313.5 220.589 0
0    0    0

95.7973 42403.6 0
42403.6 225.548 0
0    0    0

-136.103 43315.9 0
43315.9 -240.899 0
0    0    0

-52.4463 42778.4 0
42778.4 -161.774 0
0    0    0

-127.647 42201 0
42201 -217.983 0
0    0    0

284.252 43522.9 0
43522.9 300.157 0
0    0    0

-261.738 43177.9 0
43177.9 -142.623 0
0    0    0

-199.624 34990 0
34990 -352.466 0
0    0    0

0.39078 34967.6 0
34967.6 -333.035 0
0    0    0

-196.367 37946.7 0
37946.7 -180.655 0
0    0    0

97.1857 37933.6 0
37933.6 -75.4265 0
0    0    0

171.237 38032.5 0
38032.5 233.402 0
0    0    0

68.8571 38931.1 0
38931.1 -126.016 0
0    0    0

-23.885 39342.9 0
39342.9 215.075 0
0    0    0

54.8057 39863.7 0
39863.7 310.044 0
0    0    0

24.2436 38928.3 0
38928.3 85.5049 0
0    0    0

149.234 38468.8 0
38468.8 169.949 0
0    0    0

-193.193 39996.4 0
39996.4 -211.722 0
0    0    0

132.292 41846.4 0
41846.4 275.703 0
0    0    0

70.005 39387.7 0
39387.7 -109.413 0
0    0    0

-168.111 40276.4 0
40276.4 -221.644 0
0    0    0

2.28011 38932.4 0
38932.4 213.682 0
0    0    0

-229.526 40031.3 0
40031.3 -267.768 0
0    0    0

-207.462 40821.1 0
40821.1 -17.7213 0
0    0    0

153.079 41984.9 0
41984.9 24.8513 0
0    0    0

108.073 39083 0
39083 21.4856 0
0    0    0

168.796 39714.6 0
39714.6 143.93 0
0    0    0

-101.859 39566 0
39566 177.57 0
0    0    0

95.4123 40381.7 0
40381.7 114.531 0
0    0    0

-10.4901 39631.2 0
39631.2 -157.382 0
0    0    0

-189.831 40251.8 0
40251.8 -312.469 0
0    0    0

244.229 39764.6 0
39764.6 263.634 0
0    0    0

-123.409 39679.6 0
39679.6 -285.815 0
0    0    0

251.502 40661.2 0
40661.2 216.541 0
0    0    0

-19.8086 40105.8 0
40105.8 -235.869 0
0    0    0

-70.7881 40209.7 0
40209.7 110.778 0
0    0    0

-285.375 40427.7 0
40427.7 -479.856 0
0    0    0

106.907 40813.3 0
40813.3 105.158 0
0    0    0

-4.16303 42233.8 0
42233.8 398.215 0
0    0    0

208.916 40062.4 0
40062.4 301.641 0
0    0    0

-165.378 39838.4 0
39838.4 112.976 0
0    0    0

-105.803 41429.4 0
41429.4 -199.715 0
0    0    0

192.572 41442.7 0
41442.7 -55.0494 0
0    0    0

175.359 40289.1 0
40289.1 279.568 0
0    0    0

-101.174 40814.5 0
40814.5 -20.2286 0
0    0    0

53.922 41384.3 0
41384.3 3.42435 0
0    0    0

-291.443 40678.9 0
40678.9 -273.639 0
0    0    0

-129.516 40488.9 0
40488.9 73.2697 0
0    0    0

167.628 41122.2 0
41122.2 148.653 0
0    0    0

282.474 39772.5 0
39772.5 152.733 0
0    0    0

0.920097 40430 0
40430 -209.496 0
0    0    0

-222.421 39587.8 0
39587.8 -162.343 0
0    0    0

138.485 39978.4 0
39978.4 344.604 0
0    0    0

-219.039 41246 0
41246 104.426 0
0    0    0

206.065 40687 0
40687 108.29 0
0    0    0

-235.336 43276.4 0
43276.4 -94.4631 0
0    0    0

-116.384 41519.6 0
41519.6 -64.3315 0
0    0    0

-1.89947 40828.5 0
40828.5 -280.491 0
0    0    0

183.097 41659.6 0
41659.6 75.878 0
0    0    0

-30.0425 40546.5 0
40546.5 -313.188 0
0    0    0

-104.792 41019.6 0
41019.6 -149.204 0
0    0    0

-46.4178 40777.5 0
40777.5 -104.28 0
0    0    0

299.344 41620.9 0
41620.9 -42.9366 0
0    0    0

33.1379 40070.8 0
40070.8 -10.5094 0
0    0    0

82.1979 41266.9 0
41266.9 88.5629 0
0    0    0

-225.134 41452.1 0
41452.1 -0.640235 0
0    0    0

348.928 41169.5 0
41169.5 314.996 0
0    0    0

225.75 40436.9 0
40436.9 49.8021 0
0    0    0

-152.961 41155.8 0
41155.8 59.7826 0
0    0    0

-101.146 41220.3 0
41220.3 152.801 0
0    0    0

176.256 41050.5 0
41050.5 -94.596 0
0    0    0

38.9247 41642.5 0
41642.5 157.225 0
0    0    0

-187.632 40937.6 0
40937.6 -212.054 0
0    0    0

-142.81 39171.1 0
39171.1 -124.315 0
0    0    0

17.7031 38252.9 0
38252.9 -194.952 0
0    0    0

161.441 40462.4 0
40462.4 169.072 0
0    0    0

373.923 40926.1 0
40926.1 296.51 0
0    0    0

-40.2633 40515.5 0
40515.5 162.557 0
0    0    0

266.415 40428.5 0
40428.5 441.868 0
0    0    0

-127.799 41560.6 0
41560.6 -131.941 0
0    0    0

-261.039 40917.3 0
40917.3 -534.541 0
0    0    0

-192.117 41140.2 0
41140.2 -170.777 0
0    0    0

-206.243 41789.5 0
41789.5 -90.0684 0
0    0    0

-373.561 41719.8 0
41719.8 -218.096 0
0    0    0

2.38493 42458.3 0
42458.3 -41.0935 0
0    0    0

303.821 41971.4 0
41971.4 182.571 0
0    0    0

181.344 41949.2 0
41949.2 295.699 0
0    0    0

-77.5172 44528.3 0
44528.3 -285.798 0
0    0    0

-6.20521 43022 0
43022 194.514 0
0    0    0

-143.582 41848.1 0
41848.1 225.865 0
0    0    0

-130.206 43088.7 0
43088.7 1.69068 0
0    0    0

-125.677 39586.5 0
39586.5 -201.302 0
0    0    0

89.3875 38921.6 0
38921.6 34.5977 0
0    0    0

66.9275 38806.6 0
38806.6 -217.964 0
0    0    0

110.449 38498.7 0
38498.7 136.909 0
0    0    0

-78.3091 38203.6 0
38203.6 79.9213 0
0    0    0

-273.975 39535 0
39535 -233.788 0
0    0    0

75.9853 39265.6 0
39265.6 101.81 0
0    0    0

219.16 38178 0
38178 163.573 0
0    0    0

-219.405 39126.7 0
39126.7 -357.705 0
0    0    0

-219.813 39482.6 0
39482.6 -117.567 0
0    0    0

220.285 41342.7 0
41342.7 -59.2805 0
0    0    0

74.4965 41264 0
41264 243.477 0
0    0    0

220.726 41558.4 0
41558.4 78.9307 0
0    0    0

-84.1132 42631.5 0
42631.5 168.942 0
0    0    0

171.873 42844 0
42844 -57.5342 0
0    0    0

-125.243 43527.5 0
43527.5 -17.2188 0
0    0    0

210.638 42130.2 0
42130.2 34.1238 0
0    0    0

-130.932 42956.2 0
42956.2 12.6209 0
0    0    0

-7.69857 39140.9 0
39140.9 149.659 0
0    0    0

145.588 38745.2 0
38745.2 140.236 0
0    0    0

-160.738 38382.1 0
38382.1 -386.384 0
0    0    0

-190.578 38905.9 0
38905.9 -21.9852 0
0    0    0

213.449 37314.4 0
37314.4 243.316 0
0    0    0

-328.057 37781.5 0
37781.5 -279.239 0
0    0    0

8.23557 38696.4 0
38696.4 227.97 0
0    0    0

368.915 37990.2 0
37990.2 196.637 0
0    0    0

-87.2698 42555.3 0
42555.3 -3.10206 0
0    0    0

106.983 43359.7 0
43359.7 193.604 0
0    0    0

5.31524 43137.8 0
43137.8 -347.116 0
0    0    0

-67.0124 42696 0
42696 143.235 0
0    0    0

-133.517 42178.7 0
42178.7 -116.505 0
0    0    0

44.8774 42446.9 0
42446.9 -15.4028 0
0    0    0

-271.316 37816.3 0
37816.3 -216.992 0
0    0    0

-121.868 38124.7 0
38124.7 182.496 0
0    0    0

23.1113 36134.2 0
36134.2 -137.004 0
0    0    0

-5.71599 36879.5 0
36879.5 133.851 0
0    0    0

-201.895 42319.2 0
42319.2 -324.909 0
0    0    0

-221.601 42500.7 0
42500.7 -62.1745 0
0    0    0

-106.922 41899.6 0
41899.6 153.544 0
0    0    0

-249.768 43774.8 0
43774.8 -142.83 0
0    0    0

44.3466 43538.2 0
43538.2 182.206 0
0    0    0

173.823 45298.3 0
45298.3 -120.744 0
0    0    0

-177.229 44042 0
44042 -37.3838 0
0    0    0

239.336 44449.3 0
44449.3 218.449 0
0    0    0

99.0077 42773.1 0
42773.1 -90.3424 0
0    0    0

63.2981 43246.5 0
43246.5 132.164 0
0    0    0

-4.06792 42183.5 0
42183.5 -182.057 0
0    0    0

56.5648 42029.5 0
42029.5 -143.925 0
0    0    0

-2.63755 36653.3 0
36653.3 -193.065 0
0    0    0

-67.1671 37199.4 0
37199.4 -52.0254 0
0    0    0

-129.201 36298 0
36298 -27.9036 0
0    0    0

174.969 37413.3 0
37413.3 244.589 0
0    0    0

89.5318 36470.7 0
36470.7 173.276 0
0    0    0

206.382 36898 0
36898 119.94 0
0    0    0

-73.5125 35894.5 0
35894.5 163.514 0
0    0    0

154.362 36370.7 0
36370.7 -18.8926 0
0    0    0

-139.119 36429.6 0
36429.6 -259.364 0
0    0    0

104.648 38472.2 0
38472.2 3.89315 0
0    0    0

1.20739 35558.5 0
35558.5 -195.678 0
0    0    0

-138.658 35721.3 0
35721.3 -181.214 0
0    0    0

-22.5941 35726.2 0
35726.2 -209.541 0
0    0    0

207.551 35353.4 0
35353.4 204.761 0
0    0    0

28.8172 36809 0
36809 -97.5269 0
0    0    0

310.299 37376.8 0
37376.8 248.953 0
0    0    0

195.13 34092.2 0
34092.2 114.961 0
0    0    0

156.911 35105.7 0
35105.7 92.327 0
0    0    0

-216.161 36148.3 0
36148.3 -181.666 0
0    0    0

41.1852 36830.6 0
36830.6 215.061 0
0    0    0

-313.074 35202.7 0
35202.7 -125.634 0
0    0    0

35.7704 36188.5 0
36188.5 205.768 0
0    0    0

-87.3639 36646 0
36646 -2.77712 0
0    0    0

33.2096 37120.7 0
37120.7 88.3293 0
0    0    0

120.001 42232.4 0
42232.4 197.695 0
0    0    0

207.261 42846.2 0
42846.2 277.562 0
0    0    0

-87.4335 42992 0
42992 44.3547 0
0    0    0

22.7978 44190.1 0
44190.1 -67.7318 0
0    0    0

212.658 43553.7 0
43553.7 364.046 0
0    0    0

95.097 43266.3 0
43266.3 363.574 0
0    0    0

94.6636 43261.8 0
43261.8 -29.4687 0
0    0    0

-143.943 43638.1 0
43638.1 -199.736 0
0    0    0

-47.7412 39221.4 0
39221.4 -152.076 0
0    0    0

-191.914 38629.8 0
38629.8 -334.274 0
0    0    0

-185.831 22106.6 0
22106.6 69.1051 0
0    0    0

50.825 22933.5 0
22933.5 194.273 0
0    0    0

-185.718 23205.2 0
23205.2 -22.6521 0
0    0    0

107.296 22658.7 0
22658.7 -167.941 0
0    0    0

73.2464 21881.8 0
21881.8 20.434 0
0    0    0

25.1204 21758.8 0
21758.8 -65.1435 0
0    0    0

118.562 21091.3 0
21091.3 -212.761 0
0    0    0

-92.3797 21718.7 0
21718.7 -42.1318 0
0    0    0

69.3149 22378.5 0
22378.5 -32.4921 0
0    0    0

214.927 22911.4 0
22911.4 239.532 0
0    0    0

-224.35 22239.1 0
22239.1 34.6721 0
0    0    0

-99.1896 22369.7 0
22369.7 206.725 0
0    0    0

-91.9081 21584.3 0
21584.3 105.347 0
0    0    0

-5.52493 22005.7 0
22005.7 71.6518 0
0    0    0

-127.293 20147.8 0
20147.8 -171.997 0
0    0    0

-34.4248 21042.5 0
21042.5 -319.585 0
0    0    0

52.4216 21290.3 0
21290.3 99.431 0
0    0    0

141.8 20720.9 0
20720.9 205.846 0
0    0    0

-92.7048 21242.8 0
21242.8 115.727 0
0    0    0

248.156 20781.6 0
20781.6 96.894 0
0    0    0

191.844 20772.9 0
20772.9 279.101 0
0    0    0

-91.1544 20314.3 0
20314.3 -213.676 0
0    0    0

-181.189 20440.1 0
20440.1 -357.336 0
0    0    0

445.276 20135.3 0
20135.3 663.417 0
0    0    0

-180.51 21154.8 0
21154.8 -203.174 0
0    0    0

501.817 19294.2 0
19294.2 323.207 0
0    0    0

125.126 19274.5 0
19274.5 -26.3796 0
0    0    0

2.84584 19707.3 0
19707.3 -37.5623 0
0    0    0

-45.5879 20605.9 0
20605.9 -280.329 0
0    0    0

-126.713 19791.5 0
19791.5 74.078 0
0    0    0

-233.117 19174.2 0
19174.2 -3.38778 0
0    0    0

-152.156 20076.3 0
20076.3 -98.0418 0
0    0    0

189.554 20620.7 0
20620.7 -224.23 0
0    0    0

-200.834 19631.9 0
19631.9 -29.7564 0
0    0    0

-34.4584 18894.9 0
18894.9 -39.8023 0
0    0    0

111.59 18512.6 0
18512.6 -215.748 0
0    0    0

120.879 20009.2 0
20009.2 501.364 0
0    0    0

-91.6063 19816.9 0
19816.9 -400.086 0
0    0    0

-195.703 19865.5 0
19865.5 -429.741 0
0    0    0

142.074 20363.2 0
20363.2 357.983 0
0    0    0

154.996 19934.6 0
19934.6 198.035 0
0    0    0

-107.51 19584.8 0
19584.8 69.3838 0
0    0    0

-243.417 18984 0
18984 -370.35 0
0    0    0

81.3436 19672.3 0
19672.3 41.2878 0
0    0    0

-185.504 23938.9 0
23938.9 -105.683 0
0    0    0

-245.323 24232.7 0
24232.7 -140.716 0
0    0    0

205.309 22128.2 0
22128.2 -18.6126 0
0    0    0

46.9237 21563.1 0
21563.1 -138.217 0
0    0    0

-184.995 20153.9 0
20153.9 4.07725 0
0    0    0

50.6155 19643.4 0
19643.4 45.1272 0
0    0    0

30.7522 20698.6 0
20698.6 -50.2553 0
0    0    0

-249.962 20546.4 0
20546.4 -95.8505 0
0    0    0

-96.7819 19503.7 0
19503.7 284.319 0
0    0    0

356.336 19860.7 0
19860.7 191.531 0
0    0    0

156.14 18758.8 0
18758.8 407.282 0
0    0    0

440.2 17761.3 0
17761.3 213.551 0
0    0    0

-89.4698 20374.6 0
20374.6 -77.9855 0
0    0    0

157.714 20271.7 0
20271.7 190.418 0
0    0    0

-20.1458 19023.2 0
19023.2 -128.791 0
0    0    0

79.591 19185.2 0
19185.2 -232.511 0
0    0    0

4.25537 16809.9 0
16809.9 218.87 0
0    0    0

-2.93258 16445.9 0
16445.9 92.665 0
0    0    0

-57.4503 18406.4 0
18406.4 179.113 0
0    0    0

93.6804 17555.7 0
17555.7 30.4789 0
0    0    0

21.6992 18068.3 0
18068.3 37.0856 0
0    0    0

-154.722 16363.3 0
16363.3 -112.183 0
0    0    0

132.288 17184.9 0
17184.9 115.601 0
0    0    0

-128.556 17743.8 0
17743.8 5.72097 0
0    0    0

142.455 18367.4 0
18367.4 148.769 0
0    0    0

-74.3624 17127.9 0
17127.9 -245.481 0
0    0    0

45.1281 13897.2 0
13897.2 19.3406 0
0    0    0

124.5 15335.4 0
15335.4 -31.7721 0
0    0    0

97.4291 17622.2 0
17622.2 -121.85 0
0    0    0

122.745 13457.1 0
13457.1 -40.5754 0
0    0    0

-275.999 17765.3 0
17765.3 -125.921 0
0    0    0

185.874 17333.6 0
17333.6 222.727 0
0    0    0

-231.899 17141 0
17141 -281.981 0
0    0    0

59.6537 16258.2 0
16258.2 154.67 0
0    0    0

-46.4644 17399.6 0
17399.6 130.594 0
0    0    0

114.56 16772.4 0
16772.4 151.668 0
0    0    0

-37.5126 16196.4 0
16196.4 -107.112 0
0    0    0

5.50748 16741.6 0
16741.6 -23.5229 0
0    0    0

1.0486 19149.6 0
19149.6 93.2904 0
0    0    0

-161.201 15907.7 0
15907.7 -161.134 0
0    0    0

258.918 17656.9 0
17656.9 96.4331 0
0    0    0

60.4568 15439.5 0
15439.5 164.201 0
0    0    0

-213.389 18132.3 0
18132.3 -414.989 0
0    0    0

132.837 16885 0
16885 -194.407 0
0    0    0

101.711 16912.1 0
16912.1 333.396 0
0    0    0

137.142 16635.7 0
16635.7 -8.93084 0
0    0    0

-108.256 17040.8 0
17040.8 -529.921 0
0    0    0

157.561 17062.7 0
17062.7 214.321 0
0    0    0

-158.138 16570 0
16570 -323.097 0
0    0    0

130.63 15579 0
15579 193.146 0
0    0    0

92.8358 17367.5 0
17367.5 356.441 0
0    0    0

32.5472 17116.8 0
17116.8 44.5235 0
0    0    0

-45.9625 17368.6 0
17368.6 -262.45 0
0    0    0

-193.624 16422 0
16422 -259.369 0
0    0    0

167.652 15840.4 0
15840.4 22.9633 0
0    0    0

-13.0702 17119.7 0
17119.7 166.164 0
0    0    0

-68.3267 15378.7 0
15378.7 -29.2829 0
0    0    0

-45.184 17489 0
17489 -141.784 0
0    0    0

-12.8478 16602 0
16602 165.702 0
0    0    0

-242.902 18531.6 0
18531.6 -122.722 0
0    0    0

193.955 17877.9 0
17877.9 215.51 0
0    0    0

-154.764 19120.7 0
19120.7 -173.802 0
0    0    0

-305.17 18562.1 0
18562.1 -416.537 0
0    0    0

-150.906 17275.9 0
17275.9 73.9953 0
0    0    0

91.4883 15976.1 0
15976.1 -74.598 0
0    0    0

266.608 17425 0
17425 327.216 0
0    0    0

-109.875 16681.1 0
16681.1 -242.714 0
0    0    0

-172.474 17239.2 0
17239.2 -101.633 0
0    0    0

-45.6766 20546.4 0
20546.4 -218.483 0
0    0    0

202.389 21466.2 0
21466.2 78.2698 0
0    0    0

-192.428 21078.6 0
21078.6 -408.597 0
0    0    0

-58.8004 20330.2 0
20330.2 93.4041 0
0    0    0

60.7095 20742.2 0
20742.2 156.009 0
0    0    0

296.846 19675.9 0
19675.9 384.618 0
0    0    0

260.592 19775.9 0
19775.9 -9.45443 0
0    0    0

206.895 20234.5 0
20234.5 500.887 0
0    0    0

102.572 20507.2 0
20507.2 310.714 0
0    0    0

152.33 20816.2 0
20816.2 -160.327 0
0    0    0

-240.225 19973.8 0
19973.8 -192.988 0
0    0    0

-102.548 21553 0
21553 22.3116 0
0    0    0

93.3954 21963.8 0
21963.8 -95.3671 0
0    0    0

17.6007 21205.4 0
21205.4 199.089 0
0    0    0

-0.901698 20749 0
20749 85.8281 0
0    0    0

153.828 19262.8 0
19262.8 23.984 0
0    0    0

85.3243 20353.9 0
20353.9 461.433 0
0    0    0

107.006 20658 0
20658 -127.957 0
0    0    0

-192.863 20686.7 0
20686.7 -479.146 0
0    0    0

-19.6737 21398.3 0
21398.3 182.135 0
0    0    0

-104.445 21785.6 0
21785.6 -3.42893 0
0    0    0

38.6845 20498.5 0
20498.5 -193.671 0
0    0    0

-139.996 20555.8 0
20555.8 -393.451 0
0    0    0

-154.523 20579.8 0
20579.8 -183.448 0
0    0    0

85.2011 19973.7 0
19973.7 -198.556 0
0    0    0

-94.8686 18572 0
18572 119.398 0
0    0    0

-242.155 19769.8 0
19769.8 -400.381 0
0    0    0

-157.938 19480.1 0
19480.1 -148.073 0
0    0    0

-152.672 19657.9 0
19657.9 -179.604 0
0    0    0

-246.686 19319.6 0
19319.6 -379.608 0
0    0    0

59.0796 18712.4 0
18712.4 -77.9863 0
0    0    0

74.4316 29846.6 0
29846.6 313.403 0
0    0    0

167.955 29408.7 0
29408.7 216.74 0
0    0    0

157.15 28511.6 0
28511.6 149.89 0
0    0    0

204.155 29252.8 0
29252.8 87.0765 0
0    0    0

194.045 28041.5 0
28041.5 464.387 0
0    0    0

-116.28 28162.8 0
28162.8 112.738 0
0    0    0

78.957 24685.7 0
24685.7 -111.91 0
0    0    0

222.008 24806.5 0
24806.5 137.732 0
0    0    0

175.732 24790.1 0
24790.1 375.991 0
0    0    0

-169.543 24575.1 0
24575.1 -532.655 0
0    0    0

-73.4551 22756.4 0
22756.4 14.7894 0
0    0    0

305.77 24407.4 0
24407.4 538.247 0
0    0    0

140.517 25181.2 0
25181.2 66.5961 0
0    0    0

-330.941 24020.4 0
24020.4 -463.982 0
0    0    0

-285.203 25004.6 0
25004.6 -56.1471 0
0    0    0

-50.587 24167.1 0
24167.1 -242.829 0
0    0    0

-221.879 23827 0
23827 -12.6626 0
0    0    0

-128.05 23427.4 0
23427.4 136.4 0
0    0    0

-74.3375 24609.5 0
24609.5 -274.473 0
0    0    0

-32.76 23863.3 0
23863.3 -5.03987 0
0    0    0

112.992 25357.4 0
25357.4 328.268 0
0    0    0

120.913 25172.7 0
25172.7 -99.1301 0
0    0    0

-137.28 25785.8 0
25785.8 -244.19 0
0    0    0

-58.4269 26202.1 0
26202.1 -129.758 0
0    0    0

190.778 24516.6 0
24516.6 -47.4081 0
0    0    0

-146.559 23144.2 0
23144.2 177.566 0
0    0    0

-64.6339 24962.1 0
24962.1 74.8445 0
0    0    0

-217.809 25283.6 0
25283.6 -164.015 0
0    0    0

26.4667 20947.1 0
20947.1 -49.4163 0
0    0    0

-4.45682 22637.5 0
22637.5 211.294 0
0    0    0

-303.393 24262 0
24262 -331.021 0
0    0    0

-266.039 24117.2 0
24117.2 -528.587 0
0    0    0

-248.106 23568.3 0
23568.3 -188.691 0
0    0    0

377.559 23821.4 0
23821.4 387.31 0
0    0    0

57.9147 22300.3 0
22300.3 -223.525 0
0    0    0

117.31 23129.9 0
23129.9 232.836 0
0    0    0

24.3901 62247.2 0
62247.2 -182.476 0
0    0    0

264.708 63198.9 0
63198.9 360.122 0
0    0    0

125.905 61956.3 0
61956.3 490.375 0
0    0    0

116.621 62781.6 0
62781.6 -134.528 0
0    0    0

-142.843 62243.9 0
62243.9 98.1629 0
0    0    0

3.86205 61953.3 0
61953.3 -87.9422 0
0    0    0

-269.487 62540.4 0
62540.4 121.503 0
0    0    0

27.0584 63771.2 0
63771.2 225.13 0
0    0    0

-194.012 65686.3 0
65686.3 -412.836 0
0    0    0

152.493 64133.6 0
64133.6 -29.9327 0
0    0    0

-17.1061 63482 0
63482 -202.855 0
0    0    0

-133.508 63862 0
63862 104.508 0
0    0    0

280.605 62760 0
62760 173.762 0
0    0    0

66.449 64670.2 0
64670.2 -169.263 0
0    0    0

-224.66 61635.5 0
61635.5 -577.251 0
0    0    0

-110.987 61901.9 0
61901.9 -254.828 0
0    0    0

-62.7494 63192.4 0
63192.4 198.03 0
0    0    0

112.595 63289.1 0
63289.1 251.761 0
0    0    0

-50.5108 63558.8 0
63558.8 -256.742 0
0    0    0

56.94 63478.2 0
63478.2 -210.055 0
0    0    0

-237.573 65272.9 0
65272.9 -293.722 0
0    0    0

-187.01 64283.5 0
64283.5 -153.602 0
0    0    0

37.2258 62762.5 0
62762.5 141.885 0
0    0    0

-134.609 63066.4 0
63066.4 -167.072 0
0    0    0

-43.0206 64753.2 0
64753.2 256.702 0
0    0    0

180.709 64418.8 0
64418.8 165.732 0
0    0    0

-304.947 64601.1 0
64601.1 -591.418 0
0    0    0

-88.9324 63442.9 0
63442.9 -407.108 0
0    0    0

-202.888 64794.1 0
64794.1 -441.286 0
0    0    0

-46.1748 64034.8 0
64034.8 240.287 0
0    0    0

129.152 64379.9 0
64379.9 401.706 0
0    0    0

-367.913 65210 0
65210 -292.638 0
0    0    0

15.2951 63940.2 0
63940.2 390.719 0
0    0    0

-89.9949 63838.6 0
63838.6 216.079 0
0    0    0

155.779 64279.2 0
64279.2 412.578 0
0    0    0

196.787 64157.7 0
64157.7 240.755 0
0    0    0

91.4965 60030.4 0
60030.4 208.949 0
0    0    0

-65.1434 60075.3 0
60075.3 133.927 0
0    0    0

-234.488 48621.1 0
48621.1 -430.561 0
0    0    0

163.556 48789 0
48789 -141.394 0
0    0    0

-90.2247 47767.6 0
47767.6 -204.241 0
0    0    0

-269.76 47487.6 0
47487.6 -139.213 0
0    0    0

149.958 47423.7 0
47423.7 156.321 0
0    0    0

63.5365 46456.6 0
46456.6 22.3647 0
0    0    0

-156.531 47618 0
47618 -393.442 0
0    0    0

-139.887 46810.9 0
46810.9 -82.3399 0
0    0    0

142.043 47000.8 0
47000.8 218.282 0
0    0    0

-246.283 47254.5 0
47254.5 -60.426 0
0    0    0

-199.285 59516.2 0
59516.2 -167.715 0
0    0    0

130.561 62011.8 0
62011.8 359.023 0
0    0    0

230.177 60354.7 0
60354.7 70.1528 0
0    0    0

-122.229 60971 0
60971 11.5912 0
0    0    0

139.697 59713.4 0
59713.4 62.0497 0
0    0    0

-21.5727 60094.6 0
60094.6 -181.909 0
0    0    0

2.16998 54847.1 0
54847.1 82.683 0
0    0    0

-151.799 54078.7 0
54078.7 -52.9348 0
0    0    0

207.949 54087.6 0
54087.6 267.984 0
0    0    0

29.0238 53757.6 0
53757.6 281.395 0
0    0    0

16.5374 51956.9 0
51956.9 -84.551 0
0    0    0

188.178 53367.3 0
53367.3 119.178 0
0    0    0

133.467 52456.6 0
52456.6 -51.0688 0
0    0    0

192.493 52189 0
52189 -139.103 0
0    0    0

116.905 53190.6 0
53190.6 255.157 0
0    0    0

-30.1489 53602.1 0
53602.1 -304.753 0
0    0    0

-208.404 53286.3 0
53286.3 87.2348 0
0    0    0

-63.2667 52926.4 0
52926.4 -374.158 0
0    0    0

6.61049 52308.4 0
52308.4 150.431 0
0    0    0

-91.8308 51471.8 0
51471.8 62.6255 0
0    0    0

58.7851 51303.7 0
51303.7 -25.2798 0
0    0    0

18.0288 51675.3 0
51675.3 81.5637 0
0    0    0

-58.9642 51009.7 0
51009.7 59.868 0
0    0    0

-11.335 51449.8 0
51449.8 147.803 0
0    0    0

40.0459 59878.9 0
59878.9 373.401 0
0    0    0

-85.3508 59249.6 0
59249.6 -88.1762 0
0    0    0

-32.4968 59162.7 0
59162.7 -186.195 0
0    0    0

217.803 58150.8 0
58150.8 219.287 0
0    0    0

-177.964 59674.6 0
59674.6 99.4767 0
0    0    0

80.7203 58936.5 0
58936.5 62.2341 0
0    0    0

-215.363 59384.2 0
59384.2 166.391 0
0    0    0

180.539 59296.4 0
59296.4 10.3192 0
0    0    0

-261.86 58377.1 0
58377.1 -258.156 0
0    0    0

53.476 58609.2 0
58609.2 111.945 0
0    0    0

269.979 57721.4 0
57721.4 451.901 0
0    0    0

-170.745 57801.9 0
57801.9 -202.493 0
0    0    0

112.275 55185.4 0
55185.4 9.10469 0
0    0    0

-85.6265 57492.6 0
57492.6 -186.481 0
0    0    0

-166.915 57370.3 0
57370.3 -291.316 0
0    0    0

18.0533 57093.3 0
57093.3 483.248 0
0    0    0

-76.2039 56701.6 0
56701.6 44.6193 0
0    0    0

201.578 56122.1 0
56122.1 -226.141 0
0    0    0

-105.654 56737 0
56737 -338.319 0
0    0    0

-210.8 56859.8 0
56859.8 -252.784 0
0    0    0

187.076 64482.9 0
64482.9 -21.1908 0
0    0    0

123.918 67108.8 0
67108.8 -124.456 0
0    0    0

14.9837 60798.6 0
60798.6 127.425 0
0    0    0

-273.347 60824.6 0
60824.6 -216.456 0
0    0    0

-11.0009 60373.9 0
60373.9 -193.408 0
0    0    0

347.542 60757.5 0
60757.5 -22.6886 0
0    0    0

30.9786 61521.2 0
61521.2 -258.921 0
0    0    0

-135.032 62350.7 0
62350.7 -133.349 0
0    0    0

-64.0669 61996.5 0
61996.5 152.776 0
0    0    0

227.37 62547.7 0
62547.7 491.965 0
0    0    0

-227.283 64354.5 0
64354.5 -108.411 0
0    0    0

-384.81 62112.1 0
62112.1 -537.491 0
0    0    0

47.883 62145.2 0
62145.2 -243.668 0
0    0    0

-129.522 62590.5 0
62590.5 -239.12 0
0    0    0

-37.4838 62594.1 0
62594.1 291.271 0
0    0    0

-290.817 62895.3 0
62895.3 -694.104 0
0    0    0

89.4602 63484.8 0
63484.8 -59.5994 0
0    0    0

96.6549 62186.3 0
62186.3 122.545 0
0    0    0

331.505 62423.5 0
62423.5 666.186 0
0    0    0

98.8165 61875 0
61875 233.222 0
0    0    0

-153.425 61927.3 0
61927.3 -177.594 0
0    0    0

-315.443 60625.4 0
60625.4 -219.879 0
0    0    0

-273.05 60882.3 0
60882.3 -302.399 0
0    0    0

295.395 60432 0
60432 214.96 0
0    0    0

304.322 61143.3 0
61143.3 374.711 0
0    0    0

-220.166 61435.3 0
61435.3 -253.729 0
0    0    0

-201.43 60764.6 0
60764.6 -81.9993 0
0    0    0

12.1008 59853.3 0
59853.3 24.3182 0
0    0    0

204.713 60907.5 0
60907.5 242.326 0
0    0    0

-158.054 62216.6 0
62216.6 72.0814 0
0    0    0

-139.817 61122 0
61122 -33.2552 0
0    0    0

119.862 61668.6 0
61668.6 200.243 0
0    0    0

-18.2693 64365.2 0
64365.2 -275.707 0
0    0    0

-313.06 64853.2 0
64853.2 -485.807 0
0    0    0

331.899 65110.5 0
65110.5 197.812 0
0    0    0

224.224 64569.6 0
64569.6 66.32 0
0    0    0

-70.2698 66488.5 0
66488.5 -273.196 0
0    0    0

-132.144 66048.2 0
66048.2 68.2837 0
0    0    0

-119.113 64963.1 0
64963.1 -127.67 0
0    0    0

-224.494 65373 0
65373 -235.799 0
0    0    0

1.19156 64573.3 0
64573.3 118.273 0
0    0    0

39.2068 65411 0
65411 -161.451 0
0    0    0

-275.503 64202.2 0
64202.2 -594.34 0
0    0    0

253.36 63796.3 0
63796.3 188.732 0
0    0    0

197.729 65537 0
65537 -42.1418 0
0    0    0

-107.625 64479.9 0
64479.9 -206.129 0
0    0    0

208.772 64515.4 0
64515.4 455.224 0
0    0    0

156.817 64171.4 0
64171.4 173.674 0
0    0    0

122.672 43460.9 0
43460.9 278.123 0
0    0    0

71.9138 43551.7 0
43551.7 235.996 0
0    0    0

29.2354 43783.4 0
43783.4 -169.787 0
0    0    0

55.7972 43382.7 0
43382.7 -138.045 0
0    0    0

-233.8 42844.9 0
42844.9 -235.203 0
0    0    0

-89.0365 41761.4 0
41761.4 85.2225 0
0    0    0

-69.6371 42085.3 0
42085.3 2.56893 0
0    0    0

-192.504 42055.4 0
42055.4 30.5955 0
0    0    0

132.243 46808.8 0
46808.8 264.296 0
0    0    0

329.155 47607.3 0
47607.3 485.367 0
0    0    0

-178.185 49083.1 0
49083.1 -254.552 0
0    0    0

90.6508 49131.1 0
49131.1 151.38 0
0    0    0

-110.005 44411 0
44411 -358.86 0
0    0    0

-241.964 44623.9 0
44623.9 -387.167 0
0    0    0

-225.687 38942.3 0
38942.3 -185.689 0
0    0    0

277.433 37212 0
37212 203.115 0
0    0    0

7.89493 41910.7 0
41910.7 234.368 0
0    0    0

314.435 42492.1 0
42492.1 252.594 0
0    0    0

156.826 41860 0
41860 -178.106 0
0    0    0

-6.79129 42364.5 0
42364.5 -58.9934 0
0    0    0

92.4665 43134.8 0
43134.8 240.877 0
0    0    0

-193.78 43372.9 0
43372.9 48.3741 0
0    0    0

141.873 38817.4 0
38817.4 114.83 0
0    0    0

67.4457 38450.7 0
38450.7 42.4741 0
0    0    0

26.3007 39463.8 0
39463.8 -62.4798 0
0    0    0

172.059 39054 0
39054 222.364 0
0    0    0

203.385 38733.6 0
38733.6 27.4509 0
0    0    0

-9.8104 39208.4 0
39208.4 -174.31 0
0    0    0

56.7893 37949.8 0
37949.8 142.079 0
0    0    0

151.486 37592.9 0
37592.9 149.265 0
0    0    0

139.343 37637.7 0
37637.7 -82.1231 0
0    0    0

-110.704 37373 0
37373 58.1758 0
0    0    0

252.466 38411.9 0
38411.9 138.112 0
0    0    0

33.6503 38066.9 0
38066.9 -234.639 0
0    0    0

75.6218 36358.7 0
36358.7 -123.193 0
0    0    0

-146.489 36837.4 0
36837.4 -12.2674 0
0    0    0

83.9278 36338.3 0
36338.3 140.203 0
0    0    0

59.0732 37455.4 0
37455.4 -96.1552 0
0    0    0

-52.8311 38264.6 0
38264.6 -93.3805 0
0    0    0

142.41 37391.5 0
37391.5 114.904 0
0    0    0

177.193 37304.8 0
37304.8 42.4633 0
0    0    0

-104.754 36425.5 0
36425.5 -118.643 0
0    0    0

-53.0416 38296 0
38296 7.58709 0
0    0    0

-78.5981 38221.3 0
38221.3 -248.067 0
0    0    0

141.321 36931 0
36931 -0.645053 0
0    0    0

-110.369 36896.9 0
36896.9 -205.65 0
0    0    0

-179.701 36097.6 0
36097.6 -67.9338 0
0    0    0

151.609 36632.2 0
36632.2 62.8904 0
0    0    0

-223.408 37413 0
37413 -290.616 0
0    0    0

-125.567 37208 0
37208 -38.9513 0
0    0    0

217.857 36619.5 0
36619.5 62.3041 0
0    0    0

-242.425 36861 0
36861 -280.115 0
0    0    0

-231.466 38655.4 0
38655.4 -67.3888 0
0    0    0

103.917 39170.6 0
39170.6 279.738 0
0    0    0

79.6293 38851 0
38851 -158.116 0
0    0    0

46.8084 38485 0
38485 191.905 0
0    0    0

79.844 37922.4 0
37922.4 287.129 0
0    0    0

-220.861 37695.8 0
37695.8 -281.229 0
0    0    0

83.3692 37856.7 0
37856.7 207.648 0
0    0    0

-60.873 37891.8 0
37891.8 209.413 0
0    0    0

-100.266 37718.7 0
37718.7 -222.981 0
0    0    0

4.72696 37004.3 0
37004.3 90.4316 0
0    0    0

214.38 36708.8 0
36708.8 210.401 0
0    0    0

-220.472 36524.9 0
36524.9 -119.546 0
0    0    0

-263.604 38242.6 0
38242.6 -563.246 0
0    0    0

97.0001 37694.4 0
37694.4 -167.396 0
0    0    0

-262.33 37013.6 0
37013.6 -219.642 0
0    0    0

277.547 37354.6 0
37354.6 144.733 0
0    0    0

222.018 36653.5 0
36653.5 248.436 0
0    0    0

25.2481 35807.6 0
35807.6 259.457 0
0    0    0

214.138 36332.6 0
36332.6 32.587 0
0    0    0

-161.701 37188.6 0
37188.6 -232.433 0
0    0    0

-124.883 36150.1 0
36150.1 -63.4512 0
0    0    0

86.5037 36521.6 0
36521.6 211.378 0
0    0    0

79.3384 36066.9 0
36066.9 -3.83101 0
0    0    0

-19.7554 35522.6 0
35522.6 -178.745 0
0    0    0

-35.8603 35224.3 0
35224.3 202.779 0
0    0    0

212.916 35884.8 0
35884.8 153.988 0
0    0    0

71.603 36058.6 0
36058.6 4.91797 0
0    0    0

-85.0781 35815.1 0
35815.1 249.852 0
0    0    0

-102.296 39482.1 0
39482.1 -139.487 0
0    0    0

-9.36069 37926.7 0
37926.7 70.8678 0
0    0    0

83.4487 36841.2 0
36841.2 -85.3788 0
0    0    0

15.237 36027.7 0
36027.7 -255.213 0
0    0    0

-23.4274 36395.8 0
36395.8 285.477 0
0    0    0

-226.023 35462.2 0
35462.2 -268.14 0
0    0    0

20.1766 35007.1 0
35007.1 -45.8037 0
0    0    0

-242.731 35016.1 0
35016.1 93.6211 0
0    0    0

199.749 35248 0
35248 -53.5439 0
0    0    0

100.244 35808.5 0
35808.5 -87.8834 0
0    0    0

127.401 39074 0
39074 306.393 0
0    0    0

132.646 37504.7 0
37504.7 214.106 0
0    0    0

-47.263 38164.4 0
38164.4 225.046 0
0    0    0

120.594 36498.7 0
36498.7 -50.9213 0
0    0    0

285.506 38531.4 0
38531.4 59.6728 0
0    0    0

-185.678 37820.6 0
37820.6 -241.281 0
0    0    0

-96.8873 38119.3 0
38119.3 173.253 0
0    0    0

396.282 38500.6 0
38500.6 69.7202 0
0    0    0

269.572 37022.4 0
37022.4 179.249 0
0    0    0

228.571 35211 0
35211 -13.5817 0
0    0    0

-207.881 37324.6 0
37324.6 -178.133 0
0    0    0

236.116 37002.2 0
37002.2 306.898 0
0    0    0

-90.8359 36679.8 0
36679.8 -267.086 0
0    0    0

173.216 36469.2 0
36469.2 44.3827 0
0    0    0

-101.85 34854.5 0
34854.5 115.752 0
0    0    0

103.017 35629.9 0
35629.9 -82.136 0
0    0    0

-227.29 35673.1 0
35673.1 -51.6418 0
0    0    0

-102.664 34127.9 0
34127.9 -183.825 0
0    0    0

245.222 38469.3 0
38469.3 516.767 0
0    0    0

-85.2223 38123 0
38123 -17.4569 0
0    0    0

-216.012 40126.6 0
40126.6 -82.1083 0
0    0    0

39.4179 41391.2 0
41391.2 -96.3838 0
0    0    0

221.004 40321 0
40321 299.953 0
0    0    0

-219.424 41138.6 0
41138.6 -37.389 0
0    0    0

5.56148 38447.4 0
38447.4 -123.778 0
0    0    0

-203.406 38894.1 0
38894.1 -76.2193 0
0    0    0

-182.491 39408 0
39408 -111.995 0
0    0    0

-250.039 39537.6 0
39537.6 -305.138 0
0    0    0

-189.542 36842.9 0
36842.9 -39.1757 0
0    0    0

-37.0088 36010.4 0
36010.4 -218.136 0
0    0    0

155.021 37516.1 0
37516.1 275.984 0
0    0    0

-346.883 37327.5 0
37327.5 -141.046 0
0    0    0

181.245 37577.4 0
37577.4 282.922 0
0    0    0

-262.819 37142.6 0
37142.6 -166.315 0
0    0    0

200.789 35918 0
35918 -11.1256 0
0    0    0

249.688 35655 0
35655 110.232 0
0    0    0

-1.59907 36365.1 0
36365.1 -48.9459 0
0    0    0

-18.2752 36102.7 0
36102.7 -41.2151 0
0    0    0

-213.735 36209.7 0
36209.7 126.047 0
0    0    0

9.62623 36844.9 0
36844.9 39.7375 0
0    0    0

130.104 34821.6 0
34821.6 -89.3649 0
0    0    0

222.95 35243.8 0
35243.8 132.794 0
0    0    0

-32.1463 33608.1 0
33608.1 65.6929 0
0    0    0

-126.954 35001.1 0
35001.1 -235.611 0
0    0    0

-73.5002 38598.2 0
38598.2 -43.0763 0
0    0    0

51.7554 39742.4 0
39742.4 280.75 0
0    0    0

-58.079 38833.5 0
38833.5 -294.031 0
0    0    0

18.9867 39183.7 0
39183.7 256.172 0
0    0    0

190.148 39652.2 0
39652.2 -34.973 0
0    0    0

-42.904 39365.8 0
39365.8 -207.419 0
0    0    0

166.904 40181.1 0
40181.1 128.833 0
0    0    0

-137.171 39920 0
39920 -428.655 0
0    0    0

-14.3991 38425 0
38425 -62.5218 0
0    0    0

-620.471 38821.2 0
38821.2 -330.701 0
0    0    0

132.913 38247.8 0
38247.8 -181.783 0
0    0    0

171.468 36626 0
36626 172.675 0
0    0    0

-38.7475 36608 0
36608 103.087 0
0    0    0

50.5772 35928.5 0
35928.5 160.352 0
0    0    0

137.099 36031.8 0
36031.8 276.428 0
0    0    0

247.47 36735.2 0
36735.2 378.471 0
0    0    0

64.2258 35144.8 0
35144.8 -187.894 0
0    0    0

-343.981 35136.9 0
35136.9 -210.566 0
0    0    0

-244.125 41390 0
41390 -196.695 0
0    0    0

208.289 40766.1 0
40766.1 205.195 0
0    0    0

-186.958 40593.9 0
40593.9 -312.797 0
0    0    0

297.087 40926.8 0
40926.8 280.899 0
0    0    0

207.359 40366.6 0
40366.6 416.956 0
0    0    0

-20.0574 40389.4 0
40389.4 348.772 0
0    0    0

-25.9316 40612.6 0
40612.6 -35.766 0
0    0    0

99.911 39384.5 0
39384.5 169.55 0
0    0    0

-107.153 39462.1 0
39462.1 -255.407 0
0    0    0

120.769 39918.9 0
39918.9 -156.537 0
0    0    0

-243.331 41008.7 0
41008.7 -194.733 0
0    0    0

-95.1874 40071.3 0
40071.3 -163.399 0
0    0    0

5.29123 42245.2 0
42245.2 -147.13 0
0    0    0

-133.952 40515 0
40515 -142.845 0
0    0    0

86.9725 41149.6 0
41149.6 180.572 0
0    0    0

-75.0057 40860.1 0
40860.1 -303.041 0
0    0    0

-59.0293 40627.2 0
40627.2 -29.4953 0
0    0    0

-43.3898 40706.4 0
40706.4 237.299 0
0    0    0

-97.4026 41188.1 0
41188.1 -325.601 0
0    0    0

-136.812 40279.2 0
40279.2 -7.77459 0
0    0    0

27.2909 38227 0
38227 111.582 0
0    0    0

-232.809 36824.6 0
36824.6 -335.451 0
0    0    0

187.088 36304.4 0
36304.4 199.488 0
0    0    0

213.528 36937.7 0
36937.7 232.075 0
0    0    0

-195.537 35860.2 0
35860.2 -247.603 0
0    0    0

279.628 34742.3 0
34742.3 139.477 0
0    0    0

-134.976 34413.8 0
34413.8 -162.855 0
0    0    0

-15.9777 34815.7 0
34815.7 179.167 0
0    0    0

-97.2434 35656.2 0
35656.2 152.007 0
0    0    0

-51.6131 35463.6 0
35463.6 96.7077 0
0    0    0

-78.8113 36596 0
36596 -116.453 0
0    0    0

-255.539 35919.4 0
35919.4 -18.1721 0
0    0    0

-354.005 36989.5 0
36989.5 -237.511 0
0    0    0

58.1232 36125.1 0
36125.1 177.692 0
0    0    0

176.978 40102.9 0
40102.9 154.801 0
0    0    0

-9.24843 38985.1 0
38985.1 149.104 0
0    0    0

-261.509 41333.6 0
41333.6 -89.4098 0
0    0    0

91.5966 43488.6 0
43488.6 218.36 0
0    0    0

455.307 39792 0
39792 108.03 0
0    0    0

-275.356 39913.8 0
39913.8 -344.2 0
0    0    0

34.6253 39637.1 0
39637.1 -180.842 0
0    0    0

246.925 37380.6 0
37380.6 148.208 0
0    0    0

-165.619 39868.7 0
39868.7 66.6865 0
0    0    0

-19.3412 39337.6 0
39337.6 -181.712 0
0    0    0

-7.48167 35881.7 0
35881.7 0.514956 0
0    0    0

-188.717 36478.9 0
36478.9 -103.349 0
0    0    0

-132.066 36008.7 0
36008.7 -120.859 0
0    0    0

149.261 36226.1 0
36226.1 -34.1461 0
0    0    0

197.541 36891.5 0
36891.5 38.9718 0
0    0    0

-33.8656 36375.9 0
36375.9 -81.2884 0
0    0    0

127.006 35546.9 0
35546.9 72.0113 0
0    0    0

48.1204 35315.2 0
35315.2 22.859 0
0    0    0

-176.406 35722.2 0
35722.2 92.6877 0
0    0    0

78.7954 34959.6 0
34959.6 112.338 0
0    0    0

145.278 34930.5 0
34930.5 208.995 0
0    0    0

23.543 34376.5 0
34376.5 -301.64 0
0    0    0

-71.8426 35266.3 0
35266.3 -356.33 0
0    0    0

-190.923 35034.7 0
35034.7 -15.9889 0
0    0    0

170.51 32203.2 0
32203.2 224.93 0
0    0    0

-116.477 34633.4 0
34633.4 148.241 0
0    0    0

-21.0352 35064.8 0
35064.8 -155.468 0
0    0    0

12.1517 35410.6 0
35410.6 146.494 0
0    0    0

155.007 34687.8 0
34687.8 -48.5887 0
0    0    0

-81.4335 35355.2 0
35355.2 158.954 0
0    0    0

-152.62 35658.9 0
35658.9 -93.9295 0
0    0    0

11.897 34246.7 0
34246.7 192.123 0
0    0    0

-191.598 34536.1 0
34536.1 -83.0947 0
0    0    0

-45.3631 34766.7 0
34766.7 176.263 0
0    0    0

-119.054 35645.7 0
35645.7 -12.9075 0
0    0    0

-122.561 36152.9 0
36152.9 -10.2226 0
0    0    0

84.1568 35716.8 0
35716.8 -2.58393 0
0    0    0

-252.509 34594.6 0
34594.6 -51.8868 0
0    0    0

-27.7621 34030.9 0
34030.9 -47.1025 0
0    0    0

-22.0858 33865.6 0
33865.6 -211.438 0
0    0    0

27.438 33004.3 0
33004.3 126.005 0
0    0    0

128.33 34848.8 0
34848.8 -182.188 0
0    0    0

57.3691 34379.5 0
34379.5 -191.299 0
0    0    0

-333.754 34543.5 0
34543.5 -231.089 0
0    0    0

31.776 33588.9 0
33588.9 99.7163 0
0    0    0

171.872 34131.5 0
34131.5 196.252 0
0    0    0

169.705 34211.5 0
34211.5 4.41012 0
0    0    0

-42.2391 35082.5 0
35082.5 -92.5153 0
0    0    0

-212.936 33602.7 0
33602.7 -170.678 0
0    0    0

107.311 34495.8 0
34495.8 84.8304 0
0    0    0

293.257 34749.5 0
34749.5 231.222 0
0    0    0

112.944 34614 0
34614 -80.6536 0
0    0    0

-178.706 35337.6 0
35337.6 63.9027 0
0    0    0

-128.929 35088.9 0
35088.9 -295.069 0
0    0    0

8.9009 34582.4 0
34582.4 -224.096 0
0    0    0

114.25 35338.6 0
35338.6 251.448 0
0    0    0

266.902 42472.7 0
42472.7 195.105 0
0    0    0

-179.544 41290.1 0
41290.1 -173.666 0
0    0    0

-202.063 37250.2 0
37250.2 -218.249 0
0    0    0

-239.416 36742.4 0
36742.4 -322.657 0
0    0    0

-144.235 35286.2 0
35286.2 -185.088 0
0    0    0

-162.487 34437.3 0
34437.3 53.5237 0
0    0    0

178.694 34010.3 0
34010.3 223.742 0
0    0    0

-62.9389 33719.8 0
33719.8 249.14 0
0    0    0

297.829 32864.6 0
32864.6 339.439 0
0    0    0

-23.3026 34011.7 0
34011.7 95.918 0
0    0    0

49.5448 33178.9 0
33178.9 -283.6 0
0    0    0

301.297 35352.3 0
35352.3 80.6014 0
0    0    0

77.0619 35562.4 0
35562.4 -94.4798 0
0    0    0

40.7817 36330.5 0
36330.5 103.127 0
0    0    0

125.869 35716.1 0
35716.1 47.7292 0
0    0    0

226.243 35280.1 0
35280.1 76.7435 0
0    0    0

-105.909 35982.3 0
35982.3 46.9116 0
0    0    0

-44.7522 34105.8 0
34105.8 -192.947 0
0    0    0

11.6323 33829.3 0
33829.3 -266.778 0
0    0    0

112.771 40917.8 0
40917.8 -106.915 0
0    0    0

63.7279 41202.8 0
41202.8 -30.4375 0
0    0    0

32.6045 41467.1 0
41467.1 65.4146 0
0    0    0

142.931 41995.4 0
41995.4 325.523 0
0    0    0

-130.365 34317.3 0
34317.3 -312.01 0
0    0    0

330.856 33594.3 0
33594.3 185.266 0
0    0    0

34.9499 34033.6 0
34033.6 263.41 0
0    0    0

-177.044 33214.8 0
33214.8 -430.887 0
0    0    0

28.0542 34247 0
34247 168.866 0
0    0    0

-111.774 34672.4 0
34672.4 -81.6948 0
0    0    0

310.113 33781.3 0
33781.3 236.718 0
0    0    0

-254.155 33302.9 0
33302.9 -302.97 0
0    0    0

0.39779 33843 0
33843 -50.304 0
0    0    0

-283.189 32768.1 0
32768.1 -4.11094 0
0    0    0

65.2011 41893.2 0
41893.2 -82.9914 0
0    0    0

-187.766 41779.7 0
41779.7 -235.239 0
0    0    0

128.155 41364.9 0
41364.9 168.83 0
0    0    0

276.628 41481.9 0
41481.9 157.478 0
0    0    0

-137.949 42166.8 0
42166.8 -460.203 0
0    0    0

67.2924 43895.7 0
43895.7 -14.4252 0
0    0    0

466.694 36072.4 0
36072.4 233.468 0
0    0    0

63.4842 33035.4 0
33035.4 -88.0777 0
0    0    0

260.227 33823.4 0
33823.4 -0.110288 0
0    0    0

184.254 33379.6 0
33379.6 -50.5485 0
0    0    0

221.44 33428 0
33428 42.1659 0
0    0    0

108.697 33647.3 0
33647.3 5.95827 0
0    0    0

-69.5096 33352 0
33352 -124.028 0
0    0    0

119.668 32604.9 0
32604.9 229.316 0
0    0    0

229.716 33580.2 0
33580.2 464.173 0
0    0    0

-240.354 34152.2 0
34152.2 -35.1299 0
0    0    0

-120.132 33383.7 0
33383.7 73.0716 0
0    0    0

-66.1978 33322.5 0
33322.5 -199.824 0
0    0    0

-58.5972 33345.4 0
33345.4 -96.4703 0
0    0    0

-20.3893 33857.1 0
33857.1 -119.508 0
0    0    0

-64.5436 33542.7 0
33542.7 158.298 0
0    0    0

184.495 33696.2 0
33696.2 179.807 0
0    0    0

58.562 34084.8 0
34084.8 204.934 0
0    0    0

6.46386 41391 0
41391 -131.474 0
0    0    0

-203.821 41722.9 0
41722.9 -252.443 0
0    0    0

70.0158 41998.6 0
41998.6 318.894 0
0    0    0

171.404 42004.2 0
42004.2 431.344 0
0    0    0

-124.589 41869 0
41869 176.281 0
0    0    0

217.389 43317.5 0
43317.5 324.354 0
0    0    0

161.712 42129.5 0
42129.5 14.4725 0
0    0    0

-38.4492 42396.6 0
42396.6 120.218 0
0    0    0

229.794 42766.1 0
42766.1 222.807 0
0    0    0

-192 43039.3 0
43039.3 -233.227 0
0    0    0

-207.798 43941.2 0
43941.2 124.37 0
0    0    0

-5.56634 42315.8 0
42315.8 75.7503 0
0    0    0

334.358 42918.3 0
42918.3 40.0084 0
0    0    0

141.666 43236.7 0
43236.7 -120.121 0
0    0    0

-162.8 34962.2 0
34962.2 -44.26 0
0    0    0

-214.327 33145.4 0
33145.4 -253.059 0
0    0    0

-59.3083 33676.3 0
33676.3 -221.233 0
0    0    0

-57.0511 32366.7 0
32366.7 -175.559 0
0    0    0

-173.993 33579.7 0
33579.7 -304.305 0
0    0    0

-145.619 33157.4 0
33157.4 9.23234 0
0    0    0

-96.0649 32266 0
32266 -41.1707 0
0    0    0

77.2484 32865.9 0
32865.9 265.982 0
0    0    0

21.8042 33778.1 0
33778.1 -52.8547 0
0    0    0

-371.354 33934.8 0
33934.8 -41.131 0
0    0    0

-167.452 29760.2 0
29760.2 -71.7649 0
0    0    0

102.067 31870.7 0
31870.7 210.019 0
0    0    0

-214.43 33368.9 0
33368.9 -212.257 0
0    0    0

-345.57 33184.9 0
33184.9 -200.517 0
0    0    0

53.8682 32889.5 0
32889.5 99.2017 0
0    0    0

-137.876 31542.5 0
31542.5 62.571 0
0    0    0

15.0235 42020.3 0
42020.3 -223.016 0
0    0    0

-172.564 43200.7 0
43200.7 -298.675 0
0    0    0

-294.25 43276.7 0
43276.7 88.3934 0
0    0    0

51.005 42486.5 0
42486.5 303.182 0
0    0    0

-131.472 43702.6 0
43702.6 -164.879 0
0    0    0

49.401 42837.4 0
42837.4 161.028 0
0    0    0

145.776 42999.5 0
42999.5 205.142 0
0    0    0

210.011 43477.5 0
43477.5 280.434 0
0    0    0

-88.7909 42783.2 0
42783.2 -60.4322 0
0    0    0

-274.998 43140.5 0
43140.5 -256.755 0
0    0    0

182.317 44089.3 0
44089.3 311.854 0
0    0    0

-25.1281 43373.4 0
43373.4 -97.4542 0
0    0    0

-15.271 44371.4 0
44371.4 -256.77 0
0    0    0

101.206 42695.8 0
42695.8 -74.6829 0
0    0    0

-32.0708 33356.1 0
33356.1 135.648 0
0    0    0

127.236 32801.1 0
32801.1 312.431 0
0    0    0

48.9037 32125.9 0
32125.9 291.488 0
0    0    0

-22.9964 31722.9 0
31722.9 -217.541 0
0    0    0

178.206 33447.9 0
33447.9 394.42 0
0    0    0

33.9435 33234.3 0
33234.3 208.288 0
0    0    0

-18.4767 31708.1 0
31708.1 -7.9186 0
0    0    0

-120.985 32577.5 0
32577.5 -51.8507 0
0    0    0

19.993 32727.7 0
32727.7 -134.083 0
0    0    0

200.969 31618.9 0
31618.9 372.627 0
0    0    0

-48.55 31953.9 0
31953.9 -20.8072 0
0    0    0

133.263 32607.8 0
32607.8 -39.0935 0
0    0    0

-10.238 32866.9 0
32866.9 -154.873 0
0    0    0

-110.144 32458.4 0
32458.4 -7.73483 0
0    0    0

4.60544 32915 0
32915 122.68 0
0    0    0

61.6453 32689.6 0
32689.6 -128.501 0
0    0    0

-65.5556 32547 0
32547 146.942 0
0    0    0

154.5 32399.2 0
32399.2 -13.5356 0
0    0    0

71.13 32132.8 0
32132.8 -122.88 0
0    0    0

-26.5629 32317.8 0
32317.8 -70.8568 0
0    0    0

107.315 31647.6 0
31647.6 -32.0325 0
0    0    0

137.598 29611.7 0
29611.7 -3.15736 0
0    0    0

-75.7505 32165.7 0
32165.7 116.388 0
0    0    0

105.956 31249.5 0
31249.5 108.797 0
0    0    0

-199.518 31654 0
31654 33.142 0
0    0    0

32.0033 32785.5 0
32785.5 -30.151 0
0    0    0

96.9282 32326.9 0
32326.9 -62.5308 0
0    0    0

-155.643 31913.7 0
31913.7 -211.368 0
0    0    0

-79.0971 31757.6 0
31757.6 -124.754 0
0    0    0

243.62 32999.4 0
32999.4 216.344 0
0    0    0

223.556 29940.1 0
29940.1 263.763 0
0    0    0

-46.6347 32409.1 0
32409.1 159.645 0
0    0    0

-91.9236 33118.8 0
33118.8 62.0473 0
0    0    0

-126.393 32009.3 0
32009.3 -190.748 0
0    0    0

-34.1129 32435 0
32435 16.375 0
0    0    0

-147.716 32191.9 0
32191.9 143.989 0
0    0    0

-157.145 32374.7 0
32374.7 -199.091 0
0    0    0

90.609 32324.9 0
32324.9 2.8666 0
0    0    0

230.307 32040.1 0
32040.1 47.304 0
0    0    0

-94.9675 32692.4 0
32692.4 171.059 0
0    0    0

110.541 32523.7 0
32523.7 94.0556 0
0    0    0

-37.7627 31577.1 0
31577.1 328.721 0
0    0    0

-144.438 30456.7 0
30456.7 -61.9022 0
0    0    0

-21.9976 32247.9 0
32247.9 -209.39 0
0    0    0

176.752 32187 0
32187 -107.368 0
0    0    0

-128.043 32080.7 0
32080.7 -378.83 0
0    0    0

41.2037 33380.9 0
33380.9 -159.555 0
0    0    0

-161.929 32334.4 0
32334.4 -34.1871 0
0    0    0

-45.3137 32829.4 0
32829.4 -290.541 0
0    0    0

-212.495 32818.9 0
32818.9 -201.287 0
0    0    0

177.736 32495.1 0
32495.1 271.506 0
0    0    0

102.816 31469.7 0
31469.7 281.287 0
0    0    0

180.772 32484.1 0
32484.1 309.742 0
0    0    0

-129.836 31509.1 0
31509.1 43.4289 0
0    0    0

7.38526 32750 0
32750 184.303 0
0    0    0

49.7225 31814.9 0
31814.9 41.5067 0
0    0    0

-149.548 31366 0
31366 -322.759 0
0    0    0

45.88 31077.9 0
31077.9 19.6628 0
0    0    0

60.4636 31479.7 0
31479.7 246.637 0
0    0    0

106.943 32007.8 0
32007.8 44.7038 0
0    0    0

85.8736 31829.9 0
31829.9 -184.549 0
0    0    0

70.41 30971.8 0
30971.8 -171.722 0
0    0    0

-154.965 31225.9 0
31225.9 -377.65 0
0    0    0

60.192 32466.6 0
32466.6 61.8744 0
0    0    0

78.2681 33035.6 0
33035.6 348.366 0
0    0    0

36.495 35056 0
35056 -56.4221 0
0    0    0

43.2919 33003.3 0
33003.3 245.431 0
0    0    0

209.786 32075.8 0
32075.8 75.634 0
0    0    0

167.359 33279.5 0
33279.5 50.4394 0
0    0    0

-154.285 31332.3 0
31332.3 -66.1223 0
0    0    0

36.0841 31714.1 0
31714.1 268.372 0
0    0    0

-80.8204 31164.6 0
31164.6 -288.25 0
0    0    0

300.94 30965.1 0
30965.1 451.306 0
0    0    0

-271.73 30845 0
30845 -190.16 0
0    0    0

93.164 30645.4 0
30645.4 15.2442 0
0    0    0

153.728 33535.7 0
33535.7 92.6947 0
0    0    0

254.36 31569.6 0
31569.6 20.3222 0
0    0    0

53.691 32105.6 0
32105.6 250.592 0
0    0    0

-42.0645 33782.7 0
33782.7 -111.545 0
0    0    0

-18.4668 34588.7 0
34588.7 -279.358 0
0    0    0

-219.655 32368.3 0
32368.3 -278.333 0
0    0    0

-182.079 33069.3 0
33069.3 -6.12001 0
0    0    0

-142.369 33195.9 0
33195.9 -387.223 0
0    0    0

-128.878 33398.9 0
33398.9 -177.777 0
0    0    0

-137.844 33689.4 0
33689.4 -230.205 0
0    0    0

238.173 34865.3 0
34865.3 201.253 0
0    0    0

210.467 34704.1 0
34704.1 156.542 0
0    0    0

-164.723 34531.2 0
34531.2 -322.776 0
0    0    0

-78.3834 34285.6 0
34285.6 171.541 0
0    0    0

155.804 34398.9 0
34398.9 -159.619 0
0    0    0

269.311 33989.2 0
33989.2 11.6091 0
0    0    0

-156.234 34161.3 0
34161.3 -73.6549 0
0    0    0

-272.346 34093.3 0
34093.3 -210.637 0
0    0    0

43.9278 33410.8 0
33410.8 345.88 0
0    0    0

141.555 34292.3 0
34292.3 166.976 0
0    0    0

-292.453 35018.8 0
35018.8 -17.2513 0
0    0    0

284.891 32581.3 0
32581.3 78.4626 0
0    0    0

-153.966 33646.4 0
33646.4 -29.8599 0
0    0    0

46.1271 32998.5 0
32998.5 -92.7496 0
0    0    0

-89.8197 33121.9 0
33121.9 -261.657 0
0    0    0

180.84 32014.8 0
32014.8 183.477 0
0    0    0

167.768 32664.4 0
32664.4 135.477 0
0    0    0

176.652 38468.4 0
38468.4 183.869 0
0    0    0

130.753 38998.4 0
38998.4 174.82 0
0    0    0

-69.3975 40942.4 0
40942.4 -85.2906 0
0    0    0

-153.592 41167.7 0
41167.7 107.99 0
0    0    0

289.392 36322.2 0
36322.2 112.421 0
0    0    0

-36.7553 35188.6 0
35188.6 269.508 0
0    0    0

28.8064 36012.6 0
36012.6 89.1926 0
0    0    0

-231.914 36169.8 0
36169.8 147.871 0
0    0    0

-286.216 36495 0
36495 -120.013 0
0    0    0

119.042 35963.8 0
35963.8 -58.9635 0
0    0    0

-212.348 34908.8 0
34908.8 -207.531 0
0    0    0

341.126 34678.5 0
34678.5 148.47 0
0    0    0

245.302 33938.5 0
33938.5 363.983 0
0    0    0

-96.6462 35215.1 0
35215.1 -71.985 0
0    0    0

-9.03493 32947.7 0
32947.7 -238.09 0
0    0    0

-176.645 34153.9 0
34153.9 -260.792 0
0    0    0

-184.336 34419.1 0
34419.1 -425.634 0
0    0    0

341.318 34381.9 0
34381.9 353.578 0
0    0    0

-28.9157 35155.6 0
35155.6 52.4518 0
0    0    0

165.401 34839.9 0
34839.9 131.404 0
0    0    0

-76.061 34696.6 0
34696.6 -288.441 0
0    0    0

121.262 35894 0
35894 216.461 0
0    0    0

112.576 35829 0
35829 340.011 0
0    0    0

117.946 35443.3 0
35443.3 128.037 0
0    0    0

123.142 34309.4 0
34309.4 162.469 0
0    0    0

-226.064 35322.8 0
35322.8 -81.9714 0
0    0    0

-33.4578 34126.6 0
34126.6 -209.417 0
0    0    0

-61.4949 33909.6 0
33909.6 292.276 0
0    0    0

-242.956 34802.1 0
34802.1 -126.911 0
0    0    0

82.2286 34917.3 0
34917.3 260.454 0
0    0    0

165.295 33434.4 0
33434.4 -7.59604 0
0    0    0

20.6225 32989.2 0
32989.2 133.993 0
0    0    0

65.5325 34174.6 0
34174.6 -184.6 0
0    0    0

64.8634 35187.1 0
35187.1 -200.617 0
0    0    0

208.539 35112.8 0
35112.8 -48.8729 0
0    0    0

-172.389 34957.3 0
34957.3 -212.68 0
0    0    0

100.826 34534.4 0
34534.4 146.233 0
0    0    0

13.6847 35618.7 0
35618.7 -117.067 0
0    0    0

32.6114 33585.9 0
33585.9 -243.588 0
0    0    0

83.7648 33820.9 0
33820.9 263.119 0
0    0    0

-1.0433 33420.1 0
33420.1 293.385 0
0    0    0

118.01 31467.7 0
31467.7 314.93 0
0    0    0

-64.9428 33660 0
33660 -92.1705 0
0    0    0

166.434 32653.9 0
32653.9 446.169 0
0    0    0

94.2561 33351 0
33351 -18.1634 0
0    0    0

-77.0294 34866.8 0
34866.8 60.3584 0
0    0    0

-112.95 34421.7 0
34421.7 -219.61 0
0    0    0

-117.721 34655.3 0
34655.3 150.058 0
0    0    0

200.74 33946.5 0
33946.5 158.187 0
0    0    0

231.376 33725.5 0
33725.5 -64.0082 0
0    0    0

86.0884 35875.2 0
35875.2 284.146 0
0    0    0

-42.1877 36429.4 0
36429.4 79.8319 0
0    0    0

217.397 33227.1 0
33227.1 51.8469 0
0    0    0

-176.989 33076 0
33076 -191.496 0
0    0    0

-83.7923 33306.7 0
33306.7 136.343 0
0    0    0

92.077 32807.6 0
32807.6 257.782 0
0    0    0

-250.235 32332.2 0
32332.2 -134.328 0
0    0    0

-157.465 31892.9 0
31892.9 -170.128 0
0    0    0

259.242 32396.8 0
32396.8 98.8994 0
0    0    0

-94.0237 33501 0
33501 -339.409 0
0    0    0

75.0402 34772.6 0
34772.6 88.6773 0
0    0    0

101.575 33968.1 0
33968.1 -66.5307 0
0    0    0

-217.893 36129 0
36129 -444.872 0
0    0    0

-4.74141 36644.6 0
36644.6 -222.612 0
0    0    0

-75.7276 36120.4 0
36120.4 -298.405 0
0    0    0

191.664 35848 0
35848 296.287 0
0    0    0

131.074 34904.6 0
34904.6 -98.7438 0
0    0    0

52.753 35517.9 0
35517.9 -226.869 0
0    0    0

-205.873 35663 0
35663 -4.74902 0
0    0    0

-148.737 36644 0
36644 -353.126 0
0    0    0

297.674 30678.4 0
30678.4 169.74 0
0    0    0

-87.5496 31778.2 0
31778.2 -174.915 0
0    0    0

-59.9738 32418.8 0
32418.8 -299.831 0
0    0    0

-301.161 32297.9 0
32297.9 -46.8261 0
0    0    0

-282.625 32411.2 0
32411.2 -260.183 0
0    0    0

89.627 32964.1 0
32964.1 275.558 0
0    0    0

-222.092 32463.2 0
32463.2 50.8149 0
0    0    0

271.849 31940 0
31940 190.095 0
0    0    0

-88.6857 31580.5 0
31580.5 172.66 0
0    0    0

180.571 30077.6 0
30077.6 206.133 0
0    0    0

-251.708 31243.4 0
31243.4 -130.582 0
0    0    0

-290.876 30173.9 0
30173.9 -60.1046 0
0    0    0

144.8 31396.1 0
31396.1 231.448 0
0    0    0

-248.756 30428.4 0
30428.4 -282.151 0
0    0    0

-74.1323 40226.8 0
40226.8 -439.407 0
0    0    0

164.468 38564.5 0
38564.5 25.427 0
0    0    0

32.2604 40580.2 0
40580.2 237.505 0
0    0    0

-185.819 40839.6 0
40839.6 -195.175 0
0    0    0

201.352 40051.2 0
40051.2 345.646 0
0    0    0

-212.064 40211.9 0
40211.9 -322.602 0
0    0    0

60.3854 62583.3 0
62583.3 162.073 0
0    0    0

-208.505 62314.2 0
62314.2 -171.767 0
0    0    0

156.161 66304.4 0
66304.4 6.58122 0
0    0    0

226.936 66949.3 0
66949.3 64.4764 0
0    0    0

-190.986 65701.4 0
65701.4 46.1006 0
0    0    0

-244.646 66156.7 0
66156.7 -284.07 0
0    0    0

51.3333 62133.3 0
62133.3 103.323 0
0    0    0

67.6518 61588.5 0
61588.5 98.3067 0
0    0    0

-302.059 61922.1 0
61922.1 -200.928 0
0    0    0

248.001 61632.9 0
61632.9 322.993 0
0    0    0

56.8759 64346.5 0
64346.5 -160.586 0
0    0    0

241.297 65262.4 0
65262.4 295.399 0
0    0    0

114.018 64717.6 0
64717.6 229.056 0
0    0    0

137.987 65844.4 0
65844.4 181.092 0
0    0    0

177.511 64809.1 0
64809.1 33.3019 0
0    0    0

-160.888 64944.9 0
64944.9 -331.3 0
0    0    0

-76.7351 65650.5 0
65650.5 -123.034 0
0    0    0

-246.296 65008.9 0
65008.9 -360.472 0
0    0    0

-12.112 66301.1 0
66301.1 -195.759 0
0    0    0

-92.4621 64657.8 0
64657.8 -156.194 0
0    0    0

266.789 63728.1 0
63728.1 320.183 0
0    0    0

-231.412 64792.9 0
64792.9 -376.271 0
0    0    0

-222.946 64221.8 0
64221.8 -292.169 0
0    0    0

377.686 63894.2 0
63894.2 375.089 0
0    0    0

-91.2439 65530.2 0
65530.2 -272.269 0
0    0    0

115.946 64553 0
64553 172.848 0
0    0    0

17.3241 64201.6 0
64201.6 -275.812 0
0    0    0

158.552 64516.9 0
64516.9 459.318 0
0    0    0

-108.732 62871 0
62871 35.4551 0
0    0    0

310.801 62401.6 0
62401.6 218.093 0
0    0    0

-154.84 62618.4 0
62618.4 -71.2407 0
0    0    0

-92.9353 61906.9 0
61906.9 96.4364 0
0    0    0

-65.3024 61444.4 0
61444.4 -292.512 0
0    0    0

160.908 61267.8 0
61267.8 304.459 0
0    0    0

278.563 61901.3 0
61901.3 155.077 0
0    0    0

-186.036 61593.1 0
61593.1 -376.433 0
0    0    0

-47.9725 64005.9 0
64005.9 -23.0879 0
0    0    0

-173.866 63284.3 0
63284.3 -97.5769 0
0    0    0

-190.21 63633.5 0
63633.5 82.3368 0
0    0    0

-55.8169 63886 0
63886 173.798 0
0    0    0

-147.878 63739.8 0
63739.8 -232.52 0
0    0    0

97.7028 64361.6 0
64361.6 186.154 0
0    0    0

-31.4374 63527.3 0
63527.3 168.847 0
0    0    0

-147.058 64155.1 0
64155.1 -260.382 0
0    0    0

108.924 64590.1 0
64590.1 253.642 0
0    0    0

23.4324 64352.1 0
64352.1 10.6162 0
0    0    0

-80.9368 64606.5 0
64606.5 -188.172 0
0    0    0

81.175 64121.3 0
64121.3 141.832 0
0    0    0

189.136 62634.4 0
62634.4 -117.437 0
0    0    0

-79.5765 63229.6 0
63229.6 -125.895 0
0    0    0

-23.2662 65077.3 0
65077.3 -215.823 0
0    0    0

-211.163 64681.6 0
64681.6 -205.108 0
0    0    0

135.79 65459 0
65459 226.748 0
0    0    0

-107.891 66166.1 0
66166.1 -149.729 0
0    0    0

-30.8423 65067 0
65067 219.135 0
0    0    0

-169.382 65519.3 0
65519.3 -360.875 0
0    0    0

-5.88391 65575.7 0
65575.7 -201.113 0
0    0    0

244.32 65269.4 0
65269.4 272.474 0
0    0    0

-63.4594 65079 0
65079 429.669 0
0    0    0

16.6489 64809.5 0
64809.5 -182.475 0
0    0    0

-187.645 64100.7 0
64100.7 -465.296 0
0    0    0

205.924 64410.6 0
64410.6 355.389 0
0    0    0

-278.132 62854 0
62854 -105.35 0
0    0    0

-179.462 62122.1 0
62122.1 -171.319 0
0    0    0

52.5658 60894.9 0
60894.9 -115.216 0
0    0    0

47.4584 61803 0
61803 29.0643 0
0    0    0

305.803 59877 0
59877 76.7464 0
0    0    0

247.392 61562 0
61562 295.918 0
0    0    0

-23.3559 61305.1 0
61305.1 -77.8482 0
0    0    0

-259.146 60915.6 0
60915.6 -381.474 0
0    0    0

-238.644 61466.5 0
61466.5 -216.713 0
0    0    0

-163.47 63229.8 0
63229.8 -240.254 0
0    0    0

20.6708 61825.2 0
61825.2 -120.466 0
0    0    0

129.264 61706.4 0
61706.4 -151.484 0
0    0    0

-114.301 63584.9 0
63584.9 -100.238 0
0    0    0

150.704 62607.6 0
62607.6 -53.2352 0
0    0    0

166.196 63003.6 0
63003.6 244.5 0
0    0    0

188.605 62740.3 0
62740.3 315.486 0
0    0    0

-101.604 62603.9 0
62603.9 -75.7526 0
0    0    0

1.31798 63105.9 0
63105.9 -67.9312 0
0    0    0

141.293 62990.5 0
62990.5 201.188 0
0    0    0

86.7216 63739.2 0
63739.2 -264.046 0
0    0    0

-107.351 64415.8 0
64415.8 -180.209 0
0    0    0

78.7179 64520.4 0
64520.4 165.175 0
0    0    0

199.416 63696.5 0
63696.5 201.437 0
0    0    0

233.142 64419.8 0
64419.8 96.8759 0
0    0    0

-36.3843 64188.3 0
64188.3 255.932 0
0    0    0

-126.37 64179.6 0
64179.6 177.865 0
0    0    0

-87.9124 66163.8 0
66163.8 142.635 0
0    0    0

46.8778 65402.1 0
65402.1 208.845 0
0    0    0

93.831 49169.6 0
49169.6 220.781 0
0    0    0

-99.2548 50050.5 0
50050.5 -198.423 0
0    0    0

48.7226 32994.8 0
32994.8 -149.774 0
0    0    0

-205.597 32150.3 0
32150.3 9.12032 0
0    0    0

166.074 44057.1 0
44057.1 283.531 0
0    0    0

40.0349 42765.3 0
42765.3 -206.926 0
0    0    0

-170.019 42454.2 0
42454.2 -218.359 0
0    0    0

22.3673 43229.6 0
43229.6 291.813 0
0    0    0

-266.569 45511 0
45511 -271.932 0
0    0    0

-149.767 44428 0
44428 -322.53 0
0    0    0

-23.0377 44929.2 0
44929.2 -126.824 0
0    0    0

-106.085 44428.8 0
44428.8 -299.594 0
0    0    0

201.678 42218.6 0
42218.6 337.076 0
0    0    0

125.093 42233 0
42233 220.301 0
0    0    0

-15.459 43249.1 0
43249.1 264.625 0
0    0    0

-115.966 40808.9 0
40808.9 -275.139 0
0    0    0

-242.198 42681.7 0
42681.7 -291.793 0
0    0    0

157.429 42338.3 0
42338.3 -8.84178 0
0    0    0

-118.517 41232.9 0
41232.9 151.155 0
0    0    0

-54.0903 42762.7 0
42762.7 187.598 0
0    0    0

139.385 44138.9 0
44138.9 343.843 0
0    0    0

55.7218 43598.6 0
43598.6 283.811 0
0    0    0

-240.143 43372.7 0
43372.7 -505.012 0
0    0    0

-61.7945 42503 0
42503 131.348 0
0    0    0

273.067 42895.9 0
42895.9 270.358 0
0    0    0

116.302 42460.5 0
42460.5 48.4835 0
0    0    0

201.703 41665.2 0
41665.2 185.224 0
0    0    0

17.0555 42009.5 0
42009.5 122.392 0
0    0    0

419.594 43468.4 0
43468.4 341.965 0
0    0    0

168.263 44115.8 0
44115.8 8.9045 0
0    0    0

-128.185 45445.3 0
45445.3 -77.76 0
0    0    0

63.5531 43075.2 0
43075.2 -96.5454 0
0    0    0

91.7277 42814.1 0
42814.1 531.263 0
0    0    0

228.356 43320 0
43320 180.145 0
0    0    0

-145.457 44248.9 0
44248.9 127.777 0
0    0    0

181.452 43690.3 0
43690.3 235.359 0
0    0    0

-117.299 41004.6 0
41004.6 -267.505 0
0    0    0

106.889 41005.4 0
41005.4 219.582 0
0    0    0

-18.6374 41329.4 0
41329.4 -217.107 0
0    0    0

-161.02 41892.5 0
41892.5 -211.495 0
0    0    0

-20.2665 41339.6 0
41339.6 275.104 0
0    0    0

-99.7614 40923.7 0
40923.7 1.60981 0
0    0    0

-165.136 41815.4 0
41815.4 -50.0757 0
0    0    0

69.5837 41592.3 0
41592.3 364.754 0
0    0    0

-98.8669 44209.4 0
44209.4 -214.871 0
0    0    0

127.358 43923.8 0
43923.8 -179.393 0
0    0    0

-282.839 43232.9 0
43232.9 -317.857 0
0    0    0

-170.321 43623.8 0
43623.8 44.5585 0
0    0    0

-21.84 42432.3 0
42432.3 -276.233 0
0    0    0

115.286 42776.3 0
42776.3 228.778 0
0    0    0

-201.417 43521 0
43521 -246.975 0
0    0    0

-98.3322 43571.6 0
43571.6 -213.936 0
0    0    0

96.0412 44049.7 0
44049.7 78.9208 0
0    0    0

81.6518 43358.4 0
43358.4 -200.594 0
0    0    0

126.794 42704.5 0
42704.5 305.287 0
0    0    0

-145.841 42265.6 0
42265.6 17.4067 0
0    0    0

221.757 43620.2 0
43620.2 423.408 0
0    0    0

83.0355 43292.9 0
43292.9 31.8101 0
0    0    0

-354.096 41480.3 0
41480.3 -131.662 0
0    0    0

-146.896 40985.4 0
40985.4 -8.34562 0
0    0    0

170.397 42100.5 0
42100.5 -26.4263 0
0    0    0

-50.8131 41816.4 0
41816.4 -173.919 0
0    0    0

-53.3836 44939.3 0
44939.3 -268.348 0
0    0    0

188.74 44491.4 0
44491.4 74.1735 0
0    0    0

128.523 44427.3 0
44427.3 16.3033 0
0    0    0

-165.976 43804.4 0
43804.4 -125.924 0
0    0    0

-328.256 42938.7 0
42938.7 -657.475 0
0    0    0

106.51 42925.6 0
42925.6 -276.707 0
0    0    0

207.502 42569.9 0
42569.9 479.825 0
0    0    0

-294.299 42352 0
42352 -260.956 0
0    0    0

92.95 41785.9 0
41785.9 15.2994 0
0    0    0

4.84438 41508.3 0
41508.3 -192.195 0
0    0    0

189.514 42003.7 0
42003.7 -25.1701 0
0    0    0

-135.064 42582.9 0
42582.9 -86.7707 0
0    0    0

-346.533 43506.7 0
43506.7 -110.152 0
0    0    0

70.2854 42904.5 0
42904.5 -207.189 0
0    0    0

133.901 42609.7 0
42609.7 59.0614 0
0    0    0

284.949 42286.4 0
42286.4 366.915 0
0    0    0

-111.318 43854.9 0
43854.9 -151.693 0
0    0    0

-113.337 43788.1 0
43788.1 151.379 0
0    0    0

-138.78 42788.8 0
42788.8 -270.554 0
0    0    0

-101.707 43907.2 0
43907.2 -199.914 0
0    0    0

-4.90968 41939.6 0
41939.6 -287.305 0
0    0    0

84.4588 43032.4 0
43032.4 -51.3133 0
0    0    0

-188.676 43963.5 0
43963.5 -312.638 0
0    0    0

-170.146 44991.9 0
44991.9 -70.4327 0
0    0    0

180.985 42470.9 0
42470.9 315.133 0
0    0    0

-157.359 42952 0
42952 -220.19 0
0    0    0

-199.072 42214 0
42214 -350.087 0
0    0    0

-40.9552 41760.7 0
41760.7 270.958 0
0    0    0

146.257 43616.1 0
43616.1 231.413 0
0    0    0

-228.284 44404.2 0
44404.2 -390.492 0
0    0    0

18.9511 41759.5 0
41759.5 421.089 0
0    0    0

-75.1447 42523.6 0
42523.6 -33.8588 0
0    0    0

281.341 41711 0
41711 288.86 0
0    0    0

141.594 42454.9 0
42454.9 140.016 0
0    0    0

-140.492 43765.4 0
43765.4 254.487 0
0    0    0

216.585 44105.2 0
44105.2 377.511 0
0    0    0

151.985 45144.4 0
45144.4 63.402 0
0    0    0

283.051 44748.2 0
44748.2 329.202 0
0    0    0

-40.6947 43961.5 0
43961.5 -244.107 0
0    0    0

85.0625 45382.1 0
45382.1 196.424 0
0    0    0

173.651 44666 0
44666 157.717 0
0    0    0

14.3014 44263.2 0
44263.2 -71.8529 0
0    0    0

61.2522 43606.8 0
43606.8 -112.87 0
0    0    0

-236.318 45065.6 0
45065.6 -243.359 0
0    0    0

-12.8925 46411.9 0
46411.9 90.456 0
0    0    0

-298.182 45090.7 0
45090.7 -188.163 0
0    0    0

66.929 46578.6 0
46578.6 -14.967 0
0    0    0

-62.4538 45052 0
45052 61.4403 0
0    0    0

234.859 44613.5 0
44613.5 145.361 0
0    0    0

-81.6912 45413.5 0
45413.5 -186.378 0
0    0    0

12.5044 45590.3 0
45590.3 213.925 0
0    0    0

-34.8071 45434.9 0
45434.9 155.043 0
0    0    0

-207.293 44396.5 0
44396.5 -321.106 0
0    0    0

304.769 44418.3 0
44418.3 -136.46 0
0    0    0

66.4417 45438.1 0
45438.1 -96.4322 0
0    0    0

77.5639 45267.4 0
45267.4 277.058 0
0    0    0

-29.4275 45645.6 0
45645.6 76.9854 0
0    0    0

176.497 45070 0
45070 -13.4589 0
0    0    0

-149.49 45947.5 0
45947.5 -276.473 0
0    0    0

-110.957 46453.3 0
46453.3 -357.185 0
0    0    0

63.3625 45620.6 0
45620.6 123.53 0
0    0    0

-22.799 46409.7 0
46409.7 -177.33 0
0    0    0

-201.662 46136.4 0
46136.4 18.027 0
0    0    0

43.3458 46114.4 0
46114.4 307.648 0
0    0    0

20.1969 46586.8 0
46586.8 204.743 0
0    0    0

-168.316 46073.2 0
46073.2 -20.8456 0
0    0    0

90.9943 45877.2 0
45877.2 419.856 0
0    0    0

23.2449 46626.4 0
46626.4 -100.323 0
0    0    0

71.455 47359.4 0
47359.4 238.418 0
0    0    0

-49.5458 47087 0
47087 -266.834 0
0    0    0

-81.3793 46714.2 0
46714.2 -28.9101 0
0    0    0

117.562 45802.1 0
45802.1 -38.2522 0
0    0    0

-77.5053 45871.3 0
45871.3 -63.7867 0
0    0    0

-191.03 46216.4 0
46216.4 -214.246 0
0    0    0

89.2773 47174.4 0
47174.4 -72.0372 0
0    0    0

222.234 46019.7 0
46019.7 249.686 0
0    0    0

203.965 40839.1 0
40839.1 158.882 0
0    0    0

-169.952 40664.9 0
40664.9 -94.2581 0
0    0    0

-150.927 40028.8 0
40028.8 -47.5405 0
0    0    0

59.3777 40379.6 0
40379.6 327.209 0
0    0    0

94.8501 40241.9 0
40241.9 232.71 0
0    0    0

218.924 41101.2 0
41101.2 -118.721 0
0    0    0

278.665 43274.2 0
43274.2 361.854 0
0    0    0

-227.831 44015.1 0
44015.1 -296.038 0
0    0    0

-4.67063 43768 0
43768 159.372 0
0    0    0

258.612 43748 0
43748 371.548 0
0    0    0

-216.566 46329 0
46329 -242.436 0
0    0    0

155.086 45841 0
45841 224.454 0
0    0    0

233.029 44761.5 0
44761.5 -195.849 0
0    0    0

-19.2709 43136.1 0
43136.1 333.626 0
0    0    0

2.64735 42192.5 0
42192.5 -227.834 0
0    0    0

61.7143 42998.2 0
42998.2 178.947 0
0    0    0

53.3112 40874.1 0
40874.1 51.4619 0
0    0    0

-39.097 41172.7 0
41172.7 -156.809 0
0    0    0

166.288 37959.6 0
37959.6 7.25005 0
0    0    0

228.521 39265 0
39265 136.149 0
0    0    0

47.92 39968.3 0
39968.3 233.78 0
0    0    0

-221.059 41280.4 0
41280.4 -113.68 0
0    0    0

174.811 37528.9 0
37528.9 70.423 0
0    0    0

-217.171 38000.2 0
38000.2 -102.118 0
0    0    0

-88.1672 37410.3 0
37410.3 133.605 0
0    0    0

204.898 37831.2 0
37831.2 -64.4045 0
0    0    0

-222.07 38601.6 0
38601.6 -172.301 0
0    0    0

-99.7629 37585.3 0
37585.3 57.4307 0
0    0    0

65.4691 37538.8 0
37538.8 -6.3484 0
0    0    0

23.1755 37990 0
37990 29.6051 0
0    0    0

61.9257 36856 0
36856 -104.185 0
0    0    0

-116.883 37294.2 0
37294.2 25.9884 0
0    0    0

-302.329 35899.8 0
35899.8 -100.999 0
0    0    0

-200.635 37732 0
37732 136.348 0
0    0    0

-17.4441 36685.5 0
36685.5 215.395 0
0    0    0

-239.615 38522.8 0
38522.8 -55.663 0
0    0    0

-84.8219 36919.1 0
36919.1 -264.534 0
0    0    0

-242.25 37006.4 0
37006.4 -318.632 0
0    0    0

-356.314 38395.6 0
38395.6 -163.764 0
0    0    0

-55.7162 38766.6 0
38766.6 60.4612 0
0    0    0

302.515 36423.5 0
36423.5 297.556 0
0    0    0

-168.87 35867.4 0
35867.4 -3.19613 0
0    0    0

85.7648 37041.7 0
37041.7 -96.5304 0
0    0    0

147.874 36859.9 0
36859.9 -12.5686 0
0    0    0

54.1301 37224.3 0
37224.3 -95.1621 0
0    0    0

-206.92 36683.4 0
36683.4 -323.85 0
0    0    0

-22.652 36212.6 0
36212.6 214.212 0
0    0    0

30.1957 35416.4 0
35416.4 178.179 0
0    0    0

56.858 35298 0
35298 -89.517 0
0    0    0

-170.673 36255.2 0
36255.2 -259.285 0
0    0    0

-392.381 37174.3 0
37174.3 -172.955 0
0    0    0

-125.649 36423.7 0
36423.7 -234.077 0
0    0    0

45.1889 43052.2 0
43052.2 -186.001 0
0    0    0

-140.982 43278.8 0
43278.8 -266.048 0
0    0    0

-83.037 44081 0
44081 -235.553 0
0    0    0

-233.048 44282.1 0
44282.1 46.7206 0
0    0    0

245.019 43439.9 0
43439.9 136.416 0
0    0    0

-54.9111 44120.8 0
44120.8 313.689 0
0    0    0

-0.218819 45322 0
45322 -203.064 0
0    0    0

68.0375 44315.2 0
44315.2 156.17 0
0    0    0

1.35143 19583.4 0
19583.4 210.573 0
0    0    0

164.684 18510.9 0
18510.9 44.8121 0
0    0    0

22.4347 19320 0
19320 -140.344 0
0    0    0

-31.4511 18568.9 0
18568.9 39.4782 0
0    0    0

11.3064 18917.5 0
18917.5 126.745 0
0    0    0

156.394 18430.6 0
18430.6 232.053 0
0    0    0

-258.813 18658.6 0
18658.6 -354.999 0
0    0    0

239.503 18878.1 0
18878.1 110.142 0
0    0    0

-252.797 18249.7 0
18249.7 -464.483 0
0    0    0

-2.46561 19050 0
19050 214.172 0
0    0    0

-132.32 19303.5 0
19303.5 51.7358 0
0    0    0

-39.8199 18460 0
18460 -203.126 0
0    0    0

158.278 19560.2 0
19560.2 66.4966 0
0    0    0

-115.255 19833.9 0
19833.9 -187.86 0
0    0    0

124.364 19315.3 0
19315.3 265.268 0
0    0    0

36.2126 19188.8 0
19188.8 -195.196 0
0    0    0

232.939 17874.3 0
17874.3 506.014 0
0    0    0

21.722 18553.8 0
18553.8 240.197 0
0    0    0

-197.652 18094.7 0
18094.7 -305.74 0
0    0    0

24.4702 18649.8 0
18649.8 -203.639 0
0    0    0

-178.435 18664.6 0
18664.6 -171.911 0
0    0    0

-25.0243 19023.8 0
19023.8 241.16 0
0    0    0

-20.9849 18991.8 0
18991.8 197.071 0
0    0    0

67.3663 18950.9 0
18950.9 -88.8296 0
0    0    0

264.07 17738 0
17738 27.0441 0
0    0    0

-117.397 19287 0
19287 -214.35 0
0    0    0

158.515 19522.8 0
19522.8 65.3982 0
0    0    0

-224.881 20464.4 0
20464.4 -165.542 0
0    0    0

-6.37568 19755 0
19755 -237.895 0
0    0    0

14.0973 20096.1 0
20096.1 232.53 0
0    0    0

36.5367 19651.3 0
19651.3 -202.406 0
0    0    0

-31.2475 19531.7 0
19531.7 234.717 0
0    0    0

82.8814 19195.5 0
19195.5 72.2901 0
0    0    0

65.604 19452 0
19452 235.029 0
0    0    0

-3.09611 20271.5 0
20271.5 -45.0957 0
0    0    0

98.4561 20294.2 0
20294.2 227.758 0
0    0    0

-132.701 19039.4 0
19039.4 261.824 0
0    0    0

-238.895 18001.6 0
18001.6 21.1713 0
0    0    0

-155.339 19076.6 0
19076.6 -24.1987 0
0    0    0

231.199 17183.3 0
17183.3 163.94 0
0    0    0

215.138 18475.8 0
18475.8 297.469 0
0    0    0

260.787 18258.4 0
18258.4 263.836 0
0    0    0

-21.6435 19373.2 0
19373.2 60.3985 0
0    0    0

-304.363 18735.4 0
18735.4 -165.395 0
0    0    0

160.003 17197 0
17197 147.606 0
0    0    0

213.193 15727.9 0
15727.9 251.668 0
0    0    0

251.823 17479.1 0
17479.1 -158.825 0
0    0    0

-107.788 16639.1 0
16639.1 181.321 0
0    0    0

176.339 15685.4 0
15685.4 72.3785 0
0    0    0

13.0951 16169.7 0
16169.7 -20.959 0
0    0    0

-46.6298 16887.7 0
16887.7 -34.3371 0
0    0    0

61.9172 16429.3 0
16429.3 -173.594 0
0    0    0

-97.371 15930.2 0
15930.2 -348.619 0
0    0    0

-67.9753 16100.6 0
16100.6 -259.437 0
0    0    0

-199.829 15695.4 0
15695.4 -364.807 0
0    0    0

245.386 15373.7 0
15373.7 253.569 0
0    0    0

28.6822 15786.1 0
15786.1 98.5529 0
0    0    0

-359.948 16458.8 0
16458.8 5.73493 0
0    0    0

35.0831 15754.6 0
15754.6 41.6849 0
0    0    0

161.386 16394.6 0
16394.6 63.4894 0
0    0    0

-151.096 15711.6 0
15711.6 -54.8552 0
0    0    0

-30.122 16507.5 0
16507.5 160.114 0
0    0    0

-73.7381 16268 0
16268 164.13 0
0    0    0

289.232 17504.1 0
17504.1 77.2775 0
0    0    0

-140.877 17422.4 0
17422.4 -193.427 0
0    0    0

-12.089 16932.3 0
16932.3 97.0753 0
0    0    0

39.5603 17549.6 0
17549.6 89.3695 0
0    0    0

7.74536 16775.6 0
16775.6 69.1094 0
0    0    0

-236.553 17216.2 0
17216.2 -206.279 0
0    0    0

-123.827 17483 0
17483 -65.6149 0
0    0    0

51.9919 16147.1 0
16147.1 -113.745 0
0    0    0

189.032 16815.2 0
16815.2 107.328 0
0    0    0

73.1543 17289.6 0
17289.6 29.277 0
0    0    0

21.2362 16883.7 0
16883.7 -44.2585 0
0    0    0

157.278 15982.7 0
15982.7 -24.744 0
0    0    0

-105.605 16150.6 0
16150.6 -58.9923 0
0    0    0

-236.962 14761.5 0
14761.5 -258.835 0
0    0    0

222.588 14908.1 0
14908.1 458.595 0
0    0    0

-138.748 15863.7 0
15863.7 -300.236 0
0    0    0

135.959 14428.2 0
14428.2 108.112 0
0    0    0

-249.103 14615.2 0
14615.2 -129.074 0
0    0    0

-83.9603 17445.9 0
17445.9 92.7314 0
0    0    0

295.259 13861.4 0
13861.4 246.766 0
0    0    0

-57.3237 15105.1 0
15105.1 -175.951 0
0    0    0

-163.45 15247 0
15247 -24.6495 0
0    0    0

2.44404 16687.8 0
16687.8 99.9112 0
0    0    0

25.7906 17020.3 0
17020.3 -281.721 0
0    0    0

-121.109 17723.5 0
17723.5 162.232 0
0    0    0

193.27 16469.3 0
16469.3 -6.63906 0
0    0    0

37.8928 17185.3 0
17185.3 25.321 0
0    0    0

-226.277 14601.6 0
14601.6 -439.356 0
0    0    0

234.105 14835.4 0
14835.4 88.6389 0
0    0    0

-142.865 18351 0
18351 -107.442 0
0    0    0

-127.016 17672.7 0
17672.7 58.0871 0
0    0    0

-257.528 18375 0
18375 -204.031 0
0    0    0

-247.738 17765.5 0
17765.5 -350.256 0
0    0    0

-262.176 18049.7 0
18049.7 -208.821 0
0    0    0

124.247 18279.1 0
18279.1 259.176 0
0    0    0

208.296 17976.1 0
17976.1 192.332 0
0    0    0

225.962 17658.6 0
17658.6 143.399 0
0    0    0

-291.191 17534.9 0
17534.9 -101.865 0
0    0    0

155.894 17530.1 0
17530.1 -159.093 0
0    0    0

47.7861 19282.5 0
19282.5 284.141 0
0    0    0

-200.09 20030.3 0
20030.3 -71.3795 0
0    0    0

167.122 19562.9 0
19562.9 137.008 0
0    0    0

-125.096 19640.5 0
19640.5 -335.41 0
0    0    0

-222.412 20061.7 0
20061.7 -235.99 0
0    0    0

44.635 18951.1 0
18951.1 -113.09 0
0    0    0

151.47 18677.8 0
18677.8 6.72549 0
0    0    0

-244.956 19572.7 0
19572.7 -334.35 0
0    0    0

-73.4334 18780.7 0
18780.7 -462.875 0
0    0    0

-8.21775 18638 0
18638 229.285 0
0    0    0

-66.5249 20522.1 0
20522.1 -44.4006 0
0    0    0

-181.782 19866.9 0
19866.9 -358.464 0
0    0    0

-120.124 17998.2 0
17998.2 236.534 0
0    0    0

-105.499 19249 0
19249 -271.929 0
0    0    0

36.0781 17237.5 0
17237.5 185.03 0
0    0    0

104.048 17564.1 0
17564.1 152.737 0
0    0    0

1.25923 21251.3 0
21251.3 -162.534 0
0    0    0

183.891 20232.2 0
20232.2 193.219 0
0    0    0

-82.8607 18408 0
18408 -98.9225 0
0    0    0

232.162 18870.8 0
18870.8 523.225 0
0    0    0

43.9773 18942.7 0
18942.7 234.842 0
0    0    0

176.392 19493.3 0
19493.3 269.604 0
0    0    0

4.17327 19146.2 0
19146.2 224.66 0
0    0    0

-119.393 18539.3 0
18539.3 -53.7093 0
0    0    0

88.5834 20838.5 0
20838.5 -151.676 0
0    0    0

-101.179 21052 0
21052 36.3442 0
0    0    0

-227.04 19847.3 0
19847.3 74.7024 0
0    0    0

-216.448 20068.6 0
20068.6 -212.533 0
0    0    0

-83.4439 19350.3 0
19350.3 -92.9734 0
0    0    0

-279.485 19743.3 0
19743.3 -251.588 0
0    0    0

-131.459 20533.9 0
20533.9 -53.0232 0
0    0    0

-169.645 21052.5 0
21052.5 -273.091 0
0    0    0

-16.9462 20974.8 0
20974.8 -338.607 0
0    0    0

259.035 20225.3 0
20225.3 182.471 0
0    0    0

-127.789 20659.6 0
20659.6 -87.4731 0
0    0    0

68.8786 20832.7 0
20832.7 276.301 0
0    0    0

202.279 18953.3 0
18953.3 205.204 0
0    0    0

195.821 18650.4 0
18650.4 139.822 0
0    0    0

-78.9518 18762.6 0
18762.6 -6.60578 0
0    0    0

-57.321 18866.1 0
18866.1 179.276 0
0    0    0

38.0824 19256.2 0
19256.2 257.63 0
0    0    0

-55.8265 18442 0
18442 -155.188 0
0    0    0

-207.689 18863.3 0
18863.3 -290.783 0
0    0    0

36.014 19196.2 0
19196.2 -41.8942 0
0    0    0

-184.845 19701.7 0
19701.7 81.1399 0
0    0    0

159.07 19027.6 0
19027.6 92.6127 0
0    0    0

196.802 18236.8 0
18236.8 266.504 0
0    0    0

37.0279 18945.7 0
18945.7 226.585 0
0    0    0

93.3297 17188 0
17188 220.242 0
0    0    0

90.6334 18722.6 0
18722.6 -141.803 0
0    0    0

-260.817 18505.3 0
18505.3 -405.302 0
0    0    0

88.4414 18015.1 0
18015.1 -51.7156 0
0    0    0

-37.516 18408.7 0
18408.7 -99.0209 0
0    0    0

112.533 17206.5 0
17206.5 261.001 0
0    0    0

-166.268 16923.4 0
16923.4 -186.429 0
0    0    0

62.9512 18029.7 0
18029.7 189.235 0
0    0    0

364.904 16673.9 0
16673.9 129.795 0
0    0    0

119.78 17242.6 0
17242.6 14.0587 0
0    0    0

155.262 15946.2 0
15946.2 109.345 0
0    0    0

74.5339 16829.7 0
16829.7 202.203 0
0    0    0

294.757 19450.9 0
19450.9 77.4592 0
0    0    0

54.656 20129 0
20129 -50.7465 0
0    0    0

165.762 18405.2 0
18405.2 -59.6105 0
0    0    0

-173.355 18901.9 0
18901.9 -80.9184 0
0    0    0

101.229 18952.6 0
18952.6 -163.992 0
0    0    0

-103.069 19247 0
19247 105.16 0
0    0    0

-207.924 20004.1 0
20004.1 -303.51 0
0    0    0

147.834 19410.9 0
19410.9 27.3541 0
0    0    0

-191.242 19583.3 0
19583.3 -70.3026 0
0    0    0

186.111 19760 0
19760 264.143 0
0    0    0

-15.8964 17951.4 0
17951.4 -39.1889 0
0    0    0

267.24 17843.9 0
17843.9 9.97669 0
0    0    0

195.974 17793.8 0
17793.8 61.2346 0
0    0    0

20.6094 17538 0
17538 -328.041 0
0    0    0

40.3372 19673.5 0
19673.5 -199.016 0
0    0    0

-268.975 18442 0
18442 -399.09 0
0    0    0

128.702 20085 0
20085 136.839 0
0    0    0

-193.476 19567.9 0
19567.9 -232.012 0
0    0    0

11.5132 30380.2 0
30380.2 236.461 0
0    0    0

-170.63 29571.7 0
29571.7 -272.777 0
0    0    0

233.671 29160.9 0
29160.9 340.259 0
0    0    0

105.493 28741.4 0
28741.4 -149.533 0
0    0    0

-224.618 29236.8 0
29236.8 -89.9843 0
0    0    0

-257.506 30600.9 0
30600.9 4.20068 0
0    0    0

245.438 28404.5 0
28404.5 60.0967 0
0    0    0

202.038 28230 0
28230 293.637 0
0    0    0

-209.928 29487.9 0
29487.9 -147.134 0
0    0    0

-146.789 28824.9 0
28824.9 9.45237 0
0    0    0

-294.944 28109.2 0
28109.2 -258.39 0
0    0    0

42.5492 27836.7 0
27836.7 300.008 0
0    0    0

279.019 27846.4 0
27846.4 304.083 0
0    0    0

-244.032 26228.6 0
26228.6 -336.515 0
0    0    0

-278.715 28202 0
28202 -151.063 0
0    0    0

-234.61 27827.8 0
27827.8 -273.535 0
0    0    0

-214.093 27620.4 0
27620.4 -284.913 0
0    0    0

-292.129 27621.8 0
27621.8 -247.216 0
0    0    0

-194.315 27304.1 0
27304.1 -312.214 0
0    0    0

2.40829 27629.5 0
27629.5 -330.716 0
0    0    0

181.635 27466.8 0
27466.8 -37.2369 0
0    0    0

-306.343 28033.7 0
28033.7 -164.35 0
0    0    0

-14.3464 27142.8 0
27142.8 95.0027 0
0    0    0

343.128 27531.8 0
27531.8 304.622 0
0    0    0

-375.155 26898.4 0
26898.4 -158.366 0
0    0    0

-94.4948 26496.3 0
26496.3 -373.214 0
0    0    0

213.109 27758.4 0
27758.4 222.074 0
0    0    0

-108.175 28504.8 0
28504.8 -256.316 0
0    0    0

259.925 27316.3 0
27316.3 192.012 0
0    0    0

-47.8656 28054.2 0
28054.2 -203.915 0
0    0    0

-14.841 26919.2 0
26919.2 276.537 0
0    0    0

94.7976 27938.5 0
27938.5 184.648 0
0    0    0

185.728 25760.6 0
25760.6 51.5194 0
0    0    0

-139.628 27455.8 0
27455.8 -300.579 0
0    0    0

-386.535 28075.9 0
28075.9 -271.669 0
0    0    0

56.332 28821.3 0
28821.3 -134.292 0
0    0    0

-74.2243 28018.2 0
28018.2 -23.145 0
0    0    0

-94.0734 28879.8 0
28879.8 -147.195 0
0    0    0

-202.206 28355 0
28355 122.803 0
0    0    0

-156.234 28506.4 0
28506.4 -46.3365 0
0    0    0

-94.0952 27616.7 0
27616.7 -263.439 0
0    0    0

45.7065 27243.1 0
27243.1 221.395 0
0    0    0

-155.25 24485.5 0
24485.5 -267.849 0
0    0    0

-214.527 26175.5 0
26175.5 -261.162 0
0    0    0

32.285 26212.5 0
26212.5 75.3016 0
0    0    0

-130.846 27165.5 0
27165.5 -109.937 0
0    0    0

-242.726 26329 0
26329 -65.1541 0
0    0    0

-133.686 24275.2 0
24275.2 -138.128 0
0    0    0

-40.3465 29379.7 0
29379.7 157.61 0
0    0    0

-263.781 28618.1 0
28618.1 -370.578 0
0    0    0

231.098 28272.3 0
28272.3 42.9107 0
0    0    0

-174.786 28229.8 0
28229.8 -329.353 0
0    0    0

171.795 27743.5 0
27743.5 265.598 0
0    0    0

235.2 28333.4 0
28333.4 375.833 0
0    0    0

51.7332 27375.6 0
27375.6 177.256 0
0    0    0

189.994 26119.5 0
26119.5 63.9811 0
0    0    0

-121.907 27523 0
27523 -177.307 0
0    0    0

-30.1112 26596.3 0
26596.3 16.7489 0
0    0    0

141.895 27008.9 0
27008.9 -4.62065 0
0    0    0

250.112 26565.5 0
26565.5 1.23017 0
0    0    0

63.4899 26952.4 0
26952.4 -148.514 0
0    0    0

-181.173 26882.9 0
26882.9 64.0825 0
0    0    0

-169.057 25943.2 0
25943.2 -75.2276 0
0    0    0

-66.9122 26297.9 0
26297.9 199.364 0
0    0    0

-295.878 26587.5 0
26587.5 -81.4493 0
0    0    0

-51.6912 25238.6 0
25238.6 -159.945 0
0    0    0

-163.78 25368 0
25368 -83.2292 0
0    0    0

-124.999 25624.2 0
25624.2 -154.273 0
0    0    0

133.24 25827.8 0
25827.8 20.9906 0
0    0    0

146.635 25470 0
25470 235.555 0
0    0    0

126.72 25498.8 0
25498.8 49.1704 0
0    0    0

-212.212 24749.1 0
24749.1 -270.474 0
0    0    0

-191.364 25982.6 0
25982.6 -258.883 0
0    0    0

-270.675 25055.3 0
25055.3 -177.983 0
0    0    0

27.9699 27251.2 0
27251.2 45.6818 0
0    0    0

124.121 25859.4 0
25859.4 236.476 0
0    0    0

-119.036 25617.7 0
25617.7 141.69 0
0    0    0

114.268 24919.6 0
24919.6 204.201 0
0    0    0

155.543 26253.6 0
26253.6 9.30134 0
0    0    0

188.949 25844.6 0
25844.6 83.3893 0
0    0    0

154.444 25265.7 0
25265.7 323.416 0
0    0    0

229.761 24091.3 0
24091.3 90.3949 0
0    0    0

190.322 25825.4 0
25825.4 -40.9642 0
0    0    0

-86.2727 25133.3 0
25133.3 -28.4988 0
0    0    0

162.524 28156.4 0
28156.4 -319.57 0
0    0    0

-68.8907 26021.4 0
26021.4 35.8254 0
0    0    0

-170.88 27403.3 0
27403.3 -355.784 0
0    0    0

184.428 26864.6 0
26864.6 111.222 0
0    0    0

-170.131 26667.2 0
26667.2 -90.6351 0
0    0    0

334.619 27160.1 0
27160.1 212.222 0
0    0    0

-175.26 25637.5 0
25637.5 -328.486 0
0    0    0

-148.907 25678.3 0
25678.3 -304.27 0
0    0    0

240.331 24433.3 0
24433.3 170.938 0
0    0    0

-6.55276 24189.4 0
24189.4 -369.798 0
0    0    0

-124.913 25354 0
25354 22.6364 0
0    0    0

181.428 24942.2 0
24942.2 -120.488 0
0    0    0

296.785 26466.9 0
26466.9 295.171 0
0    0    0

88.5706 26133.4 0
26133.4 78.0483 0
0    0    0

80.2248 27535.8 0
27535.8 55.3079 0
0    0    0

10.7026 24115.7 0
24115.7 107.077 0
0    0    0

-128.794 26355.6 0
26355.6 103.44 0
0    0    0

-21.3329 26512.3 0
26512.3 187.902 0
0    0    0

123.293 25252.7 0
25252.7 325.474 0
0    0    0

186.873 24637 0
24637 120.111 0
0    0    0

-49.9782 26006.8 0
26006.8 -232.49 0
0    0    0

262.747 25269.3 0
25269.3 349.049 0
0    0    0

-183.208 24676.3 0
24676.3 -191.402 0
0    0    0

-4.77721 24854.2 0
24854.2 -54.9336 0
0    0    0

-105.261 24064.7 0
24064.7 -278.084 0
0    0    0

-198.687 23884.2 0
23884.2 -240.042 0
0    0    0

-150.044 24603.6 0
24603.6 74.6337 0
0    0    0

-206.969 24244.5 0
24244.5 -157.026 0
0    0    0

145.849 24459.7 0
24459.7 365.366 0
0    0    0

157.661 24391.9 0
24391.9 145.645 0
0    0    0

187.892 23356.3 0
23356.3 158.388 0
0    0    0

-112.613 23141.6 0
23141.6 -185.868 0
0    0    0

-339.657 25565.6 0
25565.6 -592.284 0
0    0    0

147.807 24251.9 0
24251.9 425.38 0
0    0    0

256.427 24855.6 0
24855.6 196.39 0
0    0    0

-181.608 25536.1 0
25536.1 -327.058 0
0    0    0

84.1458 24245.2 0
24245.2 101.1 0
0    0    0

109.922 23943.5 0
23943.5 59.4796 0
0    0    0

220.757 25842.6 0
25842.6 434.815 0
0    0    0

-19.3422 25409.1 0
25409.1 -229.208 0
0    0    0

116.938 23732.8 0
23732.8 279.908 0
0    0    0

-132.215 23329 0
23329 -203.94 0
0    0    0

-103.456 21649.2 0
21649.2 -44.3382 0
0    0    0

-119.415 24729.3 0
24729.3 115.686 0
0    0    0

-78.1292 23906.4 0
23906.4 -227.523 0
0    0    0

-56.1712 25027.5 0
25027.5 -201.564 0
0    0    0

122.021 24247.6 0
24247.6 263.462 0
0    0    0

-19.4853 25074.6 0
25074.6 -59.5113 0
0    0    0

-45.9115 24465.3 0
24465.3 -263.421 0
0    0    0

130.582 23782.1 0
23782.1 170.499 0
0    0    0

-131.251 24143.6 0
24143.6 175.248 0
0    0    0

-231.748 23070.2 0
23070.2 -91.1542 0
0    0    0

-105.714 23154.1 0
23154.1 -185.805 0
0    0    0

23.0566 24310.3 0
24310.3 130.703 0
0    0    0

-77.8123 23419.1 0
23419.1 106.554 0
0    0    0

-73.2741 25280.2 0
25280.2 -256.358 0
0    0    0

-136.321 22347.4 0
22347.4 -58.4233 0
0    0    0

23.0619 24806.5 0
24806.5 151.705 0
0    0    0

-110.263 24060.7 0
24060.7 -414.021 0
0    0    0

-32.6233 21561.9 0
21561.9 -200.078 0
0    0    0

75.0709 22960.6 0
22960.6 170.499 0
0    0    0

77.2301 24537 0
24537 36.0898 0
0    0    0

-45.9828 24588.9 0
24588.9 -261.648 0
0    0    0

248.6 22867 0
22867 183.738 0
0    0    0

158.921 22639 0
22639 -100.344 0
0    0    0

-98.2578 21580.7 0
21580.7 -201.672 0
0    0    0

186.073 22917.3 0
22917.3 -105.703 0
0    0    0

18.8847 23413.6 0
23413.6 178.902 0
0    0    0

101.371 22313.6 0
22313.6 44.0705 0
0    0    0

-120.333 23683.2 0
23683.2 -248.55 0
0    0    0

-94.0274 21755.7 0
21755.7 116.942 0
0    0    0

195.583 22632.2 0
22632.2 123.174 0
0    0    0

-143.743 22090.2 0
22090.2 -132.92 0
0    0    0

-168.625 22386.5 0
22386.5 101.346 0
0    0    0

-46.1636 21111.8 0
21111.8 -19.7844 0
0    0    0

-251.438 22175.1 0
22175.1 -221.864 0
0    0    0

-18.1392 22518.9 0
22518.9 -200.742 0
0    0    0

-266.351 23725.7 0
23725.7 -83.4282 0
0    0    0

-174.103 22366.6 0
22366.6 154.497 0
0    0    0

372.679 21804.1 0
21804.1 171.851 0
0    0    0

59.1238 21069.6 0
21069.6 56.4857 0
0    0    0

149.016 21909.8 0
21909.8 222.74 0
0    0    0

-79.4221 20481.8 0
20481.8 -298.903 0
0    0    0

-128.092 19881.3 0
19881.3 -54.8966 0
0    0    0

84.5725 22090.2 0
22090.2 -101.04 0
0    0    0

-43.6726 22971 0
22971 -214.487 0
0    0    0

-64.126 20751.7 0
20751.7 162.282 0
0    0    0

5.45966 21828.8 0
21828.8 -178.511 0
0    0    0

172.177 23708.8 0
23708.8 157.143 0
0    0    0

264.014 23472.9 0
23472.9 381.502 0
0    0    0

137.408 18347.3 0
18347.3 154.779 0
0    0    0

302.587 21533.6 0
21533.6 286.973 0
0    0    0

-268.574 21101.9 0
21101.9 -228.844 0
0    0    0

-85.0002 22006.9 0
22006.9 30.0291 0
0    0    0

51.4246 22631.1 0
22631.1 190.349 0
0    0    0

40.3967 20722.8 0
20722.8 17.3129 0
0    0    0

126.889 23344 0
23344 -100.827 0
0    0    0

-156.262 21393.3 0
21393.3 58.6902 0
0    0    0

226.021 22395 0
22395 234.078 0
0    0    0

-152.556 22839.7 0
22839.7 -236.546 0
0    0    0

-161.472 23341.8 0
23341.8 -474.836 0
0    0    0

20.8681 22193.6 0
22193.6 185.972 0
0    0    0

261.759 22521.6 0
22521.6 233.106 0
0    0    0

-336.774 23787.9 0
23787.9 -300.848 0
0    0    0

-128.034 23125.5 0
23125.5 -52.8687 0
0    0    0

64.1644 20859.6 0
20859.6 211.969 0
0    0    0

167.769 21307.2 0
21307.2 -24.5124 0
0    0    0

-96.8441 24145.6 0
24145.6 -231.78 0
0    0    0

99.8323 23950 0
23950 280.375 0
0    0    0

13.868 23248 0
23248 154.261 0
0    0    0

-141.326 22612.8 0
22612.8 61.3724 0
0    0    0

-193.086 21320.9 0
21320.9 -240.861 0
0    0    0

26.6679 22334.6 0
22334.6 -168.528 0
0    0    0

-231.849 22346.4 0
22346.4 -152.202 0
0    0    0

-104.285 23025.3 0
23025.3 -112.694 0
0    0    0

83.5284 21254 0
21254 148.268 0
0    0    0

-125.645 21104.4 0
21104.4 -271.477 0
0    0    0

45.7027 24466.5 0
24466.5 149.368 0
0    0    0

82.3734 23918.6 0
23918.6 281.71 0
0    0    0

36.7779 23137.9 0
23137.9 -163.251 0
0    0    0

208.204 22943.5 0
22943.5 370.264 0
0    0    0

296.245 23674.3 0
23674.3 452.423 0
0    0    0

212.598 23427.9 0
23427.9 326.579 0
0    0    0

-186.194 22711.4 0
22711.4 -211.365 0
0    0    0

-156.909 22915.5 0
22915.5 -272.217 0
0    0    0

-279.099 28463.5 0
28463.5 -342.799 0
0    0    0

-123.496 28893.5 0
28893.5 -24.3578 0
0    0    0

-140.248 65260.3 0
65260.3 -35.5047 0
0    0    0

115.109 65849.3 0
65849.3 42.5421 0
0    0    0

213.645 65037.1 0
65037.1 328.276 0
0    0    0

113.961 64691.1 0
64691.1 136.051 0
0    0    0

-187.792 65522.7 0
65522.7 -55.5405 0
0    0    0

-107.701 66503.7 0
66503.7 -13.7264 0
0    0    0

22.4542 48486.7 0
48486.7 92.4104 0
0    0    0

-334.737 47936.5 0
47936.5 -372.362 0
0    0    0

-129.945 47953.2 0
47953.2 41.7053 0
0    0    0

-18.6427 48748.7 0
48748.7 -150.913 0
0    0    0

146.774 59542.2 0
59542.2 241.726 0
0    0    0

241.377 60146.6 0
60146.6 214.426 0
0    0    0

-46.7345 62954.4 0
62954.4 -167.289 0
0    0    0

-189.708 63018.1 0
63018.1 -117.012 0
0    0    0

-169.725 55354.7 0
55354.7 67.6116 0
0    0    0

144.657 53869.7 0
53869.7 297.896 0
0    0    0

-108.339 51643.5 0
51643.5 42.4694 0
0    0    0

-77.6087 52612.6 0
52612.6 -269.164 0
0    0    0

-61.5479 52141.3 0
52141.3 21.9373 0
0    0    0

-227.826 52214.7 0
52214.7 32.5459 0
0    0    0

85.796 57251.7 0
57251.7 299.185 0
0    0    0

-32.2994 56979 0
56979 110.224 0
0    0    0

202.623 56039.2 0
56039.2 228.648 0
0    0    0

141.407 54613.8 0
54613.8 255.796 0
0    0    0

-95.3735 56846 0
56846 -174.472 0
0    0    0

-10.7223 56284.1 0
56284.1 -11.9334 0
0    0    0

282.359 64910.1 0
64910.1 214.836 0
0    0    0

13.1118 65029 0
65029 187.298 0
0    0    0

-194.008 65934.2 0
65934.2 -214.219 0
0    0    0

9.08722 65568 0
65568 95.4796 0
0    0    0

155.861 64965 0
64965 200.697 0
0    0    0

242.717 65465.4 0
65465.4 321.347 0
0    0    0

-286.719 65711.7 0
65711.7 -234.778 0
0    0    0

82.5708 66221.3 0
66221.3 284.168 0
0    0    0

-145.141 67678.7 0
67678.7 -332.324 0
0    0    0

-240.764 67060.3 0
67060.3 -92.5855 0
0    0    0

229.605 65928.3 0
65928.3 269.471 0
0    0    0

208.15 65434.4 0
65434.4 189.701 0
0    0    0

43.4594 66275.1 0
66275.1 -180.461 0
0    0    0

-39.432 65532.7 0
65532.7 104.209 0
0    0    0

27.4272 66776.3 0
66776.3 257.479 0
0    0    0

19.3119 67005.5 0
67005.5 -252.91 0
0    0    0

-178.34 65976.9 0
65976.9 -263.795 0
0    0    0

-128.459 66186.7 0
66186.7 -84.7352 0
0    0    0

187.944 67176 0
67176 407.158 0
0    0    0

-340.994 69808.3 0
69808.3 -187.174 0
0    0    0

186.998 66643.7 0
66643.7 324.706 0
0    0    0

-192.336 67615.3 0
67615.3 -232.877 0
0    0    0

-264.111 66360 0
66360 -346.73 0
0    0    0

52.4663 67457.6 0
67457.6 5.00516 0
0    0    0

99.6347 66567.2 0
66567.2 -13.9464 0
0    0    0

-203.501 68176.9 0
68176.9 -151.63 0
0    0    0

246.277 67868 0
67868 188.095 0
0    0    0

-120.085 68334.2 0
68334.2 -453.241 0
0    0    0

-280.233 66970.2 0
66970.2 -324.291 0
0    0    0

103.518 67386.4 0
67386.4 168.868 0
0    0    0

-326.288 67245.4 0
67245.4 -306.514 0
0    0    0

-180.042 67863.4 0
67863.4 123.691 0
0    0    0

-185.11 67264.1 0
67264.1 -158.264 0
0    0    0

270.205 67926.5 0
67926.5 154.713 0
0    0    0

163.414 66080.8 0
66080.8 152.197 0
0    0    0

-85.995 66788.8 0
66788.8 -68.7039 0
0    0    0

-74.8161 67345.6 0
67345.6 88.2495 0
0    0    0

-100.137 67417.6 0
67417.6 118.731 0
0    0    0

-75.9557 68655.6 0
68655.6 -247.469 0
0    0    0

221.835 68350.3 0
68350.3 261.576 0
0    0    0

-43.1969 68745.9 0
68745.9 -310.428 0
0    0    0

-272.197 68102.4 0
68102.4 -89.1294 0
0    0    0

-32.047 69079.3 0
69079.3 211.477 0
0    0    0

138.32 67859.5 0
67859.5 -174.809 0
0    0    0

246.493 68376.1 0
68376.1 277.646 0
0    0    0

215.054 68312.6 0
68312.6 327.426 0
0    0    0

-71.5263 69337.8 0
69337.8 -315.049 0
0    0    0

275.246 68968.5 0
68968.5 602.056 0
0    0    0

90.6436 69300.6 0
69300.6 -89.0581 0
0    0    0

8.54236 68818.1 0
68818.1 -166.476 0
0    0    0

-291.77 68631.7 0
68631.7 -417.602 0
0    0    0

91.4252 68024.3 0
68024.3 391.359 0
0    0    0

69.5069 72184 0
72184 -233.202 0
0    0    0

294.32 69531.5 0
69531.5 147.842 0
0    0    0

-17.2035 69131.5 0
69131.5 153.847 0
0    0    0

-227.229 68508.3 0
68508.3 -320.191 0
0    0    0

178.106 69045.9 0
69045.9 204.598 0
0    0    0

-88.9466 69923.5 0
69923.5 -56.182 0
0    0    0

57.6369 70655.2 0
70655.2 -18.8395 0
0    0    0

221.463 69437.9 0
69437.9 195.932 0
0    0    0

-115.641 69263.8 0
69263.8 -275.649 0
0    0    0

-191.1 69322.6 0
69322.6 -373.763 0
0    0    0

-268.7 71842.3 0
71842.3 -268.77 0
0    0    0

371.739 69818.6 0
69818.6 260.491 0
0    0    0

125.481 71221.4 0
71221.4 -43.5128 0
0    0    0

181.458 70340.9 0
70340.9 28.4656 0
0    0    0

46.2948 70341.1 0
70341.1 145.477 0
0    0    0

-35.9104 70828.6 0
70828.6 62.9471 0
0    0    0

-76.5075 70288.4 0
70288.4 -196.163 0
0    0    0

140.732 69757 0
69757 115.87 0
0    0    0

-98.9841 70216.9 0
70216.9 -170.849 0
0    0    0

240.944 70010.2 0
70010.2 273.42 0
0    0    0

431.802 71528.7 0
71528.7 313.245 0
0    0    0

-8.15835 70170.4 0
70170.4 105.748 0
0    0    0

-42.1594 70822.8 0
70822.8 26.9493 0
0    0    0

133.28 70837.5 0
70837.5 384.591 0
0    0    0

120.932 71009.2 0
71009.2 148.641 0
0    0    0

-157.625 71473.9 0
71473.9 41.0464 0
0    0    0

-217.744 71832.4 0
71832.4 -209.67 0
0    0    0

-148.509 72661.1 0
72661.1 -69.5262 0
0    0    0

283.049 71343.3 0
71343.3 176.256 0
0    0    0

149.274 71381.6 0
71381.6 -41.2609 0
0    0    0

-68.4374 70580.4 0
70580.4 95.2449 0
0    0    0

72.5152 70548.7 0
70548.7 362.868 0
0    0    0

139.646 61373.7 0
61373.7 305.265 0
0    0    0

-244.719 61560.8 0
61560.8 6.67864 0
0    0    0

211.927 63212.5 0
63212.5 335.129 0
0    0    0

-226.659 62798.5 0
62798.5 -535.484 0
0    0    0

-78.6427 64676.4 0
64676.4 43.8252 0
0    0    0

223.247 61498.1 0
61498.1 -25.3499 0
0    0    0

-244.282 63028.3 0
63028.3 -236.475 0
0    0    0

137.396 64263.9 0
64263.9 -7.03874 0
0    0    0

113.891 60043.6 0
60043.6 -317.024 0
0    0    0

-100.145 60232.5 0
60232.5 -216.862 0
0    0    0

-318.957 61350.6 0
61350.6 -234.795 0
0    0    0

-205.567 61808.4 0
61808.4 -243.755 0
0    0    0

225.977 61020.9 0
61020.9 258.281 0
0    0    0

270.681 61646.5 0
61646.5 154.718 0
0    0    0

-131.794 62284.6 0
62284.6 -156.455 0
0    0    0

-35.394 62165.9 0
62165.9 356.729 0
0    0    0

-191.266 63962.5 0
63962.5 -6.93013 0
0    0    0

233.588 63084.9 0
63084.9 360.915 0
0    0    0

161.238 64232 0
64232 47.9645 0
0    0    0

-208.746 63731.3 0
63731.3 -164.855 0
0    0    0

-151.42 65043.9 0
65043.9 5.09746 0
0    0    0

-164.588 64724.4 0
64724.4 6.01783 0
0    0    0

292.669 63244.7 0
63244.7 243.732 0
0    0    0

176.837 62800.6 0
62800.6 -12.4264 0
0    0    0

-153.116 64996.3 0
64996.3 -334.317 0
0    0    0

244.398 63895.7 0
63895.7 91.0436 0
0    0    0

-272.084 68067.2 0
68067.2 -145.312 0
0    0    0

130.546 64848.2 0
64848.2 6.28263 0
0    0    0

-108.215 64016 0
64016 161.724 0
0    0    0

48.227 62597.8 0
62597.8 308.848 0
0    0    0

-88.1106 64752.4 0
64752.4 185.238 0
0    0    0

-70.1634 62543.3 0
62543.3 -147.751 0
0    0    0

160.973 64651.3 0
64651.3 -69.9213 0
0    0    0

93.4605 65281 0
65281 113.336 0
0    0    0

-11.0591 64376.6 0
64376.6 127.016 0
0    0    0

-82.1002 65040.3 0
65040.3 -71.0064 0
0    0    0

-361.376 66617.9 0
66617.9 -133.789 0
0    0    0

-151.94 67281.3 0
67281.3 22.051 0
0    0    0

-6.80749 65337.2 0
65337.2 -79.3181 0
0    0    0

23.7461 65226.5 0
65226.5 315.503 0
0    0    0

-119.195 62331.3 0
62331.3 -413.109 0
0    0    0

149.645 62579.1 0
62579.1 250.908 0
0    0    0

-195.55 66239.7 0
66239.7 -63.1838 0
0    0    0

61.681 64046.6 0
64046.6 147.912 0
0    0    0

-215.148 65057.6 0
65057.6 -224.025 0
0    0    0

-245.871 64469.3 0
64469.3 -466.26 0
0    0    0

-193.148 64358.3 0
64358.3 -319.33 0
0    0    0

179.628 63665.6 0
63665.6 -20.7455 0
0    0    0

-181.729 62303.4 0
62303.4 -81.4958 0
0    0    0

135.438 62743.4 0
62743.4 308.45 0
0    0    0

105.125 63442.9 0
63442.9 -195.35 0
0    0    0

83.9162 62340.2 0
62340.2 -234.383 0
0    0    0

-278.079 63669.3 0
63669.3 -88.9799 0
0    0    0

-90.1149 63227.4 0
63227.4 140.986 0
0    0    0

165.362 64002.4 0
64002.4 255.922 0
0    0    0

53.2018 63462.4 0
63462.4 -131.376 0
0    0    0

-43.2073 63285 0
63285 191.974 0
0    0    0

85.6446 61372.1 0
61372.1 229.33 0
0    0    0

274.676 62679.8 0
62679.8 172.035 0
0    0    0

-171.662 63684.3 0
63684.3 -254.22 0
0    0    0

-152.015 63098.7 0
63098.7 -303.957 0
0    0    0

204.175 62103.9 0
62103.9 122.769 0
0    0    0

277.075 63868.4 0
63868.4 219.092 0
0    0    0

-285.459 63024.3 0
63024.3 -215.374 0
0    0    0

-60.7846 63568.3 0
63568.3 39.3516 0
0    0    0

117.544 62756.5 0
62756.5 277.896 0
0    0    0

149.531 64273.3 0
64273.3 -43.7972 0
0    0    0

34.2861 64232.3 0
64232.3 189.882 0
0    0    0

302.387 63248.3 0
63248.3 306.166 0
0    0    0

-141.273 63541.9 0
63541.9 -20.5557 0
0    0    0

-141.458 64054.6 0
64054.6 -26.2564 0
0    0    0

118.966 62631 0
62631 82.7083 0
0    0    0

219.162 64973.2 0
64973.2 -102.083 0
0    0    0

34.4497 64067.8 0
64067.8 -44.2291 0
0    0    0

-33.7439 64930.6 0
64930.6 -234.362 0
0    0    0

-238.561 64430 0
64430 -158.871 0
0    0    0

-259.22 64678.9 0
64678.9 -229.156 0
0    0    0

199.194 64607 0
64607 283.632 0
0    0    0

-73.6372 65443 0
65443 -131.233 0
0    0    0

11.0055 64119.9 0
64119.9 422.202 0
0    0    0

-152.937 66780 0
66780 27.2159 0
0    0    0

68.0433 64407.4 0
64407.4 -156.537 0
0    0    0

-145.482 63696.8 0
63696.8 -320.505 0
0    0    0

91.3945 63988.5 0
63988.5 -263.692 0
0    0    0

175.221 65164.6 0
65164.6 342.563 0
0    0    0

166.462 64948.6 0
64948.6 40.6816 0
0    0    0

160.188 65197.5 0
65197.5 288.221 0
0    0    0

11.7804 65991.4 0
65991.4 -331.14 0
0    0    0

-197.562 65163 0
65163 -79.3336 0
0    0    0

-151.828 64536.9 0
64536.9 -113.523 0
0    0    0

127.629 66636.8 0
66636.8 64.0978 0
0    0    0

203.904 64118.5 0
64118.5 71.1921 0
0    0    0

-123.94 62952 0
62952 -207.919 0
0    0    0

100.111 62267.9 0
62267.9 324.003 0
0    0    0

166.833 64644.5 0
64644.5 103.218 0
0    0    0

-57.3074 68458.1 0
68458.1 -238.639 0
0    0    0

91.7691 63566.3 0
63566.3 76.5843 0
0    0    0

-125.087 64922.9 0
64922.9 -89.2912 0
0    0    0

236.931 64979.8 0
64979.8 70.8032 0
0    0    0

72.635 65721.1 0
65721.1 -236.175 0
0    0    0

-125.544 65837.9 0
65837.9 -86.2992 0
0    0    0

158.198 65304.5 0
65304.5 127.982 0
0    0    0

-82.4344 66597.6 0
66597.6 -280.644 0
0    0    0

-62.1916 65482.3 0
65482.3 88.2082 0
0    0    0

-177.329 65702 0
65702 48.9633 0
0    0    0

149.256 65696.5 0
65696.5 225.678 0
0    0    0

47.5097 65942.2 0
65942.2 227.841 0
0    0    0

-157.709 67200.9 0
67200.9 -98.9931 0
0    0    0

-46.4932 66243.7 0
66243.7 -14.3603 0
0    0    0

129.389 65967.4 0
65967.4 -172.751 0
0    0    0

54.9765 66259.8 0
66259.8 269.046 0
0    0    0

-193.023 69018.6 0
69018.6 -147.727 0
0    0    0

-17.9041 67395.4 0
67395.4 201.417 0
0    0    0

84.3893 66178.7 0
66178.7 -131.695 0
0    0    0

-109.617 67562.4 0
67562.4 -291.685 0
0    0    0

-141.095 65440.1 0
65440.1 -74.3852 0
0    0    0

-42.2752 65792 0
65792 143.02 0
0    0    0

-175.002 65515.6 0
65515.6 -219.869 0
0    0    0

180.563 67504.5 0
67504.5 -2.50163 0
0    0    0

-55.7133 66565.9 0
66565.9 -234.329 0
0    0    0

-71.7699 67539.9 0
67539.9 74.2137 0
0    0    0

-219.601 67935.8 0
67935.8 -103.291 0
0    0    0

57.737 66970.9 0
66970.9 -159.776 0
0    0    0

195.734 66386.1 0
66386.1 241.324 0
0    0    0

-56.6297 66842.7 0
66842.7 197.747 0
0    0    0

111.984 66251 0
66251 179.731 0
0    0    0

-218.686 66442.9 0
66442.9 40.8851 0
0    0    0

221.542 67948.7 0
67948.7 79.839 0
0    0    0

150.581 67554.5 0
67554.5 -7.41854 0
0    0    0

131.03 67810.6 0
67810.6 -4.63189 0
0    0    0

-123.433 67691.6 0
67691.6 -39.3167 0
0    0    0

-230.935 66600.6 0
66600.6 -354.116 0
0    0    0

304.734 66830.6 0
66830.6 594.158 0
0    0    0

-325.393 46532.4 0
46532.4 -507.095 0
0    0    0

-178.262 67117.5 0
67117.5 -389.567 0
0    0    0

102.341 67711.5 0
67711.5 238.795 0
0    0    0

133.273 46931.7 0
46931.7 267.735 0
0    0    0

-117.675 49473.4 0
49473.4 5.0732 0
0    0    0

230.811 47866.2 0
47866.2 254.872 0
0    0    0

24.0684 47120.4 0
47120.4 -286.224 0
0    0    0

24.8484 47604 0
47604 196.548 0
0    0    0

-219.794 48072.5 0
48072.5 -325.196 0
0    0    0

-371.97 47257.4 0
47257.4 -695.503 0
0    0    0

66.5817 48582.1 0
48582.1 202.144 0
0    0    0

-132.277 48083.8 0
48083.8 103.506 0
0    0    0

98.6781 47208.3 0
47208.3 259.993 0
0    0    0

53.5792 48850.4 0
48850.4 -198.124 0
0    0    0

-24.4793 34452.9 0
34452.9 -89.7311 0
0    0    0

93.2172 35001.6 0
35001.6 382.496 0
0    0    0

213.001 35522.5 0
35522.5 -179.182 0
0    0    0

282.887 36261.5 0
36261.5 134.58 0
0    0    0

-209.537 35267.2 0
35267.2 73.7819 0
0    0    0

121.718 35478.7 0
35478.7 -142.444 0
0    0    0

-90.1288 40711.4 0
40711.4 -84.0624 0
0    0    0

-50.2581 38394.6 0
38394.6 -257.628 0
0    0    0

-52.0471 38835.3 0
38835.3 26.7655 0
0    0    0

-122.67 37930.7 0
37930.7 -160.18 0
0    0    0

140.243 38554.2 0
38554.2 326.087 0
0    0    0

70.4913 39025 0
39025 -189.323 0
0    0    0

274.265 38132.2 0
38132.2 270.159 0
0    0    0

-133.975 37942.6 0
37942.6 -204.434 0
0    0    0

-23.2052 39052.2 0
39052.2 201.645 0
0    0    0

62.6132 37119.7 0
37119.7 135.244 0
0    0    0

224.864 38147.3 0
38147.3 251.326 0
0    0    0

-141.091 38316.6 0
38316.6 -283.981 0
0    0    0

-41.7628 38803.2 0
38803.2 -161.093 0
0    0    0

161.649 38389 0
38389 -67.197 0
0    0    0

26.1499 39355.2 0
39355.2 1.28301 0
0    0    0

-72.386 39497.8 0
39497.8 182.144 0
0    0    0

106.669 39141.9 0
39141.9 -57.9662 0
0    0    0

107.086 37553.2 0
37553.2 235.339 0
0    0    0

-176.229 37401.5 0
37401.5 -151.639 0
0    0    0

-176.237 37556.1 0
37556.1 -67.8828 0
0    0    0

197.323 37545.4 0
37545.4 289.705 0
0    0    0

104.696 36444.1 0
36444.1 353.156 0
0    0    0

-127.717 39315.5 0
39315.5 151.515 0
0    0    0

18.1392 38810.9 0
38810.9 -93.875 0
0    0    0

-135.725 39765.3 0
39765.3 -179.738 0
0    0    0

17.9299 40234.8 0
40234.8 47.2109 0
0    0    0

-212.212 40308.8 0
40308.8 -272.911 0
0    0    0

-174.086 39795.8 0
39795.8 -91.2004 0
0    0    0

269.178 39717.4 0
39717.4 149.654 0
0    0    0

332.741 39349 0
39349 128.408 0
0    0    0

163.573 37098.6 0
37098.6 157.454 0
0    0    0

2.40577 36697.3 0
36697.3 -266.237 0
0    0    0

-202.358 40651.1 0
40651.1 -115.824 0
0    0    0

-288.071 37896.4 0
37896.4 -453.483 0
0    0    0

-74.0198 38935.8 0
38935.8 -288.145 0
0    0    0

-178.096 38338.4 0
38338.4 -87.424 0
0    0    0

-298.214 38553.5 0
38553.5 -131.662 0
0    0    0

144.368 38046.6 0
38046.6 291.732 0
0    0    0

336.499 40204.3 0
40204.3 195.515 0
0    0    0

7.25862 38785.6 0
38785.6 -187.332 0
0    0    0

29.8959 38514.1 0
38514.1 33.3609 0
0    0    0

285.35 38740.7 0
38740.7 190.445 0
0    0    0

-146.723 38280 0
38280 98.1366 0
0    0    0

-259.545 39148.2 0
39148.2 -155.057 0
0    0    0

-240.597 39531.7 0
39531.7 -39.4999 0
0    0    0

-187.936 38939.7 0
38939.7 -13.3348 0
0    0    0

-239.343 35086 0
35086 -81.8268 0
0    0    0

-79.243 35393.5 0
35393.5 92.6109 0
0    0    0

177.111 41133.7 0
41133.7 276.775 0
0    0    0

236.061 41575.9 0
41575.9 24.3364 0
0    0    0

1.22185 44939.8 0
44939.8 132.831 0
0    0    0

78.6212 44785.3 0
44785.3 114.379 0
0    0    0

40.2399 45313.4 0
45313.4 52.8918 0
0    0    0

-235.56 45847.4 0
45847.4 -325.312 0
0    0    0

126.667 45288.8 0
45288.8 84.8844 0
0    0    0

224.044 44777.2 0
44777.2 53.3804 0
0    0    0

23.8638 45261.3 0
45261.3 -109.301 0
0    0    0

89.1309 44683.7 0
44683.7 -97.8314 0
0    0    0

143.169 45647 0
45647 117.793 0
0    0    0

-95.0302 45186.1 0
45186.1 -175.655 0
0    0    0

-180.482 46467 0
46467 -199.799 0
0    0    0

6.16212 45683.1 0
45683.1 76.1686 0
0    0    0

-303.705 45072.6 0
45072.6 -500.995 0
0    0    0

-132.391 41924.5 0
41924.5 -209.924 0
0    0    0

-297.802 44451.1 0
44451.1 -127.302 0
0    0    0

-178.23 43857.6 0
43857.6 -318.734 0
0    0    0

-27.166 44521.3 0
44521.3 171.4 0
0    0    0

250.456 44042.6 0
44042.6 204.191 0
0    0    0

257.267 43789.8 0
43789.8 304.024 0
0    0    0

-328.077 42829.6 0
42829.6 -417.096 0
0    0    0

-224.467 32618.8 0
32618.8 -264.691 0
0    0    0

-278.421 31590.3 0
31590.3 -227.962 0
0    0    0

-187.854 31998.5 0
31998.5 -487.01 0
0    0    0

-153.536 30760.7 0
30760.7 -65.801 0
0    0    0

-119.472 31361.5 0
31361.5 -220.906 0
0    0    0

31.3329 30934.1 0
30934.1 251.281 0
0    0    0

144.52 34143 0
34143 249.148 0
0    0    0

-171.748 33999.6 0
33999.6 -205.303 0
0    0    0

52.0636 34290.5 0
34290.5 215.901 0
0    0    0

80.237 33729.4 0
33729.4 10.0844 0
0    0    0

-186.61 33692.7 0
33692.7 -98.1874 0
0    0    0

-71.3691 34101.8 0
34101.8 245.374 0
0    0    0

58.5053 32568.8 0
32568.8 235.377 0
0    0    0

-218.748 32785.5 0
32785.5 29.8164 0
0    0    0

-40.8203 33936.7 0
33936.7 -11.0225 0
0    0    0

-129.041 32792.3 0
32792.3 -310.192 0
0    0    0

160.371 34514.6 0
34514.6 -6.3613 0
0    0    0

-90.4117 34680.3 0
34680.3 -2.56551 0
0    0    0

85.2741 34425.8 0
34425.8 261.781 0
0    0    0

131.901 35195.3 0
35195.3 -49.6332 0
0    0    0

-177.383 32848.3 0
32848.3 59.3867 0
0    0    0

99.2975 33267.9 0
33267.9 436.285 0
0    0    0

-256.562 32046.5 0
32046.5 -217.063 0
0    0    0

-146.594 32396.7 0
32396.7 -43.708 0
0    0    0

171.127 32204.9 0
32204.9 83.1095 0
0    0    0

-207.258 32316.5 0
32316.5 -297.552 0
0    0    0

86.324 31015.4 0
31015.4 76.3842 0
0    0    0

-276.976 32117.9 0
32117.9 -233.663 0
0    0    0

33.42 32075.9 0
32075.9 -31.7852 0
0    0    0

73.8756 33795.3 0
33795.3 -120.823 0
0    0    0

-235.12 32598.1 0
32598.1 -404.564 0
0    0    0

169.209 31766.7 0
31766.7 187.344 0
0    0    0

-7.34214 32821.9 0
32821.9 -187.969 0
0    0    0

-57.1167 33194.3 0
33194.3 11.9554 0
0    0    0

118.295 31301.7 0
31301.7 298.026 0
0    0    0

83.0211 32591.5 0
32591.5 -96.7127 0
0    0    0

194.688 32069.4 0
32069.4 322.84 0
0    0    0

299.439 31417 0
31417 59.0338 0
0    0    0

242.744 31262.7 0
31262.7 28.6678 0
0    0    0

147.864 31898.7 0
31898.7 327.43 0
0    0    0

-31.9346 30707.7 0
30707.7 213.647 0
0    0    0

-204.395 30546.1 0
30546.1 -114.013 0
0    0    0

-192.703 31107.5 0
31107.5 -121.048 0
0    0    0

283.115 31620.5 0
31620.5 242.081 0
0    0    0

201.765 30627.1 0
30627.1 212.805 0
0    0    0

-96.287 29768.2 0
29768.2 -382.409 0
0    0    0

124.512 34888.6 0
34888.6 150.206 0
0    0    0

177.676 37309.7 0
37309.7 67.7287 0
0    0    0

-48.9421 31835.3 0
31835.3 -254.277 0
0    0    0

262.523 31095.9 0
31095.9 226.115 0
0    0    0

64.7841 31715.2 0
31715.2 -347.609 0
0    0    0

-104.389 31079.7 0
31079.7 139.986 0
0    0    0

166.244 31706.9 0
31706.9 41.0149 0
0    0    0

162.974 31244.5 0
31244.5 39.6994 0
0    0    0

4.04502 31344.1 0
31344.1 -176.921 0
0    0    0

275.058 31566.7 0
31566.7 467.004 0
0    0    0

-213.329 31971.2 0
31971.2 -56.769 0
0    0    0

-156.093 31417.3 0
31417.3 -212.244 0
0    0    0

50.5493 29514.8 0
29514.8 -223.707 0
0    0    0

-273.893 30473.8 0
30473.8 -242.912 0
0    0    0

-86.3767 31004.3 0
31004.3 129.127 0
0    0    0

142.829 30459.7 0
30459.7 125.394 0
0    0    0

-224.719 66465.8 0
66465.8 -159.388 0
0    0    0

153.102 65882.4 0
65882.4 121.655 0
0    0    0

193.793 62784.2 0
62784.2 86.001 0
0    0    0

104.861 63465.1 0
63465.1 229.565 0
0    0    0

-172.474 65628.2 0
65628.2 -219.069 0
0    0    0

82.4572 64934 0
64934 -128.681 0
0    0    0

-82.7402 64876.1 0
64876.1 192.509 0
0    0    0

37.1327 64334.3 0
64334.3 71.8647 0
0    0    0

180.143 63878.5 0
63878.5 136.42 0
0    0    0

-137.725 63895 0
63895 -286.165 0
0    0    0

171.848 63618.3 0
63618.3 229.376 0
0    0    0

280.056 64015.6 0
64015.6 7.95888 0
0    0    0

33.5759 63097.9 0
63097.9 -111.966 0
0    0    0

-151.006 64458.5 0
64458.5 -227.081 0
0    0    0

84.1467 62494.2 0
62494.2 114.57 0
0    0    0

-137.419 63372.3 0
63372.3 -96.7721 0
0    0    0

-323.931 63528.9 0
63528.9 -68.9626 0
0    0    0

67.99 64132.1 0
64132.1 67.7358 0
0    0    0

80.7363 62954.6 0
62954.6 177.391 0
0    0    0

-179.619 63750 0
63750 1.08842 0
0    0    0

-22.6895 63972.3 0
63972.3 34.077 0
0    0    0

181.949 65039.3 0
65039.3 391.947 0
0    0    0

187.408 63463.1 0
63463.1 -5.63293 0
0    0    0

179.879 64118.6 0
64118.6 98.8993 0
0    0    0

310.1 63793.2 0
63793.2 95.0174 0
0    0    0

-15.6938 64654 0
64654 166.659 0
0    0    0

-120.35 64989.7 0
64989.7 23.5949 0
0    0    0

141.395 64079.5 0
64079.5 192.664 0
0    0    0

-42.9255 65509.9 0
65509.9 168.726 0
0    0    0

-189.284 65169.7 0
65169.7 -147.729 0
0    0    0

179.954 64752.7 0
64752.7 245.176 0
0    0    0

130.695 65416.8 0
65416.8 -28.0947 0
0    0    0

-130.799 64617.1 0
64617.1 -188.724 0
0    0    0

-154.522 64836.6 0
64836.6 -249.025 0
0    0    0

-176.622 65882 0
65882 -3.14854 0
0    0    0

191.755 66061.7 0
66061.7 138.955 0
0    0    0

136.093 65837.7 0
65837.7 -152.937 0
0    0    0

154.436 66055.7 0
66055.7 130.911 0
0    0    0

-112.485 66603.7 0
66603.7 172.032 0
0    0    0

-36.8341 67685.3 0
67685.3 253.898 0
0    0    0

-121.119 65617.1 0
65617.1 177.096 0
0    0    0

-97.1329 66411.9 0
66411.9 -190.211 0
0    0    0

135.079 65452.5 0
65452.5 90.378 0
0    0    0

-197.141 65830 0
65830 -250.842 0
0    0    0

214.001 66745.3 0
66745.3 326.405 0
0    0    0

-46.4098 67134.4 0
67134.4 97.3293 0
0    0    0

-18.7455 66436.2 0
66436.2 -185.628 0
0    0    0

-181.297 66821.2 0
66821.2 147.153 0
0    0    0

-141.155 65350.5 0
65350.5 -213.467 0
0    0    0

200.45 65246.1 0
65246.1 -36.0041 0
0    0    0

79.8507 66737.9 0
66737.9 -47.4277 0
0    0    0

-344.505 66407.6 0
66407.6 -383.149 0
0    0    0

98.013 66912.6 0
66912.6 -48.6009 0
0    0    0

-24.9469 66663.1 0
66663.1 -208.057 0
0    0    0

21.4383 65372.5 0
65372.5 -120.894 0
0    0    0

133.205 66263.3 0
66263.3 -189.637 0
0    0    0

212.743 67342.6 0
67342.6 -32.6906 0
0    0    0

147.471 67114.9 0
67114.9 138.351 0
0    0    0

-111.241 67225.9 0
67225.9 -205.408 0
0    0    0

-90.8155 65244.5 0
65244.5 14.301 0
0    0    0

-204.903 65597.3 0
65597.3 -280.97 0
0    0    0

63.8163 65839.2 0
65839.2 268.568 0
0    0    0

206.878 65123.5 0
65123.5 230.985 0
0    0    0

-65.3063 66128.2 0
66128.2 -364.595 0
0    0    0

-73.3066 66689.1 0
66689.1 -306.383 0
0    0    0

80.0539 66574.3 0
66574.3 97.7503 0
0    0    0

254.288 65259.4 0
65259.4 209.701 0
0    0    0

34.4888 65965 0
65965 -119.282 0
0    0    0

-20.2788 66381.3 0
66381.3 110.289 0
0    0    0

207.226 66861.5 0
66861.5 240.332 0
0    0    0

-152.612 67981.1 0
67981.1 -127.353 0
0    0    0

70.2431 66352.8 0
66352.8 250.118 0
0    0    0

-6.22824 67240 0
67240 -272.773 0
0    0    0

155.795 66856.8 0
66856.8 227.39 0
0    0    0

-201.379 64665.3 0
64665.3 -297.177 0
0    0    0

295.635 65518 0
65518 107.224 0
0    0    0

-31.6566 67396 0
67396 -167.056 0
0    0    0

57.3437 67225.5 0
67225.5 -240.093 0
0    0    0

-202.982 67401.6 0
67401.6 -128.521 0
0    0    0

-177.355 69064.7 0
69064.7 -238.965 0
0    0    0

223.872 66545.6 0
66545.6 139.426 0
0    0    0

118.643 67936.6 0
67936.6 81.7258 0
0    0    0

-180.739 65733.3 0
65733.3 -281.331 0
0    0    0

-208.966 65877.3 0
65877.3 -141.569 0
0    0    0

-234.879 65294.4 0
65294.4 -199.263 0
0    0    0

173.675 64509.7 0
64509.7 140.275 0
0    0    0

-204.088 65991.5 0
65991.5 -265.195 0
0    0    0

-1.48125 66386.4 0
66386.4 -148.743 0
0    0    0

-84.7142 65046.8 0
65046.8 184.751 0
0    0    0

275.207 65556.6 0
65556.6 283.864 0
0    0    0

296.005 64457.7 0
64457.7 577.544 0
0    0    0

-317.696 65313.8 0
65313.8 -300.75 0
0    0    0

-146.71 65600.4 0
65600.4 -264.742 0
0    0    0

-46.5993 66698.4 0
66698.4 117.251 0
0    0    0

79.8862 64896.5 0
64896.5 -59.1996 0
0    0    0

100.851 64846.8 0
64846.8 -86.2773 0
0    0    0

331.144 66025.9 0
66025.9 211.204 0
0    0    0

-42.982 66917.7 0
66917.7 -112.279 0
0    0    0

-183.958 66964.8 0
66964.8 -291.759 0
0    0    0

57.7272 66529.5 0
66529.5 253.119 0
0    0    0

-146.929 66941 0
66941 -288.32 0
0    0    0

133.484 68486.9 0
68486.9 357.546 0
0    0    0

-335.75 66384.1 0
66384.1 -187.166 0
0    0    0

156.279 66567.6 0
66567.6 287.077 0
0    0    0

139.856 66202.2 0
66202.2 -107.93 0
0    0    0

-48.2673 67635.6 0
67635.6 253.05 0
0    0    0

-76.1703 66356.1 0
66356.1 235.105 0
0    0    0

-77.5573 66186.7 0
66186.7 202.879 0
0    0    0

-26.6244 66047.5 0
66047.5 206.964 0
0    0    0

-49.0755 66778.8 0
66778.8 -55.9852 0
0    0    0

-98.4106 66949 0
66949 -243.201 0
0    0    0

-272.138 66367.9 0
66367.9 -364.859 0
0    0    0

29.4156 66952.2 0
66952.2 182.106 0
0    0    0

33.3784 66915.7 0
66915.7 -267.369 0
0    0    0

-108.075 68548.3 0
68548.3 -249.839 0
0    0    0

78.2414 67379.4 0
67379.4 356.204 0
0    0    0

191.047 67848.5 0
67848.5 246.987 0
0    0    0

-54.2522 68591.7 0
68591.7 -374.049 0
0    0    0

-85.6558 64560.9 0
64560.9 -31.3613 0
0    0    0

176.558 65033.1 0
65033.1 337.392 0
0    0    0

4.4529 64220.5 0
64220.5 -116.016 0
0    0    0

-218.493 64256.2 0
64256.2 55.8699 0
0    0    0

17.0888 67057.7 0
67057.7 117.114 0
0    0    0

222.308 67891.1 0
67891.1 192.258 0
0    0    0

-120.062 66699 0
66699 -122.583 0
0    0    0

-131.019 66385.4 0
66385.4 66.1822 0
0    0    0

-84.2246 64181.4 0
64181.4 119.283 0
0    0    0

111.482 64547.3 0
64547.3 235.854 0
0    0    0

-110.493 63736.2 0
63736.2 -132.661 0
0    0    0

282.024 63561.5 0
63561.5 -79.7817 0
0    0    0

-60.0479 62830.5 0
62830.5 77.5834 0
0    0    0

25.8259 62642.7 0
62642.7 -215.769 0
0    0    0

-69.2066 61708.4 0
61708.4 139.043 0
0    0    0

-110.953 63012.9 0
63012.9 122.506 0
0    0    0

-140.682 63376.5 0
63376.5 -126.991 0
0    0    0

-101.636 62847.4 0
62847.4 91.457 0
0    0    0

-229.597 62794.6 0
62794.6 -324.769 0
0    0    0

172.837 61830.8 0
61830.8 356.547 0
0    0    0

-95.7061 62833.6 0
62833.6 -80.0395 0
0    0    0

161.347 62446.6 0
62446.6 269.553 0
0    0    0

86.4929 65253.9 0
65253.9 339.206 0
0    0    0

-122.419 66211.3 0
66211.3 -121.834 0
0    0    0

163.983 65724.2 0
65724.2 19.7949 0
0    0    0

-155.281 66221.3 0
66221.3 -145.472 0
0    0    0

129.544 62888.3 0
62888.3 80.6222 0
0    0    0

-143.091 63737.2 0
63737.2 36.7034 0
0    0    0

113.079 63264.5 0
63264.5 -28.7566 0
0    0    0

-218.77 63657.5 0
63657.5 -82.6167 0
0    0    0

-150.415 62820.3 0
62820.3 -95.7911 0
0    0    0

-184.389 62102.5 0
62102.5 -304.02 0
0    0    0

-24.891 62238.3 0
62238.3 -278.976 0
0    0    0

-273.247 61812.6 0
61812.6 -372.599 0
0    0    0

-280.613 61633.3 0
61633.3 -203.72 0
0    0    0

218.762 61333.2 0
61333.2 272.875 0
0    0    0

153.85 61146.8 0
61146.8 -53.7636 0
0    0    0

61.1083 60918.6 0
60918.6 357.792 0
0    0    0

34.7122 60956.7 0
60956.7 -89.1706 0
0    0    0

-62.3384 61905.7 0
61905.7 -156.854 0
0    0    0

-108.074 61119.8 0
61119.8 -411.413 0
0    0    0

-223.06 61429.1 0
61429.1 -20.96 0
0    0    0

-30.3691 62060.4 0
62060.4 147.579 0
0    0    0

-141.652 62171.9 0
62171.9 -362.898 0
0    0    0

-191.001 64851.5 0
64851.5 -570.782 0
0    0    0

224.998 65284.9 0
65284.9 349.618 0
0    0    0

-120.167 64637.1 0
64637.1 14.2529 0
0    0    0

-238.115 65045.9 0
65045.9 -339.979 0
0    0    0

-108.875 65078.9 0
65078.9 -145.766 0
0    0    0

94.2349 65689.6 0
65689.6 -234.553 0
0    0    0

-18.4502 62278.4 0
62278.4 180.926 0
0    0    0

67.497 62924.7 0
62924.7 -0.74606 0
0    0    0

257.096 61640.4 0
61640.4 102.661 0
0    0    0

224.966 61650.3 0
61650.3 210.039 0
0    0    0

79.9415 60035.8 0
60035.8 -139.162 0
0    0    0

141.446 60330.3 0
60330.3 266.245 0
0    0    0

-131.152 62234 0
62234 -172.737 0
0    0    0

-69.1188 62379.8 0
62379.8 -207.102 0
0    0    0

321.802 61035.7 0
61035.7 391.78 0
0    0    0

158.426 62002.6 0
62002.6 205.664 0
0    0    0

-195.92 66909.9 0
66909.9 113.933 0
0    0    0

161.209 69345.4 0
69345.4 264.54 0
0    0    0

140.191 62388.3 0
62388.3 -121.126 0
0    0    0

-75.3638 62104.8 0
62104.8 214.13 0
0    0    0

87.5348 61414.4 0
61414.4 -153.391 0
0    0    0

-178.556 62036 0
62036 -258.517 0
0    0    0

-216.003 60557.4 0
60557.4 -6.43652 0
0    0    0

-37.4469 61194.3 0
61194.3 142.043 0
0    0    0

-145.821 59941 0
59941 -38.9176 0
0    0    0

248.029 61135.3 0
61135.3 223.791 0
0    0    0

-90.5216 60801.7 0
60801.7 162.637 0
0    0    0

-200.718 60755.8 0
60755.8 -277.777 0
0    0    0

6.00346 57450.3 0
57450.3 171.666 0
0    0    0

222.2 58822.4 0
58822.4 232.407 0
0    0    0

-118.239 65587.3 0
65587.3 -339.658 0
0    0    0

-229.592 66738.5 0
66738.5 -57.4964 0
0    0    0

218.16 64722.1 0
64722.1 154.656 0
0    0    0

-95.837 65798.5 0
65798.5 -209.777 0
0    0    0

-26.6236 60426.2 0
60426.2 -152.71 0
0    0    0

-71.2711 60004.2 0
60004.2 21.8295 0
0    0    0

25.5611 59359.3 0
59359.3 196.412 0
0    0    0

35.8702 62193 0
62193 239.813 0
0    0    0

-76.9528 61264.5 0
61264.5 -274.215 0
0    0    0

43.3991 61352 0
61352 203.761 0
0    0    0

103.152 59879.1 0
59879.1 249.631 0
0    0    0

-149.332 59335.7 0
59335.7 -182.528 0
0    0    0

-41.4341 63430.9 0
63430.9 -128.382 0
0    0    0

133.65 65480.7 0
65480.7 181.387 0
0    0    0

177.736 64266.3 0
64266.3 44.6058 0
0    0    0

52.7409 64720.6 0
64720.6 237.309 0
0    0    0

182.81 66190.6 0
66190.6 533.893 0
0    0    0

196.114 66074 0
66074 141.047 0
0    0    0

73.0992 60687.5 0
60687.5 -100.155 0
0    0    0

56.9578 59585.3 0
59585.3 170.527 0
0    0    0

-11.8593 59687.6 0
59687.6 -161.706 0
0    0    0

-182.921 60090.9 0
60090.9 -244.774 0
0    0    0

157.715 60282 0
60282 308.169 0
0    0    0

138.758 60244.1 0
60244.1 -77.2637 0
0    0    0

-88.0033 59787.3 0
59787.3 78.9805 0
0    0    0

-14.2821 60182.3 0
60182.3 202.183 0
0    0    0

-49.3263 61451.1 0
61451.1 -153.49 0
0    0    0

48.4977 61058.1 0
61058.1 -127.025 0
0    0    0

-237.938 65073.2 0
65073.2 -366.368 0
0    0    0

-179.033 65835.5 0
65835.5 -330.418 0
0    0    0

-374.388 65117.1 0
65117.1 -239.805 0
0    0    0

-138.564 65357.7 0
65357.7 110.006 0
0    0    0

255.775 64744.3 0
64744.3 89.4774 0
0    0    0

230.678 65437.6 0
65437.6 283.238 0
0    0    0

70.0282 32622 0
32622 -98.3962 0
0    0    0

-42.5872 32009.2 0
32009.2 -84.4691 0
0    0    0

139.972 45946.8 0
45946.8 75.8909 0
0    0    0

214.61 46950.6 0
46950.6 189.167 0
0    0    0

115.883 43887.7 0
43887.7 150.16 0
0    0    0

30.2511 44673.2 0
44673.2 -220.987 0
0    0    0

-34.9477 44452.2 0
44452.2 119.182 0
0    0    0

-98.3801 44016.5 0
44016.5 -268.036 0
0    0    0

-205.74 46124.9 0
46124.9 -305.289 0
0    0    0

-126.299 45248.6 0
45248.6 -82.4718 0
0    0    0

115.448 44315.2 0
44315.2 256.23 0
0    0    0

41.1773 45223.6 0
45223.6 -352.675 0
0    0    0

-94.6985 44668.5 0
44668.5 -23.7952 0
0    0    0

-157.414 45139.2 0
45139.2 121.844 0
0    0    0

1.03732 46194.8 0
46194.8 -400.562 0
0    0    0

-16.0945 44951 0
44951 0.525508 0
0    0    0

-6.61816 45631.3 0
45631.3 200.398 0
0    0    0

-204.743 45776.9 0
45776.9 -311.721 0
0    0    0

4.87361 45153.6 0
45153.6 -161.104 0
0    0    0

208.19 44810.1 0
44810.1 44.1033 0
0    0    0

118.218 44297.4 0
44297.4 4.57798 0
0    0    0

170.673 44869.9 0
44869.9 278.542 0
0    0    0

-41.889 41414.6 0
41414.6 -338.399 0
0    0    0

27.2154 41386.3 0
41386.3 -159.227 0
0    0    0

-327.247 42679.6 0
42679.6 -422.816 0
0    0    0

-331.379 42012.6 0
42012.6 -313.496 0
0    0    0

387.183 42949.3 0
42949.3 202.849 0
0    0    0

-34.3819 42401.6 0
42401.6 -296.636 0
0    0    0

-86.7683 42919.8 0
42919.8 -281.966 0
0    0    0

-327.884 43380.5 0
43380.5 -267.109 0
0    0    0

250.916 43655.8 0
43655.8 306.382 0
0    0    0

176.815 43386.5 0
43386.5 63.5233 0
0    0    0

210.566 44144.1 0
44144.1 221.957 0
0    0    0

40.2764 44216.9 0
44216.9 117.846 0
0    0    0

-255.239 43472.5 0
43472.5 -32.97 0
0    0    0

9.66083 42669.6 0
42669.6 210.157 0
0    0    0

-173.126 42540.4 0
42540.4 -325.637 0
0    0    0

183.011 42735.1 0
42735.1 -50.1052 0
0    0    0

-140.097 44036.4 0
44036.4 40.4156 0
0    0    0

-149.3 44167 0
44167 8.84105 0
0    0    0

112.754 44010.1 0
44010.1 -109.176 0
0    0    0

-108.526 44679 0
44679 -137.727 0
0    0    0

-227.792 43757.8 0
43757.8 -360.324 0
0    0    0

143.297 44456.7 0
44456.7 -133.983 0
0    0    0

-211.257 44876 0
44876 128.886 0
0    0    0

194.103 44696.6 0
44696.6 88.228 0
0    0    0

-5.13217 44202.8 0
44202.8 205.25 0
0    0    0

-166.104 43787.5 0
43787.5 -284.426 0
0    0    0

23.3926 44196.6 0
44196.6 -132.163 0
0    0    0

-180.744 44847.6 0
44847.6 -181.869 0
0    0    0

157.53 44571.2 0
44571.2 65.7263 0
0    0    0

209.839 46783.7 0
46783.7 431.83 0
0    0    0

-229.517 44875.5 0
44875.5 36.9706 0
0    0    0

-157.883 46600.3 0
46600.3 -67.2532 0
0    0    0

26.9622 45258.7 0
45258.7 -100.177 0
0    0    0

-164.52 45536.6 0
45536.6 -64.833 0
0    0    0

-54.5306 45955.3 0
45955.3 -271.608 0
0    0    0

-122.546 45667 0
45667 -330.019 0
0    0    0

48.5498 45607.7 0
45607.7 92.767 0
0    0    0

-20.6649 46121.9 0
46121.9 -277.945 0
0    0    0

163.981 46461.4 0
46461.4 -153.338 0
0    0    0

-116.775 45934.2 0
45934.2 94.5294 0
0    0    0

-4.84881 47159.8 0
47159.8 -121.044 0
0    0    0

130.665 48106.1 0
48106.1 -160.987 0
0    0    0

51.9688 46908.1 0
46908.1 80.1142 0
0    0    0

-200.823 47111.7 0
47111.7 -375.779 0
0    0    0

299.705 45800.5 0
45800.5 110.404 0
0    0    0

263.021 48242.7 0
48242.7 150.647 0
0    0    0

117.465 46630.9 0
46630.9 -98.7264 0
0    0    0

-54.383 46254.9 0
46254.9 43.4733 0
0    0    0

-23.8716 46279 0
46279 167.448 0
0    0    0

110.552 45989.6 0
45989.6 -301.121 0
0    0    0

198.865 46246.3 0
46246.3 -102.171 0
0    0    0

-92.3603 47035.4 0
47035.4 -119.224 0
0    0    0

-252.192 47676.4 0
47676.4 -208.61 0
0    0    0

228.445 48840.3 0
48840.3 142.554 0
0    0    0

117.13 46317.5 0
46317.5 -70.595 0
0    0    0

20.3439 46659.2 0
46659.2 101.642 0
0    0    0

62.7189 42244.8 0
42244.8 -314.619 0
0    0    0

129.95 41384.3 0
41384.3 262.269 0
0    0    0

-33.6181 40856.3 0
40856.3 31.3516 0
0    0    0

-103.307 40772.3 0
40772.3 -554.426 0
0    0    0

-114.095 40437.9 0
40437.9 -194.448 0
0    0    0

38.8833 39756.8 0
39756.8 3.48966 0
0    0    0

-229.406 40291.8 0
40291.8 -143.834 0
0    0    0

182.223 40123.3 0
40123.3 316.101 0
0    0    0

16.2759 41311.2 0
41311.2 41.0558 0
0    0    0

-144.201 40861.4 0
40861.4 -0.170446 0
0    0    0

98.769 40890.7 0
40890.7 -3.70571 0
0    0    0

84.3326 40729 0
40729 -227.332 0
0    0    0

-31.8862 44885.7 0
44885.7 204.456 0
0    0    0

-175.239 45097.9 0
45097.9 141.417 0
0    0    0

292.756 45720.1 0
45720.1 211.52 0
0    0    0

77.3901 46286.2 0
46286.2 -96.6413 0
0    0    0

-116.618 44331 0
44331 -309.105 0
0    0    0

-107.305 43800.2 0
43800.2 -157.505 0
0    0    0

-132.162 45564.6 0
45564.6 189.181 0
0    0    0

263.379 45452.8 0
45452.8 306.541 0
0    0    0

-3.97135 44458.2 0
44458.2 -145.977 0
0    0    0

119.787 44124.5 0
44124.5 305.589 0
0    0    0

-168.174 43847.1 0
43847.1 -325.595 0
0    0    0

-312.795 44456.6 0
44456.6 -374.503 0
0    0    0

21.6871 41027.1 0
41027.1 510.125 0
0    0    0

-140.371 42073.5 0
42073.5 -151.203 0
0    0    0

-335.708 41902.2 0
41902.2 -308.635 0
0    0    0

132.325 42490.3 0
42490.3 -79.047 0
0    0    0

58.0353 41663.2 0
41663.2 189.63 0
0    0    0

-85.6596 42978.5 0
42978.5 86.0573 0
0    0    0

125.793 40422.5 0
40422.5 119.821 0
0    0    0

296.835 41469 0
41469 327.738 0
0    0    0

-99.913 42214.6 0
42214.6 67.309 0
0    0    0

121.613 41667.7 0
41667.7 77.5471 0
0    0    0

-33.9013 41799.8 0
41799.8 -170.548 0
0    0    0

-238.981 42510.9 0
42510.9 -99.8566 0
0    0    0

26.1256 40261.9 0
40261.9 346.86 0
0    0    0

49.6137 40310.3 0
40310.3 -43.7587 0
0    0    0

44.7718 40643.4 0
40643.4 -262.755 0
0    0    0

235.727 40729 0
40729 -169.278 0
0    0    0

-0.526484 40564.8 0
40564.8 218.194 0
0    0    0

102.279 41080.9 0
41080.9 235.469 0
0    0    0

-184.013 40317.1 0
40317.1 -212.766 0
0    0    0

-100.27 40547.6 0
40547.6 -289.529 0
0    0    0

270.459 38690 0
38690 230.828 0
0    0    0

-1.76849 39638.2 0
39638.2 176.212 0
0    0    0

116.247 39625.7 0
39625.7 276.183 0
0    0    0

226.446 39201.4 0
39201.4 202.474 0
0    0    0

1.68581 37980.6 0
37980.6 -136.207 0
0    0    0

-77.9956 38947.1 0
38947.1 -265.093 0
0    0    0

-194.877 40162.5 0
40162.5 -108.441 0
0    0    0

43.018 40172.5 0
40172.5 258.171 0
0    0    0

-46.3169 39234.2 0
39234.2 289.682 0
0    0    0

38.2048 40880.5 0
40880.5 -285.47 0
0    0    0

-117.501 39975.6 0
39975.6 -558.484 0
0    0    0

-71.2083 39993.1 0
39993.1 -155.477 0
0    0    0

123.7 38644.7 0
38644.7 242.191 0
0    0    0

-112.977 39112.5 0
39112.5 -227.843 0
0    0    0

169.934 38154.5 0
38154.5 224.37 0
0    0    0

-96.4758 38971.7 0
38971.7 -357.237 0
0    0    0

79.3472 37340.4 0
37340.4 -70.7124 0
0    0    0

76.7782 37486.4 0
37486.4 248.916 0
0    0    0

397.32 35073.1 0
35073.1 306.531 0
0    0    0

214.285 35749.8 0
35749.8 179.442 0
0    0    0

87.9999 34668.1 0
34668.1 225.688 0
0    0    0

-14.5378 34435.3 0
34435.3 269.609 0
0    0    0

-71.7929 36077.1 0
36077.1 11.2063 0
0    0    0

304.157 35731.3 0
35731.3 593.692 0
0    0    0

-176.208 35397.8 0
35397.8 -348.374 0
0    0    0

221.345 35457.4 0
35457.4 -242.661 0
0    0    0

141.238 43915.1 0
43915.1 90.0536 0
0    0    0

-230.917 44873.5 0
44873.5 -67.4519 0
0    0    0

-34.761 18426.4 0
18426.4 -248.694 0
0    0    0

23.212 18766.1 0
18766.1 133.55 0
0    0    0

-195.563 18538.8 0
18538.8 -467.073 0
0    0    0

133.988 17931 0
17931 -189.374 0
0    0    0

158.823 18269.9 0
18269.9 -32.6413 0
0    0    0

164.792 18197.4 0
18197.4 384.612 0
0    0    0

264.309 17419 0
17419 28.3974 0
0    0    0

-236.476 17842.3 0
17842.3 -213.083 0
0    0    0

196.681 17853.7 0
17853.7 -72.1029 0
0    0    0

144.543 18249.1 0
18249.1 282.032 0
0    0    0

181.749 18024 0
18024 325.666 0
0    0    0

231.688 17610.7 0
17610.7 233.146 0
0    0    0

2.70884 18921.4 0
18921.4 -181.602 0
0    0    0

-243.69 18391 0
18391 -85.6255 0
0    0    0

-176.257 18312.6 0
18312.6 51.5624 0
0    0    0

179.518 17439.2 0
17439.2 220.545 0
0    0    0

194.738 17290 0
17290 15.645 0
0    0    0

-171.699 18103.1 0
18103.1 -150.445 0
0    0    0

173.338 16898.7 0
16898.7 119.344 0
0    0    0

-219.208 17438.6 0
17438.6 -152.91 0
0    0    0

22.0341 16951.9 0
16951.9 45.3948 0
0    0    0

-70.8725 17602 0
17602 -216.305 0
0    0    0

-191.406 17697 0
17697 -202.058 0
0    0    0

70.0195 18026.6 0
18026.6 193.495 0
0    0    0

74.2647 16207.3 0
16207.3 311.595 0
0    0    0

97.5417 17583.2 0
17583.2 -38.6682 0
0    0    0

-243.443 15740.8 0
15740.8 -282.786 0
0    0    0

-290.964 18034 0
18034 -226.532 0
0    0    0

81.4805 16107.8 0
16107.8 -67.1967 0
0    0    0

-18.842 16485.1 0
16485.1 -301.593 0
0    0    0

345.054 16988.3 0
16988.3 233.572 0
0    0    0

96.4127 13684.8 0
13684.8 293.67 0
0    0    0

-129.284 16458.6 0
16458.6 -183.656 0
0    0    0

79.3559 17766.1 0
17766.1 269.339 0
0    0    0

140.775 16529.7 0
16529.7 -136.678 0
0    0    0

-324.916 15058 0
15058 -232.817 0
0    0    0

208.644 16607.4 0
16607.4 264.717 0
0    0    0

12.7197 17027.6 0
17027.6 -162.109 0
0    0    0

36.1702 17360.8 0
17360.8 212.078 0
0    0    0

-70.8782 17346.6 0
17346.6 -10.782 0
0    0    0

31.8541 17434.3 0
17434.3 -123.467 0
0    0    0

197.98 18253.7 0
18253.7 273.354 0
0    0    0

-45.9229 16414.2 0
16414.2 153.045 0
0    0    0

-101.02 15689.3 0
15689.3 47.9835 0
0    0    0

-313.087 17250.7 0
17250.7 -226.696 0
0    0    0

169.286 15940.2 0
15940.2 231.454 0
0    0    0

-134.652 17210.4 0
17210.4 -151.619 0
0    0    0

392.536 14887.3 0
14887.3 330.754 0
0    0    0

-155.525 16219.2 0
16219.2 -288.718 0
0    0    0

147.167 15869.7 0
15869.7 217.176 0
0    0    0

43.1953 16436.1 0
16436.1 288.983 0
0    0    0

-3.82126 16004.9 0
16004.9 87.6703 0
0    0    0

107.822 16501.2 0
16501.2 337.476 0
0    0    0

-242.629 16759.1 0
16759.1 -320.825 0
0    0    0

278.21 16650 0
16650 130.621 0
0    0    0

210.232 17217.7 0
17217.7 177.544 0
0    0    0

-24.6278 17175.3 0
17175.3 256.555 0
0    0    0

-222.633 18230.5 0
18230.5 -160.798 0
0    0    0

-117.426 18417.5 0
18417.5 149.413 0
0    0    0

208.424 17778.5 0
17778.5 240.921 0
0    0    0

16.9258 16741.8 0
16741.8 239.398 0
0    0    0

-123.702 17406.2 0
17406.2 -88.428 0
0    0    0

-103.4 16269.5 0
16269.5 -216.531 0
0    0    0

-71.6241 16129.5 0
16129.5 151.962 0
0    0    0

-142.958 16191.3 0
16191.3 115.395 0
0    0    0

244.003 15943.3 0
15943.3 240.956 0
0    0    0

-122.234 17589.7 0
17589.7 -19.5656 0
0    0    0

118.516 17560.9 0
17560.9 -18.4815 0
0    0    0

-95.2877 16905.4 0
16905.4 -221.797 0
0    0    0

-253.23 17008.2 0
17008.2 -213.167 0
0    0    0

88.6685 15763 0
15763 -139.588 0
0    0    0

-53.6805 15176.1 0
15176.1 -353.663 0
0    0    0

-229.025 15878.7 0
15878.7 -250.79 0
0    0    0

125.086 15100 0
15100 47.6039 0
0    0    0

-168.67 18718 0
18718 -319.362 0
0    0    0

84.8746 18252.6 0
18252.6 -139.266 0
0    0    0

-33.7304 15358.9 0
15358.9 -36.7072 0
0    0    0

-298.512 13625.5 0
13625.5 -119.125 0
0    0    0

-17.6357 14307.2 0
14307.2 203.347 0
0    0    0

-6.9652 13949.4 0
13949.4 193.084 0
0    0    0

165.086 15376.2 0
15376.2 399.842 0
0    0    0

22.7236 15844.9 0
15844.9 -307.385 0
0    0    0

217.693 18391.5 0
18391.5 271.383 0
0    0    0

-91.9161 18569.9 0
18569.9 80.8528 0
0    0    0

77.4907 17128.3 0
17128.3 -39.2672 0
0    0    0

167.845 17922.8 0
17922.8 57.1261 0
0    0    0

82.9072 16530.5 0
16530.5 -132.035 0
0    0    0

205.616 17348.8 0
17348.8 187.928 0
0    0    0

83.2451 16730.8 0
16730.8 276.072 0
0    0    0

154.983 17572.7 0
17572.7 298.987 0
0    0    0

-73.9185 16714.8 0
16714.8 251.543 0
0    0    0

98.7771 16424.1 0
16424.1 -156.095 0
0    0    0

163.951 16975.3 0
16975.3 -47.5777 0
0    0    0

197.844 16842.3 0
16842.3 258.586 0
0    0    0

-240.007 17183.1 0
17183.1 -157.339 0
0    0    0

158.853 16007 0
16007 290.337 0
0    0    0

-164.543 17272 0
17272 -449.034 0
0    0    0

234.446 16863.8 0
16863.8 230.383 0
0    0    0

-174.248 17038.7 0
17038.7 -244.806 0
0    0    0

-96.1375 17899.8 0
17899.8 -326.964 0
0    0    0

-189.502 15691.7 0
15691.7 -244.653 0
0    0    0

-131.891 15248.2 0
15248.2 -252.18 0
0    0    0

116.776 14717 0
14717 184.987 0
0    0    0

55.3387 15423.3 0
15423.3 225.759 0
0    0    0

-75.8781 14621.8 0
14621.8 -85.0369 0
0    0    0

-141.581 14765.3 0
14765.3 -62.0333 0
0    0    0

2.79198 14813.7 0
14813.7 -201.475 0
0    0    0

-47.4888 14937.1 0
14937.1 120.104 0
0    0    0

-338.321 18185.4 0
18185.4 -189.34 0
0    0    0

402.82 17982 0
17982 158.863 0
0    0    0

-190.432 18290.2 0
18290.2 -64.2699 0
0    0    0

-263.176 17764.4 0
17764.4 -193.335 0
0    0    0

63.6481 16326.8 0
16326.8 -104.314 0
0    0    0

-280.524 16300.4 0
16300.4 -283.75 0
0    0    0

118.139 15584.7 0
15584.7 309.895 0
0    0    0

-117.974 16148.2 0
16148.2 101.432 0
0    0    0

-331.035 16550.9 0
16550.9 -98.8032 0
0    0    0

-222.453 16685.1 0
16685.1 -181.197 0
0    0    0

-89.8243 18573.2 0
18573.2 -18.2944 0
0    0    0

-195.36 17778.7 0
17778.7 116.626 0
0    0    0

-105.58 13356.9 0
13356.9 -123.045 0
0    0    0

-111.8 12728.9 0
12728.9 27.1917 0
0    0    0

134.99 14776.8 0
14776.8 385.787 0
0    0    0

-162.205 14579.6 0
14579.6 -266.393 0
0    0    0

-153.86 15825 0
15825 -407.815 0
0    0    0

65.1399 14858.1 0
14858.1 225.129 0
0    0    0

-260.514 13061.8 0
13061.8 -77.8997 0
0    0    0

105.355 13849.1 0
13849.1 172.082 0
0    0    0

110.85 15249.5 0
15249.5 -11.5577 0
0    0    0

-202.399 15395.9 0
15395.9 -204.293 0
0    0    0

-83.4764 15258.2 0
15258.2 63.566 0
0    0    0

77.2164 14459 0
14459 198.032 0
0    0    0

141.324 16042 0
16042 -36.1219 0
0    0    0

-60.9165 15936.9 0
15936.9 81.2007 0
0    0    0

383.292 16361.6 0
16361.6 208.702 0
0    0    0

93.1063 18223.3 0
18223.3 276.605 0
0    0    0

-306.887 16774.8 0
16774.8 -239.257 0
0    0    0

-8.20811 17759.6 0
17759.6 11.798 0
0    0    0

28.0643 19007.6 0
19007.6 240.802 0
0    0    0

109.67 19313.2 0
19313.2 -48.2917 0
0    0    0

-173.548 18849.9 0
18849.9 -206.124 0
0    0    0

-71.9332 19140.5 0
19140.5 -209.688 0
0    0    0

312.399 19475.9 0
19475.9 326.342 0
0    0    0

178.737 20044.5 0
20044.5 194.13 0
0    0    0

170.077 19943.3 0
19943.3 524.832 0
0    0    0

-8.27266 20397.9 0
20397.9 -374.568 0
0    0    0

62.8626 19387.1 0
19387.1 -194.811 0
0    0    0

-290.937 19731.7 0
19731.7 -16.7393 0
0    0    0

-209.414 17878 0
17878 -232.831 0
0    0    0

185.391 18056.2 0
18056.2 224.839 0
0    0    0

-45.584 18576.9 0
18576.9 -226.675 0
0    0    0

151.425 19042.3 0
19042.3 78.3111 0
0    0    0

-55.056 17984.7 0
17984.7 97.7755 0
0    0    0

-53.8316 18803.3 0
18803.3 5.27723 0
0    0    0

90.005 19362.4 0
19362.4 -115.988 0
0    0    0

42.6616 18795 0
18795 -42.3055 0
0    0    0

19.4544 21001.1 0
21001.1 -188.671 0
0    0    0

-66.4282 19140.5 0
19140.5 159.832 0
0    0    0

-61.7813 18362.6 0
18362.6 -90.5535 0
0    0    0

-198.726 19908 0
19908 -90.2259 0
0    0    0

78.3732 18654.6 0
18654.6 162.501 0
0    0    0

184.623 18389.6 0
18389.6 30.7155 0
0    0    0

-131.883 14344.4 0
14344.4 -252.607 0
0    0    0

-204.667 13578.4 0
13578.4 96.9312 0
0    0    0

32.8841 15717.5 0
15717.5 -226.21 0
0    0    0

98.7503 15711 0
15711 -114.247 0
0    0    0

153.48 15571.8 0
15571.8 344.863 0
0    0    0

169.376 15086 0
15086 268.647 0
0    0    0

-173.379 16154.2 0
16154.2 -255.855 0
0    0    0

-188.131 18495.2 0
18495.2 -14.6892 0
0    0    0

-308.41 19100.2 0
19100.2 -120.41 0
0    0    0

-126.543 20451.9 0
20451.9 -135.132 0
0    0    0

-223.173 20346.9 0
20346.9 -355.715 0
0    0    0

141.509 19529.8 0
19529.8 115.393 0
0    0    0

-126.836 19239.7 0
19239.7 -258.859 0
0    0    0

-385.684 19784.8 0
19784.8 -118.329 0
0    0    0

75.4873 14065.7 0
14065.7 -34.6291 0
0    0    0

-0.156473 13891.6 0
13891.6 -237.463 0
0    0    0

233.302 15539.6 0
15539.6 241.265 0
0    0    0

-153.288 16826.5 0
16826.5 -201.736 0
0    0    0

242.216 18655.5 0
18655.5 119.519 0
0    0    0

114.401 20557 0
20557 -11.8664 0
0    0    0

100.12 20652.3 0
20652.3 108.179 0
0    0    0

-126.378 21435.3 0
21435.3 -346.067 0
0    0    0

-19.4217 19066.3 0
19066.3 -55.6444 0
0    0    0

-232.401 19997.4 0
19997.4 -215.457 0
0    0    0

-178.978 17194.9 0
17194.9 -310.359 0
0    0    0

-43.0213 18223.5 0
18223.5 146.801 0
0    0    0

-80.8625 21448.4 0
21448.4 -82.1184 0
0    0    0

178.841 20455.5 0
20455.5 166.602 0
0    0    0

-72.8783 19235.1 0
19235.1 -186.066 0
0    0    0

109.374 19562.4 0
19562.4 316.884 0
0    0    0

-6.44493 19477.9 0
19477.9 -86.9357 0
0    0    0

270.308 18731.9 0
18731.9 199.703 0
0    0    0

-78.4533 18030.1 0
18030.1 -143.245 0
0    0    0

-428.492 18986.2 0
18986.2 -276.592 0
0    0    0

-150.749 20544.3 0
20544.3 -137.143 0
0    0    0

115.819 20668.2 0
20668.2 295.937 0
0    0    0

231.923 20278.4 0
20278.4 202.719 0
0    0    0

119.916 21166.7 0
21166.7 -38.9259 0
0    0    0

-49.5766 21774.1 0
21774.1 -367.515 0
0    0    0

-241.995 20660.7 0
20660.7 -167.174 0
0    0    0

107.758 20224.1 0
20224.1 28.2893 0
0    0    0

-299.375 20249.7 0
20249.7 -573.445 0
0    0    0

333.82 19661.8 0
19661.8 272.103 0
0    0    0

375.821 20264.1 0
20264.1 279.938 0
0    0    0

-52.5178 18746.4 0
18746.4 -21.9715 0
0    0    0

185.603 19192.9 0
19192.9 199.014 0
0    0    0

-18.8462 20882.6 0
20882.6 223.731 0
0    0    0

-152.767 20572.3 0
20572.3 -350.176 0
0    0    0

-296.435 23022.5 0
23022.5 -388.249 0
0    0    0

-71.856 21555.6 0
21555.6 -6.63339 0
0    0    0

107.785 21488.9 0
21488.9 42.6089 0
0    0    0

177.993 20847.8 0
20847.8 218.013 0
0    0    0

273.606 20845.4 0
20845.4 209.628 0
0    0    0

-173.617 21202.4 0
21202.4 -215.342 0
0    0    0

-192.601 21554.9 0
21554.9 92.828 0
0    0    0

-174.848 22556.1 0
22556.1 7.12148 0
0    0    0

-140.5 20861.5 0
20861.5 -330.423 0
0    0    0

106.001 21183.8 0
21183.8 -104.599 0
0    0    0

-89.8304 26879.8 0
26879.8 130.159 0
0    0    0

-7.7178 23878.6 0
23878.6 198.329 0
0    0    0

206.751 22078.5 0
22078.5 245.226 0
0    0    0

161.998 22012.3 0
22012.3 326.639 0
0    0    0

-84.3426 21213.8 0
21213.8 68.1416 0
0    0    0

-123.068 20652.7 0
20652.7 -205.278 0
0    0    0

274.661 20482.2 0
20482.2 414.806 0
0    0    0

306.583 21146.8 0
21146.8 153.038 0
0    0    0

60.4699 19926.8 0
19926.8 181.946 0
0    0    0

-99.0457 20433.9 0
20433.9 -135.609 0
0    0    0

-119.67 20129 0
20129 -65.5385 0
0    0    0

22.5512 19938.8 0
19938.8 175.232 0
0    0    0

63.0274 19490.4 0
19490.4 -207.435 0
0    0    0

-244.825 19680 0
19680 -125.63 0
0    0    0

51.4532 21230.2 0
21230.2 146.307 0
0    0    0

89.6171 21922.4 0
21922.4 20.8372 0
0    0    0

97.3298 21743.5 0
21743.5 253.871 0
0    0    0

-130.042 21704 0
21704 244.405 0
0    0    0

-133.762 21998.6 0
21998.6 -193.492 0
0    0    0

175.757 23542.9 0
23542.9 -20.2528 0
0    0    0

74.0453 22583.1 0
22583.1 178.807 0
0    0    0

-141.638 23613.7 0
23613.7 -171.195 0
0    0    0

55.0257 20825.3 0
20825.3 -141.104 0
0    0    0

-213.132 22231.8 0
22231.8 29.7925 0
0    0    0

-229.705 21863.8 0
21863.8 -162.608 0
0    0    0

-140.414 21145.7 0
21145.7 -268.141 0
0    0    0

156.612 20203.1 0
20203.1 158.351 0
0    0    0

-197.004 20248.9 0
20248.9 -305.474 0
0    0    0

148.843 20844.6 0
20844.6 284.593 0
0    0    0

274.091 20645.2 0
20645.2 269.008 0
0    0    0

95.1021 22273.2 0
22273.2 -101.721 0
0    0    0

66.5468 23092.1 0
23092.1 287.794 0
0    0    0

58.1695 21658.1 0
21658.1 -188.702 0
0    0    0

-171.564 22132.7 0
22132.7 -221.006 0
0    0    0

215.048 22724.1 0
22724.1 -134.106 0
0    0    0

306.879 22487.8 0
22487.8 278.766 0
0    0    0

182.801 23416.5 0
23416.5 7.91153 0
0    0    0

-297.642 22886.8 0
22886.8 -133.532 0
0    0    0

131.54 22127.3 0
22127.3 -60.7793 0
0    0    0

218.748 22609.1 0
22609.1 83.8891 0
0    0    0

-18.1924 23989.5 0
23989.5 146.49 0
0    0    0

107.186 23068 0
23068 156.78 0
0    0    0

-37.0864 22554 0
22554 97.6652 0
0    0    0

-143.097 22868 0
22868 -166.176 0
0    0    0

-135.553 24790.9 0
24790.9 -191.511 0
0    0    0

147.575 24990.7 0
24990.7 71.6889 0
0    0    0

-169.118 23370.1 0
23370.1 -155.679 0
0    0    0

-167.987 24231 0
24231 -459.968 0
0    0    0

64.7604 23220.5 0
23220.5 56.9731 0
0    0    0

95.7819 23777.1 0
23777.1 214.938 0
0    0    0

-91.9539 26166.4 0
26166.4 -195.748 0
0    0    0

-167.034 24858.5 0
24858.5 -265.277 0
0    0    0

-203.67 25020.3 0
25020.3 -301.287 0
0    0    0

-57.0181 25788.9 0
25788.9 -28.1169 0
0    0    0

-30.526 23151.5 0
23151.5 212.699 0
0    0    0

169.622 23622.7 0
23622.7 -249.707 0
0    0    0

-34.5636 24198.4 0
24198.4 98.6255 0
0    0    0

-123.812 24483.3 0
24483.3 106.227 0
0    0    0

171.928 24489.7 0
24489.7 459.775 0
0    0    0

94.1177 24250.9 0
24250.9 97.0451 0
0    0    0

212.27 24842.4 0
24842.4 -99.0304 0
0    0    0

-135.024 24510.4 0
24510.4 139.76 0
0    0    0

112.198 25654.2 0
25654.2 147.493 0
0    0    0

134.966 25225 0
25225 174.694 0
0    0    0

-135.423 24661.2 0
24661.2 -167.013 0
0    0    0

-33.3867 25351.6 0
25351.6 -153.966 0
0    0    0

174.62 19235.9 0
19235.9 347.876 0
0    0    0

64.3133 18236.3 0
18236.3 479.642 0
0    0    0

47.3878 19462.5 0
19462.5 67.0252 0
0    0    0

-86.2282 19130.2 0
19130.2 73.3024 0
0    0    0

-168.127 17521.5 0
17521.5 -118.901 0
0    0    0

147.389 18308.9 0
18308.9 365.131 0
0    0    0

-198.485 17136.6 0
17136.6 -103.048 0
0    0    0

182.344 17580 0
17580 231.604 0
0    0    0

203.619 18616.6 0
18616.6 3.41788 0
0    0    0

112.752 18844 0
18844 -7.64212 0
0    0    0

-23.5717 18313.7 0
18313.7 -204.887 0
0    0    0

8.99217 18491.3 0
18491.3 -180.692 0
0    0    0

-61.4218 19822.9 0
19822.9 119.067 0
0    0    0

13.673 19122.8 0
19122.8 -255.455 0
0    0    0

-118.731 20222.3 0
20222.3 -13.5975 0
0    0    0

36.0411 19336.2 0
19336.2 245.409 0
0    0    0

110.041 17634 0
17634 -27.8134 0
0    0    0

-71.4893 18134.6 0
18134.6 241.096 0
0    0    0

-55.0847 16028.7 0
16028.7 -82.8682 0
0    0    0

-243.36 15950.1 0
15950.1 -195.181 0
0    0    0

257.767 16790.3 0
16790.3 206.34 0
0    0    0

201.013 17301.4 0
17301.4 128.524 0
0    0    0

-65.722 17770.5 0
17770.5 -144.135 0
0    0    0

-72.2551 18058 0
18058 -192.543 0
0    0    0

117.33 18251.7 0
18251.7 397.765 0
0    0    0

111.593 18395.2 0
18395.2 63.973 0
0    0    0

-39.4741 17955.5 0
17955.5 224.775 0
0    0    0

247.546 17049.8 0
17049.8 166.893 0
0    0    0

113.011 16444.9 0
16444.9 27.2202 0
0    0    0

-22.8175 16576 0
16576 -215.854 0
0    0    0

261.776 17924.9 0
17924.9 136.672 0
0    0    0

24.59 14991.6 0
14991.6 -106.315 0
0    0    0

-79.2875 17125.5 0
17125.5 159.307 0
0    0    0

-220.199 16038.9 0
16038.9 -38.732 0
0    0    0

-171.349 16597.6 0
16597.6 -343.838 0
0    0    0

14.1161 16909.1 0
16909.1 -173.812 0
0    0    0

-177.822 18194.8 0
18194.8 -228.123 0
0    0    0

27.8787 18255.9 0
18255.9 -2.77599 0
0    0    0

-81.9774 16050.9 0
16050.9 105.303 0
0    0    0

-191.853 17705 0
17705 -455.616 0
0    0    0

420.869 18465.5 0
18465.5 361.044 0
0    0    0

174.84 17385.4 0
17385.4 645.449 0
0    0    0

-22.2832 16985.1 0
16985.1 -279.823 0
0    0    0

20.043 15468.7 0
15468.7 24.3601 0
0    0    0

-136.924 17466.4 0
17466.4 -86.7599 0
0    0    0

-276.962 16813.2 0
16813.2 -616.77 0
0    0    0

-74.7732 18394.9 0
18394.9 93.6382 0
0    0    0

19.0765 17750.2 0
17750.2 134.11 0
0    0    0

-30.0825 17573.8 0
17573.8 -144.626 0
0    0    0

199.957 18227.1 0
18227.1 210.706 0
0    0    0

31.0965 17122.3 0
17122.3 -135.273 0
0    0    0

75.3609 16092.8 0
16092.8 -209.004 0
0    0    0

-442.186 18767.9 0
18767.9 -193.843 0
0    0    0

-133.075 18096.1 0
18096.1 -25.3011 0
0    0    0

-162.248 17676 0
17676 -171.377 0
0    0    0

-261.539 18055.6 0
18055.6 -195.962 0
0    0    0

-193.417 17090.1 0
17090.1 -271.251 0
0    0    0

-54.8319 17481.2 0
17481.2 -9.16124 0
0    0    0

-128.501 17616.8 0
17616.8 -173.969 0
0    0    0

56.2586 17835.1 0
17835.1 309.604 0
0    0    0

327.797 17929.3 0
17929.3 36.0695 0
0    0    0

-87.9169 18696.5 0
18696.5 -125.295 0
0    0    0

45.4141 18637.7 0
18637.7 -242.411 0
0    0    0

-345.288 17973.7 0
17973.7 -109.845 0
0    0    0

-35.0323 17890.2 0
17890.2 157.308 0
0    0    0

274.368 18144.8 0
18144.8 152.561 0
0    0    0

-144.012 17499.9 0
17499.9 -76.7458 0
0    0    0

260.528 17776.9 0
17776.9 207.817 0
0    0    0

-187.182 18767.6 0
18767.6 -427.385 0
0    0    0

-121.64 16668.8 0
16668.8 -52.1315 0
0    0    0

-233.905 18288.8 0
18288.8 169.636 0
0    0    0

47.5883 17921.4 0
17921.4 -57.6624 0
0    0    0

88.1595 18515.8 0
18515.8 1.02914 0
0    0    0

-63.6461 18059.2 0
18059.2 208.523 0
0    0    0

25.809 17433.1 0
17433.1 -203.647 0
0    0    0

-85.113 16939.2 0
16939.2 -111.263 0
0    0    0

19.1358 17135.6 0
17135.6 209.674 0
0    0    0

-47.6186 17764.6 0
17764.6 -115.92 0
0    0    0

-173.409 16028.8 0
16028.8 -74.3182 0
0    0    0

-48.1623 17402.8 0
17402.8 93.1496 0
0    0    0

127.5 16530.1 0
16530.1 85.598 0
0    0    0

-118.414 15738.6 0
15738.6 -50.7491 0
0    0    0

169.457 16212.2 0
16212.2 85.3337 0
0    0    0

183.374 16527.7 0
16527.7 -2.14828 0
0    0    0

-47.8928 17668 0
17668 -258.388 0
0    0    0

-111.914 16965.6 0
16965.6 -47.9634 0
0    0    0

-131.19 18743.6 0
18743.6 -387.775 0
0    0    0

-24.935 19665.4 0
19665.4 42.9772 0
0    0    0

-130.378 18071.5 0
18071.5 -454.064 0
0    0    0

-60.3978 18753.4 0
18753.4 -126.541 0
0    0    0

45.185 17864.3 0
17864.3 210.13 0
0    0    0

-193.783 17566.4 0
17566.4 -83.05 0
0    0    0

155.848 17383.3 0
17383.3 113.35 0
0    0    0

-13.7223 19389.8 0
19389.8 -207.337 0
0    0    0

-119.241 18392.7 0
18392.7 -136.933 0
0    0    0

-108.278 17237.1 0
17237.1 -46.405 0
0    0    0

38.7282 17535.8 0
17535.8 220.716 0
0    0    0

-140.51 16346.6 0
16346.6 -60.2187 0
0    0    0

98.306 16875.2 0
16875.2 -3.10362 0
0    0    0

-103.563 16619.2 0
16619.2 -32.4625 0
0    0    0

170.738 18478.9 0
18478.9 369.714 0
0    0    0

200.716 18205.6 0
18205.6 414.132 0
0    0    0

212.421 16202.9 0
16202.9 11.4599 0
0    0    0

280.953 14217.2 0
14217.2 226.929 0
0    0    0

204.249 15355.6 0
15355.6 139.02 0
0    0    0

-144.086 12974.3 0
12974.3 -61.7512 0
0    0    0

20.9372 15847.2 0
15847.2 31.4042 0
0    0    0

49.3013 13677.3 0
13677.3 315.461 0
0    0    0

-254.122 15145.9 0
15145.9 2.66162 0
0    0    0

-60.6425 14664.5 0
14664.5 -15.667 0
0    0    0

182.022 14286.9 0
14286.9 186.169 0
0    0    0

12.438 16102 0
16102 -187.165 0
0    0    0

33.2854 15349.7 0
15349.7 92.8303 0
0    0    0

25.3526 14926.9 0
14926.9 -157.543 0
0    0    0

-4.8034 16317.9 0
16317.9 169.109 0
0    0    0

-132.941 15629.4 0
15629.4 -166.958 0
0    0    0

-87.1852 16710 0
16710 -258.195 0
0    0    0

105.743 15772.1 0
15772.1 244.287 0
0    0    0

-198.194 15444.4 0
15444.4 62.5577 0
0    0    0

231.602 14660.5 0
14660.5 178.421 0
0    0    0

57.2031 17014.4 0
17014.4 -20.1574 0
0    0    0

152.274 16603.7 0
16603.7 -107.036 0
0    0    0

131.048 14177 0
14177 102.71 0
0    0    0

-141.557 15286.3 0
15286.3 -438.014 0
0    0    0

-217.571 16138.7 0
16138.7 -259.784 0
0    0    0

-74.3239 15192.4 0
15192.4 -95.1312 0
0    0    0

-260.965 15487.4 0
15487.4 98.5183 0
0    0    0

94.8705 15129.6 0
15129.6 -137.306 0
0    0    0

186.294 15567.2 0
15567.2 415.859 0
0    0    0

125.166 15331 0
15331 322.26 0
0    0    0

383.933 14023.6 0
14023.6 365.046 0
0    0    0

-93.8021 13276.6 0
13276.6 -34.5652 0
0    0    0

-37.4142 16555.9 0
16555.9 -262.572 0
0    0    0

-108.427 16258.9 0
16258.9 -126.928 0
0    0    0

-179.956 17643.7 0
17643.7 19.9825 0
0    0    0

-232.698 17046.7 0
17046.7 -19.6292 0
0    0    0

149.76 20482.7 0
20482.7 319.335 0
0    0    0

38.1943 20078 0
20078 -289.946 0
0    0    0

177.992 27098.7 0
27098.7 236.342 0
0    0    0

181.152 26765 0
26765 107.344 0
0    0    0

31.976 29177.4 0
29177.4 -203.407 0
0    0    0

-91.3907 29195.9 0
29195.9 -219.777 0
0    0    0

-207.453 27047 0
27047 21.8579 0
0    0    0

-29.8271 26061.3 0
26061.3 -199.698 0
0    0    0

7.07175 23680.2 0
23680.2 122.497 0
0    0    0

107.755 24466.7 0
24466.7 -58.6708 0
0    0    0

-33.085 20410.3 0
20410.3 -14.1793 0
0    0    0

193.836 20819.7 0
20819.7 411.188 0
0    0    0

297.412 22096.8 0
22096.8 93.4569 0
0    0    0

174.411 22864.9 0
22864.9 210.063 0
0    0    0

-120.428 64562.7 0
64562.7 -282.832 0
0    0    0

-32.1251 65087.1 0
65087.1 -115.229 0
0    0    0

-107.184 47286.3 0
47286.3 17.7059 0
0    0    0

92.2064 46994 0
46994 -183.082 0
0    0    0

256.936 47790.3 0
47790.3 315.387 0
0    0    0

85.1677 47484.1 0
47484.1 -63.2872 0
0    0    0

-110.328 48345.4 0
48345.4 -145.71 0
0    0    0

54.7467 50014.4 0
50014.4 -199.786 0
0    0    0

237.552 49639.4 0
49639.4 166.506 0
0    0    0

188.606 49126.8 0
49126.8 163.45 0
0    0    0

190.127 49289.6 0
49289.6 -35.0445 0
0    0    0

-24.7092 49417.1 0
49417.1 -229.018 0
0    0    0

71.1954 60530.8 0
60530.8 -6.59108 0
0    0    0

-328.08 62496.6 0
62496.6 -408.771 0
0    0    0

71.7491 60817.7 0
60817.7 97.295 0
0    0    0

45.8007 61432.3 0
61432.3 229.554 0
0    0    0

97.8473 62365.6 0
62365.6 -83.8427 0
0    0    0

-8.47293 61674.1 0
61674.1 179.768 0
0    0    0

8.71933 61195.5 0
61195.5 -100.587 0
0    0    0

-156.06 61202.3 0
61202.3 -388.089 0
0    0    0

-82.8706 61213.2 0
61213.2 57.7397 0
0    0    0

-134.795 60769.4 0
60769.4 26.9658 0
0    0    0

101.166 60244.3 0
60244.3 191.922 0
0    0    0

153.726 60823.3 0
60823.3 312.582 0
0    0    0

63.7501 61468.1 0
61468.1 -112.546 0
0    0    0

2.89777 61146 0
61146 -198.459 0
0    0    0

-180.579 61887.8 0
61887.8 3.76944 0
0    0    0

219.634 61901.9 0
61901.9 287.976 0
0    0    0

80.882 60829.3 0
60829.3 365.725 0
0    0    0

-93.2652 60353.8 0
60353.8 -60.6669 0
0    0    0

-291.69 60053.1 0
60053.1 -318.144 0
0    0    0

-188.677 60421.7 0
60421.7 -197.233 0
0    0    0

48.5823 61887.9 0
61887.9 -142.593 0
0    0    0

-111.267 62526.3 0
62526.3 -200.476 0
0    0    0

306.093 62696.3 0
62696.3 230.83 0
0    0    0

-110.984 62994.4 0
62994.4 -190.253 0
0    0    0

-282.799 63071.4 0
63071.4 -212.568 0
0    0    0

-113.343 63178.5 0
63178.5 193.294 0
0    0    0

167.22 63537.4 0
63537.4 168.19 0
0    0    0

-9.97028 63967.6 0
63967.6 -207.082 0
0    0    0

-182.957 63928.9 0
63928.9 -22.9752 0
0    0    0

-8.30299 62345.5 0
62345.5 -53.1155 0
0    0    0

-130.891 54475.8 0
54475.8 -370.733 0
0    0    0

-164.729 54850.9 0
54850.9 -194.859 0
0    0    0

43.5159 55953 0
55953 189.224 0
0    0    0

-20.1698 54406.7 0
54406.7 31.1678 0
0    0    0

205.203 54601.8 0
54601.8 196.968 0
0    0    0

272.562 54972.6 0
54972.6 28.2666 0
0    0    0

208.475 56451.6 0
56451.6 274.479 0
0    0    0

-159.962 55034.9 0
55034.9 51.7981 0
0    0    0

18.9173 54803.6 0
54803.6 -61.1623 0
0    0    0

46.7176 55444.5 0
55444.5 397.76 0
0    0    0

-1.30977 55248.1 0
55248.1 302.315 0
0    0    0

81.7495 54774.2 0
54774.2 -68.4553 0
0    0    0

161.445 55886.9 0
55886.9 282.642 0
0    0    0

-77.1802 55603 0
55603 -231.162 0
0    0    0

3.74139 55154.9 0
55154.9 -167.73 0
0    0    0

-116.712 55612.4 0
55612.4 -27.1243 0
0    0    0

-167.045 56050.3 0
56050.3 -517.706 0
0    0    0

-26.3527 55441.1 0
55441.1 -174.333 0
0    0    0

150.807 55759.4 0
55759.4 422.742 0
0    0    0

338.69 55842.5 0
55842.5 443.73 0
0    0    0

-275.759 55977.5 0
55977.5 -379.746 0
0    0    0

-44.2844 54107.8 0
54107.8 -163.452 0
0    0    0

-52.0777 56804.7 0
56804.7 -417.176 0
0    0    0

-170.966 56369.6 0
56369.6 -290.941 0
0    0    0

-142.933 56208.7 0
56208.7 -457.022 0
0    0    0

77.8863 56501.1 0
56501.1 253.707 0
0    0    0

222.791 54481.1 0
54481.1 1.30368 0
0    0    0

80.8334 53967.1 0
53967.1 -22.7433 0
0    0    0

-298.544 54626.8 0
54626.8 -131.282 0
0    0    0

-189.59 54033.4 0
54033.4 -86.3185 0
0    0    0

162.548 53591.9 0
53591.9 29.8175 0
0    0    0

95.3193 52039.9 0
52039.9 280.032 0
0    0    0

-89.439 53724.7 0
53724.7 -30.0157 0
0    0    0

-110.295 53515.8 0
53515.8 -206.894 0
0    0    0

-7.25466 52148.9 0
52148.9 160.682 0
0    0    0

-156.662 53374.8 0
53374.8 112.53 0
0    0    0

247.869 53308.1 0
53308.1 503.059 0
0    0    0

-98.1743 54331.8 0
54331.8 -179.814 0
0    0    0

-163.349 55781.1 0
55781.1 -245.784 0
0    0    0

67.5423 52768.7 0
52768.7 235.605 0
0    0    0

245.476 55637.2 0
55637.2 461.797 0
0    0    0

-122.872 54836.9 0
54836.9 -24.3034 0
0    0    0

-71.6393 57887.1 0
57887.1 -197.223 0
0    0    0

305.368 57629.8 0
57629.8 252.711 0
0    0    0

224.271 55970.9 0
55970.9 260 0
0    0    0

-111.201 55477 0
55477 -68.1599 0
0    0    0

-72.8798 54326.4 0
54326.4 -31.7547 0
0    0    0

31.983 53614.6 0
53614.6 86.9566 0
0    0    0

120.369 52905.2 0
52905.2 -95.7146 0
0    0    0

-64.5046 52608.4 0
52608.4 -142.795 0
0    0    0

-192.233 53657.9 0
53657.9 -476.782 0
0    0    0

-6.87339 53083.6 0
53083.6 249.381 0
0    0    0

-169.301 53384.1 0
53384.1 25.6435 0
0    0    0

97.6337 53184.6 0
53184.6 170.225 0
0    0    0

235.805 52125.4 0
52125.4 261.054 0
0    0    0

2.372 52452.9 0
52452.9 -254.564 0
0    0    0

34.5596 57248.2 0
57248.2 -65.8378 0
0    0    0

23.8222 56535.9 0
56535.9 206.259 0
0    0    0

165.002 56155.1 0
56155.1 -74.6496 0
0    0    0

-246.533 55832.6 0
55832.6 -530.285 0
0    0    0

-60.5093 56023.5 0
56023.5 189.834 0
0    0    0

158.402 54781.6 0
54781.6 36.0004 0
0    0    0

-213.449 53085.6 0
53085.6 -273.732 0
0    0    0

-24.427 53362.1 0
53362.1 -25.1268 0
0    0    0

-298.346 52926.7 0
52926.7 -264.565 0
0    0    0

-40.184 52290.3 0
52290.3 -246.36 0
0    0    0

-58.7616 52468.7 0
52468.7 -332.151 0
0    0    0

101.915 50433.5 0
50433.5 40.7624 0
0    0    0

-214.167 53844 0
53844 -343.581 0
0    0    0

182.645 53570.2 0
53570.2 11.8976 0
0    0    0

159.238 53850.6 0
53850.6 -148.625 0
0    0    0

-59.9918 53579.2 0
53579.2 -197.258 0
0    0    0

111.172 53172.1 0
53172.1 275.438 0
0    0    0

-182.992 53005.7 0
53005.7 -184.898 0
0    0    0

142.96 57178.7 0
57178.7 356.702 0
0    0    0

107.052 57006.7 0
57006.7 278.963 0
0    0    0

-223.191 57801.2 0
57801.2 117.584 0
0    0    0

192.632 57537.6 0
57537.6 -9.94176 0
0    0    0

193.594 57626 0
57626 132.48 0
0    0    0

-34.0479 56731.6 0
56731.6 -68.7752 0
0    0    0

-164.455 56322.1 0
56322.1 -238.49 0
0    0    0

109.55 55311.6 0
55311.6 332.854 0
0    0    0

202.496 52658 0
52658 256.569 0
0    0    0

-144.249 52521.3 0
52521.3 -176.434 0
0    0    0

-126.23 48589.7 0
48589.7 141.885 0
0    0    0

255.149 50700.8 0
50700.8 319.602 0
0    0    0

209.904 54747.2 0
54747.2 16.7293 0
0    0    0

41.9071 54986.5 0
54986.5 106.769 0
0    0    0

-300.984 53484.8 0
53484.8 -10.7794 0
0    0    0

-130.787 51969.1 0
51969.1 -146.393 0
0    0    0

263.223 58039.6 0
58039.6 250.176 0
0    0    0

-183.438 58353.9 0
58353.9 -289.758 0
0    0    0

-93.4673 59463.8 0
59463.8 150.752 0
0    0    0

-5.21181 60051.8 0
60051.8 194.3 0
0    0    0

4.09845 59471.2 0
59471.2 -315.637 0
0    0    0

116.88 58853.5 0
58853.5 -136.998 0
0    0    0

-132.315 58537.8 0
58537.8 -176.889 0
0    0    0

-85.8551 58623 0
58623 158.519 0
0    0    0

172.602 57997.4 0
57997.4 78.2449 0
0    0    0

-86.8728 58083 0
58083 91.0106 0
0    0    0

-207.991 59290.3 0
59290.3 -128.32 0
0    0    0

-232.429 58274.1 0
58274.1 -389.751 0
0    0    0

127.336 56976.5 0
56976.5 303.465 0
0    0    0

-72.1652 56320.8 0
56320.8 -47.4888 0
0    0    0

-248.042 57212.1 0
57212.1 -469.207 0
0    0    0

-288.312 57467.4 0
57467.4 -67.9011 0
0    0    0

-305.342 51838.2 0
51838.2 -373.369 0
0    0    0

30.6012 49705.7 0
49705.7 -52.0719 0
0    0    0

181.523 54294.5 0
54294.5 98.1384 0
0    0    0

-50.341 54338.3 0
54338.3 167.145 0
0    0    0

28.0602 54743.3 0
54743.3 312.356 0
0    0    0

94.8384 55102.4 0
55102.4 2.78213 0
0    0    0

92.2255 53205.2 0
53205.2 63.4415 0
0    0    0

-117.558 53101.5 0
53101.5 -29.8458 0
0    0    0

184.475 52845.1 0
52845.1 174.321 0
0    0    0

-129.858 51495.7 0
51495.7 128.292 0
0    0    0

157.482 52546.2 0
52546.2 48.9709 0
0    0    0

49.2862 53036.4 0
53036.4 -77.2996 0
0    0    0

-84.3366 60828.7 0
60828.7 -254.642 0
0    0    0

-47.9575 58184.4 0
58184.4 297.247 0
0    0    0

36.7247 56420.5 0
56420.5 48.2682 0
0    0    0

85.3503 56300.1 0
56300.1 -253.668 0
0    0    0

-52.3334 56876.4 0
56876.4 -45.064 0
0    0    0

36.8743 56861.7 0
56861.7 448.128 0
0    0    0

413.709 56258.1 0
56258.1 419.443 0
0    0    0

-28.9268 55519.3 0
55519.3 98.3428 0
0    0    0

44.8989 52154.5 0
52154.5 135.463 0
0    0    0

266.161 51213.8 0
51213.8 111.971 0
0    0    0

28.3302 55161.3 0
55161.3 -110.58 0
0    0    0

-110.011 55056.6 0
55056.6 -113.52 0
0    0    0

-171.422 54558 0
54558 -291.608 0
0    0    0

57.3853 54307.9 0
54307.9 122.975 0
0    0    0

322.83 55418.4 0
55418.4 484.765 0
0    0    0

-182.86 55197.8 0
55197.8 -196.68 0
0    0    0

74.7484 53481 0
53481 -25.3374 0
0    0    0

-60.9591 52608.5 0
52608.5 -203.432 0
0    0    0

-50.2304 51585.8 0
51585.8 -319.127 0
0    0    0

-244.915 51513.7 0
51513.7 -83.4944 0
0    0    0

-52.8571 51595.8 0
51595.8 141.893 0
0    0    0

150.317 50897.6 0
50897.6 -33.2714 0
0    0    0

64.4072 58679.8 0
58679.8 -180.261 0
0    0    0

195.603 59458.6 0
59458.6 314.649 0
0    0    0

28.6012 59908.2 0
59908.2 114.036 0
0    0    0

-101.227 60767.8 0
60767.8 -427.718 0
0    0    0

221.562 59208.7 0
59208.7 52.3829 0
0    0    0

-94.253 60134.5 0
60134.5 -265.484 0
0    0    0

246.504 58288.8 0
58288.8 389.136 0
0    0    0

231.797 58338.1 0
58338.1 314.642 0
0    0    0

40.4157 60571.3 0
60571.3 287.369 0
0    0    0

77.5022 60633.2 0
60633.2 -143.304 0
0    0    0

-86.3047 61496 0
61496 -10.0701 0
0    0    0

-279.307 60223.9 0
60223.9 -668.065 0
0    0    0

-65.4456 59572.3 0
59572.3 -150.224 0
0    0    0

183.156 59024 0
59024 226.367 0
0    0    0

-105.01 59572 0
59572 193.8 0
0    0    0

85.1247 58378 0
58378 -242.828 0
0    0    0

210.608 57134.3 0
57134.3 337.876 0
0    0    0

-11.4301 54842.5 0
54842.5 18.878 0
0    0    0

34.8908 55794.1 0
55794.1 54.845 0
0    0    0

-256.405 55848.2 0
55848.2 -272.604 0
0    0    0

-189.715 54172.8 0
54172.8 -192.356 0
0    0    0

-170.897 53655.1 0
53655.1 -276.277 0
0    0    0

141.971 52409.7 0
52409.7 228.061 0
0    0    0

-280.425 52095.2 0
52095.2 -404.185 0
0    0    0

124.412 52760.5 0
52760.5 124.591 0
0    0    0

-115.908 52433.4 0
52433.4 69.6577 0
0    0    0

-180.036 52385.8 0
52385.8 -253.443 0
0    0    0

135.193 51596.8 0
51596.8 367.251 0
0    0    0

35.3977 51873.3 0
51873.3 250.68 0
0    0    0

53.9972 51848.8 0
51848.8 111.119 0
0    0    0

-55.8315 51315.4 0
51315.4 277.123 0
0    0    0

-71.9523 50559.5 0
50559.5 -153.789 0
0    0    0

-385.981 59861 0
59861 -397.914 0
0    0    0

-181.559 60408.5 0
60408.5 -199.684 0
0    0    0

123.303 61567.7 0
61567.7 137.594 0
0    0    0

76.9395 60337.9 0
60337.9 18.7522 0
0    0    0

154.791 60082 0
60082 568.77 0
0    0    0

187.221 59752.2 0
59752.2 128.118 0
0    0    0

-217.312 59962.5 0
59962.5 -339.95 0
0    0    0

220.308 59438.7 0
59438.7 331.72 0
0    0    0

127.789 58497.6 0
58497.6 330.304 0
0    0    0

-95.0916 58623.1 0
58623.1 19.7337 0
0    0    0

-90.2223 59258.6 0
59258.6 -68.2016 0
0    0    0

-297.66 58820.3 0
58820.3 -279.216 0
0    0    0

-37.5948 56522.7 0
56522.7 -145.499 0
0    0    0

-277.84 55926.8 0
55926.8 -449.532 0
0    0    0

70.806 57159.8 0
57159.8 5.07214 0
0    0    0

-143.269 56674.8 0
56674.8 -215.259 0
0    0    0

-266.759 59686.2 0
59686.2 3.50047 0
0    0    0

142.273 57466.7 0
57466.7 190.766 0
0    0    0

-152.038 56928.2 0
56928.2 148.924 0
0    0    0

-235.886 58013.1 0
58013.1 -397.507 0
0    0    0

184.426 53170.7 0
53170.7 203.717 0
0    0    0

349.78 53766.2 0
53766.2 30.8027 0
0    0    0

176.402 54922.5 0
54922.5 81.6593 0
0    0    0

-254.323 53160 0
53160 -365.586 0
0    0    0

-160.722 53742.1 0
53742.1 -324.023 0
0    0    0

188.39 53367 0
53367 204.381 0
0    0    0

210.199 53986.7 0
53986.7 310.45 0
0    0    0

76.9385 54871.1 0
54871.1 -34.5631 0
0    0    0

260.603 53208.9 0
53208.9 345.2 0
0    0    0

249.527 53227.6 0
53227.6 333.013 0
0    0    0

-183.019 51103.4 0
51103.4 -109.049 0
0    0    0

-114.226 52999.7 0
52999.7 -257.924 0
0    0    0

-156.304 53488 0
53488 -293.85 0
0    0    0

-125.771 52920.2 0
52920.2 36.0091 0
0    0    0

47.5435 52989 0
52989 -137.578 0
0    0    0

-43.8202 52642.3 0
52642.3 -235.238 0
0    0    0

283.747 51948.1 0
51948.1 97.9699 0
0    0    0

-46.7955 49864.7 0
49864.7 -62.7014 0
0    0    0

175.71 52295.9 0
52295.9 265.667 0
0    0    0

73.0709 52061.6 0
52061.6 -144.86 0
0    0    0

238.978 52074.6 0
52074.6 299.235 0
0    0    0

117.259 51767.3 0
51767.3 -123.328 0
0    0    0

-300.941 51360.1 0
51360.1 -202.278 0
0    0    0

-225.1 50610 0
50610 -307.075 0
0    0    0

62.2628 59670.4 0
59670.4 -51.8234 0
0    0    0

36.7032 60386.8 0
60386.8 -268.131 0
0    0    0

83.5017 61194.1 0
61194.1 317.682 0
0    0    0

-196.32 61205.6 0
61205.6 144.065 0
0    0    0

-110.849 61718.8 0
61718.8 160.369 0
0    0    0

-49.6029 62069.7 0
62069.7 53.6406 0
0    0    0

236.361 61275.6 0
61275.6 241.452 0
0    0    0

-228.38 60461.1 0
60461.1 -286.311 0
0    0    0

203.699 60180.2 0
60180.2 97.433 0
0    0    0

103.407 61047.9 0
61047.9 -152.378 0
0    0    0

-120.167 58492.2 0
58492.2 -421.488 0
0    0    0

-199.851 59158.7 0
59158.7 -24.6061 0
0    0    0

126.761 57640.7 0
57640.7 213.6 0
0    0    0

255.209 57643.3 0
57643.3 199.357 0
0    0    0

-50.5462 57069.8 0
57069.8 -267.741 0
0    0    0

-141.323 57495.2 0
57495.2 -152.599 0
0    0    0

-144.091 58443.6 0
58443.6 -435.151 0
0    0    0

-126.547 57588.1 0
57588.1 -99.7281 0
0    0    0

232.726 52678.5 0
52678.5 180.235 0
0    0    0

106.038 51876.2 0
51876.2 427.905 0
0    0    0

-104.833 51730.2 0
51730.2 50.3924 0
0    0    0

-110.205 52346.4 0
52346.4 -115.243 0
0    0    0

-5.32791 59608.3 0
59608.3 136.449 0
0    0    0

229.649 60171.3 0
60171.3 407.269 0
0    0    0

101.226 60110 0
60110 47.0772 0
0    0    0

10.5609 62215 0
62215 152.665 0
0    0    0

143.86 62010.5 0
62010.5 -30.5589 0
0    0    0

-51.5783 61088.2 0
61088.2 179.485 0
0    0    0

106.455 64964.5 0
64964.5 263.93 0
0    0    0

-101.896 61852.4 0
61852.4 -362.905 0
0    0    0

7.01241 62241.1 0
62241.1 -140.327 0
0    0    0

-230.451 61692.7 0
61692.7 -171.967 0
0    0    0

-78.0891 61908.1 0
61908.1 -440.484 0
0    0    0

-181.755 63519.4 0
63519.4 -261.514 0
0    0    0

186.264 61916.6 0
61916.6 66.1185 0
0    0    0

-331.26 63521.1 0
63521.1 -277.927 0
0    0    0

-90.6642 64852.1 0
64852.1 -79.5446 0
0    0    0

-55.0528 62171.7 0
62171.7 -229.572 0
0    0    0

-55.2687 61382.9 0
61382.9 104.323 0
0    0    0

-13.027 62188.1 0
62188.1 207.974 0
0    0    0

34.4432 63117.8 0
63117.8 -156.312 0
0    0    0

116.631 62685.3 0
62685.3 307.513 0
0    0    0

-41.4108 62415.1 0
62415.1 -236.477 0
0    0    0

247.585 60587.3 0
60587.3 520.364 0
0    0    0

114.654 60218.2 0
60218.2 103.235 0
0    0    0

52.2113 60617.5 0
60617.5 -65.9132 0
0    0    0

98.0819 59751.1 0
59751.1 -271.805 0
0    0    0

-353.937 61120.8 0
61120.8 -170.089 0
0    0    0

91.2719 60171.4 0
60171.4 287.75 0
0    0    0

-132.865 59926.9 0
59926.9 -112.997 0
0    0    0

-201.089 59193 0
59193 218.098 0
0    0    0

222.268 58801.5 0
58801.5 -121.276 0
0    0    0

6.90056 58956.1 0
58956.1 -100.1 0
0    0    0

18.9987 58177.1 0
58177.1 289.651 0
0    0    0

-68.0529 58665 0
58665 184.201 0
0    0    0

-216.992 59114.5 0
59114.5 -147.021 0
0    0    0

122.157 57890.4 0
57890.4 -94.6826 0
0    0    0

-131.028 52495.5 0
52495.5 149.397 0
0    0    0

-4.13935 52015.7 0
52015.7 174.343 0
0    0    0

-288.865 51790.5 0
51790.5 -128.573 0
0    0    0

189.607 51657 0
51657 39.6258 0
0    0    0

-250.49 51234.7 0
51234.7 -321.144 0
0    0    0

-196.936 50729.7 0
50729.7 -86.6303 0
0    0    0

-145.418 50491.7 0
50491.7 8.84895 0
0    0    0

-255.521 50313 0
50313 -318.686 0
0    0    0

179.583 50805.2 0
50805.2 266.008 0
0    0    0

95.2805 50458.9 0
50458.9 -112.61 0
0    0    0

226.045 51415.8 0
51415.8 112.292 0
0    0    0

80.6498 48718 0
48718 304.033 0
0    0    0

-56.717 50161.9 0
50161.9 21.7658 0
0    0    0

56.51 50885 0
50885 -8.28085 0
0    0    0

-2.57971 50743.2 0
50743.2 154.889 0
0    0    0

-37.5185 50084.4 0
50084.4 -85.3198 0
0    0    0

-166.438 51421 0
51421 -210.958 0
0    0    0

64.9696 50949.5 0
50949.5 -136.787 0
0    0    0

239.112 49665.3 0
49665.3 -12.8864 0
0    0    0

-240.05 51002.5 0
51002.5 -43.3342 0
0    0    0

92.5326 49925.5 0
49925.5 431.719 0
0    0    0

-83.5247 51514 0
51514 141.6 0
0    0    0

-29.1249 48797.7 0
48797.7 -287.438 0
0    0    0

195.95 49289.9 0
49289.9 228.506 0
0    0    0

-5.78576 53197.7 0
53197.7 189.81 0
0    0    0

-10.4644 50352.6 0
50352.6 231.684 0
0    0    0

-219.195 52090.6 0
52090.6 65.7479 0
0    0    0

16.1035 51717.6 0
51717.6 -70.7892 0
0    0    0

169.461 52414.3 0
52414.3 154.608 0
0    0    0

-155.838 52526.8 0
52526.8 -91.6287 0
0    0    0

196.997 51361.1 0
51361.1 -57.7461 0
0    0    0

-57.5626 51084.3 0
51084.3 -151.107 0
0    0    0

-184.725 60621.9 0
60621.9 -84.2359 0
0    0    0

-125.289 61878.6 0
61878.6 -251.654 0
0    0    0

9.32014 60536.6 0
60536.6 -209.842 0
0    0    0

138.738 61586.3 0
61586.3 -48.1972 0
0    0    0

190.284 60781.8 0
60781.8 74.3004 0
0    0    0

-54.6613 61144.5 0
61144.5 -214.474 0
0    0    0

266.798 62815.6 0
62815.6 401.747 0
0    0    0

267.387 63202.6 0
63202.6 366.266 0
0    0    0

102.204 61332.8 0
61332.8 -86.881 0
0    0    0

47.0186 62036.5 0
62036.5 176.488 0
0    0    0

37.872 62611.5 0
62611.5 271.937 0
0    0    0

135.973 63324.3 0
63324.3 185.471 0
0    0    0

32.0672 62545.2 0
62545.2 -144.264 0
0    0    0

83.425 62952.8 0
62952.8 -173.546 0
0    0    0

128.367 60820.9 0
60820.9 185.301 0
0    0    0

-280.089 61104.2 0
61104.2 -101.561 0
0    0    0

280.502 60674.6 0
60674.6 273.632 0
0    0    0

41.9279 60953 0
60953 -210.323 0
0    0    0

119.731 60917.8 0
60917.8 -167.506 0
0    0    0

150.374 61513.9 0
61513.9 207.273 0
0    0    0

-159.8 60920.1 0
60920.1 -253.966 0
0    0    0

-136.569 59077.7 0
59077.7 -358.218 0
0    0    0

-317.091 60188.3 0
60188.3 -288.154 0
0    0    0

294.02 57453.1 0
57453.1 23.5042 0
0    0    0

-235.078 57980.1 0
57980.1 -314 0
0    0    0

137.825 58745.8 0
58745.8 255.589 0
0    0    0

-9.08714 58380.3 0
58380.3 -263.382 0
0    0    0

155.522 59407 0
59407 287.559 0
0    0    0

-221.617 57966.9 0
57966.9 -206.747 0
0    0    0

-310.573 58771.2 0
58771.2 35.2329 0
0    0    0

-344.58 58357.5 0
58357.5 63.5628 0
0    0    0

65.991 59534.6 0
59534.6 -24.8058 0
0    0    0

215.739 59270.9 0
59270.9 195.959 0
0    0    0

33.5023 57858.1 0
57858.1 78.172 0
0    0    0

-199.75 53116 0
53116 -320.135 0
0    0    0

85.2258 51375 0
51375 -83.4731 0
0    0    0

86.0086 51324 0
51324 -149.964 0
0    0    0

-124.12 61892.8 0
61892.8 -365.172 0
0    0    0

-35.8125 61472.8 0
61472.8 298.266 0
0    0    0

-162.375 61683.1 0
61683.1 -343.044 0
0    0    0

-187.703 62122 0
62122 -39.7606 0
0    0    0

244.06 62453.7 0
62453.7 -92.9341 0
0    0    0

-140.683 63075.9 0
63075.9 -108.057 0
0    0    0

-29.8314 61221.5 0
61221.5 -316.905 0
0    0    0

172.67 61572.5 0
61572.5 346.478 0
0    0    0

77.6011 63402.9 0
63402.9 -59.5618 0
0    0    0

-205.769 62946.5 0
62946.5 -509.155 0
0    0    0

-185.225 60680.7 0
60680.7 -157.005 0
0    0    0

-90.6291 60841.6 0
60841.6 -70.2024 0
0    0    0

321.208 61317.3 0
61317.3 -0.745575 0
0    0    0

269.526 59921.7 0
59921.7 233.687 0
0    0    0

39.5609 58494.1 0
58494.1 -71.3178 0
0    0    0

-136.526 59855.4 0
59855.4 142.054 0
0    0    0

258.241 60251.5 0
60251.5 194.578 0
0    0    0

-236.634 60553.7 0
60553.7 78.4657 0
0    0    0

-56.4546 61581.3 0
61581.3 -483.161 0
0    0    0

176.035 56602 0
56602 374.23 0
0    0    0

-150.658 61433.8 0
61433.8 -217.497 0
0    0    0

113.617 58260.3 0
58260.3 409.709 0
0    0    0

-48.5759 58842.9 0
58842.9 -93.1071 0
0    0    0

-208.649 59394 0
59394 -5.73155 0
0    0    0

176.962 58533.7 0
58533.7 -82.8858 0
0    0    0

155.713 58781.8 0
58781.8 197.851 0
0    0    0

-46.004 58885.6 0
58885.6 221.228 0
0    0    0

131.068 60648 0
60648 8.60723 0
0    0    0

-71.3816 59884.2 0
59884.2 -23.3785 0
0    0    0

-174.083 59726.8 0
59726.8 -370.229 0
0    0    0

240.686 60268.9 0
60268.9 -53.4518 0
0    0    0

-234.086 61509.5 0
61509.5 -153.084 0
0    0    0

302.779 60438.1 0
60438.1 340.413 0
0    0    0

-77.0221 56549.6 0
56549.6 -68.4084 0
0    0    0

0.39972 57904.6 0
57904.6 -5.83076 0
0    0    0

-85.0537 54723.6 0
54723.6 -150.447 0
0    0    0

155.385 60798.9 0
60798.9 359.498 0
0    0    0

-156.566 61553.2 0
61553.2 -243.624 0
0    0    0

-200.306 61145.4 0
61145.4 -223.828 0
0    0    0

11.6547 61204 0
61204 99.2472 0
0    0    0

-158.414 62863.4 0
62863.4 -53.3415 0
0    0    0

-106.013 63085 0
63085 99.7245 0
0    0    0

209.361 57944.2 0
57944.2 235.097 0
0    0    0

181.522 61091.5 0
61091.5 243.51 0
0    0    0

-32.7732 56521.7 0
56521.7 -320.781 0
0    0    0

142.988 57507.7 0
57507.7 26.5244 0
0    0    0

142.339 56275.1 0
56275.1 -30.9862 0
0    0    0

108.361 61976.3 0
61976.3 274.742 0
0    0    0

-111.701 61727.1 0
61727.1 190.462 0
0    0    0

62.4229 60652.3 0
60652.3 145.654 0
0    0    0

226.862 59821.4 0
59821.4 54.4169 0
0    0    0

-11.8579 58173.1 0
58173.1 -213.674 0
0    0    0

-190.842 57745.8 0
57745.8 -325.359 0
0    0    0

310.653 58605.9 0
58605.9 221.149 0
0    0    0

85.3402 58342.7 0
58342.7 199.127 0
0    0    0

-6.2311 57569 0
57569 -385.69 0
0    0    0

97.9999 57031.5 0
57031.5 -93.8321 0
0    0    0

61.1997 57314.8 0
57314.8 244.771 0
0    0    0

-294.782 56862.6 0
56862.6 -311.977 0
0    0    0

316.616 54212.4 0
54212.4 263.042 0
0    0    0

-176.104 54622.2 0
54622.2 -159.84 0
0    0    0

104.359 56763.1 0
56763.1 -78.363 0
0    0    0

-186.653 56275.6 0
56275.6 -333.85 0
0    0    0

-235.655 57328.2 0
57328.2 37.0299 0
0    0    0

-23.2075 56773.2 0
56773.2 47.6099 0
0    0    0

-165.17 60836.1 0
60836.1 -220.509 0
0    0    0

114.568 61145.4 0
61145.4 267.325 0
0    0    0

72.8545 59787.2 0
59787.2 169.994 0
0    0    0

-51.9889 60163.4 0
60163.4 -272.077 0
0    0    0

-164.61 59067.4 0
59067.4 63.9015 0
0    0    0

150.382 59780.4 0
59780.4 95.3303 0
0    0    0

130.444 60254 0
60254 -23.9764 0
0    0    0

264.115 59056.7 0
59056.7 432.856 0
0    0    0

-3.93452 60212.1 0
60212.1 -9.18056 0
0    0    0

4.90725 59334.5 0
59334.5 -114.416 0
0    0    0

-18.755 60191.3 0
60191.3 -82.3109 0
0    0    0

-273.339 58822.5 0
58822.5 -276.434 0
0    0    0

110.174 59597.2 0
59597.2 -67.9673 0
0    0    0

-180.817 59481.5 0
59481.5 3.73584 0
0    0    0

-36.022 59347.9 0
59347.9 -84.0514 0
0    0    0

74.3917 59195.5 0
59195.5 -213.46 0
0    0    0

14.9814 53017.6 0
53017.6 187.495 0
0    0    0

64.2625 52399.3 0
52399.3 347.242 0
0    0    0

-32.6323 53215.1 0
53215.1 -197.873 0
0    0    0

-34.6 52782.4 0
52782.4 -213.178 0
0    0    0

141.591 53504.8 0
53504.8 161.732 0
0    0    0

44.4931 53421.6 0
53421.6 241.459 0
0    0    0

-90.5854 52017.3 0
52017.3 -222.787 0
0    0    0

-77.11 52110.7 0
52110.7 -307.027 0
0    0    0

-0.146097 66057.9 0
66057.9 129.516 0
0    0    0

-175.58 67339.6 0
67339.6 -233.427 0
0    0    0

62.3772 69633.2 0
69633.2 -135.44 0
0    0    0

46.8197 67116.6 0
67116.6 81.2132 0
0    0    0

-225.45 71705.4 0
71705.4 -185.11 0
0    0    0

-243.712 71138.9 0
71138.9 -295.226 0
0    0    0

-2.67673 72881.4 0
72881.4 35.9671 0
0    0    0

67.5413 72154.7 0
72154.7 245.542 0
0    0    0

-18.38 72262.2 0
72262.2 -170.944 0
0    0    0

51.886 72633.1 0
72633.1 330.081 0
0    0    0

93.2552 74549.1 0
74549.1 -123.76 0
0    0    0

292.674 72083.7 0
72083.7 329.656 0
0    0    0

-6.62565 71930.1 0
71930.1 251.065 0
0    0    0

-244.677 73056.5 0
73056.5 -172.457 0
0    0    0

-339.423 71237.8 0
71237.8 -380.917 0
0    0    0

18.8783 71475 0
71475 -221.905 0
0    0    0

-164.158 72301.2 0
72301.2 -282.061 0
0    0    0

-171.443 72780.5 0
72780.5 -352.834 0
0    0    0

-119.654 72301.7 0
72301.7 -314.941 0
0    0    0

23.627 73851.7 0
73851.7 236.15 0
0    0    0

-198.266 71916.7 0
71916.7 -228.353 0
0    0    0

106.551 73139 0
73139 432.078 0
0    0    0

144.392 74497.8 0
74497.8 83.4498 0
0    0    0

15.2126 72829.3 0
72829.3 255.769 0
0    0    0

-49.3329 72434.2 0
72434.2 -199.256 0
0    0    0

95.7704 73062.4 0
73062.4 -299.731 0
0    0    0

207.633 72783.2 0
72783.2 191.557 0
0    0    0

-91.5655 72465 0
72465 -161.898 0
0    0    0

275.943 71409.9 0
71409.9 103.137 0
0    0    0

-93.4569 72624.7 0
72624.7 116.024 0
0    0    0

-148.245 71234.5 0
71234.5 -118.845 0
0    0    0

232.708 71654 0
71654 176.805 0
0    0    0

-131.791 72045 0
72045 -42.0966 0
0    0    0

82.0104 72057.7 0
72057.7 270.076 0
0    0    0

-239.954 71605.4 0
71605.4 -7.51525 0
0    0    0

265.925 71781.2 0
71781.2 250.82 0
0    0    0

-72.6543 71701.6 0
71701.6 -238.125 0
0    0    0

173.366 74422.8 0
74422.8 166.809 0
0    0    0

-329.921 70419.8 0
70419.8 -333.664 0
0    0    0

128.279 72970.4 0
72970.4 -30.9869 0
0    0    0

-59.5392 70793.4 0
70793.4 -34.6576 0
0    0    0

110.267 72010.7 0
72010.7 332.789 0
0    0    0

-157.859 70840.1 0
70840.1 83.8836 0
0    0    0

239.417 72663.6 0
72663.6 417.131 0
0    0    0

-58.0588 73704.1 0
73704.1 -173.106 0
0    0    0

106.474 72463.1 0
72463.1 214.412 0
0    0    0

-90.6235 73604 0
73604 -17.1215 0
0    0    0

-35.6164 72926.8 0
72926.8 -193.07 0
0    0    0

157.17 73898.5 0
73898.5 -79.03 0
0    0    0

-46.8357 73246.9 0
73246.9 168.789 0
0    0    0

98.4437 73594.1 0
73594.1 -97.4374 0
0    0    0

-133.566 74124.3 0
74124.3 121.297 0
0    0    0

-144.01 75434.1 0
75434.1 -50.7174 0
0    0    0

-46.0735 74174 0
74174 -357.228 0
0    0    0

15.369 73525.8 0
73525.8 254.347 0
0    0    0

20.8957 74082.2 0
74082.2 151.276 0
0    0    0

-201.076 73039.2 0
73039.2 -276.685 0
0    0    0

21.6189 71631.8 0
71631.8 -344.818 0
0    0    0

98.964 73358.1 0
73358.1 47.7821 0
0    0    0

83.1099 72930.5 0
72930.5 171.218 0
0    0    0

15.0023 73233.6 0
73233.6 -112.212 0
0    0    0

238.192 72808.2 0
72808.2 479.308 0
0    0    0

128.709 73307.6 0
73307.6 353.281 0
0    0    0

-164.329 72186 0
72186 -5.80485 0
0    0    0

-101.028 72641.5 0
72641.5 28.1296 0
0    0    0

199.475 73088 0
73088 372.839 0
0    0    0

134.832 71679.3 0
71679.3 -132.612 0
0    0    0

79.5476 70996.4 0
70996.4 226.284 0
0    0    0

-38.2046 72223.8 0
72223.8 66.4167 0
0    0    0

126.683 71899.5 0
71899.5 -55.314 0
0    0    0

-176.566 65425.4 0
65425.4 -254.911 0
0    0    0

-161.999 65849.3 0
65849.3 -74.8449 0
0    0    0

72.614 66330.3 0
66330.3 114.166 0
0    0    0

-200.268 67252.1 0
67252.1 -48.0486 0
0    0    0

178.594 66393.2 0
66393.2 329.641 0
0    0    0

220.534 67917.2 0
67917.2 239.014 0
0    0    0

123.539 64510.6 0
64510.6 304.449 0
0    0    0

-158.196 64304.1 0
64304.1 -71.3712 0
0    0    0

-33.0945 64929.9 0
64929.9 -96.6091 0
0    0    0

103.004 66094.8 0
66094.8 -45.509 0
0    0    0

-82.0649 64733.4 0
64733.4 47.0032 0
0    0    0

152.951 65647.4 0
65647.4 94.5316 0
0    0    0

270.728 64733.1 0
64733.1 320.646 0
0    0    0

19.4484 65269.4 0
65269.4 228.664 0
0    0    0

104.148 65502.8 0
65502.8 -183.968 0
0    0    0

254.089 65260.6 0
65260.6 359.608 0
0    0    0

-28.6521 65560.7 0
65560.7 -272.99 0
0    0    0

161.494 66277.6 0
66277.6 420.878 0
0    0    0

14.3509 64762.1 0
64762.1 43.6285 0
0    0    0

192.603 64407.9 0
64407.9 162.261 0
0    0    0

16.799 66302.7 0
66302.7 324.465 0
0    0    0

134.955 66895.7 0
66895.7 7.65014 0
0    0    0

-11.3814 67108.2 0
67108.2 -320.606 0
0    0    0

134.13 66755.7 0
66755.7 -1.82693 0
0    0    0

-155.677 66613.3 0
66613.3 -146.731 0
0    0    0

50.9536 67214 0
67214 -88.5272 0
0    0    0

-186.688 66180.9 0
66180.9 -79.1304 0
0    0    0

-40.2147 65802.4 0
65802.4 161.354 0
0    0    0

-115.847 66051.9 0
66051.9 -209.58 0
0    0    0

-17.2943 66411.1 0
66411.1 141.572 0
0    0    0

174.968 67405.6 0
67405.6 131.749 0
0    0    0

-124.02 68304 0
68304 -145.136 0
0    0    0

163.9 65749.1 0
65749.1 348.021 0
0    0    0

210.876 65882.9 0
65882.9 6.35702 0
0    0    0

-48.8972 66989.3 0
66989.3 116.219 0
0    0    0

101.951 67857.3 0
67857.3 -121.131 0
0    0    0

30.4379 66920.4 0
66920.4 211.226 0
0    0    0

-10.26 67686.1 0
67686.1 204.843 0
0    0    0

166.018 67952.2 0
67952.2 346.758 0
0    0    0

151.361 68072.4 0
68072.4 215.336 0
0    0    0

-86.2662 68215.8 0
68215.8 -246.083 0
0    0    0

-22.2077 67510.2 0
67510.2 250.076 0
0    0    0

250.724 68603.4 0
68603.4 184.387 0
0    0    0

-62.6605 67819.7 0
67819.7 -123.674 0
0    0    0

-121.333 66559.1 0
66559.1 -292.155 0
0    0    0

-269.296 66728.4 0
66728.4 -164.187 0
0    0    0

-166.19 69014.3 0
69014.3 -247.178 0
0    0    0

89.9848 68618.8 0
68618.8 248.676 0
0    0    0

256.41 66615.8 0
66615.8 348.546 0
0    0    0

-73.5658 67719 0
67719 -313.231 0
0    0    0

155.136 67196.2 0
67196.2 -136.158 0
0    0    0

-141.881 67786.4 0
67786.4 -323.915 0
0    0    0

-149.423 68235.7 0
68235.7 -130.686 0
0    0    0

83.3835 68094.7 0
68094.7 214.325 0
0    0    0

65.9402 65499.4 0
65499.4 -144.366 0
0    0    0

-186.181 65822 0
65822 -320.348 0
0    0    0

-155.837 65499.3 0
65499.3 -398.077 0
0    0    0

248.953 65489.1 0
65489.1 207.371 0
0    0    0

122.396 66097.2 0
66097.2 -85.5713 0
0    0    0

-273.202 66325.3 0
66325.3 -348.42 0
0    0    0

88.4379 67279.7 0
67279.7 65.7355 0
0    0    0

107.776 66995.1 0
66995.1 -26.8991 0
0    0    0

78.0856 68588.8 0
68588.8 50.7168 0
0    0    0

-219.826 68474.4 0
68474.4 -246.174 0
0    0    0

-18.9686 68920.8 0
68920.8 -191.809 0
0    0    0

-143.555 70960.3 0
70960.3 -309.659 0
0    0    0

114.813 68196.6 0
68196.6 97.0703 0
0    0    0

164.277 69510.7 0
69510.7 77.6104 0
0    0    0

-184.996 65719.6 0
65719.6 -251.702 0
0    0    0

270.87 66014.6 0
66014.6 96.5745 0
0    0    0

30.1339 67312.6 0
67312.6 -16.7623 0
0    0    0

47.6931 67624.3 0
67624.3 -342.725 0
0    0    0

-98.3502 67210.1 0
67210.1 -209.262 0
0    0    0

61.1031 67307.9 0
67307.9 -49.974 0
0    0    0

168.451 67451.9 0
67451.9 219.191 0
0    0    0

75.6166 68598.8 0
68598.8 4.09321 0
0    0    0

-121.261 67225.1 0
67225.1 -438.254 0
0    0    0

-206.541 67768 0
67768 137.797 0
0    0    0

-285.295 66904.5 0
66904.5 -235.945 0
0    0    0

-208.791 66945 0
66945 -411.181 0
0    0    0

-208.611 68861.5 0
68861.5 11.4904 0
0    0    0

-140.97 69491.4 0
69491.4 -341.941 0
0    0    0

-85.3878 68472.5 0
68472.5 -233.546 0
0    0    0

-38.8702 68754.9 0
68754.9 255.682 0
0    0    0

-104.522 65929.1 0
65929.1 222.615 0
0    0    0

239.954 66775.1 0
66775.1 426.423 0
0    0    0

71.9741 66057.5 0
66057.5 -162.63 0
0    0    0

-82.0291 66507 0
66507 125.169 0
0    0    0

86.9647 65837.7 0
65837.7 303.483 0
0    0    0

-43.1512 65859.2 0
65859.2 -169.142 0
0    0    0

79.0024 67987.4 0
67987.4 336.662 0
0    0    0

-106.057 67724.7 0
67724.7 -130.647 0
0    0    0

144.667 66916.2 0
66916.2 217.462 0
0    0    0

21.8218 67328.4 0
67328.4 272.856 0
0    0    0

-197.793 67447.1 0
67447.1 -321.167 0
0    0    0

289.512 67642.2 0
67642.2 164.059 0
0    0    0

-108.948 69212.2 0
69212.2 -44.2676 0
0    0    0

0.169841 69326.9 0
69326.9 325.486 0
0    0    0

50.505 69484.5 0
69484.5 -162.625 0
0    0    0

-116.802 68927.1 0
68927.1 -228.656 0
0    0    0

162.422 66909.5 0
66909.5 221.295 0
0    0    0

-28.4756 66567.9 0
66567.9 -182.285 0
0    0    0

-183.602 65517.1 0
65517.1 -509.024 0
0    0    0

-158.728 65741.5 0
65741.5 119.097 0
0    0    0

-351.088 65890.2 0
65890.2 -176.796 0
0    0    0

250.833 66587.9 0
66587.9 410.119 0
0    0    0

-170.777 66776.9 0
66776.9 -212.348 0
0    0    0

354.356 67093.6 0
67093.6 277.284 0
0    0    0

193.635 68760.5 0
68760.5 174.825 0
0    0    0

25.5108 68315 0
68315 27.5276 0
0    0    0

-68.1554 69779.8 0
69779.8 -0.988397 0
0    0    0

140.394 70315.9 0
70315.9 -190.559 0
0    0    0

143.621 65566.4 0
65566.4 12.9601 0
0    0    0

310.907 66262.9 0
66262.9 255.515 0
0    0    0

-32.2427 66640.4 0
66640.4 108.155 0
0    0    0

157.993 67922.7 0
67922.7 52.9547 0
0    0    0

43.9033 69775.5 0
69775.5 101.63 0
0    0    0

41.8461 68775.4 0
68775.4 0.70463 0
0    0    0

-6.05366 68030.3 0
68030.3 -225.633 0
0    0    0

-13.0084 68565.5 0
68565.5 158.275 0
0    0    0

64.4283 68184.8 0
68184.8 124.062 0
0    0    0

-226.408 69424 0
69424 -470.214 0
0    0    0

-159.348 66776.7 0
66776.7 -214.592 0
0    0    0

10.0995 67167.6 0
67167.6 237.533 0
0    0    0

-207.282 68433 0
68433 -82.8868 0
0    0    0

117.337 68530.5 0
68530.5 86.0032 0
0    0    0

59.1787 70648.9 0
70648.9 162.363 0
0    0    0

88.6562 69353.7 0
69353.7 33.005 0
0    0    0

220.635 69601.2 0
69601.2 360.191 0
0    0    0

151.306 69026 0
69026 384.494 0
0    0    0

97.0107 69009.4 0
69009.4 466.18 0
0    0    0

-190.554 69251 0
69251 -397.086 0
0    0    0

60.9752 63751.7 0
63751.7 147.424 0
0    0    0

132.976 65772.2 0
65772.2 37.8563 0
0    0    0

120.098 48886.2 0
48886.2 -4.25134 0
0    0    0

-280.347 48644.1 0
48644.1 -228.811 0
0    0    0

-186.113 47834.7 0
47834.7 -127.9 0
0    0    0

5.86417 48086.1 0
48086.1 -230.087 0
0    0    0

61.6763 48587 0
48587 174.17 0
0    0    0

11.9599 48551.2 0
48551.2 225.593 0
0    0    0

132.32 49729.6 0
49729.6 150.629 0
0    0    0

-240.621 49513.7 0
49513.7 37.3587 0
0    0    0

139.266 48263.3 0
48263.3 190.599 0
0    0    0

244.339 48882.4 0
48882.4 331.076 0
0    0    0

93.3885 50467.8 0
50467.8 104.924 0
0    0    0

90.7074 50090.6 0
50090.6 14.2705 0
0    0    0

-230.246 49227.5 0
49227.5 -273.3 0
0    0    0

-255.225 49740.3 0
49740.3 -93.6195 0
0    0    0

52.8236 49850.1 0
49850.1 -15.5875 0
0    0    0

-124.2 49568.1 0
49568.1 -516.14 0
0    0    0

-220.033 50328.7 0
50328.7 -295.975 0
0    0    0

-122.957 50804.7 0
50804.7 -38.5073 0
0    0    0

192.4 49142.8 0
49142.8 84.6371 0
0    0    0

197.596 47922.2 0
47922.2 255.09 0
0    0    0

-62.414 50056.2 0
50056.2 -277.065 0
0    0    0

-59.8828 49485.3 0
49485.3 -97.8241 0
0    0    0

329.17 39181.6 0
39181.6 405.02 0
0    0    0

-25.1257 39021.2 0
39021.2 298.699 0
0    0    0

-32.9016 44681.1 0
44681.1 -222.668 0
0    0    0

-263.365 44092.3 0
44092.3 -555.621 0
0    0    0

90.3968 45805.5 0
45805.5 182.524 0
0    0    0

-6.56925 47202.3 0
47202.3 137.666 0
0    0    0

-80.7992 46740.9 0
46740.9 12.525 0
0    0    0

98.6684 46185.7 0
46185.7 -114.505 0
0    0    0

74.3557 46759.6 0
46759.6 235.12 0
0    0    0

140.723 46395.5 0
46395.5 143.988 0
0    0    0

-99.386 46045.3 0
46045.3 -229.64 0
0    0    0

308.801 45405.6 0
45405.6 394.952 0
0    0    0

-11.8415 45021.5 0
45021.5 180.349 0
0    0    0

302.327 45514.4 0
45514.4 341.819 0
0    0    0

25.343 46191.4 0
46191.4 154.946 0
0    0    0

-79.8351 46203 0
46203 117.006 0
0    0    0

-80.6771 46611 0
46611 -309.105 0
0    0    0

-175.35 46409.3 0
46409.3 -274.893 0
0    0    0

136.806 45355.7 0
45355.7 466.928 0
0    0    0

152.488 45023.2 0
45023.2 -11.4395 0
0    0    0

103.804 47034.8 0
47034.8 -223.73 0
0    0    0

64.5286 46009.5 0
46009.5 -222.915 0
0    0    0

172.642 45666.4 0
45666.4 210.25 0
0    0    0

112.677 44638.1 0
44638.1 171.174 0
0    0    0

-54.2356 46351.4 0
46351.4 30.1298 0
0    0    0

-224.264 45824.2 0
45824.2 -503.502 0
0    0    0

-188.848 43596.1 0
43596.1 34.46 0
0    0    0

-115.211 42907.6 0
42907.6 11.2458 0
0    0    0

281.373 43610.1 0
43610.1 545.675 0
0    0    0

-270.888 43366.4 0
43366.4 -314.955 0
0    0    0

-212.195 41858.8 0
41858.8 -203.548 0
0    0    0

-27.3154 39966.1 0
39966.1 200.71 0
0    0    0

-202.84 31498.5 0
31498.5 -121.647 0
0    0    0

-54.3561 29329.5 0
29329.5 -134.744 0
0    0    0

-115.553 33354.8 0
33354.8 -352.512 0
0    0    0

217.12 34299.4 0
34299.4 -26.5479 0
0    0    0

-162.21 34384.1 0
34384.1 22.4795 0
0    0    0

28.4931 33623.8 0
33623.8 103.754 0
0    0    0

199.262 33030.1 0
33030.1 302.747 0
0    0    0

171.496 33079.2 0
33079.2 311.266 0
0    0    0

232.109 32290.1 0
32290.1 10.1364 0
0    0    0

32.4621 33039.5 0
33039.5 286.818 0
0    0    0

-69.7477 31119.8 0
31119.8 87.2125 0
0    0    0

-235.606 31436.2 0
31436.2 -138.197 0
0    0    0

174.61 30023.9 0
30023.9 367.587 0
0    0    0

-213.558 29249.6 0
29249.6 -245.988 0
0    0    0

-171.353 29462.5 0
29462.5 -153.847 0
0    0    0

238.279 30176.2 0
30176.2 71.8879 0
0    0    0

215.916 30105.5 0
30105.5 316.027 0
0    0    0

-274.88 29907.4 0
29907.4 -166.803 0
0    0    0

-148.193 30357.2 0
30357.2 -329.532 0
0    0    0

-157.173 29738.9 0
29738.9 -349.668 0
0    0    0

-178.754 29221.2 0
29221.2 2.60353 0
0    0    0

-162.15 29731.3 0
29731.3 -285.555 0
0    0    0

-125.063 30316.1 0
30316.1 78.4476 0
0    0    0

-231.83 28377.4 0
28377.4 97.4569 0
0    0    0

103.164 29407.3 0
29407.3 78.2401 0
0    0    0

-199.067 30034.8 0
30034.8 -109.123 0
0    0    0

152.607 29044.2 0
29044.2 205.057 0
0    0    0

251.684 29627.7 0
29627.7 228.456 0
0    0    0

-267.262 29947.6 0
29947.6 -347.34 0
0    0    0

256.586 30764.5 0
30764.5 187.746 0
0    0    0

49.1495 30733.4 0
30733.4 -47.7677 0
0    0    0

-202.627 30434 0
30434 -326.577 0
0    0    0

-131.953 28809.1 0
28809.1 -34.79 0
0    0    0

-262.798 28293.2 0
28293.2 18.9742 0
0    0    0

69.6837 30467.4 0
30467.4 -60.0354 0
0    0    0

245.992 29791 0
29791 159.15 0
0    0    0

-186.9 31090.5 0
31090.5 -283.931 0
0    0    0

-143.022 31725.2 0
31725.2 -325.468 0
0    0    0

-235.474 28409.9 0
28409.9 -324.904 0
0    0    0

224.364 28614.2 0
28614.2 255.556 0
0    0    0

156.172 31528 0
31528 -117.539 0
0    0    0

168.878 31836.7 0
31836.7 301.489 0
0    0    0

221.744 31987.9 0
31987.9 178.501 0
0    0    0

-215.536 32117.3 0
32117.3 -172.782 0
0    0    0

191.133 29057.5 0
29057.5 15.1434 0
0    0    0

-204.119 28891.2 0
28891.2 -224.639 0
0    0    0

-247.121 27630.9 0
27630.9 -203.277 0
0    0    0

59.1066 27244.3 0
27244.3 -196.257 0
0    0    0

-128.258 28647.8 0
28647.8 -277.112 0
0    0    0

-144.669 29068.3 0
29068.3 -160.369 0
0    0    0

-103.421 30739.9 0
30739.9 -169.821 0
0    0    0

99.124 31745.6 0
31745.6 165.606 0
0    0    0

157.562 30861.2 0
30861.2 173.688 0
0    0    0

51.3702 32815.7 0
32815.7 -64.3494 0
0    0    0

-24.1539 28756 0
28756 -235.787 0
0    0    0

32.4276 28924.3 0
28924.3 93.3215 0
0    0    0

-176.901 30204 0
30204 -225.694 0
0    0    0

-103.459 29235 0
29235 -114.523 0
0    0    0

208.702 28447 0
28447 150.809 0
0    0    0

306.826 29012.5 0
29012.5 349.003 0
0    0    0

-7.91952 29653.5 0
29653.5 -12.4393 0
0    0    0

227.616 30026.4 0
30026.4 299.658 0
0    0    0

192.648 29201.8 0
29201.8 160.914 0
0    0    0

125.438 28761.7 0
28761.7 64.8825 0
0    0    0

-134.1 31651.1 0
31651.1 12.6249 0
0    0    0

-91.2318 31074.5 0
31074.5 -368.267 0
0    0    0

-15.6509 31557.9 0
31557.9 -164.508 0
0    0    0

18.1824 31573.2 0
31573.2 -177.998 0
0    0    0

-335.203 31845 0
31845 -356.043 0
0    0    0

75.5411 32255.1 0
32255.1 -56.2672 0
0    0    0

199.476 27308.4 0
27308.4 37.3392 0
0    0    0

283.763 26948.9 0
26948.9 321.879 0
0    0    0

-105.833 28438.9 0
28438.9 153.203 0
0    0    0

-1.8375 28608.6 0
28608.6 -361.316 0
0    0    0

216.996 29401.2 0
29401.2 112.134 0
0    0    0

46.8406 29340 0
29340 252.109 0
0    0    0

74.8629 31162.9 0
31162.9 -109.469 0
0    0    0

-59.6437 31943.7 0
31943.7 106.599 0
0    0    0

-67.7715 31946.8 0
31946.8 100.303 0
0    0    0

197.963 32544.2 0
32544.2 77.6692 0
0    0    0

187.758 28437.9 0
28437.9 368.833 0
0    0    0

-69.3282 28236.9 0
28236.9 -41.0955 0
0    0    0

83.9563 32462.3 0
32462.3 292.825 0
0    0    0

-92.5392 32325.6 0
32325.6 -333.147 0
0    0    0

188.047 31243.6 0
31243.6 -2.88208 0
0    0    0

-69.8071 33030.2 0
33030.2 181.671 0
0    0    0

-163.047 32489.8 0
32489.8 -223.478 0
0    0    0

-25.9227 34039.2 0
34039.2 143.829 0
0    0    0

-209.958 34309.7 0
34309.7 -274.135 0
0    0    0

-104.153 34084.8 0
34084.8 117.104 0
0    0    0

-279.981 29299.8 0
29299.8 -133.937 0
0    0    0

-192.557 28739.4 0
28739.4 -425.793 0
0    0    0

-320.436 28196.4 0
28196.4 -333.589 0
0    0    0

-215.136 28233.1 0
28233.1 -18.1802 0
0    0    0

195.121 27894.4 0
27894.4 173.568 0
0    0    0

-25.5254 28774.5 0
28774.5 -110.271 0
0    0    0

168.209 29079.3 0
29079.3 39.4806 0
0    0    0

88.7047 30017.9 0
30017.9 -38.6572 0
0    0    0

346.366 28343.8 0
28343.8 260.32 0
0    0    0

186.073 29270.7 0
29270.7 104.725 0
0    0    0

-50.8575 29571 0
29571 66.8397 0
0    0    0

-52.0827 30628 0
30628 145.639 0
0    0    0

-26.0301 31583.6 0
31583.6 75.9093 0
0    0    0

189.887 32135.2 0
32135.2 442.232 0
0    0    0

-88.7697 32418.5 0
32418.5 -201.248 0
0    0    0

74.4255 33208.4 0
33208.4 -99.5696 0
0    0    0

-22.6723 32248.2 0
32248.2 -290.041 0
0    0    0

-10.5475 32795.9 0
32795.9 159.876 0
0    0    0

6.91343 35293.8 0
35293.8 -134.463 0
0    0    0

38.7954 36473.5 0
36473.5 47.6454 0
0    0    0

236.044 36776.9 0
36776.9 229.992 0
0    0    0

214.32 36942.3 0
36942.3 40.3485 0
0    0    0

28.6049 35767.1 0
35767.1 192.877 0
0    0    0

158.822 35872.7 0
35872.7 -18.4085 0
0    0    0

258.687 36373 0
36373 487.412 0
0    0    0

-162.456 36105.8 0
36105.8 -237.751 0
0    0    0

-331.578 30864.7 0
30864.7 -255.993 0
0    0    0

213.945 30528.7 0
30528.7 -44.5899 0
0    0    0

170.86 31035.3 0
31035.3 266.697 0
0    0    0

4.24259 30581.9 0
30581.9 30.8008 0
0    0    0

-16.5274 26648.3 0
26648.3 -68.943 0
0    0    0

-207.289 28816.7 0
28816.7 -323.529 0
0    0    0

-209.617 67527.9 0
67527.9 -223.921 0
0    0    0

-146.808 68623.3 0
68623.3 -295.446 0
0    0    0

-39.4759 68604.8 0
68604.8 160.423 0
0    0    0

229.465 69541.6 0
69541.6 75.3492 0
0    0    0

-114.809 67846 0
67846 54.7423 0
0    0    0

250.063 67755.6 0
67755.6 327.766 0
0    0    0

-93.9399 67994.4 0
67994.4 -326.612 0
0    0    0

-211.846 67261.9 0
67261.9 -203.284 0
0    0    0

22.8139 67668.4 0
67668.4 150.802 0
0    0    0

239.152 67458.5 0
67458.5 96.8848 0
0    0    0

-224.626 67253.1 0
67253.1 -202.946 0
0    0    0

178.35 67585.2 0
67585.2 -91.8271 0
0    0    0

-159.441 68265.6 0
68265.6 -152.283 0
0    0    0

215.544 69214.8 0
69214.8 111.191 0
0    0    0

-150.04 68561.4 0
68561.4 -79.506 0
0    0    0

199.714 68818.9 0
68818.9 345.129 0
0    0    0

-7.80996 68528.7 0
68528.7 -289.919 0
0    0    0

216.096 69017 0
69017 229.762 0
0    0    0

-204.884 69751.5 0
69751.5 -144.45 0
0    0    0

167.247 69917.1 0
69917.1 8.78415 0
0    0    0

232.049 68056.9 0
68056.9 155.548 0
0    0    0

130.82 68687.6 0
68687.6 153.986 0
0    0    0

-74.0963 67934.8 0
67934.8 -147.566 0
0    0    0

9.73908 68266.6 0
68266.6 170.664 0
0    0    0

-123.49 68107.4 0
68107.4 -258.037 0
0    0    0

-172.437 68269.8 0
68269.8 -464.26 0
0    0    0

-168.642 67419.8 0
67419.8 139.708 0
0    0    0

8.91472 67819.9 0
67819.9 -106.025 0
0    0    0

-117.212 68801.4 0
68801.4 -136.504 0
0    0    0

59.8108 68936.7 0
68936.7 -112.068 0
0    0    0

-64.1796 70943.6 0
70943.6 11.3663 0
0    0    0

-160.066 69974.7 0
69974.7 -256.835 0
0    0    0

-271.538 69262.6 0
69262.6 -233.06 0
0    0    0

93.5193 68779.9 0
68779.9 201.209 0
0    0    0

314.034 69499 0
69499 308.796 0
0    0    0

-269.618 69121.6 0
69121.6 -230.932 0
0    0    0

160.339 69151.2 0
69151.2 127.191 0
0    0    0

-76.3024 68349.2 0
68349.2 -82.2857 0
0    0    0

328.875 69740 0
69740 559.914 0
0    0    0

38.3825 70363.5 0
70363.5 54.4918 0
0    0    0

158.321 68212.7 0
68212.7 -18.3357 0
0    0    0

-148.629 69228.9 0
69228.9 22.0118 0
0    0    0

-194.178 69664.6 0
69664.6 -180.313 0
0    0    0

72.763 68805.1 0
68805.1 281.64 0
0    0    0

203.088 69202.2 0
69202.2 -58.8776 0
0    0    0

-95.6039 69926.6 0
69926.6 -176.233 0
0    0    0

328.204 67572.9 0
67572.9 219.66 0
0    0    0

132.364 67731.3 0
67731.3 376.78 0
0    0    0

-413.714 68390.9 0
68390.9 -243.504 0
0    0    0

-220.268 68902.1 0
68902.1 -411.82 0
0    0    0

-145.797 67755.7 0
67755.7 -120.697 0
0    0    0

90.106 67931.3 0
67931.3 350.106 0
0    0    0

154.627 70386.3 0
70386.3 337.164 0
0    0    0

152.536 70117.5 0
70117.5 131.904 0
0    0    0

-313.623 72855.3 0
72855.3 -272.833 0
0    0    0

169.415 70260.7 0
70260.7 203.841 0
0    0    0

-294.65 69461.8 0
69461.8 -386.822 0
0    0    0

218.72 69851.2 0
69851.2 320.21 0
0    0    0

-230.534 70609.9 0
70609.9 -157.511 0
0    0    0

180.655 70806.9 0
70806.9 248.767 0
0    0    0

-282.347 70399.5 0
70399.5 -75.5065 0
0    0    0

-148.391 70490.4 0
70490.4 -156.046 0
0    0    0

-189.091 71848.2 0
71848.2 -236.108 0
0    0    0

145.663 72085 0
72085 246.437 0
0    0    0

143.59 70606.5 0
70606.5 142.856 0
0    0    0

18.3445 71282.9 0
71282.9 -235.022 0
0    0    0

53.4634 70900.5 0
70900.5 297.019 0
0    0    0

-132.64 70146.7 0
70146.7 -181.533 0
0    0    0

218.797 69799.7 0
69799.7 170.78 0
0    0    0

293.977 69321 0
69321 230.986 0
0    0    0

13.0086 70706.3 0
70706.3 353.602 0
0    0    0

205.389 71024.3 0
71024.3 367.503 0
0    0    0

-272.658 70202.2 0
70202.2 -581.181 0
0    0    0

51.3968 69968.5 0
69968.5 -82.8193 0
0    0    0

-204.846 70810.1 0
70810.1 -269.443 0
0    0    0

-72.903 71029.8 0
71029.8 -58.3574 0
0    0    0

-137.06 67932.7 0
67932.7 -186.916 0
0    0    0

-271.418 67313.8 0
67313.8 -166.937 0
0    0    0

-27.378 68039.6 0
68039.6 264.98 0
0    0    0

-125.144 67926.7 0
67926.7 -163.904 0
0    0    0

-117.527 67554.9 0
67554.9 -337.23 0
0    0    0

10.9984 67356.2 0
67356.2 -37.731 0
0    0    0

302.037 67503.7 0
67503.7 245.24 0
0    0    0

-214.142 67801.2 0
67801.2 -137.791 0
0    0    0

116.014 68373.7 0
68373.7 285.441 0
0    0    0

246.27 68189.1 0
68189.1 167.279 0
0    0    0

84.1948 66617 0
66617 -70.956 0
0    0    0

-56.5289 65111.1 0
65111.1 117.792 0
0    0    0

194.5 64997.7 0
64997.7 364.356 0
0    0    0

88.5581 66282.3 0
66282.3 264.562 0
0    0    0

-54.6152 66052.1 0
66052.1 -265.439 0
0    0    0

154.013 66426.2 0
66426.2 212.058 0
0    0    0

33.4681 66242.8 0
66242.8 -202.574 0
0    0    0

-217.712 66035.3 0
66035.3 -190.92 0
0    0    0

152.92 65169 0
65169 408.354 0
0    0    0

6.33324 65902 0
65902 -48.8797 0
0    0    0

129.225 65299.2 0
65299.2 -235.788 0
0    0    0

75.7357 65775.6 0
65775.6 -84.5246 0
0    0    0

-129.03 65938.9 0
65938.9 -327.991 0
0    0    0

42.4757 65649.2 0
65649.2 188.039 0
0    0    0

-125.41 66716.8 0
66716.8 -9.61786 0
0    0    0

-79.4041 66965.3 0
66965.3 14.1528 0
0    0    0

181.694 65743.2 0
65743.2 428.45 0
0    0    0

82.975 65569.4 0
65569.4 257.714 0
0    0    0

72.5807 66520.2 0
66520.2 -13.1967 0
0    0    0

-234.868 66561.2 0
66561.2 18.1326 0
0    0    0

-180.434 65731.6 0
65731.6 -298.054 0
0    0    0

-125.017 65858.8 0
65858.8 -126.555 0
0    0    0

-245.186 67655.7 0
67655.7 -354.701 0
0    0    0

-281.126 66800.4 0
66800.4 -192.018 0
0    0    0

-45.9645 67535.1 0
67535.1 174.186 0
0    0    0

196.541 66809 0
66809 9.58847 0
0    0    0

-88.5598 66639.4 0
66639.4 -91.5436 0
0    0    0

45.7148 67356.5 0
67356.5 104.909 0
0    0    0

168.548 67501.9 0
67501.9 -18.7999 0
0    0    0

-189.39 67264 0
67264 2.11408 0
0    0    0

-47.0276 66914.5 0
66914.5 120.33 0
0    0    0

-119.918 66965.3 0
66965.3 -134.404 0
0    0    0

228.973 66506.4 0
66506.4 199.428 0
0    0    0

105.362 67267.4 0
67267.4 -41.7852 0
0    0    0

-230.333 66307.4 0
66307.4 -71.4711 0
0    0    0

206.179 66196.1 0
66196.1 4.83787 0
0    0    0

-91.5671 67704.1 0
67704.1 140.569 0
0    0    0

1.59796 68260 0
68260 232.795 0
0    0    0

-175.839 67467.8 0
67467.8 -207.927 0
0    0    0

300.18 66978.4 0
66978.4 174.743 0
0    0    0

-89.599 68862.3 0
68862.3 -47.4208 0
0    0    0

297.337 66098.3 0
66098.3 202.623 0
0    0    0

-94.2236 66685 0
66685 -64.0154 0
0    0    0

294.357 66637.4 0
66637.4 206.77 0
0    0    0

-130.137 66990 0
66990 -171.004 0
0    0    0

-280.7 66379 0
66379 -188.331 0
0    0    0

-17.4785 67681.3 0
67681.3 156.766 0
0    0    0

-114.824 68943.3 0
68943.3 -33.3657 0
0    0    0

-169.351 67199 0
67199 -224.67 0
0    0    0

215.351 68521.9 0
68521.9 13.0739 0
0    0    0

-201.121 67205 0
67205 23.3666 0
0    0    0

124.109 68316 0
68316 236.28 0
0    0    0

-249.255 69307.4 0
69307.4 -150.023 0
0    0    0

144.662 69507.2 0
69507.2 297.801 0
0    0    0

109.785 67369.7 0
67369.7 162.104 0
0    0    0

215.877 67913.4 0
67913.4 409.533 0
0    0    0

154.241 67035.5 0
67035.5 -175.129 0
0    0    0

-340.012 67646.9 0
67646.9 -294.252 0
0    0    0

83.2161 68244.3 0
68244.3 -128.326 0
0    0    0

-158.253 68432.8 0
68432.8 -116.162 0
0    0    0

154.779 67095.4 0
67095.4 81.7782 0
0    0    0

-147.611 67842.8 0
67842.8 95.7776 0
0    0    0

-230.857 68158.9 0
68158.9 -346.921 0
0    0    0

1.08758 67887.5 0
67887.5 166.852 0
0    0    0

44.6995 67971 0
67971 -190.201 0
0    0    0

-226.802 68697 0
68697 -313.131 0
0    0    0

-201.266 68585.7 0
68585.7 -182.369 0
0    0    0

-92.569 69305 0
69305 -298.822 0
0    0    0

5.22918 66938.7 0
66938.7 334.308 0
0    0    0

237.237 66459.3 0
66459.3 356.838 0
0    0    0

-32.5792 59745 0
59745 -241.474 0
0    0    0

-360.289 59906.5 0
59906.5 -631.517 0
0    0    0

97.688 60759.7 0
60759.7 137.219 0
0    0    0

6.65775 61292.6 0
61292.6 22.1273 0
0    0    0

-187.565 60915.6 0
60915.6 -282.965 0
0    0    0

174.499 60479.7 0
60479.7 246.127 0
0    0    0

-51.8815 59006.4 0
59006.4 -182.635 0
0    0    0

305.845 60405.5 0
60405.5 328.253 0
0    0    0

121.702 59787.6 0
59787.6 -45.8316 0
0    0    0

-119.113 59571.9 0
59571.9 -321.858 0
0    0    0

-170.468 60190.1 0
60190.1 -108.663 0
0    0    0

78.255 61007.3 0
61007.3 370.418 0
0    0    0

309.864 61872.7 0
61872.7 382.245 0
0    0    0

255.498 61580.7 0
61580.7 308.448 0
0    0    0

252.138 61258.4 0
61258.4 350.344 0
0    0    0

-288.133 60761.5 0
60761.5 -476.451 0
0    0    0

-116.917 60332.5 0
60332.5 17.6859 0
0    0    0

248.17 60721.4 0
60721.4 419.371 0
0    0    0

72.3524 60370.5 0
60370.5 124.847 0
0    0    0

239.325 59250.7 0
59250.7 413.033 0
0    0    0

-25.3608 60695.1 0
60695.1 -218.075 0
0    0    0

-189.827 60603.4 0
60603.4 111.312 0
0    0    0

-110.116 60171 0
60171 -213.767 0
0    0    0

85.0865 60348.3 0
60348.3 206.557 0
0    0    0

-120.341 62563.5 0
62563.5 340.684 0
0    0    0

204.757 62516 0
62516 201.366 0
0    0    0

-14.0572 64607.6 0
64607.6 -232.119 0
0    0    0

-236.273 63465.2 0
63465.2 -25.7441 0
0    0    0

-22.225 66914.6 0
66914.6 300.119 0
0    0    0

-19.5055 66605 0
66605 -285.916 0
0    0    0

35.5552 44561.3 0
44561.3 170.289 0
0    0    0

-256.56 45977.7 0
45977.7 -86.1783 0
0    0    0

-98.8051 47205 0
47205 -186.671 0
0    0    0

-290.104 47721.6 0
47721.6 -306.161 0
0    0    0

-127.128 46857.5 0
46857.5 203.299 0
0    0    0

-235.881 47409.4 0
47409.4 -156.46 0
0    0    0

-342.815 48663.5 0
48663.5 -356.094 0
0    0    0

-60.2115 48838.3 0
48838.3 139.167 0
0    0    0

250.594 47252.9 0
47252.9 324.42 0
0    0    0

79.5661 47336.7 0
47336.7 333.358 0
0    0    0

-294.947 49352.8 0
49352.8 -243.515 0
0    0    0

343.186 48508.4 0
48508.4 110.743 0
0    0    0

94.8646 47734.5 0
47734.5 12.0997 0
0    0    0

63.622 46658.2 0
46658.2 -213.699 0
0    0    0

269.732 47358.1 0
47358.1 295.04 0
0    0    0

-93.4635 48567 0
48567 119.439 0
0    0    0

-103.896 48041.3 0
48041.3 -199.697 0
0    0    0

113.676 49007.2 0
49007.2 216.791 0
0    0    0

-97.8178 46866.3 0
46866.3 97.7599 0
0    0    0

-18.5903 46994.9 0
46994.9 234.714 0
0    0    0

-162.611 47656.2 0
47656.2 14.4006 0
0    0    0

112.002 47717.5 0
47717.5 275.94 0
0    0    0

66.4356 48241.2 0
48241.2 -83.3492 0
0    0    0

-40.6673 48898.9 0
48898.9 105.968 0
0    0    0

60.5009 48425 0
48425 -305.925 0
0    0    0

-93.2152 46784 0
46784 -194.871 0
0    0    0

122.357 47960.3 0
47960.3 116.8 0
0    0    0

100.093 49360.4 0
49360.4 117.142 0
0    0    0

270.319 47950.5 0
47950.5 65.5757 0
0    0    0

-296.6 48340.7 0
48340.7 -105.524 0
0    0    0

-13.3822 48921.2 0
48921.2 -39.5615 0
0    0    0

-149.68 48248.2 0
48248.2 18.2894 0
0    0    0

-234.143 49232.3 0
49232.3 94.8252 0
0    0    0

107.636 48165 0
48165 118.998 0
0    0    0

121.048 49505.1 0
49505.1 186.659 0
0    0    0

-18.2414 49426.4 0
49426.4 234.378 0
0    0    0

-159.166 48117.9 0
48117.9 -126.184 0
0    0    0

113.006 48453 0
48453 92.2737 0
0    0    0

-78.3998 46437.3 0
46437.3 -171.28 0
0    0    0

-78.2383 47218.8 0
47218.8 -72.1578 0
0    0    0

-282.049 51310.7 0
51310.7 -285.755 0
0    0    0

228.835 49940.8 0
49940.8 286.011 0
0    0    0

21.5358 49697.2 0
49697.2 274.155 0
0    0    0

9.2485 49278.9 0
49278.9 -152.055 0
0    0    0

101.862 48325.6 0
48325.6 -143.294 0
0    0    0

-83.1462 48786.4 0
48786.4 -150.295 0
0    0    0

-34.3596 47556.6 0
47556.6 -166.005 0
0    0    0

-165.225 47044.9 0
47044.9 -2.20827 0
0    0    0

147.026 50575.1 0
50575.1 77.7946 0
0    0    0

-91.8798 50374.1 0
50374.1 -195.582 0
0    0    0

11.6456 52337.6 0
52337.6 77.719 0
0    0    0

-39.2361 51231.7 0
51231.7 245.278 0
0    0    0

171.056 50081.6 0
50081.6 225.491 0
0    0    0

-233.614 50623.1 0
50623.1 -81.5298 0
0    0    0

-238.366 49895.6 0
49895.6 -244.764 0
0    0    0

-106.224 50662.3 0
50662.3 71.645 0
0    0    0

290.436 49100.6 0
49100.6 294.745 0
0    0    0

375.809 51544.1 0
51544.1 257.637 0
0    0    0

41.0282 51403.7 0
51403.7 52.1636 0
0    0    0

375.689 50313.5 0
50313.5 233.806 0
0    0    0

-271.431 50294.8 0
50294.8 -271.374 0
0    0    0

33.6758 50803 0
50803 281.983 0
0    0    0

289.264 51435.2 0
51435.2 522.554 0
0    0    0

56.4676 53590.5 0
53590.5 235.953 0
0    0    0

-46.5033 49383.2 0
49383.2 -123.802 0
0    0    0

-195.785 49738.5 0
49738.5 -215.507 0
0    0    0

56.5977 48970.7 0
48970.7 178.57 0
0    0    0

278.972 49630.3 0
49630.3 339.318 0
0    0    0

60.7526 48446.6 0
48446.6 -66.1168 0
0    0    0

-112.515 48653.1 0
48653.1 36.7043 0
0    0    0

-83.987 49576.3 0
49576.3 158.827 0
0    0    0

169.484 48707.1 0
48707.1 8.68079 0
0    0    0

-169.472 49957.3 0
49957.3 -323.741 0
0    0    0

198.402 47412 0
47412 -126.859 0
0    0    0

-266.622 49129.7 0
49129.7 -250.02 0
0    0    0

-127.991 48543.8 0
48543.8 -80.5366 0
0    0    0

97.5221 49716.2 0
49716.2 -69.156 0
0    0    0

-7.08425 49166.8 0
49166.8 161.013 0
0    0    0

-402.785 50059.1 0
50059.1 -345.87 0
0    0    0

210.722 50161 0
50161 238.842 0
0    0    0

230.188 48653 0
48653 -47.8151 0
0    0    0

274.598 48001.1 0
48001.1 438.792 0
0    0    0

-97.5915 49271.8 0
49271.8 -247.87 0
0    0    0

-141.247 48392 0
48392 -243.596 0
0    0    0

323.251 49859.5 0
49859.5 70.1788 0
0    0    0

-163.024 50497.4 0
50497.4 -163.398 0
0    0    0

162.763 51004.8 0
51004.8 205.791 0
0    0    0

-240.784 50802.1 0
50802.1 -35.9415 0
0    0    0

99.4031 51797.2 0
51797.2 303.35 0
0    0    0

66.8565 52103.9 0
52103.9 -166.752 0
0    0    0

212.834 50807 0
50807 -112.755 0
0    0    0

-279.654 51413.1 0
51413.1 -365.954 0
0    0    0

-273.732 50340 0
50340 41.175 0
0    0    0

58.6171 49998.9 0
49998.9 -113.537 0
0    0    0

109.417 50551.7 0
50551.7 -217.362 0
0    0    0

-29.9586 49110 0
49110 -114.743 0
0    0    0

-123.451 51070.4 0
51070.4 -109.352 0
0    0    0

-9.78889 49450.3 0
49450.3 -188.559 0
0    0    0

-131.656 48045.7 0
48045.7 -23.0589 0
0    0    0

274.873 47845.5 0
47845.5 193.948 0
0    0    0

88.6025 47609.2 0
47609.2 -167.849 0
0    0    0

-249.927 47624.1 0
47624.1 -209.307 0
0    0    0

-79.4013 48772.6 0
48772.6 -91.4128 0
0    0    0

-243.549 47574.7 0
47574.7 -298.669 0
0    0    0

0.536851 49838.2 0
49838.2 306.712 0
0    0    0

-269.187 48052.2 0
48052.2 -182.133 0
0    0    0

13.2728 48961.3 0
48961.3 88.154 0
0    0    0

-29.0367 48313.6 0
48313.6 -140.571 0
0    0    0

140.577 50755.2 0
50755.2 135.738 0
0    0    0

-122.891 52141.8 0
52141.8 -65.5828 0
0    0    0

-36.6286 53075.4 0
53075.4 -101.007 0
0    0    0

-231.416 52130 0
52130 -82.4061 0
0    0    0

-153.744 51983.6 0
51983.6 -381.443 0
0    0    0

32.1332 51334.7 0
51334.7 -152.628 0
0    0    0

-128.453 51144 0
51144 -5.70241 0
0    0    0

57.3563 51554.1 0
51554.1 -187.526 0
0    0    0

121.423 51210.9 0
51210.9 175.27 0
0    0    0

-52.0976 50795.9 0
50795.9 85.0202 0
0    0    0

-42.7701 51740.4 0
51740.4 -46.9994 0
0    0    0

63.2963 52626.5 0
52626.5 -280.414 0
0    0    0

69.1106 51686.9 0
51686.9 260.605 0
0    0    0

65.9057 52325.3 0
52325.3 115.215 0
0    0    0

-105.89 53246.6 0
53246.6 50.3619 0
0    0    0

292.744 52216.2 0
52216.2 317.982 0
0    0    0

-249.274 52599.4 0
52599.4 -278.72 0
0    0    0

94.7714 52244.4 0
52244.4 202.954 0
0    0    0

-250.85 52563.7 0
52563.7 -315.691 0
0    0    0

270.557 52280 0
52280 254.993 0
0    0    0

130.402 52849.1 0
52849.1 319.595 0
0    0    0

245.103 53387.1 0
53387.1 259.637 0
0    0    0

-112.333 52639.5 0
52639.5 -184.647 0
0    0    0

114.59 51732 0
51732 161.437 0
0    0    0

-105.951 52704.2 0
52704.2 -77.9905 0
0    0    0

-276.313 53842.6 0
53842.6 -117.56 0
0    0    0

200.526 52828.8 0
52828.8 281.037 0
0    0    0

-59.6549 52544.7 0
52544.7 -291.341 0
0    0    0

-117.987 55042.4 0
55042.4 29.5701 0
0    0    0

308.905 54669.1 0
54669.1 286.406 0
0    0    0

-174.999 53234.6 0
53234.6 -421.324 0
0    0    0

-223.423 50710.1 0
50710.1 -474.239 0
0    0    0

121.762 52803.9 0
52803.9 248.358 0
0    0    0

50.234 53553.6 0
53553.6 -172.089 0
0    0    0

-82.8969 50217.7 0
50217.7 -194.588 0
0    0    0

120.85 48809 0
48809 182.176 0
0    0    0

25.7482 49347.1 0
49347.1 187.867 0
0    0    0

51.9826 49712.1 0
49712.1 -158.848 0
0    0    0

-164.69 48348.2 0
48348.2 10.2844 0
0    0    0

308.289 48259.1 0
48259.1 299.963 0
0    0    0

-18.4977 49568.7 0
49568.7 -258.738 0
0    0    0

-46.4381 49499.7 0
49499.7 186.519 0
0    0    0

-170.798 48637.5 0
48637.5 -262.577 0
0    0    0

96.2233 48419.2 0
48419.2 57.099 0
0    0    0

4.43793 49326.3 0
49326.3 -146.941 0
0    0    0

-132.917 47776.6 0
47776.6 11.2469 0
0    0    0

28.3558 49944.9 0
49944.9 266.99 0
0    0    0

-69.1631 50380.7 0
50380.7 26.5704 0
0    0    0

36.2933 49832.5 0
49832.5 266.281 0
0    0    0

-113.514 48652.2 0
48652.2 -71.8923 0
0    0    0

-115.424 50006.7 0
50006.7 164.993 0
0    0    0

-77.2638 49235.6 0
49235.6 129.392 0
0    0    0

-35.1126 49624.2 0
49624.2 201.387 0
0    0    0

43.5745 48042.3 0
48042.3 180.624 0
0    0    0

-120.64 48587.6 0
48587.6 40.6515 0
0    0    0

-8.80315 49041.7 0
49041.7 109.951 0
0    0    0

206.277 51634 0
51634 66.2155 0
0    0    0

-168.273 51493.9 0
51493.9 -204.373 0
0    0    0

-193.126 51381.1 0
51381.1 13.3306 0
0    0    0

203.482 51917.2 0
51917.2 -206.127 0
0    0    0

-14.7324 55611.2 0
55611.2 192.767 0
0    0    0

193.095 53481.4 0
53481.4 144.631 0
0    0    0

-102.128 54806.6 0
54806.6 92.0349 0
0    0    0

-134.282 53492.3 0
53492.3 38.839 0
0    0    0

-255.144 53166.5 0
53166.5 -324.383 0
0    0    0

276.767 53853.8 0
53853.8 17.8311 0
0    0    0

-124.514 53112.1 0
53112.1 -244.353 0
0    0    0

-296.327 53636.2 0
53636.2 -220.464 0
0    0    0

-73.0132 51626.3 0
51626.3 -110.029 0
0    0    0

-183.773 51745.5 0
51745.5 36.5643 0
0    0    0

-36.2016 54863.3 0
54863.3 -83.8951 0
0    0    0

-254.151 53836.8 0
53836.8 6.68472 0
0    0    0

33.0263 51150.4 0
51150.4 -27.5293 0
0    0    0

16.6017 50585.1 0
50585.1 -179.992 0
0    0    0

-11.5344 52427.5 0
52427.5 142.91 0
0    0    0

225.917 51531.7 0
51531.7 -82.4089 0
0    0    0

211.752 51891.9 0
51891.9 360.55 0
0    0    0

-7.11068 50591.9 0
50591.9 80.6937 0
0    0    0

191.221 50977.1 0
50977.1 81.3351 0
0    0    0

146.715 51258.9 0
51258.9 139.125 0
0    0    0

0.237567 52743.8 0
52743.8 -179.926 0
0    0    0

180.185 52968.3 0
52968.3 -80.1952 0
0    0    0

-148.129 53112.8 0
53112.8 -275.695 0
0    0    0

-189.042 54299 0
54299 -264.317 0
0    0    0

-263.503 53841 0
53841 -59.5903 0
0    0    0

143.752 53263 0
53263 157.844 0
0    0    0

85.2516 54531.2 0
54531.2 74.0528 0
0    0    0

170.785 54061.1 0
54061.1 303.078 0
0    0    0

54.2972 53010.7 0
53010.7 302.423 0
0    0    0

-123.457 52162.8 0
52162.8 -219.574 0
0    0    0

-190.048 51329.8 0
51329.8 129.608 0
0    0    0

-68.5822 50528.2 0
50528.2 -316.117 0
0    0    0

-183.15 52770.2 0
52770.2 -72.4766 0
0    0    0

150.856 51569.7 0
51569.7 281.531 0
0    0    0

0.326752 52862.3 0
52862.3 219.645 0
0    0    0

-193.618 53167.9 0
53167.9 -189.405 0
0    0    0

225.663 52826 0
52826 208.841 0
0    0    0

46.4181 53420.8 0
53420.8 -10.8806 0
0    0    0

180.305 53461.2 0
53461.2 87.7704 0
0    0    0

-5.20803 53087 0
53087 28.961 0
0    0    0

228.408 54103.3 0
54103.3 190.239 0
0    0    0

85.6981 53718 0
53718 21.6954 0
0    0    0

130.716 54325.9 0
54325.9 -9.3635 0
0    0    0

-35.7314 55929.7 0
55929.7 -295.376 0
0    0    0

121.98 54205.1 0
54205.1 256.737 0
0    0    0

-86.4355 52672.9 0
52672.9 -213.155 0
0    0    0

32.6913 53210.4 0
53210.4 134.417 0
0    0    0

-189.35 52093 0
52093 -110.705 0
0    0    0

-112.252 53445.2 0
53445.2 -252.9 0
0    0    0

-269.992 52834.3 0
52834.3 -133.722 0
0    0    0

128.026 52513.2 0
52513.2 194.954 0
0    0    0

42.2337 52864 0
52864 -23.0853 0
0    0    0

84.4389 53661 0
53661 176.762 0
0    0    0

-218.068 52927.6 0
52927.6 -106.823 0
0    0    0

95.163 52338.1 0
52338.1 -17.7146 0
0    0    0

-24.7306 53143.6 0
53143.6 146.743 0
0    0    0

-121.895 51974.2 0
51974.2 55.8265 0
0    0    0

195.317 52396.2 0
52396.2 86.1908 0
0    0    0

-62.0896 54232.4 0
54232.4 42.6663 0
0    0    0

-63.8532 56032 0
56032 -325.83 0
0    0    0

-107.029 54787.5 0
54787.5 -405.157 0
0    0    0

47.1478 55242.1 0
55242.1 -124.996 0
0    0    0

53.6275 53540.6 0
53540.6 411.107 0
0    0    0

-26.5963 53309 0
53309 -205.313 0
0    0    0

-76.4417 54003.8 0
54003.8 -194.549 0
0    0    0

79.3078 53605.2 0
53605.2 243.241 0
0    0    0

-183.265 54335.4 0
54335.4 -423.099 0
0    0    0

-59.0695 54403.6 0
54403.6 -233.225 0
0    0    0

-115.469 54557.4 0
54557.4 -228.684 0
0    0    0

-156.614 54961.6 0
54961.6 -208.824 0
0    0    0

-143.949 54200.7 0
54200.7 88.0319 0
0    0    0

82.0761 54962.8 0
54962.8 -19.3632 0
0    0    0

207.862 53992.2 0
53992.2 127.286 0
0    0    0

17.4684 54042.1 0
54042.1 -72.4376 0
0    0    0

-57.8548 55455.7 0
55455.7 124.906 0
0    0    0

7.9236 55711.1 0
55711.1 -214.928 0
0    0    0

94.3446 55109.1 0
55109.1 290.027 0
0    0    0

188.464 54689.7 0
54689.7 162.114 0
0    0    0

-150.827 56012.6 0
56012.6 -119.8 0
0    0    0

-81.2212 56183.3 0
56183.3 207.66 0
0    0    0

-27.6598 54979.1 0
54979.1 -174.795 0
0    0    0

11.9461 55239.9 0
55239.9 186.525 0
0    0    0

225.167 55660.1 0
55660.1 514.827 0
0    0    0

179.472 55352 0
55352 109.198 0
0    0    0

-200.509 55564.4 0
55564.4 -169.18 0
0    0    0

261.256 55274.5 0
55274.5 356.761 0
0    0    0

-48.3404 56038.8 0
56038.8 -423.005 0
0    0    0

294.74 55796.8 0
55796.8 480.29 0
0    0    0

137.39 45650.3 0
45650.3 135.128 0
0    0    0

236.48 46185.2 0
46185.2 487.686 0
0    0    0

-164.625 47048.3 0
47048.3 -389.22 0
0    0    0

-76.957 47028.6 0
47028.6 -298.746 0
0    0    0

-292.091 45787.5 0
45787.5 -336.031 0
0    0    0

-174.376 46017.6 0
46017.6 -119.708 0
0    0    0

255.148 47330.5 0
47330.5 327.569 0
0    0    0

145.023 47293.9 0
47293.9 319.634 0
0    0    0

-9.36439 41199.9 0
41199.9 -224.709 0
0    0    0

86.214 40636.5 0
40636.5 -236.798 0
0    0    0

23.9382 39938 0
39938 -148.757 0
0    0    0

-93.7715 39968.6 0
39968.6 -114.904 0
0    0    0

353.486 44769.7 0
44769.7 268.174 0
0    0    0

-114.366 45908.6 0
45908.6 114.995 0
0    0    0

8.36146 44688 0
44688 100.016 0
0    0    0

-207.355 44703.5 0
44703.5 113.335 0
0    0    0

108.322 45964 0
45964 325.013 0
0    0    0

-32.2061 46224.5 0
46224.5 -135.997 0
0    0    0

229.755 44125.3 0
44125.3 129.626 0
0    0    0

-78.2995 43597.8 0
43597.8 -303.333 0
0    0    0

-89.9246 45208.6 0
45208.6 -242.875 0
0    0    0

-199.006 44519.8 0
44519.8 -346.173 0
0    0    0

96.5798 44205 0
44205 244.675 0
0    0    0

403.102 44761.8 0
44761.8 443.198 0
0    0    0

264.813 44898.5 0
44898.5 22.8544 0
0    0    0

93.9006 45686.2 0
45686.2 25.4886 0
0    0    0

-353.146 45797.8 0
45797.8 -322.757 0
0    0    0

-294.907 45128.6 0
45128.6 -266.869 0
0    0    0

-347.967 45334.1 0
45334.1 -100.577 0
0    0    0

194.642 45553.8 0
45553.8 -13.3325 0
0    0    0

223.856 45262.4 0
45262.4 -201.411 0
0    0    0

179.315 45911.6 0
45911.6 165.085 0
0    0    0

-335.106 46113 0
46113 -222.01 0
0    0    0

-123.842 45347.7 0
45347.7 36.9402 0
0    0    0

165.059 36801.7 0
36801.7 183.982 0
0    0    0

-239.683 37845.2 0
37845.2 -251.517 0
0    0    0

60.3992 37741.7 0
37741.7 -71.2935 0
0    0    0

-280.29 37815.6 0
37815.6 -281.291 0
0    0    0

-87.1266 37190.2 0
37190.2 -196.65 0
0    0    0

71.7228 38102.4 0
38102.4 236.77 0
0    0    0

181.206 38647.2 0
38647.2 256.27 0
0    0    0

102.505 38440.4 0
38440.4 28.5999 0
0    0    0

225.967 35633.3 0
35633.3 242.197 0
0    0    0

-53.4555 38348.2 0
38348.2 -283.409 0
0    0    0

-30.6989 38235.6 0
38235.6 -149.366 0
0    0    0

-17.3025 39445.2 0
39445.2 -260.379 0
0    0    0

120.712 36766.1 0
36766.1 141.915 0
0    0    0

12.0979 37977.5 0
37977.5 50.7935 0
0    0    0

244.423 37456.4 0
37456.4 228.478 0
0    0    0

-337.8 38389.9 0
38389.9 -189.468 0
0    0    0

335.49 37451.9 0
37451.9 137.25 0
0    0    0

-185.697 37744.6 0
37744.6 -228.981 0
0    0    0

72.8528 39298.2 0
39298.2 178.55 0
0    0    0

-225.399 39710 0
39710 -44.6429 0
0    0    0

-84.4895 36600.2 0
36600.2 167.25 0
0    0    0

38.1573 36972 0
36972 -128.976 0
0    0    0

-95.049 37912.4 0
37912.4 -138.44 0
0    0    0

185.161 38611.6 0
38611.6 262.097 0
0    0    0

45.8649 37589.7 0
37589.7 313.258 0
0    0    0

-148.976 39386.8 0
39386.8 -16.6352 0
0    0    0

203.047 38850.3 0
38850.3 39.7326 0
0    0    0

-111.775 40277.9 0
40277.9 -366.783 0
0    0    0

-34.953 36938.1 0
36938.1 -116.788 0
0    0    0

196.004 37234.7 0
37234.7 135.652 0
0    0    0

219.35 38081.6 0
38081.6 253.9 0
0    0    0

-206.596 37893.9 0
37893.9 -366.158 0
0    0    0

-137.464 37247.6 0
37247.6 67.6911 0
0    0    0

-218.623 37482.1 0
37482.1 -116.313 0
0    0    0

-262.241 36642 0
36642 -228.777 0
0    0    0

-124.009 38036.2 0
38036.2 -405.67 0
0    0    0

-28.2187 36311.4 0
36311.4 -185.328 0
0    0    0

-23.3492 36999.9 0
36999.9 43.8702 0
0    0    0

-54.0411 36835.5 0
36835.5 -97.7454 0
0    0    0

34.49 37588.2 0
37588.2 -56.6588 0
0    0    0

-109.246 36529.2 0
36529.2 -46.6122 0
0    0    0

-61.1548 37294.8 0
37294.8 121.586 0
0    0    0

62.7125 35932.8 0
35932.8 416.873 0
0    0    0

143.438 36889 0
36889 335.561 0
0    0    0

88.2841 34783.9 0
34783.9 123.317 0
0    0    0

43.9506 36526.1 0
36526.1 -179.425 0
0    0    0

-67.0612 36166.4 0
36166.4 -235.795 0
0    0    0

-191.579 36425.2 0
36425.2 -431.451 0
0    0    0

-110.379 39561.1 0
39561.1 -38.5662 0
0    0    0

-112.085 38855.1 0
38855.1 112.155 0
0    0    0

-228.231 39528.5 0
39528.5 -4.38869 0
0    0    0

-26.0293 40453.4 0
40453.4 59.1394 0
0    0    0

208.256 38473.1 0
38473.1 286.464 0
0    0    0

97.5269 39136.7 0
39136.7 -58.3096 0
0    0    0

201.481 39158.2 0
39158.2 -21.4631 0
0    0    0

227.551 39915.5 0
39915.5 197.157 0
0    0    0

119.101 41361.1 0
41361.1 280.682 0
0    0    0

167.512 41136.1 0
41136.1 -80.4384 0
0    0    0

102.252 42142.9 0
42142.9 474.155 0
0    0    0

214.783 42678.7 0
42678.7 372.803 0
0    0    0

248.81 42106 0
42106 142.019 0
0    0    0

14.3562 42685.3 0
42685.3 110.259 0
0    0    0

51.0935 41540.6 0
41540.6 176.675 0
0    0    0

139.65 42396.3 0
42396.3 -142.032 0
0    0    0

19.1245 41471.4 0
41471.4 -132.079 0
0    0    0

-9.48152 41960.4 0
41960.4 -66.0097 0
0    0    0

-195.736 41804.6 0
41804.6 -412.721 0
0    0    0

-107.694 42170.5 0
42170.5 -53.6458 0
0    0    0

-116.087 41551.4 0
41551.4 -130.029 0
0    0    0

180.594 41313.6 0
41313.6 424.012 0
0    0    0

188.869 42018.7 0
42018.7 -67.6887 0
0    0    0

42.0303 42981.1 0
42981.1 -380.941 0
0    0    0

11.0001 40926.6 0
40926.6 192.181 0
0    0    0

-5.16286 41570.8 0
41570.8 -161.452 0
0    0    0

141.891 41822.7 0
41822.7 168.945 0
0    0    0

270.676 42558.5 0
42558.5 201.683 0
0    0    0

-142.514 41783.3 0
41783.3 -196.908 0
0    0    0

-307.216 42344.1 0
42344.1 46.9015 0
0    0    0

162.849 42653.5 0
42653.5 31.4387 0
0    0    0

75.2901 42327.3 0
42327.3 32.0827 0
0    0    0

319.753 43092.5 0
43092.5 321.665 0
0    0    0

2.46017 43613 0
43613 -214.081 0
0    0    0

-108.741 42732.5 0
42732.5 -311.578 0
0    0    0

50.5585 43303.1 0
43303.1 207.545 0
0    0    0

-139.581 44211.6 0
44211.6 -224.087 0
0    0    0

-254.252 42946.5 0
42946.5 -320.165 0
0    0    0

-199.963 42499.6 0
42499.6 -282.526 0
0    0    0

-28.6118 42825.9 0
42825.9 31.9876 0
0    0    0

40.6034 44340.3 0
44340.3 136.76 0
0    0    0

-137.654 43304.1 0
43304.1 69.9294 0
0    0    0

-34.1981 44716.2 0
44716.2 -200.603 0
0    0    0

108.052 44566.5 0
44566.5 228.28 0
0    0    0

43.4006 43756 0
43756 -154.379 0
0    0    0

41.8793 45461.8 0
45461.8 9.12668 0
0    0    0

-73.621 42832.4 0
42832.4 195.827 0
0    0    0

-0.309679 44680.9 0
44680.9 -85.4118 0
0    0    0

-230.891 43599.6 0
43599.6 -14.1306 0
0    0    0

312.504 43159.8 0
43159.8 165.745 0
0    0    0

21.9229 43922.5 0
43922.5 278.322 0
0    0    0

187.466 43736.2 0
43736.2 103.573 0
0    0    0

73.6937 43870.8 0
43870.8 123.439 0
0    0    0

-70.1846 44769.8 0
44769.8 -78.9294 0
0    0    0

-86.0303 44650.1 0
44650.1 106.106 0
0    0    0

-19.9606 43142.5 0
43142.5 -18.4715 0
0    0    0

188.043 46828.2 0
46828.2 -63.8177 0
0    0    0

-62.9244 44526.1 0
44526.1 -127.513 0
0    0    0

-95.3976 44339.4 0
44339.4 -102.03 0
0    0    0

201.288 43514.6 0
43514.6 20.7366 0
0    0    0

-7.21025 43459.1 0
43459.1 -337.665 0
0    0    0

-106.377 44036.2 0
44036.2 -294.353 0
0    0    0

240.405 50248.6 0
50248.6 -69.432 0
0    0    0

-18.2838 45248.9 0
45248.9 -201.259 0
0    0    0

163.749 44888.2 0
44888.2 224.68 0
0    0    0

-47.5102 45655.1 0
45655.1 67.1648 0
0    0    0

26.9486 46503.3 0
46503.3 -264.38 0
0    0    0

64.9166 45710.1 0
45710.1 -112.507 0
0    0    0

-128.052 45193.9 0
45193.9 -208.131 0
0    0    0

221.196 44783.2 0
44783.2 180.025 0
0    0    0

-299.874 46100.9 0
46100.9 -43.6825 0
0    0    0

-209.445 45115.9 0
45115.9 -63.8864 0
0    0    0

-213.511 45013.1 0
45013.1 -183.703 0
0    0    0

125.406 44173.4 0
44173.4 18.2926 0
0    0    0

156.407 45269.7 0
45269.7 164.633 0
0    0    0

0.704228 45443.2 0
45443.2 199.552 0
0    0    0

-182.84 46584.6 0
46584.6 -306.586 0
0    0    0

-5.58431 46400.2 0
46400.2 198.083 0
0    0    0

-155.12 46769.2 0
46769.2 -165.56 0
0    0    0

-146.508 44839.4 0
44839.4 -223.253 0
0    0    0

74.0039 44090.5 0
44090.5 308.611 0
0    0    0

-187.373 43857.7 0
43857.7 -337.988 0
0    0    0

-185.11 44161.6 0
44161.6 -307.845 0
0    0    0

20.2978 43936.8 0
43936.8 93.892 0
0    0    0

-138.881 43194.5 0
43194.5 -182.315 0
0    0    0

-35.1405 43644 0
43644 -41.6708 0
0    0    0

197.881 44229.1 0
44229.1 155.348 0
0    0    0

109.468 43975.1 0
43975.1 -39.5153 0
0    0    0

27.5136 43898.5 0
43898.5 349.17 0
0    0    0

12.065 43717.8 0
43717.8 216.358 0
0    0    0

-65.2485 45612.5 0
45612.5 -285.07 0
0    0    0

178.539 46296.6 0
46296.6 405.663 0
0    0    0

-98.6677 45980.5 0
45980.5 275.778 0
0    0    0

57.1265 47344.6 0
47344.6 -282.692 0
0    0    0

148.04 46142.9 0
46142.9 -93.2016 0
0    0    0

-78.3675 47334.8 0
47334.8 102.875 0
0    0    0

-25.195 47627.4 0
47627.4 -351.036 0
0    0    0

19.5784 46887.7 0
46887.7 -219.501 0
0    0    0

-2.1376 45643.9 0
45643.9 -323.404 0
0    0    0

23.2847 45097 0
45097 238.239 0
0    0    0

125.847 45629.2 0
45629.2 241.684 0
0    0    0

280.525 45121.6 0
45121.6 -59.3094 0
0    0    0

-240.53 45509.4 0
45509.4 39.3823 0
0    0    0

-201.72 45646.9 0
45646.9 -257.167 0
0    0    0

28.7225 44929.1 0
44929.1 -199.93 0
0    0    0

-112.785 45307.6 0
45307.6 115.336 0
0    0    0

77.0773 45783.8 0
45783.8 -121.902 0
0    0    0

132.057 45437 0
45437 220.385 0
0    0    0

148.311 46346 0
46346 159.362 0
0    0    0

-225.176 45903.5 0
45903.5 -222.958 0
0    0    0

-8.64346 47123.1 0
47123.1 -1.00696 0
0    0    0

135.043 47181.5 0
47181.5 144.287 0
0    0    0

195.131 46075.2 0
46075.2 155.276 0
0    0    0

-36.3904 46595.2 0
46595.2 -32.0929 0
0    0    0

-57.1441 47140.7 0
47140.7 -260.214 0
0    0    0

97.847 46149.1 0
46149.1 56.0745 0
0    0    0

-39.3587 44952.1 0
44952.1 229.046 0
0    0    0

173.634 44552.1 0
44552.1 107.414 0
0    0    0

-172.293 46322.7 0
46322.7 -184.493 0
0    0    0

298.668 46176.6 0
46176.6 105.354 0
0    0    0

262.775 45862.5 0
45862.5 211.239 0
0    0    0

211.047 46929.4 0
46929.4 167.276 0
0    0    0

190.125 46465.8 0
46465.8 162.959 0
0    0    0

-346.892 46140.3 0
46140.3 -308.306 0
0    0    0

-110.098 46194.9 0
46194.9 68.7437 0
0    0    0

57.1077 45625.3 0
45625.3 245.304 0
0    0    0

269.127 46363 0
46363 178.728 0
0    0    0

-258.301 48028.6 0
48028.6 24.9264 0
0    0    0

69.2982 46929.5 0
46929.5 257.413 0
0    0    0

65.9815 46826.8 0
46826.8 -53.9862 0
0    0    0

239.51 47156.9 0
47156.9 53.1716 0
0    0    0

106.662 47549.2 0
47549.2 99.1498 0
0    0    0

-117.906 46889.4 0
46889.4 84.1114 0
0    0    0

-189.004 47464.1 0
47464.1 -97.3899 0
0    0    0

-197.467 35593.2 0
35593.2 -184.637 0
0    0    0

-226.958 34799.8 0
34799.8 -299.019 0
0    0    0

210.149 34775.1 0
34775.1 167.434 0
0    0    0

108.63 33382.1 0
33382.1 260.433 0
0    0    0

26.0911 34110.2 0
34110.2 -43.9241 0
0    0    0

-112.015 35813 0
35813 -319.24 0
0    0    0

29.9678 16987.6 0
16987.6 200.513 0
0    0    0

-134.242 17804.6 0
17804.6 6.41801 0
0    0    0

183.773 18453 0
18453 185.596 0
0    0    0

-31.6002 18075.8 0
18075.8 -141.605 0
0    0    0

289.621 14633.9 0
14633.9 365.25 0
0    0    0

-85.9668 14304.5 0
14304.5 -203.342 0
0    0    0

97.5767 14958.6 0
14958.6 -18.8765 0
0    0    0

172.151 14949.6 0
14949.6 410.581 0
0    0    0

-135.838 15729.3 0
15729.3 -140.158 0
0    0    0

80.6939 14352.5 0
14352.5 -299.045 0
0    0    0

17.1348 14603.3 0
14603.3 -108.702 0
0    0    0

-69.8401 14459.5 0
14459.5 -184.305 0
0    0    0

-169.315 15288.4 0
15288.4 -158.838 0
0    0    0

-314.244 14575.7 0
14575.7 -448.017 0
0    0    0

-140.611 14854.3 0
14854.3 -74.3136 0
0    0    0

266.036 13871.5 0
13871.5 174.354 0
0    0    0

159.908 12321.4 0
12321.4 17.1325 0
0    0    0

-104.613 13467 0
13467 -161.052 0
0    0    0

-139.923 13743.6 0
13743.6 27.5115 0
0    0    0

-93.0216 13839 0
13839 -226.822 0
0    0    0

5.51125 17092 0
17092 208.852 0
0    0    0

351.737 18850.5 0
18850.5 273.423 0
0    0    0

217.809 16475.5 0
16475.5 346.46 0
0    0    0

-10.236 17425.2 0
17425.2 -142.37 0
0    0    0

329.432 16514.6 0
16514.6 177.657 0
0    0    0

128.724 16870.8 0
16870.8 124.853 0
0    0    0

-34.3913 17708.4 0
17708.4 244.923 0
0    0    0

197.279 17549.4 0
17549.4 200.459 0
0    0    0

198.614 15810.1 0
15810.1 471.39 0
0    0    0

-300.851 17871.7 0
17871.7 -225.32 0
0    0    0

-137.701 17919.6 0
17919.6 -277.22 0
0    0    0

-43.6511 18577.1 0
18577.1 -169.823 0
0    0    0

-9.14411 17577.9 0
17577.9 127.13 0
0    0    0

162.204 17153.5 0
17153.5 -195.102 0
0    0    0

-255.178 18622.8 0
18622.8 -257.237 0
0    0    0

-228.908 19100.6 0
19100.6 42.1843 0
0    0    0

35.4586 17181 0
17181 -96.8554 0
0    0    0

303.477 18121.7 0
18121.7 93.1409 0
0    0    0

-280.855 16552.1 0
16552.1 34.0746 0
0    0    0

162.359 16556.1 0
16556.1 -88.5517 0
0    0    0

8.9703 16951 0
16951 -139.078 0
0    0    0

317.257 17483.5 0
17483.5 271.451 0
0    0    0

-42.5037 16876.6 0
16876.6 164.241 0
0    0    0

-423.298 17260.4 0
17260.4 -240.983 0
0    0    0

-82.5129 16357.5 0
16357.5 49.221 0
0    0    0

31.1575 17032.2 0
17032.2 354.416 0
0    0    0

-208.077 17676 0
17676 35.1842 0
0    0    0

-46.8355 17458.7 0
17458.7 196.134 0
0    0    0

216.342 16981.4 0
16981.4 60.2548 0
0    0    0

41.9325 17611.6 0
17611.6 45.7557 0
0    0    0

-104.13 18310 0
18310 -84.9772 0
0    0    0

-115.19 19110.1 0
19110.1 -284.461 0
0    0    0

-167.78 19633.8 0
19633.8 -331.09 0
0    0    0

72.245 19505.9 0
19505.9 353.363 0
0    0    0

187.334 21804.3 0
21804.3 153.851 0
0    0    0

11.9287 19885.2 0
19885.2 137.468 0
0    0    0

-35.3112 19822.9 0
19822.9 -215.817 0
0    0    0

277.56 20217.1 0
20217.1 379.181 0
0    0    0

34.5032 19446 0
19446 140.046 0
0    0    0

32.0056 20435.6 0
20435.6 23.0595 0
0    0    0

233.952 21386.5 0
21386.5 56.652 0
0    0    0

-133.557 20743.8 0
20743.8 -246.387 0
0    0    0

-328.94 20610.5 0
20610.5 -513.179 0
0    0    0

27.8281 21222.3 0
21222.3 -72.9342 0
0    0    0

166.726 20865 0
20865 203.185 0
0    0    0

-84.5636 21808.4 0
21808.4 -175.513 0
0    0    0

54.0868 15670.3 0
15670.3 -149.339 0
0    0    0

148.216 16874.3 0
16874.3 -38.9806 0
0    0    0

383.67 14343.3 0
14343.3 358.38 0
0    0    0

14.5491 16054.8 0
16054.8 160.075 0
0    0    0

176.524 16277.2 0
16277.2 -19.8959 0
0    0    0

-147.267 15744.1 0
15744.1 -286.647 0
0    0    0

217.389 20773.1 0
20773.1 338.117 0
0    0    0

167.495 18454.8 0
18454.8 -56.8808 0
0    0    0

-159.173 17643.1 0
17643.1 -223.069 0
0    0    0

-13.0812 18748 0
18748 157.054 0
0    0    0

129.447 17268.3 0
17268.3 132.415 0
0    0    0

166.714 17842 0
17842 68.6458 0
0    0    0

-52.5521 18002.5 0
18002.5 130.059 0
0    0    0

-44.5187 19470.6 0
19470.6 -159.703 0
0    0    0

-153.884 19930.7 0
19930.7 45.7549 0
0    0    0

-129.937 20253.2 0
20253.2 35.1218 0
0    0    0

85.6687 21165.1 0
21165.1 -225.137 0
0    0    0

48.3833 21476.7 0
21476.7 279.62 0
0    0    0

-121.778 15743.5 0
15743.5 -286.726 0
0    0    0

151.829 16223.1 0
16223.1 120.074 0
0    0    0

93.5785 16309.4 0
16309.4 -3.45399 0
0    0    0

-101.019 16452.9 0
16452.9 1.38887 0
0    0    0

-43.6673 21078.1 0
21078.1 -63.7656 0
0    0    0

-245.195 21293.1 0
21293.1 -67.9125 0
0    0    0

-208.705 15227.7 0
15227.7 -315.15 0
0    0    0

95.4159 16056.1 0
16056.1 -28.5311 0
0    0    0

-104.385 22309.7 0
22309.7 -228.506 0
0    0    0

-166.532 22766.9 0
22766.9 -293.624 0
0    0    0

-277.888 22193.7 0
22193.7 -155.081 0
0    0    0

-55.2448 23178.3 0
23178.3 56.9739 0
0    0    0

256.325 25213.1 0
25213.1 361.534 0
0    0    0

-53.2735 26589.3 0
26589.3 46.4096 0
0    0    0

169.652 26428.5 0
26428.5 31.1728 0
0    0    0

-134.523 26438.6 0
26438.6 121.774 0
0    0    0

-147.932 18503.1 0
18503.1 -71.3105 0
0    0    0

-38.0914 18940.6 0
18940.6 -61.9715 0
0    0    0

92.4967 18005.9 0
18005.9 112.616 0
0    0    0

89.426 17787 0
17787 -195.436 0
0    0    0

81.5369 16185.9 0
16185.9 362.384 0
0    0    0

-54.6941 15627.3 0
15627.3 -114.889 0
0    0    0

102.592 15525.5 0
15525.5 130.755 0
0    0    0

202.378 17512.5 0
17512.5 153.441 0
0    0    0

229.385 16238.3 0
16238.3 533.932 0
0    0    0

-277.59 17183.9 0
17183.9 -281.717 0
0    0    0

-330.461 17529.4 0
17529.4 -62.3555 0
0    0    0

247.72 16755.7 0
16755.7 362.604 0
0    0    0

-174.393 16489.7 0
16489.7 -279.245 0
0    0    0

-118.421 16770.2 0
16770.2 -217.905 0
0    0    0

186.961 17003.4 0
17003.4 97.8025 0
0    0    0

149.962 16833.6 0
16833.6 107.131 0
0    0    0

-235.135 15059 0
15059 -215.772 0
0    0    0

25.358 13044.2 0
13044.2 137.12 0
0    0    0

12.801 16665.2 0
16665.2 19.8036 0
0    0    0

102.571 16009.7 0
16009.7 -125.824 0
0    0    0

-33.4678 16691 0
16691 -4.49195 0
0    0    0

-132.19 16372.5 0
16372.5 373.322 0
0    0    0

-168.344 20107.2 0
20107.2 98.7384 0
0    0    0

-95.4433 21626 0
21626 -105.657 0
0    0    0

54.1311 12358.1 0
12358.1 27.1378 0
0    0    0

159.164 14821.8 0
14821.8 12.3818 0
0    0    0

-90.497 17019 0
17019 131.707 0
0    0    0

-337.552 17200.9 0
17200.9 50.7705 0
0    0    0

108.673 13755.9 0
13755.9 270.618 0
0    0    0

128.964 14206.4 0
14206.4 572.394 0
0    0    0

-114.284 13118.2 0
13118.2 25.2848 0
0    0    0

-245.978 16324.6 0
16324.6 -170.677 0
0    0    0

-168.151 14020.8 0
14020.8 -298.595 0
0    0    0

-204.338 14690.1 0
14690.1 -249.307 0
0    0    0

-258.439 14804.2 0
14804.2 -314.759 0
0    0    0

156.192 16540.2 0
16540.2 -60.581 0
0    0    0

-40.7624 15820.4 0
15820.4 -66.2117 0
0    0    0

256.994 15434.3 0
15434.3 124.709 0
0    0    0

169.019 14355.1 0
14355.1 280.54 0
0    0    0

54.1529 15246.8 0
15246.8 -240.06 0
0    0    0

36.6909 15379.9 0
15379.9 -241.703 0
0    0    0

-70.5927 15118.6 0
15118.6 67.5404 0
0    0    0

-92.5417 15490.5 0
15490.5 75.6632 0
0    0    0

145.374 15374.9 0
15374.9 52.0453 0
0    0    0

-39.4859 15472.3 0
15472.3 191.865 0
0    0    0

-110.431 14977.7 0
14977.7 -26.2814 0
0    0    0

-218.102 16423.8 0
16423.8 61.7663 0
0    0    0

-113.074 15824 0
15824 -16.3243 0
0    0    0

84.974 24696.1 0
24696.1 12.1209 0
0    0    0

141.066 23178.6 0
23178.6 -13.9279 0
0    0    0

-309.027 26712.2 0
26712.2 -232.562 0
0    0    0

50.7379 25802.4 0
25802.4 163.618 0
0    0    0

-139.333 24063.8 0
24063.8 -11.9707 0
0    0    0

-237.214 23132.1 0
23132.1 -67.7006 0
0    0    0

-139.916 50435.3 0
50435.3 23.0454 0
0    0    0

-169.047 50909.2 0
50909.2 -344.634 0
0    0    0

206.037 50588.2 0
50588.2 201.744 0
0    0    0

120.864 51122.7 0
51122.7 292.107 0
0    0    0

-264.497 49689.9 0
49689.9 -26.9309 0
0    0    0

255.841 49691.8 0
49691.8 49.186 0
0    0    0

-20.1392 51634.4 0
51634.4 -151.736 0
0    0    0

-277.11 50155.3 0
50155.3 -490.864 0
0    0    0

4.51312 51162.1 0
51162.1 129.257 0
0    0    0

278.896 50293.3 0
50293.3 164.074 0
0    0    0

-3.13699 50801.6 0
50801.6 72.8389 0
0    0    0

-293.497 49476.6 0
49476.6 -122.003 0
0    0    0

31.8713 51108 0
51108 -89.5894 0
0    0    0

136.094 50387.9 0
50387.9 269.402 0
0    0    0

175.879 50704.8 0
50704.8 41.993 0
0    0    0

-270.485 50676.6 0
50676.6 -238.077 0
0    0    0

-58.5843 50536.9 0
50536.9 -104.203 0
0    0    0

242.25 50509 0
50509 216.157 0
0    0    0

-169.93 50583.5 0
50583.5 -176.04 0
0    0    0

16.4363 50014.5 0
50014.5 -159.531 0
0    0    0

122.948 51025.7 0
51025.7 -37.5204 0
0    0    0

37.2337 50244.5 0
50244.5 240.785 0
0    0    0

-199.808 50394.2 0
50394.2 -174.263 0
0    0    0

-200.392 50857.7 0
50857.7 8.35821 0
0    0    0

270.888 50411.1 0
50411.1 398.15 0
0    0    0

8.44434 50078.7 0
50078.7 -159.839 0
0    0    0

-52.5536 49757.2 0
49757.2 178.454 0
0    0    0

-103.412 48707.2 0
48707.2 -140.893 0
0    0    0

22.9415 52525.2 0
52525.2 181.286 0
0    0    0

28.5453 52716.4 0
52716.4 178.232 0
0    0    0

-72.0558 57351.6 0
57351.6 -330.562 0
0    0    0

-158.692 58013.2 0
58013.2 -107.926 0
0    0    0

-209.132 58891.5 0
58891.5 152.563 0
0    0    0

-76.3723 59316.6 0
59316.6 23.1324 0
0    0    0

-285.251 58045.4 0
58045.4 -416.671 0
0    0    0

-185.257 58166.3 0
58166.3 -303.303 0
0    0    0

219.825 57809.1 0
57809.1 268.822 0
0    0    0

-126.753 58843.6 0
58843.6 -237.701 0
0    0    0

-99.2677 59229.6 0
59229.6 -325.686 0
0    0    0

240.957 58412.8 0
58412.8 228.962 0
0    0    0

210.67 59496.1 0
59496.1 216.15 0
0    0    0

221.643 59084.8 0
59084.8 286.384 0
0    0    0

-275.776 58769.6 0
58769.6 -487.739 0
0    0    0

146.698 58934.6 0
58934.6 220.893 0
0    0    0

-317.617 54208.1 0
54208.1 -177.721 0
0    0    0

210.896 53779.6 0
53779.6 207.57 0
0    0    0

247.384 53829.2 0
53829.2 108.281 0
0    0    0

56.6976 54522.2 0
54522.2 -114.016 0
0    0    0

133.027 56509.4 0
56509.4 152.432 0
0    0    0

62.0385 54912.6 0
54912.6 23.7004 0
0    0    0

207.275 50920 0
50920 200.786 0
0    0    0

261.34 50522.5 0
50522.5 209.568 0
0    0    0

-187.59 51131.9 0
51131.9 52.3442 0
0    0    0

254.054 50536.4 0
50536.4 297.325 0
0    0    0

-197.179 49879.7 0
49879.7 -251.636 0
0    0    0

-69.8114 50781.2 0
50781.2 -220.176 0
0    0    0

-86.5511 49608.4 0
49608.4 274.53 0
0    0    0

127.34 49153 0
49153 146.647 0
0    0    0

-15.4542 49142.6 0
49142.6 130.014 0
0    0    0

-7.05884 49461.8 0
49461.8 -94.7559 0
0    0    0

-26.4701 48352.5 0
48352.5 -188.196 0
0    0    0

121.803 48361.2 0
48361.2 -126.922 0
0    0    0

60.7731 47966 0
47966 -20.3763 0
0    0    0

-228.174 47301.2 0
47301.2 -126.55 0
0    0    0

74.0936 47131.7 0
47131.7 205.815 0
0    0    0

-178.145 48369.1 0
48369.1 -154.472 0
0    0    0

-251.676 47710 0
47710 -302.407 0
0    0    0

107.587 47958.1 0
47958.1 -23.2449 0
0    0    0

-104.408 48919.2 0
48919.2 -402.286 0
0    0    0

-213.482 48315.2 0
48315.2 -431.679 0
0    0    0

186.893 48622 0
48622 268.021 0
0    0    0

263.724 48564.6 0
48564.6 224.082 0
0    0    0

71.7314 50403 0
50403 -183.04 0
0    0    0

90.8728 49576 0
49576 369.085 0
0    0    0

209.282 48318.1 0
48318.1 76.5236 0
0    0    0

-204.958 48876 0
48876 -41.0578 0
0    0    0

109.699 49832.4 0
49832.4 322.393 0
0    0    0

11.5086 49644.7 0
49644.7 351.42 0
0    0    0

-215.796 50062.1 0
50062.1 -465.625 0
0    0    0

-127.835 49315.9 0
49315.9 -373.364 0
0    0    0

-160.442 48903.7 0
48903.7 -134.201 0
0    0    0

42.1571 49021 0
49021 -29.8449 0
0    0    0

35.8185 50920.1 0
50920.1 242.566 0
0    0    0

133.617 49919.3 0
49919.3 133.382 0
0    0    0

-57.9672 51357.7 0
51357.7 98.4245 0
0    0    0

30.4645 50774.9 0
50774.9 199.1 0
0    0    0

4.32102 50650.9 0
50650.9 -216.629 0
0    0    0

182.982 50126 0
50126 64.5019 0
0    0    0

30.6905 50391.4 0
50391.4 -174.504 0
0    0    0

216.167 50326.5 0
50326.5 460.247 0
0    0    0

150.65 51622.9 0
51622.9 -8.85334 0
0    0    0

274.494 51586.6 0
51586.6 286.408 0
0    0    0

-281.513 48031.8 0
48031.8 -140.121 0
0    0    0

-296.016 49922.2 0
49922.2 -343.956 0
0    0    0

-96.3112 51166.2 0
51166.2 -168.231 0
0    0    0

7.16685 50858.5 0
50858.5 64.135 0
0    0    0

-80.1563 50540.6 0
50540.6 105.965 0
0    0    0

-124.019 50035.2 0
50035.2 -246.315 0
0    0    0

95.6319 50845.6 0
50845.6 51.8294 0
0    0    0

-136.107 50201.7 0
50201.7 11.3466 0
0    0    0

175.393 52033.4 0
52033.4 16.0905 0
0    0    0

74.2217 51222.9 0
51222.9 1.25249 0
0    0    0

251.677 52215 0
52215 255.226 0
0    0    0

-233.097 51335.9 0
51335.9 -200.144 0
0    0    0

74.6563 52445 0
52445 -65.9866 0
0    0    0

-122.46 52073.3 0
52073.3 -7.50593 0
0    0    0

81.1131 53202.2 0
53202.2 188.918 0
0    0    0

-12.9776 52751.6 0
52751.6 134.636 0
0    0    0

25.0499 51612 0
51612 74.3417 0
0    0    0

-256.517 51958.9 0
51958.9 -355.078 0
0    0    0

-109.565 52494.7 0
52494.7 -26.9335 0
0    0    0

292.588 51946.8 0
51946.8 87.4892 0
0    0    0

-230.324 53520.4 0
53520.4 -267.509 0
0    0    0

-229.957 52424.5 0
52424.5 -90.798 0
0    0    0

-139.496 54784.7 0
54784.7 -57.0879 0
0    0    0

244.426 55991 0
55991 357.602 0
0    0    0

-182.958 54552.6 0
54552.6 -39.9684 0
0    0    0

-30.7233 53083.7 0
53083.7 -283.147 0
0    0    0

-173.121 64309.8 0
64309.8 24.6475 0
0    0    0

-118.484 64817.4 0
64817.4 43.9266 0
0    0    0

10.9921 62632.7 0
62632.7 91.9536 0
0    0    0

-121.287 62982.1 0
62982.1 -87.603 0
0    0    0

167.963 63135.2 0
63135.2 310.227 0
0    0    0

184.509 62619.1 0
62619.1 70.5733 0
0    0    0

96.5872 58305.8 0
58305.8 304.152 0
0    0    0

49.7991 58224.8 0
58224.8 340.53 0
0    0    0

280.992 62680.3 0
62680.3 230.651 0
0    0    0

223.567 62050.5 0
62050.5 -114.838 0
0    0    0

12.6115 62961.2 0
62961.2 89.0797 0
0    0    0

212.452 63872.3 0
63872.3 98.5284 0
0    0    0

116.932 62903.5 0
62903.5 268.847 0
0    0    0

170.879 62278 0
62278 189.094 0
0    0    0

304.156 63391.4 0
63391.4 30.5748 0
0    0    0

74.2985 64434.1 0
64434.1 173.363 0
0    0    0

-76.0765 65210.6 0
65210.6 -209.469 0
0    0    0

-320.467 63103.2 0
63103.2 -302.874 0
0    0    0

-223.999 64184.6 0
64184.6 -106.688 0
0    0    0

-170.133 64000.4 0
64000.4 11.5143 0
0    0    0

153.121 64140.3 0
64140.3 -11.8521 0
0    0    0

-152.12 64626.8 0
64626.8 -236.965 0
0    0    0

77.6461 63957.3 0
63957.3 181.174 0
0    0    0

-183.915 64767.1 0
64767.1 -306.858 0
0    0    0

182.074 64335.4 0
64335.4 195.336 0
0    0    0

143.151 64923.1 0
64923.1 334.018 0
0    0    0

231.598 64456.6 0
64456.6 62.8496 0
0    0    0

197.806 66066.5 0
66066.5 518.158 0
0    0    0

-194.454 64322.7 0
64322.7 -74.9597 0
0    0    0

17.3576 65069.9 0
65069.9 -183.869 0
0    0    0

68.4746 63544.9 0
63544.9 -21.7016 0
0    0    0

-15.7751 64631.8 0
64631.8 -181.563 0
0    0    0

168.387 63713.5 0
63713.5 130.368 0
0    0    0

170.942 64217.1 0
64217.1 313.555 0
0    0    0

137.62 64442.2 0
64442.2 149.26 0
0    0    0

-134.315 64010.4 0
64010.4 -247.517 0
0    0    0

76.8356 65398.3 0
65398.3 -116.846 0
0    0    0

-17.3297 65438.6 0
65438.6 61.1194 0
0    0    0

170.199 63190 0
63190 317.152 0
0    0    0

142.151 63724.8 0
63724.8 167.347 0
0    0    0

-260.69 63525.2 0
63525.2 -418.352 0
0    0    0

266.901 63719.8 0
63719.8 86.874 0
0    0    0

56.9405 64541.5 0
64541.5 -10.8439 0
0    0    0

260.631 65272.6 0
65272.6 343.448 0
0    0    0

-261.074 64684.6 0
64684.6 -134.505 0
0    0    0

-393.53 65022.4 0
65022.4 -150.691 0
0    0    0

14.8913 56316.5 0
56316.5 166.957 0
0    0    0

-48.3147 63344.3 0
63344.3 -167.361 0
0    0    0

-96.4986 56073.8 0
56073.8 104.612 0
0    0    0

168.041 56070.2 0
56070.2 -244.188 0
0    0    0

-153.118 55873.2 0
55873.2 -122.943 0
0    0    0

133.116 55476.6 0
55476.6 447.486 0
0    0    0

99.4211 56123.5 0
56123.5 -151.931 0
0    0    0

178.106 54460.1 0
54460.1 59.2483 0
0    0    0

245.064 55575.7 0
55575.7 373.468 0
0    0    0

-138.778 57158.3 0
57158.3 -201.562 0
0    0    0

-195.321 56789.6 0
56789.6 -344.294 0
0    0    0

-192.19 58192.3 0
58192.3 -300.965 0
0    0    0

-24.5438 57652.5 0
57652.5 -136.216 0
0    0    0

169.908 58367.3 0
58367.3 96.9859 0
0    0    0

218.582 57814.8 0
57814.8 508.634 0
0    0    0

123.419 57398.8 0
57398.8 287.977 0
0    0    0

-182.305 58007.6 0
58007.6 -342.528 0
0    0    0

89.7762 57078 0
57078 -59.6485 0
0    0    0

45.7571 56963.7 0
56963.7 106.767 0
0    0    0

64.8332 58879.1 0
58879.1 151.277 0
0    0    0

55.9835 55970.2 0
55970.2 130.628 0
0    0    0

191.044 58475.7 0
58475.7 147.187 0
0    0    0

66.6549 66145.4 0
66145.4 162.718 0
0    0    0

270.327 66907.4 0
66907.4 178.143 0
0    0    0

252.387 67108 0
67108 438.474 0
0    0    0

-113.879 67755.4 0
67755.4 -231.455 0
0    0    0

13.7541 69465.3 0
69465.3 56.3351 0
0    0    0

27.9036 67421.9 0
67421.9 -108.042 0
0    0    0

-29.5381 68272.1 0
68272.1 225.769 0
0    0    0

277.554 68065.1 0
68065.1 219.942 0
0    0    0

-60.3986 71499.5 0
71499.5 -92.9391 0
0    0    0

-148.973 69920.5 0
69920.5 42.5032 0
0    0    0

201.684 67774.6 0
67774.6 131.845 0
0    0    0

-162.274 68734 0
68734 -420.558 0
0    0    0

-235.729 67577.6 0
67577.6 -458.17 0
0    0    0

119.393 68805.9 0
68805.9 215.613 0
0    0    0

-279.979 67710.9 0
67710.9 -242.678 0
0    0    0

85.3904 68467.9 0
68467.9 -170.762 0
0    0    0

-169.743 69007 0
69007 -260.412 0
0    0    0

-264.207 69476.6 0
69476.6 -180.939 0
0    0    0

-266.701 68868.3 0
68868.3 -164.97 0
0    0    0

-267.003 68315.1 0
68315.1 -251.907 0
0    0    0

-207.85 68355.1 0
68355.1 -75.6889 0
0    0    0

117.047 69081 0
69081 74.5688 0
0    0    0

7.85923 69688.5 0
69688.5 140.788 0
0    0    0

-15.5537 69545.7 0
69545.7 251.52 0
0    0    0

-165.256 67791.8 0
67791.8 -242.581 0
0    0    0

-97.0651 68155 0
68155 -57.3742 0
0    0    0

38.9446 68046.7 0
68046.7 204.629 0
0    0    0

131.464 69975 0
69975 87.7471 0
0    0    0

-110.348 68213.7 0
68213.7 -67.5895 0
0    0    0

318.811 70032.8 0
70032.8 58.0447 0
0    0    0

-91.2305 69799.1 0
69799.1 -96.9341 0
0    0    0

112.556 70331.9 0
70331.9 68.9752 0
0    0    0

198.79 67036.2 0
67036.2 -17.4462 0
0    0    0

-86.3164 67997.5 0
67997.5 -59.7413 0
0    0    0

103.821 68335.2 0
68335.2 -63.2527 0
0    0    0

-31.4192 68977.5 0
68977.5 -176.987 0
0    0    0

230.971 69282.7 0
69282.7 -39.7382 0
0    0    0

-0.953611 70010.6 0
70010.6 -61.566 0
0    0    0

-232.029 69065.7 0
69065.7 -255.044 0
0    0    0

115.762 69518.2 0
69518.2 -146.607 0
0    0    0

-2.00316 71135.7 0
71135.7 -159.208 0
0    0    0

10.0267 70718.7 0
70718.7 -133.715 0
0    0    0

100.722 67414.4 0
67414.4 190.192 0
0    0    0

277.405 67928.6 0
67928.6 290.043 0
0    0    0

195.092 68757 0
68757 301.101 0
0    0    0

-61.0792 69284 0
69284 27.5271 0
0    0    0

119.102 70210.9 0
70210.9 -7.87987 0
0    0    0

-58.9857 70028.1 0
70028.1 75.5817 0
0    0    0

-119.532 70770.8 0
70770.8 27.5036 0
0    0    0

-38.0901 72018.4 0
72018.4 20.6618 0
0    0    0

-175.086 71111.1 0
71111.1 -383.017 0
0    0    0

-122.717 71775.7 0
71775.7 -80.3463 0
0    0    0

188.357 71332.1 0
71332.1 280.59 0
0    0    0

136.475 70900.7 0
70900.7 -19.7866 0
0    0    0

51.2403 69825.9 0
69825.9 -112.27 0
0    0    0

273.339 69634.1 0
69634.1 74.1999 0
0    0    0

189.349 71248.3 0
71248.3 24.4042 0
0    0    0

-170.189 71490.9 0
71490.9 -96.8964 0
0    0    0

264.853 71003.8 0
71003.8 223.202 0
0    0    0

-148.408 70823.5 0
70823.5 -339.663 0
0    0    0

-228.197 70409.1 0
70409.1 -231.18 0
0    0    0

12.3256 71359.8 0
71359.8 -424.493 0
0    0    0

-113.6 70310.2 0
70310.2 153.925 0
0    0    0

-237.606 70439.5 0
70439.5 -141.383 0
0    0    0

-107.555 71299.1 0
71299.1 137.278 0
0    0    0

114.67 71421.9 0
71421.9 276.791 0
0    0    0

-193.026 71761.4 0
71761.4 -116.661 0
0    0    0

3.85692 72299.6 0
72299.6 151.89 0
0    0    0

302.513 70532.9 0
70532.9 405.486 0
0    0    0

121.392 69884.3 0
69884.3 124.988 0
0    0    0

262.416 70124.2 0
70124.2 237.488 0
0    0    0

240.814 70659.6 0
70659.6 276.772 0
0    0    0

-72.1863 72631.2 0
72631.2 152.516 0
0    0    0

-60.9308 71747.1 0
71747.1 -331.797 0
0    0    0

244.903 70796.2 0
70796.2 419.024 0
0    0    0

7.65616 71479.7 0
71479.7 211.856 0
0    0    0

-59.4654 70353.6 0
70353.6 -114.869 0
0    0    0

-321.202 71144.6 0
71144.6 -354.717 0
0    0    0

-144.753 69795.7 0
69795.7 -10.7352 0
0    0    0

32.9855 68644.9 0
68644.9 276.758 0
0    0    0

103.131 71227.1 0
71227.1 139.068 0
0    0    0

143.241 72603.3 0
72603.3 72.9752 0
0    0    0

264.562 70867.6 0
70867.6 413.936 0
0    0    0

-141.763 71863 0
71863 -233.977 0
0    0    0

62.9053 69349.6 0
69349.6 -79.3589 0
0    0    0

-134.032 68999.5 0
68999.5 -162.593 0
0    0    0

-24.6199 69494.6 0
69494.6 276.376 0
0    0    0

198.261 69250.2 0
69250.2 -73.2592 0
0    0    0

-203.263 70985 0
70985 -311.861 0
0    0    0

328.869 71502.4 0
71502.4 447.734 0
0    0    0

-193.145 69620.5 0
69620.5 -32.7596 0
0    0    0

32.226 68945.4 0
68945.4 -153.353 0
0    0    0

-118.368 70113.4 0
70113.4 -30.1704 0
0    0    0

-112.29 69278.8 0
69278.8 149.371 0
0    0    0

120.946 71045.8 0
71045.8 -99.0902 0
0    0    0

-168.495 69556.9 0
69556.9 -281.24 0
0    0    0

-80.6064 70132.9 0
70132.9 88.4299 0
0    0    0

65.6154 67629.4 0
67629.4 169.008 0
0    0    0

-60.2448 71543 0
71543 115.525 0
0    0    0

82.676 69027.8 0
69027.8 -86.0765 0
0    0    0

-68.4451 69517.1 0
69517.1 -342.782 0
0    0    0

121.572 69290.4 0
69290.4 258.353 0
0    0    0

-59.3549 69495.6 0
69495.6 -61.2748 0
0    0    0

193.545 66871.5 0
66871.5 296.588 0
0    0    0

152.349 72535.9 0
72535.9 14.0967 0
0    0    0

-23.6787 73752.3 0
73752.3 -290.08 0
0    0    0

32.0467 74109.5 0
74109.5 -259.133 0
0    0    0

-250.984 73297.2 0
73297.2 -387.613 0
0    0    0

-150.376 74203.6 0
74203.6 -190.355 0
0    0    0

-122.686 75446.6 0
75446.6 -7.19018 0
0    0    0

-173.255 74528.2 0
74528.2 -281.708 0
0    0    0

162.111 73248.2 0
73248.2 -5.484 0
0    0    0

-180.689 73768.5 0
73768.5 -221.692 0
0    0    0

-61.5736 74181.9 0
74181.9 213.687 0
0    0    0

32.8678 74276.5 0
74276.5 -62.0122 0
0    0    0

214.743 74279.2 0
74279.2 285.352 0
0    0    0

225.686 74698.1 0
74698.1 184.774 0
0    0    0

-64.176 74631.9 0
74631.9 47.7351 0
0    0    0

-158.71 71210.5 0
71210.5 -239.676 0
0    0    0

-130.907 70422.3 0
70422.3 -170.871 0
0    0    0

70.3398 69533.8 0
69533.8 -72.4414 0
0    0    0

61.9374 69706.5 0
69706.5 34.1241 0
0    0    0

95.1348 69957.5 0
69957.5 74.8067 0
0    0    0

-226.347 70879.1 0
70879.1 -105.85 0
0    0    0

163.568 70597.9 0
70597.9 144.754 0
0    0    0

-105.751 71848.7 0
71848.7 -46.8283 0
0    0    0

-129.814 70451.9 0
70451.9 -272.63 0
0    0    0

-76.2222 70488.6 0
70488.6 -190.342 0
0    0    0

-120.556 71104.4 0
71104.4 -56.3405 0
0    0    0

326.284 70820.1 0
70820.1 446.739 0
0    0    0

70.6309 65117.8 0
65117.8 1.82277 0
0    0    0

193.502 64749.9 0
64749.9 297.057 0
0    0    0

-20.781 64718.5 0
64718.5 -88.29 0
0    0    0

178.33 65218.6 0
65218.6 444.716 0
0    0    0

60.7622 65393.5 0
65393.5 -180.065 0
0    0    0

-13.3712 65569.1 0
65569.1 157.498 0
0    0    0

-112.584 65053.8 0
65053.8 -172.444 0
0    0    0

-48.2625 65872.4 0
65872.4 -126.242 0
0    0    0

287.434 65615.3 0
65615.3 110.344 0
0    0    0

58.2716 66244.5 0
66244.5 117.471 0
0    0    0

-83.8182 66293.6 0
66293.6 64.8169 0
0    0    0

-11.6539 66437.4 0
66437.4 183.841 0
0    0    0

-123.139 69080 0
69080 -27.8403 0
0    0    0

214.877 66779.8 0
66779.8 149.558 0
0    0    0

73.7957 66068 0
66068 -119.05 0
0    0    0

63.3538 67313.6 0
67313.6 128.073 0
0    0    0

-27.2097 65926.9 0
65926.9 -271.711 0
0    0    0

79.6341 66821.2 0
66821.2 244.883 0
0    0    0

-22.9283 66622.2 0
66622.2 -225.779 0
0    0    0

-174.815 66869 0
66869 -18.0598 0
0    0    0

131.221 66683.8 0
66683.8 28.735 0
0    0    0

-311.807 67599.3 0
67599.3 -147.2 0
0    0    0

40.1554 65791.3 0
65791.3 149.053 0
0    0    0

77.2796 66402.7 0
66402.7 55.1888 0
0    0    0

94.052 66198.1 0
66198.1 -64.3208 0
0    0    0

-134.788 66974.2 0
66974.2 -108.811 0
0    0    0

-179.795 66011.8 0
66011.8 -130.158 0
0    0    0

-42.2096 66199.7 0
66199.7 185.046 0
0    0    0

-235.84 68447.7 0
68447.7 -137.029 0
0    0    0

93.5042 69345.7 0
69345.7 -71.651 0
0    0    0

16.8641 66320.1 0
66320.1 135.617 0
0    0    0

-109.854 65943.4 0
65943.4 20.1907 0
0    0    0

56.7114 67948.8 0
67948.8 60.2361 0
0    0    0

173.916 67293.6 0
67293.6 96.9222 0
0    0    0

-171.401 67130 0
67130 -98.8673 0
0    0    0

92.832 67626.4 0
67626.4 -60.8716 0
0    0    0

44.0795 68664.7 0
68664.7 160.488 0
0    0    0

-176.707 67836.4 0
67836.4 -357.05 0
0    0    0

-51.9731 68900.1 0
68900.1 108.329 0
0    0    0

192.286 68050 0
68050 453.045 0
0    0    0

26.1828 67384.8 0
67384.8 -374.566 0
0    0    0

195.661 68144.2 0
68144.2 366.457 0
0    0    0

-189.172 67015.7 0
67015.7 -385.646 0
0    0    0

-157.544 67940 0
67940 -207.92 0
0    0    0

-170.807 68534 0
68534 -273.727 0
0    0    0

8.61249 68818.9 0
68818.9 197.576 0
0    0    0

77.91 67986.2 0
67986.2 -127.862 0
0    0    0

58.1233 68363.5 0
68363.5 -56.2533 0
0    0    0

-117.728 69006 0
69006 -179.433 0
0    0    0

133.37 68698.8 0
68698.8 173.279 0
0    0    0

264.696 68781.9 0
68781.9 451.013 0
0    0    0

78.6525 68162.7 0
68162.7 248.778 0
0    0    0

-147.315 69108.4 0
69108.4 -227.995 0
0    0    0

-236.759 68523.2 0
68523.2 -386.367 0
0    0    0

3.47212 69427.4 0
69427.4 194.895 0
0    0    0

141.107 69166.2 0
69166.2 118.232 0
0    0    0

-165.157 66576.3 0
66576.3 -16.0609 0
0    0    0

181.949 65627.2 0
65627.2 22.8109 0
0    0    0

-229.441 65475.6 0
65475.6 -113.053 0
0    0    0

117.738 65730.8 0
65730.8 129.114 0
0    0    0

202.423 66681 0
66681 233.999 0
0    0    0

183.774 67233.9 0
67233.9 351.679 0
0    0    0

-78.4813 67685.6 0
67685.6 28.5532 0
0    0    0

255.361 68021.8 0
68021.8 295.571 0
0    0    0

-24.1575 68788.9 0
68788.9 64.0576 0
0    0    0

-179.392 69028 0
69028 -266.402 0
0    0    0

108.239 67647.9 0
67647.9 101.344 0
0    0    0

100.817 67614.2 0
67614.2 -96.6708 0
0    0    0

2.94249 67350 0
67350 185.961 0
0    0    0

266.842 67791.8 0
67791.8 79.145 0
0    0    0

282.092 68658.3 0
68658.3 99.5089 0
0    0    0

-367.297 68428.4 0
68428.4 -300.147 0
0    0    0

-117.272 67133.1 0
67133.1 -384.16 0
0    0    0

-149.044 67540.4 0
67540.4 -178.196 0
0    0    0

8.17586 71106.7 0
71106.7 -142.083 0
0    0    0

-51.4506 71184.2 0
71184.2 -7.77739 0
0    0    0

-265.699 70781.3 0
70781.3 -155.233 0
0    0    0

-179.017 71568.9 0
71568.9 -246.356 0
0    0    0

-69.1036 66968.7 0
66968.7 214.486 0
0    0    0

-186.885 66098.1 0
66098.1 -343.048 0
0    0    0

138.178 67591.6 0
67591.6 -8.17239 0
0    0    0

249.652 66302.1 0
66302.1 257.811 0
0    0    0

-242.936 65467.6 0
65467.6 -130.418 0
0    0    0

94.2531 65064.6 0
65064.6 140.211 0
0    0    0

64.9163 67283.4 0
67283.4 151.471 0
0    0    0

-254.879 67323.8 0
67323.8 -492.935 0
0    0    0

-251.423 48904.8 0
48904.8 -115.959 0
0    0    0

68.2086 49345 0
49345 201.586 0
0    0    0

204.514 49472 0
49472 293.307 0
0    0    0

249.31 47929 0
47929 288.846 0
0    0    0

-210.368 49342.9 0
49342.9 -360.659 0
0    0    0

234.605 49674 0
49674 235.227 0
0    0    0

-322.732 45860.3 0
45860.3 -321.553 0
0    0    0

-58.8775 46121.7 0
46121.7 -276.751 0
0    0    0

190.788 47325.2 0
47325.2 358.019 0
0    0    0

114.128 46613 0
46613 194.076 0
0    0    0

85.9892 46736 0
46736 257.363 0
0    0    0

-3.46583 47107.2 0
47107.2 -138.052 0
0    0    0

-135.989 47000.2 0
47000.2 -416.909 0
0    0    0

-14.4464 47626.9 0
47626.9 -151.122 0
0    0    0

-112.527 47538.3 0
47538.3 -279.181 0
0    0    0

-37.6285 47403 0
47403 260.359 0
0    0    0

163.693 49049.7 0
49049.7 361.212 0
0    0    0

-139.23 47687.9 0
47687.9 -232.581 0
0    0    0

293.145 47961.8 0
47961.8 360.016 0
0    0    0

-163.031 46620.1 0
46620.1 -23.9955 0
0    0    0

74.6889 49936.4 0
49936.4 48.413 0
0    0    0

-86.9104 48358.8 0
48358.8 -394.782 0
0    0    0

-72.7931 49847.6 0
49847.6 -197.21 0
0    0    0

83.0636 48837.9 0
48837.9 -94.1025 0
0    0    0

-176.8 48182.4 0
48182.4 -338.245 0
0    0    0

-133.162 47729.8 0
47729.8 -190.231 0
0    0    0

-100.656 48666.8 0
48666.8 -248.418 0
0    0    0

72.9933 48550.1 0
48550.1 265.177 0
0    0    0

10.0142 48566.5 0
48566.5 -298.929 0
0    0    0

181.13 47753.8 0
47753.8 244.997 0
0    0    0

-441.197 48752.8 0
48752.8 -859.207 0
0    0    0

152.527 48233.1 0
48233.1 181.349 0
0    0    0

204.652 48419.1 0
48419.1 596.291 0
0    0    0

-213.997 48798.7 0
48798.7 -130.751 0
0    0    0

-171.398 47694.1 0
47694.1 -211.818 0
0    0    0

127.918 48149.7 0
48149.7 385.938 0
0    0    0

103.359 49257.1 0
49257.1 38.2254 0
0    0    0

-236.3 49898.5 0
49898.5 -410.803 0
0    0    0

344.153 49077.3 0
49077.3 733.558 0
0    0    0

10.4839 48629.5 0
48629.5 -112.196 0
0    0    0

-111.613 49228 0
49228 -538.163 0
0    0    0

128.678 50694.1 0
50694.1 303.195 0
0    0    0

156.315 49719.8 0
49719.8 284.639 0
0    0    0

37.7585 49288.5 0
49288.5 24.5506 0
0    0    0

178.546 45505.2 0
45505.2 293.904 0
0    0    0

-257.386 45717.7 0
45717.7 -310.349 0
0    0    0

-289.052 46574.5 0
46574.5 -455.903 0
0    0    0

207.871 44889.2 0
44889.2 140.307 0
0    0    0

-198.605 45685.5 0
45685.5 -223.641 0
0    0    0

-212.21 44543.1 0
44543.1 191.126 0
0    0    0

-1.88496 42499.9 0
42499.9 -234.469 0
0    0    0

-63.3472 42904 0
42904 77.4728 0
0    0    0

-34.2954 44883.8 0
44883.8 72.7721 0
0    0    0

-194.404 43514 0
43514 14.1351 0
0    0    0

-122.731 43733.6 0
43733.6 -107.81 0
0    0    0

-186.763 44373.4 0
44373.4 -173.013 0
0    0    0

193.559 43059.2 0
43059.2 311.065 0
0    0    0

-107.963 41939.5 0
41939.5 66.4224 0
0    0    0

240.52 42925.5 0
42925.5 406.753 0
0    0    0

185.488 42203.5 0
42203.5 186.73 0
0    0    0

228.998 41522.8 0
41522.8 -113.532 0
0    0    0

-22.1997 41680 0
41680 -152.934 0
0    0    0

-207.905 42289.5 0
42289.5 -227.507 0
0    0    0

-190.531 41674.6 0
41674.6 -55.2478 0
0    0    0

146.296 40811.8 0
40811.8 72.8808 0
0    0    0

-186.897 40187.7 0
40187.7 -171.175 0
0    0    0

83.4392 40849.5 0
40849.5 317.912 0
0    0    0

-71.9208 40574.2 0
40574.2 119.155 0
0    0    0

69.4835 40159.7 0
40159.7 -130.601 0
0    0    0

-49.6491 40577.6 0
40577.6 -163.308 0
0    0    0

143.049 41691.6 0
41691.6 183.866 0
0    0    0

207.664 40926.9 0
40926.9 288.058 0
0    0    0

252.106 39931 0
39931 25.7791 0
0    0    0

-281.372 41298.1 0
41298.1 -286.369 0
0    0    0

111.477 40220.4 0
40220.4 -127.778 0
0    0    0

38.4977 40543.5 0
40543.5 248.509 0
0    0    0

-22.0843 42608.1 0
42608.1 -258.63 0
0    0    0

227.758 41598.9 0
41598.9 244.41 0
0    0    0

-47.2104 41447 0
41447 78.0537 0
0    0    0

39.1375 41218.8 0
41218.8 -86.6661 0
0    0    0

-287.313 43266.7 0
43266.7 -380.805 0
0    0    0

-23.9488 43692.3 0
43692.3 218.365 0
0    0    0

222.542 43579.6 0
43579.6 438.834 0
0    0    0

-101.672 42618.1 0
42618.1 4.4453 0
0    0    0

-208.204 43977.7 0
43977.7 -240.685 0
0    0    0

165.58 42799.8 0
42799.8 101.772 0
0    0    0

156.82 42098 0
42098 -56.5594 0
0    0    0

-142.686 42356.3 0
42356.3 -219.45 0
0    0    0

-59.5768 43407.2 0
43407.2 -168.902 0
0    0    0

152.41 43124.3 0
43124.3 44.8977 0
0    0    0

-153.631 42467.5 0
42467.5 49.9393 0
0    0    0

144.255 41494.5 0
41494.5 351.583 0
0    0    0

242.545 44094.8 0
44094.8 21.1963 0
0    0    0

-232.017 43324.5 0
43324.5 -319.459 0
0    0    0

151.475 44617.3 0
44617.3 308.606 0
0    0    0

230.665 43525.3 0
43525.3 247.596 0
0    0    0

-73.5955 42999.7 0
42999.7 -350.978 0
0    0    0

-95.1767 42176.2 0
42176.2 119.251 0
0    0    0

-456.202 44277.2 0
44277.2 -181.263 0
0    0    0

-123.564 44001.6 0
44001.6 54.4754 0
0    0    0

-276.631 43084.3 0
43084.3 -493.487 0
0    0    0

-221.51 41934.6 0
41934.6 -330.117 0
0    0    0

-101.047 40912.5 0
40912.5 -93.9796 0
0    0    0

32.4721 41474.4 0
41474.4 -94.0333 0
0    0    0

-213.943 44174.9 0
44174.9 -229.918 0
0    0    0

323.016 43886.6 0
43886.6 95.9186 0
0    0    0

-14.6394 31958.3 0
31958.3 -108.192 0
0    0    0

-122.272 30921.4 0
30921.4 82.6606 0
0    0    0

-87.5666 34108.7 0
34108.7 226.19 0
0    0    0

-154.481 33501.3 0
33501.3 -390.21 0
0    0    0

-45.3205 29453.3 0
29453.3 89.8963 0
0    0    0

277.442 29466.1 0
29466.1 333.928 0
0    0    0

107.221 28646.7 0
28646.7 29.7054 0
0    0    0

323.568 28481 0
28481 22.1183 0
0    0    0

-123.358 29399.9 0
29399.9 -130.59 0
0    0    0

-140.536 31033.7 0
31033.7 -27.9318 0
0    0    0

78.8539 31394.8 0
31394.8 192.299 0
0    0    0

268.953 29683.3 0
29683.3 170.379 0
0    0    0

-72.2617 30669.1 0
30669.1 -262.496 0
0    0    0

42.1065 30762.7 0
30762.7 52.212 0
0    0    0

-155.603 31663.2 0
31663.2 -329.213 0
0    0    0

60.0414 31062 0
31062 118.826 0
0    0    0

-165.249 31299.1 0
31299.1 -17.1434 0
0    0    0

-42.9036 31372.7 0
31372.7 233.266 0
0    0    0

-271.568 27608 0
27608 -90.7172 0
0    0    0

186.132 27213.4 0
27213.4 290.644 0
0    0    0

-276.889 27270.3 0
27270.3 -254.547 0
0    0    0

114.537 26273 0
26273 145.697 0
0    0    0

-86.8003 27993.8 0
27993.8 181.982 0
0    0    0

261.612 27831.2 0
27831.2 188.849 0
0    0    0

66.6333 27841.5 0
27841.5 119.732 0
0    0    0

-111.413 26045.2 0
26045.2 -291.061 0
0    0    0

-151.248 27859.7 0
27859.7 -325.749 0
0    0    0

138.786 26701.6 0
26701.6 240.426 0
0    0    0

-101.752 26987.6 0
26987.6 -14.6169 0
0    0    0

30.7766 27508.4 0
27508.4 -166.559 0
0    0    0

1.11962 27332.2 0
27332.2 136.414 0
0    0    0

306.947 27846.6 0
27846.6 126.64 0
0    0    0

14.9571 26946.9 0
26946.9 -172.9 0
0    0    0

-276.055 27141.8 0
27141.8 -267.862 0
0    0    0

-158.954 27479.1 0
27479.1 161.144 0
0    0    0

-246.93 26650.4 0
26650.4 -325.284 0
0    0    0

152.943 26819.1 0
26819.1 349.693 0
0    0    0

213.741 27536.3 0
27536.3 -26.4261 0
0    0    0

-255.912 26610.1 0
26610.1 -220.914 0
0    0    0

-11.1208 25909.9 0
25909.9 -238.509 0
0    0    0

157.449 26281.5 0
26281.5 287.906 0
0    0    0

11.2063 25673.3 0
25673.3 219.985 0
0    0    0

-176.154 26575.8 0
26575.8 -66.0609 0
0    0    0

123.299 25803.9 0
25803.9 373.823 0
0    0    0

-148.775 26084.5 0
26084.5 182.877 0
0    0    0

126.909 26406.2 0
26406.2 -104.448 0
0    0    0

-192.581 25395.7 0
25395.7 -285.308 0
0    0    0

164.996 25175.1 0
25175.1 457.005 0
0    0    0

219.717 25839.5 0
25839.5 384.532 0
0    0    0

116.462 24566.1 0
24566.1 74.0923 0
0    0    0

-77.9977 25455.2 0
25455.2 -380.822 0
0    0    0

-125.382 25487.9 0
25487.9 -193.021 0
0    0    0

-183.634 26276.8 0
26276.8 -307.618 0
0    0    0

231.732 26593.9 0
26593.9 18.6887 0
0    0    0

-78.1316 24470.3 0
24470.3 114.506 0
0    0    0

143.942 24967.3 0
24967.3 342.504 0
0    0    0

94.7827 27375.6 0
27375.6 -3.68254 0
0    0    0

39.3049 25301.5 0
25301.5 160.656 0
0    0    0

123.462 27651 0
27651 151.587 0
0    0    0

-192.755 27889.5 0
27889.5 -385.503 0
0    0    0

-47.5991 25001.7 0
25001.7 -285.957 0
0    0    0

-243.755 26129.4 0
26129.4 -382.822 0
0    0    0

91.1342 23407.8 0
23407.8 65.691 0
0    0    0

72.1607 25174 0
25174 157.844 0
0    0    0

-110.36 23951.1 0
23951.1 -154.153 0
0    0    0

184.863 23628.7 0
23628.7 164.395 0
0    0    0

-118.852 26138.7 0
26138.7 -341.463 0
0    0    0

-103.633 25417.6 0
25417.6 -234.238 0
0    0    0

-227.553 27232.2 0
27232.2 -237.336 0
0    0    0

254.008 26881.3 0
26881.3 231.926 0
0    0    0

-212.87 26718.8 0
26718.8 -332.328 0
0    0    0

123.624 26361.3 0
26361.3 112.857 0
0    0    0

273.583 26561.5 0
26561.5 402.133 0
0    0    0

117.683 24692.5 0
24692.5 59.1372 0
0    0    0

105.79 25819.2 0
25819.2 401.75 0
0    0    0

306.358 26371.4 0
26371.4 263.214 0
0    0    0

20.2741 25798.8 0
25798.8 239.392 0
0    0    0

-127.035 27089.7 0
27089.7 -145.044 0
0    0    0

191.247 26421.2 0
26421.2 296.434 0
0    0    0

-106.219 25661.8 0
25661.8 -205.259 0
0    0    0

-233.56 25540.6 0
25540.6 -662.319 0
0    0    0

-104.405 24200.5 0
24200.5 -44.7449 0
0    0    0

120.007 24552.7 0
24552.7 108.123 0
0    0    0

-141.243 23602.3 0
23602.3 -60.5326 0
0    0    0

70.2248 24720.8 0
24720.8 225.133 0
0    0    0

-169.715 24439.9 0
24439.9 -191.488 0
0    0    0

-50.981 24836.7 0
24836.7 -104.34 0
0    0    0

-236.457 22916.6 0
22916.6 -101.339 0
0    0    0

222.773 23510.3 0
23510.3 -84.368 0
0    0    0

-168.217 25020.5 0
25020.5 -119.235 0
0    0    0

-180.125 24273 0
24273 -11.5023 0
0    0    0

26.0281 24031.7 0
24031.7 75.6336 0
0    0    0

234.477 23677.9 0
23677.9 293.538 0
0    0    0

252.078 30188.7 0
30188.7 237.024 0
0    0    0

180.762 31622.1 0
31622.1 103.006 0
0    0    0

-189.712 31325.5 0
31325.5 -33.2243 0
0    0    0

73.9004 30987.5 0
30987.5 -87.1219 0
0    0    0

-138.645 30400.7 0
30400.7 221.951 0
0    0    0

119.415 29400.5 0
29400.5 -147.672 0
0    0    0

169.302 30929.2 0
30929.2 358.256 0
0    0    0

222.86 31892.7 0
31892.7 255.686 0
0    0    0

-127.076 30167.4 0
30167.4 -265.447 0
0    0    0

-30.0995 30650.2 0
30650.2 34.6967 0
0    0    0

98.0887 30772.6 0
30772.6 36.2143 0
0    0    0

-88.097 30430.3 0
30430.3 -413.09 0
0    0    0

-25.1796 31455.9 0
31455.9 284.097 0
0    0    0

294.547 32249.9 0
32249.9 245.712 0
0    0    0

5.86992 30465.4 0
30465.4 30.5122 0
0    0    0

197.656 30400.8 0
30400.8 -198.649 0
0    0    0

-72.4699 30973.9 0
30973.9 -296.885 0
0    0    0

-177.6 31178.3 0
31178.3 -262.609 0
0    0    0

65.8046 31284.2 0
31284.2 40.8819 0
0    0    0

-165.789 31707.8 0
31707.8 -7.81288 0
0    0    0

-35.0419 30655 0
30655 -300.964 0
0    0    0

-103.624 31365.6 0
31365.6 -214.771 0
0    0    0

-146.739 30255.4 0
30255.4 -181.566 0
0    0    0

-152.765 32035.7 0
32035.7 -46.6486 0
0    0    0

-51.5853 30756.8 0
30756.8 12.9456 0
0    0    0

60.9188 31070.1 0
31070.1 -19.2262 0
0    0    0

-100.048 31003.5 0
31003.5 192.246 0
0    0    0

44.8009 31677.6 0
31677.6 258.037 0
0    0    0

105.606 30771.1 0
30771.1 -119.109 0
0    0    0

24.8544 31593 0
31593 -92.8452 0
0    0    0

-136.776 33955.7 0
33955.7 2.20219 0
0    0    0

-65.7495 36110 0
36110 -167.649 0
0    0    0

-28.1954 33475 0
33475 -23.9856 0
0    0    0

193.365 33890.6 0
33890.6 143.68 0
0    0    0

75.3036 34446.3 0
34446.3 88.5856 0
0    0    0

-25.4183 34252.8 0
34252.8 -242.895 0
0    0    0

-180.373 33689.9 0
33689.9 -35.0641 0
0    0    0

89.3025 33393 0
33393 322.192 0
0    0    0

-197.047 34822.4 0
34822.4 -219.142 0
0    0    0

-309.149 35280.4 0
35280.4 -193.647 0
0    0    0

-194.993 36060.7 0
36060.7 -239.187 0
0    0    0

201.228 36008.6 0
36008.6 246.341 0
0    0    0

-104.501 34062.4 0
34062.4 312.786 0
0    0    0

180.369 36062.9 0
36062.9 293.627 0
0    0    0

-81.7528 35074.5 0
35074.5 -309.019 0
0    0    0

212.776 35482.5 0
35482.5 194.05 0
0    0    0

23.4781 34644.9 0
34644.9 -157.758 0
0    0    0

-80.3549 34769.2 0
34769.2 -198.826 0
0    0    0

322.16 35504.4 0
35504.4 228.563 0
0    0    0

-398.924 35808.6 0
35808.6 -278.908 0
0    0    0

212.643 34986.3 0
34986.3 187.429 0
0    0    0

-207.877 35923.3 0
35923.3 -101.506 0
0    0    0

-274.682 35946.3 0
35946.3 -154.306 0
0    0    0

-83.0848 36400.1 0
36400.1 -98.8593 0
0    0    0

55.7354 29011.7 0
29011.7 363.272 0
0    0    0

-61.5298 28919.9 0
28919.9 170.431 0
0    0    0

-138.753 30036 0
30036 -89.7571 0
0    0    0

-164.398 30182.8 0
30182.8 137.408 0
0    0    0

29.086 29907.5 0
29907.5 285.702 0
0    0    0

-26.9683 29694.7 0
29694.7 -244.039 0
0    0    0

121.082 29065.9 0
29065.9 -66.6808 0
0    0    0

311.587 28453.5 0
28453.5 191.14 0
0    0    0

51.998 69409.9 0
69409.9 -39.3716 0
0    0    0

224.582 68602.7 0
68602.7 178.28 0
0    0    0

81.2803 69730.2 0
69730.2 350.908 0
0    0    0

-147.324 72590.4 0
72590.4 -343.078 0
0    0    0

219.12 69654.6 0
69654.6 122.847 0
0    0    0

130.124 70492 0
70492 -184.36 0
0    0    0

-70.3979 68550.4 0
68550.4 37.0961 0
0    0    0

-42.692 69376.9 0
69376.9 222.246 0
0    0    0

61.0066 69127.3 0
69127.3 189.265 0
0    0    0

83.9199 69743.7 0
69743.7 -153.709 0
0    0    0

59.1324 70010.1 0
70010.1 194.269 0
0    0    0

-230.182 69048.3 0
69048.3 -7.89677 0
0    0    0

-47.3084 68940 0
68940 -178.146 0
0    0    0

-17.263 69981.9 0
69981.9 -243.176 0
0    0    0

-145.2 71215 0
71215 -256.883 0
0    0    0

-133.419 69835.3 0
69835.3 10.7202 0
0    0    0

240.667 69101.5 0
69101.5 -4.90342 0
0    0    0

-147.652 68818.8 0
68818.8 79.8964 0
0    0    0

-64.1679 71852.9 0
71852.9 181.07 0
0    0    0

110.269 70141.9 0
70141.9 -121.537 0
0    0    0

92.6394 71492.8 0
71492.8 -174.584 0
0    0    0

131.322 70695.3 0
70695.3 250.745 0
0    0    0

-209.187 70956.1 0
70956.1 -347.279 0
0    0    0

153.454 69642 0
69642 -134.14 0
0    0    0

353.253 68670.5 0
68670.5 0.353715 0
0    0    0

-143.924 69533.1 0
69533.1 -122.392 0
0    0    0

208.246 71136.8 0
71136.8 176.473 0
0    0    0

188.811 70864.8 0
70864.8 278.211 0
0    0    0

-184.733 70330.8 0
70330.8 -228.067 0
0    0    0

-204.448 69819.8 0
69819.8 -197.727 0
0    0    0

-191.357 71614.2 0
71614.2 -305.095 0
0    0    0

62.0534 70911.7 0
70911.7 -79.7196 0
0    0    0

-240.335 72210.9 0
72210.9 -308.695 0
0    0    0

-141.364 71326.7 0
71326.7 -18.7357 0
0    0    0

-51.3543 71131.4 0
71131.4 -336.651 0
0    0    0

268.828 70059.3 0
70059.3 300.576 0
0    0    0

61.6839 73506.4 0
73506.4 25.9126 0
0    0    0

191.279 71516 0
71516 282.537 0
0    0    0

30.5432 72816.9 0
72816.9 98.7199 0
0    0    0

82.737 72077.7 0
72077.7 -81.7974 0
0    0    0

-159.329 72112.5 0
72112.5 103.31 0
0    0    0

-48.6234 71733.2 0
71733.2 -189.464 0
0    0    0

88.4841 72329.8 0
72329.8 -14.495 0
0    0    0

79.5975 71483.7 0
71483.7 225.123 0
0    0    0

-34.7564 71149.3 0
71149.3 -406.215 0
0    0    0

65.8021 71408 0
71408 156.029 0
0    0    0

238.423 72434.5 0
72434.5 325.826 0
0    0    0

-273.964 72947.8 0
72947.8 -269.189 0
0    0    0

35.7463 74609 0
74609 273.69 0
0    0    0

44.1292 72895.5 0
72895.5 -25.7185 0
0    0    0

-296.836 72710.9 0
72710.9 -344.842 0
0    0    0

-176.746 73669.6 0
73669.6 -471.46 0
0    0    0

-21.154 72968.5 0
72968.5 168.814 0
0    0    0

272.834 73514.4 0
73514.4 420.906 0
0    0    0

-43.619 71959 0
71959 74.6461 0
0    0    0

64.9706 72222.1 0
72222.1 -60.4044 0
0    0    0

-169.205 70636.2 0
70636.2 142.821 0
0    0    0

12.3993 70942.1 0
70942.1 173.311 0
0    0    0

211.243 74527.6 0
74527.6 37.5843 0
0    0    0

-36.7308 73492.1 0
73492.1 116.773 0
0    0    0

37.2797 72485.9 0
72485.9 140.667 0
0    0    0

317.126 72986 0
72986 542.123 0
0    0    0

179.294 73290.8 0
73290.8 66.6005 0
0    0    0

-68.4692 73444.7 0
73444.7 -180.978 0
0    0    0

-281.743 73273.6 0
73273.6 -399.548 0
0    0    0

-129.708 72847.2 0
72847.2 -308.5 0
0    0    0

-35.5459 73822.1 0
73822.1 -133.944 0
0    0    0

12.374 74054.8 0
74054.8 -315.168 0
0    0    0

-0.853149 72379.6 0
72379.6 91.7993 0
0    0    0

-204.027 72442.3 0
72442.3 109.45 0
0    0    0

83.4253 72763.5 0
72763.5 307.377 0
0    0    0

-74.2427 73220.7 0
73220.7 -204.707 0
0    0    0

158.697 73858.9 0
73858.9 401.786 0
0    0    0

74.2625 73635.3 0
73635.3 -82.1957 0
0    0    0

280.744 73417.8 0
73417.8 226.602 0
0    0    0

-124.862 72783.8 0
72783.8 226.623 0
0    0    0

136.828 72645 0
72645 -61.735 0
0    0    0

92.5178 73507.8 0
73507.8 396.782 0
0    0    0

-273.949 73168.3 0
73168.3 -494.485 0
0    0    0

-162.039 71768.8 0
71768.8 -508.133 0
0    0    0

73.1747 73759.6 0
73759.6 148.976 0
0    0    0

-46.6525 73742.2 0
73742.2 398.06 0
0    0    0

-283.83 73716.7 0
73716.7 -108.364 0
0    0    0

2.94358 72924.4 0
72924.4 -83.3043 0
0    0    0

102.188 72620.9 0
72620.9 204.325 0
0    0    0

310.952 73181.3 0
73181.3 301.805 0
0    0    0

-11.2158 71769.6 0
71769.6 191.495 0
0    0    0

-104.881 71953.9 0
71953.9 -354.815 0
0    0    0

-143.283 70906.4 0
70906.4 171.369 0
0    0    0

-154.488 71986.9 0
71986.9 -268.986 0
0    0    0

-80.7137 73214.2 0
73214.2 -101.629 0
0    0    0

-85.1185 72409.4 0
72409.4 123.76 0
0    0    0

154.414 72255.2 0
72255.2 321.15 0
0    0    0

-198.971 73323 0
73323 -406.881 0
0    0    0

131.455 72735.5 0
72735.5 347.092 0
0    0    0

44.6625 72345.8 0
72345.8 -182.768 0
0    0    0

265.694 72605.5 0
72605.5 521.669 0
0    0    0

-115.414 72162.8 0
72162.8 -299.829 0
0    0    0

117.9 72209.1 0
72209.1 331.182 0
0    0    0

204.303 71837.3 0
71837.3 260.604 0
0    0    0

256.316 71375.7 0
71375.7 43.9236 0
0    0    0

27.7486 72021.6 0
72021.6 -134.834 0
0    0    0

-27.1936 73114.2 0
73114.2 -238.509 0
0    0    0

299.933 73110.2 0
73110.2 400.595 0
0    0    0

198.957 72547.2 0
72547.2 97.7059 0
0    0    0

-191.235 72490.8 0
72490.8 -131.825 0
0    0    0

97.2771 71648.2 0
71648.2 194.69 0
0    0    0

428.266 71589.3 0
71589.3 774.493 0
0    0    0

70.0194 73453.6 0
73453.6 356.422 0
0    0    0

-26.7866 74042.4 0
74042.4 192.046 0
0    0    0

-29.0663 72800.2 0
72800.2 188.571 0
0    0    0

24.1894 73162.3 0
73162.3 197.921 0
0    0    0

-15.1567 72945 0
72945 338.284 0
0    0    0

116.429 73850.5 0
73850.5 -12.8578 0
0    0    0

52.5568 72992.8 0
72992.8 -161.634 0
0    0    0

2.97407 73496.5 0
73496.5 -38.8667 0
0    0    0

-195.027 72768.1 0
72768.1 -2.42146 0
0    0    0

82.9517 72939.3 0
72939.3 -14.4838 0
0    0    0

-158.141 73626 0
73626 -113.627 0
0    0    0

35.3229 74458.5 0
74458.5 -308.254 0
0    0    0

153.23 72308.5 0
72308.5 45.2767 0
0    0    0

24.9411 73114.6 0
73114.6 110.634 0
0    0    0

101.74 73382.3 0
73382.3 160.02 0
0    0    0

59.3915 74914.3 0
74914.3 175.667 0
0    0    0

46.4745 71176.3 0
71176.3 -46.7934 0
0    0    0

-207.033 72161.4 0
72161.4 -276.988 0
0    0    0

-285.896 70906.1 0
70906.1 -155.738 0
0    0    0

207.985 72645.9 0
72645.9 49.5364 0
0    0    0

-164.787 73464.6 0
73464.6 109.692 0
0    0    0

-194.782 73806.5 0
73806.5 94.3879 0
0    0    0

203.426 74074.3 0
74074.3 95.426 0
0    0    0

122.454 73775.5 0
73775.5 120.81 0
0    0    0

45.8688 71007.5 0
71007.5 19.3254 0
0    0    0

90.6208 70618.5 0
70618.5 158.165 0
0    0    0

120.441 72250.4 0
72250.4 343.866 0
0    0    0

-65.8597 72026.1 0
72026.1 -136.116 0
0    0    0

-111.745 71078.9 0
71078.9 60.7183 0
0    0    0

139.154 70882.2 0
70882.2 141.791 0
0    0    0

20.7358 70503.6 0
70503.6 -89.2935 0
0    0    0

-170.138 70763.8 0
70763.8 -86.0931 0
0    0    0

157.112 74679.5 0
74679.5 126.536 0
0    0    0

-134.852 76695.1 0
76695.1 -260.989 0
0    0    0

-218.942 71946.5 0
71946.5 -611.391 0
0    0    0

112.264 71799.9 0
71799.9 342.05 0
0    0    0

157.593 71674.2 0
71674.2 209.756 0
0    0    0

163.233 72418.3 0
72418.3 212.57 0
0    0    0

-222.258 71294.6 0
71294.6 -412.056 0
0    0    0

69.6315 71721.4 0
71721.4 39.9418 0
0    0    0

-219.639 75121.3 0
75121.3 -94.9596 0
0    0    0

47.4619 74754 0
74754 206.701 0
0    0    0

-127.403 71498.9 0
71498.9 -222.768 0
0    0    0

162.953 72233 0
72233 196.091 0
0    0    0

-183.711 72655.6 0
72655.6 -150.537 0
0    0    0

-176.028 73027.3 0
73027.3 -112.763 0
0    0    0

-74.7587 75074.7 0
75074.7 -203.785 0
0    0    0

43.8322 75265.1 0
75265.1 71.3305 0
0    0    0

-202.73 73995.3 0
73995.3 -309.786 0
0    0    0

-97.8382 74249 0
74249 -73.1554 0
0    0    0

308.632 75770 0
75770 214.75 0
0    0    0

-88.3778 75305.5 0
75305.5 -15.4968 0
0    0    0

120.497 75335.4 0
75335.4 -167.978 0
0    0    0

127.863 74332.1 0
74332.1 346.903 0
0    0    0

-147.599 74351 0
74351 -213.68 0
0    0    0

69.1544 74460.5 0
74460.5 160.325 0
0    0    0

-158.304 74769 0
74769 -170.876 0
0    0    0

191.29 74493.9 0
74493.9 -32.6169 0
0    0    0

-31.666 69824.5 0
69824.5 104.676 0
0    0    0

187.384 70219.7 0
70219.7 207.885 0
0    0    0

-163.13 68365.8 0
68365.8 -64.5789 0
0    0    0

158.315 67682.3 0
67682.3 -105.405 0
0    0    0

-4.04897 68661.1 0
68661.1 242.629 0
0    0    0

171.047 68905.2 0
68905.2 130.682 0
0    0    0

196.626 68256.9 0
68256.9 356.819 0
0    0    0

-150.673 69618.2 0
69618.2 -239.031 0
0    0    0

-30.2925 68214.5 0
68214.5 -241.518 0
0    0    0

174.78 69148.6 0
69148.6 142.359 0
0    0    0

-189 68744.2 0
68744.2 -87.4499 0
0    0    0

161.026 68354.3 0
68354.3 156.737 0
0    0    0

-221.921 69904.9 0
69904.9 -87.0568 0
0    0    0

67.1974 68941.2 0
68941.2 198.828 0
0    0    0

23.4451 71867.9 0
71867.9 133.227 0
0    0    0

119.509 72616.8 0
72616.8 243.519 0
0    0    0

241.221 68767.4 0
68767.4 205.064 0
0    0    0

282.431 69452.3 0
69452.3 321.168 0
0    0    0

-87.3851 70903.8 0
70903.8 304.213 0
0    0    0

250.415 69442 0
69442 110.326 0
0    0    0

-68.1241 69260.7 0
69260.7 -269.229 0
0    0    0

-313.085 69740.3 0
69740.3 -325.019 0
0    0    0

-108.567 58899.8 0
58899.8 76.9855 0
0    0    0

-242.063 57728.3 0
57728.3 -196.132 0
0    0    0

265.611 58519.8 0
58519.8 101.41 0
0    0    0

305.921 57962.9 0
57962.9 347.644 0
0    0    0

-101.408 58220.6 0
58220.6 10.7884 0
0    0    0

156.505 58007.7 0
58007.7 170.042 0
0    0    0

222.606 57300.6 0
57300.6 106.474 0
0    0    0

-67.5222 58115.1 0
58115.1 -0.886158 0
0    0    0

-250.418 59323 0
59323 -442.128 0
0    0    0

-71.4014 59495.5 0
59495.5 207.838 0
0    0    0

-161.318 57755.1 0
57755.1 55.3709 0
0    0    0

191.935 58221.6 0
58221.6 142.824 0
0    0    0

45.8028 56669 0
56669 -176.011 0
0    0    0

169.379 56819.6 0
56819.6 175.559 0
0    0    0

3.54851 57727.2 0
57727.2 -33.8733 0
0    0    0

-64.5791 58112.5 0
58112.5 -145.379 0
0    0    0

73.5371 57237.1 0
57237.1 -41.6054 0
0    0    0

-153.567 56687.9 0
56687.9 111.503 0
0    0    0

-6.09741 56153.6 0
56153.6 -176.748 0
0    0    0

35.9303 55779.5 0
55779.5 248.319 0
0    0    0

-35.2181 57284.6 0
57284.6 -182.548 0
0    0    0

-139.246 56710.3 0
56710.3 26.4167 0
0    0    0

-166.513 57073.4 0
57073.4 -212.531 0
0    0    0

-149.966 57672.1 0
57672.1 -239.16 0
0    0    0

109.973 57793.2 0
57793.2 122.275 0
0    0    0

119.341 57332.7 0
57332.7 -31.7295 0
0    0    0

106.913 57598.6 0
57598.6 106.196 0
0    0    0

-283.959 57109.2 0
57109.2 -301.763 0
0    0    0

134.345 56676.6 0
56676.6 242.248 0
0    0    0

119.63 56391 0
56391 52.8379 0
0    0    0

105.648 56102.7 0
56102.7 -18.4331 0
0    0    0

-185.034 56264.9 0
56264.9 107.987 0
0    0    0

-128.684 57036.7 0
57036.7 186.792 0
0    0    0

197.2 56332 0
56332 326.929 0
0    0    0

-182.928 56226.7 0
56226.7 -47.4085 0
0    0    0

-125.581 56509.5 0
56509.5 -10.4778 0
0    0    0

328.309 60224.3 0
60224.3 494.005 0
0    0    0

119.235 59396 0
59396 359.877 0
0    0    0

143.871 58292.3 0
58292.3 90.0135 0
0    0    0

111.12 59904.9 0
59904.9 369.527 0
0    0    0

-38.6638 60168.4 0
60168.4 -111.443 0
0    0    0

173.563 59105.9 0
59105.9 -2.28922 0
0    0    0

234.687 59272.8 0
59272.8 203.016 0
0    0    0

-152.259 59575.6 0
59575.6 -290.691 0
0    0    0

-221.996 58945.6 0
58945.6 -424.013 0
0    0    0

-242.895 58301.1 0
58301.1 -389.32 0
0    0    0

-113.747 59196.9 0
59196.9 -16.6983 0
0    0    0

226.006 59648 0
59648 381.451 0
0    0    0

174.432 59040.9 0
59040.9 198.359 0
0    0    0

9.07989 58573.4 0
58573.4 -239.916 0
0    0    0

32.4254 58763.1 0
58763.1 160.561 0
0    0    0

-65.3996 58905.3 0
58905.3 145.251 0
0    0    0

99.9855 64159.1 0
64159.1 198.675 0
0    0    0

-347.437 64691.9 0
64691.9 -117.02 0
0    0    0

118.277 63052 0
63052 215.262 0
0    0    0

50.4659 64233.4 0
64233.4 127.343 0
0    0    0

169.322 64411 0
64411 280.493 0
0    0    0

98.4272 65247.7 0
65247.7 -177.242 0
0    0    0

101.004 64499.3 0
64499.3 -236.146 0
0    0    0

188.136 63825.5 0
63825.5 48.0185 0
0    0    0

-53.9724 63717.4 0
63717.4 35.5677 0
0    0    0

-265.911 64009.3 0
64009.3 75.9991 0
0    0    0

185.764 65712.6 0
65712.6 -2.72731 0
0    0    0

-62.1817 65774.2 0
65774.2 180.408 0
0    0    0

46.8541 66260.8 0
66260.8 209.555 0
0    0    0

32.4038 65374 0
65374 -85.7535 0
0    0    0

-229.936 64075.1 0
64075.1 -125.981 0
0    0    0

-75.5604 64359.8 0
64359.8 -72.0717 0
0    0    0

-13.255 63347 0
63347 41.0171 0
0    0    0

186.641 63854.8 0
63854.8 131.042 0
0    0    0

47.7236 62604.3 0
62604.3 89.5841 0
0    0    0

341.316 63627.7 0
63627.7 32.2011 0
0    0    0

-18.43 61862.2 0
61862.2 -361.579 0
0    0    0

-86.7489 62955 0
62955 142.118 0
0    0    0

32.4525 62349.2 0
62349.2 -216.976 0
0    0    0

-92.5394 62502.3 0
62502.3 -63.8947 0
0    0    0

51.6574 61725.6 0
61725.6 -54.1841 0
0    0    0

-104.662 63747.9 0
63747.9 -117.839 0
0    0    0

38.598 61590.4 0
61590.4 86.7249 0
0    0    0

21.3289 62236.5 0
62236.5 -131.205 0
0    0    0

-143.96 62686.6 0
62686.6 149.843 0
0    0    0

50.841 62433.8 0
62433.8 -164.691 0
0    0    0

90.7248 62573.2 0
62573.2 37.1049 0
0    0    0

-233.093 62149.2 0
62149.2 -193.748 0
0    0    0

42.5782 62561.7 0
62561.7 245.023 0
0    0    0

-136.512 63187.4 0
63187.4 -155.639 0
0    0    0

45.1045 63345.3 0
63345.3 266.503 0
0    0    0

97.6983 63238.9 0
63238.9 31.2733 0
0    0    0

180.516 63676.9 0
63676.9 376.858 0
0    0    0

-38.1256 64176.4 0
64176.4 -8.4514 0
0    0    0

82.815 46794 0
46794 224.67 0
0    0    0

-330.667 47640.5 0
47640.5 -435.789 0
0    0    0

220.678 47366.3 0
47366.3 261.308 0
0    0    0

-38.8101 47145.3 0
47145.3 -147.458 0
0    0    0

231.571 47905.3 0
47905.3 334.04 0
0    0    0

43.3646 47559.6 0
47559.6 31.8592 0
0    0    0

283.281 47596.9 0
47596.9 135.897 0
0    0    0

-161.331 47896.8 0
47896.8 76.8796 0
0    0    0

-2.70971 47914 0
47914 -153.792 0
0    0    0

-65.6839 47668.7 0
47668.7 109.32 0
0    0    0

118.087 47949 0
47949 350.928 0
0    0    0

-170.965 48302.4 0
48302.4 -332.86 0
0    0    0

-100.356 48603.1 0
48603.1 58.8165 0
0    0    0

-472.59 48833.7 0
48833.7 -324.134 0
0    0    0

204.652 46844.6 0
46844.6 90.7502 0
0    0    0

165.123 46544.1 0
46544.1 162.243 0
0    0    0

273.79 49823.5 0
49823.5 286.143 0
0    0    0

-188.318 50566.1 0
50566.1 -362.942 0
0    0    0

-347.436 51714 0
51714 -80.3109 0
0    0    0

266.612 51075.2 0
51075.2 249.402 0
0    0    0

-188.435 49662.2 0
49662.2 -15.313 0
0    0    0

-140.6 52686.4 0
52686.4 -106.307 0
0    0    0

-152.545 52328.3 0
52328.3 -221.2 0
0    0    0

-220.712 50996.4 0
50996.4 -203.257 0
0    0    0

107.263 49923.8 0
49923.8 322.872 0
0    0    0

2.25948 49597 0
49597 194.179 0
0    0    0

-332.509 51601.1 0
51601.1 -378.8 0
0    0    0

207.201 50889 0
50889 214.859 0
0    0    0

170.875 51030.3 0
51030.3 -119.522 0
0    0    0

-211.642 51109.4 0
51109.4 -230.152 0
0    0    0

-174.836 53906.8 0
53906.8 -237.914 0
0    0    0

-41.4243 54729.4 0
54729.4 180.854 0
0    0    0

91.2132 54126.6 0
54126.6 230.728 0
0    0    0

215.162 54657.3 0
54657.3 355.143 0
0    0    0

296.957 53565.9 0
53565.9 91.1155 0
0    0    0

269.098 53101.4 0
53101.4 214.542 0
0    0    0

19.8267 54399.7 0
54399.7 -211.482 0
0    0    0

-299.15 54982.8 0
54982.8 -310.694 0
0    0    0

142.181 54927.3 0
54927.3 -68.1544 0
0    0    0

-329.56 54416.4 0
54416.4 -604.332 0
0    0    0

-19.7058 53312.8 0
53312.8 336.107 0
0    0    0

-143.666 50350 0
50350 -356.437 0
0    0    0

-95.9731 53241 0
53241 -412.384 0
0    0    0

-215.685 53418.9 0
53418.9 -139.998 0
0    0    0

159.53 53513.5 0
53513.5 308.873 0
0    0    0

196.491 52916.6 0
52916.6 314.397 0
0    0    0

-161.735 56046.7 0
56046.7 -422.071 0
0    0    0

-244.473 54965.9 0
54965.9 -319.405 0
0    0    0

168.891 54016.3 0
54016.3 438.915 0
0    0    0

-187.237 53776.8 0
53776.8 -97.3588 0
0    0    0

-394.156 53845 0
53845 -577.081 0
0    0    0

64.6493 52709 0
52709 25.8289 0
0    0    0

-162.051 52725.8 0
52725.8 -355.802 0
0    0    0

143.149 52961 0
52961 55.9755 0
0    0    0

274.844 54140.3 0
54140.3 648.377 0
0    0    0

51.2413 53639.6 0
53639.6 -12.9131 0
0    0    0

91.2525 53046.9 0
53046.9 155.546 0
0    0    0

350.807 52935.9 0
52935.9 262.819 0
0    0    0

-81.6965 53503.1 0
53503.1 165.449 0
0    0    0

-130.404 52643.4 0
52643.4 -26.8776 0
0    0    0

85.9971 53973.4 0
53973.4 11.592 0
0    0    0

-125.095 53101.8 0
53101.8 86.0182 0
0    0    0

-60.3024 53385.4 0
53385.4 -19.5633 0
0    0    0

-154.098 55775 0
55775 30.2779 0
0    0    0

27.4911 54621.5 0
54621.5 -51.7409 0
0    0    0

-22.4946 54502 0
54502 275.061 0
0    0    0

-88.9852 53250.9 0
53250.9 -286.104 0
0    0    0

48.9204 53197.7 0
53197.7 43.4281 0
0    0    0

59.5957 53184.8 0
53184.8 356.307 0
0    0    0

97.6251 52844 0
52844 -82.8352 0
0    0    0

-105.393 53326.2 0
53326.2 -132.858 0
0    0    0

-244.51 52699.5 0
52699.5 -263.957 0
0    0    0

19.6374 58048 0
58048 -56.2434 0
0    0    0

-174.218 56673.1 0
56673.1 54.6234 0
0    0    0

-37.1657 56485.8 0
56485.8 -266.188 0
0    0    0

229.11 56887 0
56887 297.195 0
0    0    0

-285.514 55544.9 0
55544.9 -390.322 0
0    0    0

226.749 55846.3 0
55846.3 424.973 0
0    0    0

-136.4 55850.8 0
55850.8 -46.3125 0
0    0    0

-54.7275 56307 0
56307 165.952 0
0    0    0

69.2726 55631.6 0
55631.6 219.597 0
0    0    0

285.534 56534.4 0
56534.4 127.503 0
0    0    0

183.409 57113.9 0
57113.9 -11.4263 0
0    0    0

-168.693 57804.3 0
57804.3 -313.664 0
0    0    0

-82.5525 56353.5 0
56353.5 -305.243 0
0    0    0

61.7815 56463.7 0
56463.7 -82.5579 0
0    0    0

-18.994 57027.6 0
57027.6 127.632 0
0    0    0

35.4096 57392.9 0
57392.9 109.445 0
0    0    0

-191.358 57231.1 0
57231.1 -170.082 0
0    0    0

3.74813 56032.5 0
56032.5 171.959 0
0    0    0

-74.3274 55515.7 0
55515.7 -148.136 0
0    0    0

13.5714 57163.4 0
57163.4 53.0928 0
0    0    0

87.9446 56811 0
56811 -67.8544 0
0    0    0

139.317 57433.6 0
57433.6 342.762 0
0    0    0

177.311 56563.5 0
56563.5 272.488 0
0    0    0

185.12 56539.9 0
56539.9 107.739 0
0    0    0

-156.573 56853.7 0
56853.7 -214.444 0
0    0    0

-235.348 56310.2 0
56310.2 3.92946 0
0    0    0

-184.826 58147.9 0
58147.9 -215.643 0
0    0    0

-177.264 59305.7 0
59305.7 78.5193 0
0    0    0

112.487 56370.9 0
56370.9 375.193 0
0    0    0

10.5701 56103.9 0
56103.9 -122.35 0
0    0    0

-45.8467 56554.5 0
56554.5 155.868 0
0    0    0

-126.169 56652.7 0
56652.7 -353.774 0
0    0    0

185.399 57555 0
57555 269.922 0
0    0    0

103.187 56926.6 0
56926.6 100.164 0
0    0    0

198.123 54476 0
54476 90.0199 0
0    0    0

140.401 55581.4 0
55581.4 6.53363 0
0    0    0

103.518 57975.4 0
57975.4 381.02 0
0    0    0

-14.6837 58633.2 0
58633.2 -242.881 0
0    0    0

-182.132 57400.2 0
57400.2 15.2932 0
0    0    0

-161.679 57838.2 0
57838.2 -33.8413 0
0    0    0

107.68 57985.8 0
57985.8 13.9441 0
0    0    0

-111.102 57676.9 0
57676.9 -420.191 0
0    0    0

175.243 58389 0
58389 160.659 0
0    0    0

-130.235 58833.7 0
58833.7 164.209 0
0    0    0

76.017 56670.7 0
56670.7 322.765 0
0    0    0

-276.167 55816.4 0
55816.4 -421.008 0
0    0    0

216.394 55216.9 0
55216.9 390.423 0
0    0    0

-1.92143 54346.1 0
54346.1 -364.613 0
0    0    0

-84.0506 56977.8 0
56977.8 121.97 0
0    0    0

52.0338 57705.7 0
57705.7 -86.0715 0
0    0    0

83.0752 57381.5 0
57381.5 90.6206 0
0    0    0

-67.9937 57468.4 0
57468.4 207.213 0
0    0    0

-200.624 55459.8 0
55459.8 -470.439 0
0    0    0

15.7543 54647.9 0
54647.9 245.779 0
0    0    0

-199.608 55019.7 0
55019.7 -27.93 0
0    0    0

-101.097 54274.4 0
54274.4 -119.275 0
0    0    0

35.5516 55295 0
55295 165.129 0
0    0    0

-140.931 54723.5 0
54723.5 -394.016 0
0    0    0

208.636 45364.3 0
45364.3 271.675 0
0    0    0

243.803 46057.9 0
46057.9 372.606 0
0    0    0

65.6022 46448.4 0
46448.4 78.6959 0
0    0    0

53.8208 47309.1 0
47309.1 -30.9638 0
0    0    0

48.3421 47182.3 0
47182.3 43.8109 0
0    0    0

29.4837 48511 0
48511 -205.04 0
0    0    0

145.319 47636.8 0
47636.8 -35.7342 0
0    0    0

-57.9108 48272.2 0
48272.2 202.435 0
0    0    0

36.9551 48106 0
48106 215.733 0
0    0    0

82.793 49354.1 0
49354.1 -54.7782 0
0    0    0

-91.569 47947.4 0
47947.4 -189.079 0
0    0    0

-207.44 48934.4 0
48934.4 -225.373 0
0    0    0

240.591 47023.4 0
47023.4 172.674 0
0    0    0

104.448 47551.6 0
47551.6 116.37 0
0    0    0

-124.35 38664.5 0
38664.5 -22.9579 0
0    0    0

110.302 40400 0
40400 182.713 0
0    0    0

83.4748 38385.3 0
38385.3 270.813 0
0    0    0

241.874 38813.4 0
38813.4 307.907 0
0    0    0

72.2805 41098.4 0
41098.4 6.8039 0
0    0    0

67.5579 40360.2 0
40360.2 412.019 0
0    0    0

-212.617 40062.4 0
40062.4 6.73701 0
0    0    0

-281.863 39122.4 0
39122.4 -269.677 0
0    0    0

-131.603 37217.6 0
37217.6 49.8231 0
0    0    0

-78.5374 38217.4 0
38217.4 125.481 0
0    0    0

-71.3398 41149.4 0
41149.4 101.985 0
0    0    0

-133.256 40584.4 0
40584.4 -465.129 0
0    0    0

35.5871 40718 0
40718 -179.669 0
0    0    0

67.1868 39671.4 0
39671.4 -103.83 0
0    0    0

-19.7326 40685.7 0
40685.7 246.587 0
0    0    0

-244.184 39660.5 0
39660.5 -143.884 0
0    0    0

-104.469 40534.1 0
40534.1 -211.253 0
0    0    0

195.31 39904.9 0
39904.9 293.621 0
0    0    0

-140.649 38980.2 0
38980.2 -196.362 0
0    0    0

54.2143 39451.8 0
39451.8 304.864 0
0    0    0

51.1579 40144.1 0
40144.1 -163.02 0
0    0    0

268.557 40263.6 0
40263.6 432.44 0
0    0    0

-94.2456 39882 0
39882 -170.133 0
0    0    0

-143.103 40591 0
40591 -467.419 0
0    0    0

-66.7944 39748.1 0
39748.1 -77.8265 0
0    0    0

-56.1262 40309.9 0
40309.9 -90.4438 0
0    0    0

-104.603 41265.1 0
41265.1 158.3 0
0    0    0

-162.886 42520.7 0
42520.7 6.89337 0
0    0    0

-84.5095 41037.4 0
41037.4 -226.369 0
0    0    0

97.9951 41462 0
41462 317.638 0
0    0    0

-137.665 41161.8 0
41161.8 -363.929 0
0    0    0

22.0032 40806.7 0
40806.7 204.675 0
0    0    0

221.54 42016 0
42016 277.775 0
0    0    0

-84.9767 42148.9 0
42148.9 -267.778 0
0    0    0

-136.271 42083.5 0
42083.5 156.219 0
0    0    0

-48.2671 41739.2 0
41739.2 -206.756 0
0    0    0

-207.145 41590.1 0
41590.1 -240.994 0
0    0    0

302.59 40748.6 0
40748.6 315.739 0
0    0    0

5.56681 41538.2 0
41538.2 -98.2507 0
0    0    0

112.642 41937 0
41937 194.377 0
0    0    0

-108.702 42082.4 0
42082.4 -11.2639 0
0    0    0

159.257 42470.6 0
42470.6 267.168 0
0    0    0

102.064 40865.5 0
40865.5 149.353 0
0    0    0

182.534 41830.9 0
41830.9 249.53 0
0    0    0

-62.6923 41023.7 0
41023.7 -193.876 0
0    0    0

194.934 41805.7 0
41805.7 413.837 0
0    0    0

228.114 41228.6 0
41228.6 40.6195 0
0    0    0

292.761 40508.6 0
40508.6 291.28 0
0    0    0

-192.653 40759.6 0
40759.6 -300.542 0
0    0    0

143.57 40941.4 0
40941.4 -14.5149 0
0    0    0

118.483 39410.3 0
39410.3 288.713 0
0    0    0

-18.2349 39309.3 0
39309.3 64.233 0
0    0    0

274.672 41353.9 0
41353.9 194.014 0
0    0    0

-273.422 40478.7 0
40478.7 -403.331 0
0    0    0

-285.411 41619.1 0
41619.1 -262.699 0
0    0    0

-144.916 41047.6 0
41047.6 -133.347 0
0    0    0

76.7459 39947.8 0
39947.8 181.849 0
0    0    0

-21.3339 40670.2 0
40670.2 170.002 0
0    0    0

-162.711 35233.8 0
35233.8 56.6213 0
0    0    0

219.695 36839.3 0
36839.3 266.082 0
0    0    0

-33.2569 34357.2 0
34357.2 -195.382 0
0    0    0

-65.7464 36786.1 0
36786.1 65.2243 0
0    0    0

-32.9977 35914.8 0
35914.8 -153.714 0
0    0    0

-35.7303 37061.1 0
37061.1 -206.15 0
0    0    0

-200.827 35554 0
35554 -89.6599 0
0    0    0

-52.4187 36398.2 0
36398.2 -4.45286 0
0    0    0

-159.8 37079.7 0
37079.7 -331.045 0
0    0    0

92.6921 36448.4 0
36448.4 94.2887 0
0    0    0

-24.8302 35745.6 0
35745.6 234.642 0
0    0    0

158.359 36502.6 0
36502.6 293.922 0
0    0    0

28.1597 35769.7 0
35769.7 -354.111 0
0    0    0

239.928 35687.3 0
35687.3 213.458 0
0    0    0

25.2314 36083.1 0
36083.1 -149.841 0
0    0    0

-150.268 36010.6 0
36010.6 -208.017 0
0    0    0

86.2211 35719.8 0
35719.8 178.384 0
0    0    0

-140.856 36334.6 0
36334.6 -155.283 0
0    0    0

-225.393 36971 0
36971 -197.99 0
0    0    0

131.92 37643.8 0
37643.8 197.447 0
0    0    0

-161.421 36385.1 0
36385.1 -279.461 0
0    0    0

-307.298 39079.1 0
39079.1 -216.46 0
0    0    0

106.589 37972 0
37972 310.098 0
0    0    0

134.724 38327.5 0
38327.5 -77.7771 0
0    0    0

-125.105 35922.9 0
35922.9 -4.95984 0
0    0    0

11.9343 37557.9 0
37557.9 -388.887 0
0    0    0

167.891 37125.7 0
37125.7 -31.383 0
0    0    0

-79.0178 37976.8 0
37976.8 -158.594 0
0    0    0

-38.5555 38055.6 0
38055.6 31.4524 0
0    0    0

103.167 37685.7 0
37685.7 155.077 0
0    0    0

44.8282 37437.4 0
37437.4 -140.508 0
0    0    0

-122.127 38016.4 0
38016.4 -202.525 0
0    0    0

-141.314 35568.3 0
35568.3 -96.8274 0
0    0    0

-105.906 35520 0
35520 -60.6949 0
0    0    0

145.33 35097.9 0
35097.9 38.0557 0
0    0    0

160.814 34655.5 0
34655.5 225.373 0
0    0    0

215.878 34620.8 0
34620.8 256.444 0
0    0    0

75.8395 37328 0
37328 237.43 0
0    0    0

-36.5689 35173.7 0
35173.7 131.496 0
0    0    0

-91.9398 34921.7 0
34921.7 -227.767 0
0    0    0

87.874 35874.1 0
35874.1 -176.838 0
0    0    0

192.09 36043.6 0
36043.6 172.403 0
0    0    0

78.1976 35886.5 0
35886.5 -47.4397 0
0    0    0

184.286 35790.7 0
35790.7 -116.673 0
0    0    0

-292.825 38448.8 0
38448.8 -286.955 0
0    0    0

172.624 37668.2 0
37668.2 104.37 0
0    0    0

182.493 40263.2 0
40263.2 188.126 0
0    0    0

-241.113 38242.4 0
38242.4 -299.169 0
0    0    0

426.872 38703.6 0
38703.6 221.746 0
0    0    0

261.627 39279.6 0
39279.6 222.638 0
0    0    0

140.578 36194.5 0
36194.5 80.1419 0
0    0    0

-457.437 36530.8 0
36530.8 -279.962 0
0    0    0

211.309 34810.4 0
34810.4 -230.246 0
0    0    0

-215.634 34951.8 0
34951.8 -41.1826 0
0    0    0

-219.514 34433.5 0
34433.5 -270.559 0
0    0    0

60.5595 35474.2 0
35474.2 -88.7591 0
0    0    0

8.84691 35516.3 0
35516.3 -22.919 0
0    0    0

128.964 35129.8 0
35129.8 238.609 0
0    0    0

168.817 38885.7 0
38885.7 287.232 0
0    0    0

-77.689 39249.7 0
39249.7 -290.918 0
0    0    0

127.681 38471.2 0
38471.2 143.35 0
0    0    0

-184.439 38542.4 0
38542.4 -374.486 0
0    0    0

70.4969 38437.2 0
38437.2 -47.743 0
0    0    0

-308.583 38704.9 0
38704.9 -70.7828 0
0    0    0

117.096 36627.6 0
36627.6 311.648 0
0    0    0

281.78 36794.5 0
36794.5 311.027 0
0    0    0

232.097 36693.1 0
36693.1 327.638 0
0    0    0

-234.141 36984.2 0
36984.2 -375.166 0
0    0    0

60.9876 35281 0
35281 -184.945 0
0    0    0

-166.016 36525.2 0
36525.2 -124.173 0
0    0    0

-58.2733 35250 0
35250 187.911 0
0    0    0

131.612 34854.3 0
34854.3 205.127 0
0    0    0

-73.8092 35597.9 0
35597.9 106.686 0
0    0    0

-26.8159 36542 0
36542 -34.3974 0
0    0    0

119.752 35487 0
35487 192.468 0
0    0    0

64.2417 33826 0
33826 -91.0573 0
0    0    0

-87.2195 34575.4 0
34575.4 -80.0153 0
0    0    0

-161.741 33170.9 0
33170.9 -262.33 0
0    0    0

-94.0644 32950.6 0
32950.6 -242.442 0
0    0    0

-195.451 33128.2 0
33128.2 20.7808 0
0    0    0

33.0541 34260.3 0
34260.3 174.855 0
0    0    0

111.277 33398.3 0
33398.3 250.143 0
0    0    0

284.739 34106.4 0
34106.4 293.444 0
0    0    0

-15.2563 34840 0
34840 -305.725 0
0    0    0

-12.8401 34479.8 0
34479.8 138.123 0
0    0    0

148.447 34158.8 0
34158.8 239.922 0
0    0    0

88.599 34511.3 0
34511.3 35.0399 0
0    0    0

1.88457 33972.9 0
33972.9 185.28 0
0    0    0

130.6 32748.2 0
32748.2 -164.682 0
0    0    0

38.7326 33694.4 0
33694.4 -211.46 0
0    0    0

49.4283 33993.3 0
33993.3 140.273 0
0    0    0

-84.6787 34662.6 0
34662.6 60.0821 0
0    0    0

28.5361 33569.6 0
33569.6 338.891 0
0    0    0

57.1922 34279.5 0
34279.5 -16.1876 0
0    0    0

231.702 34525.2 0
34525.2 97.3077 0
0    0    0

161.125 35729.3 0
35729.3 -24.1621 0
0    0    0

-182.436 34290.8 0
34290.8 -139.464 0
0    0    0

-82.397 33905.3 0
33905.3 -36.8122 0
0    0    0

-179.863 35074.7 0
35074.7 -5.89024 0
0    0    0

-150.622 35362.4 0
35362.4 78.1589 0
0    0    0

161.882 33948.4 0
33948.4 56.1688 0
0    0    0

227.916 34822 0
34822 281.602 0
0    0    0

274.209 33659.8 0
33659.8 596 0
0    0    0

-296.977 34623.3 0
34623.3 -173.93 0
0    0    0

-17.7666 33811.6 0
33811.6 -321.234 0
0    0    0

-94.4233 34152.3 0
34152.3 137.972 0
0    0    0

148.513 36127.1 0
36127.1 -73.2182 0
0    0    0

177.038 35757.6 0
35757.6 -1.37669 0
0    0    0

-93.3322 35872.7 0
35872.7 87.6062 0
0    0    0

-145.687 35085.9 0
35085.9 -177.433 0
0    0    0

-122.528 32836.2 0
32836.2 -183.216 0
0    0    0

-61.4605 32781.4 0
32781.4 -177.835 0
0    0    0

30.1907 33314.6 0
33314.6 -146.081 0
0    0    0

59.2772 33285.5 0
33285.5 372.285 0
0    0    0

56.0407 33003.9 0
33003.9 240.819 0
0    0    0

18.9696 33567.5 0
33567.5 -23.7105 0
0    0    0

19.2073 44132.6 0
44132.6 -218.005 0
0    0    0

-87.0695 46194.8 0
46194.8 -279.805 0
0    0    0

-86.004 45365.9 0
45365.9 16.61 0
0    0    0

20.9653 45710.9 0
45710.9 144.354 0
0    0    0

-149.576 46269.5 0
46269.5 -137.913 0
0    0    0

-82.2573 46374.9 0
46374.9 346.295 0
0    0    0

-205.678 47996.7 0
47996.7 -233.919 0
0    0    0

-99.402 47836.6 0
47836.6 -132.405 0
0    0    0

-168.109 47069.9 0
47069.9 -146.444 0
0    0    0

-40.2824 47809.2 0
47809.2 233.938 0
0    0    0

-1.81649 46577.7 0
46577.7 -179.208 0
0    0    0

64.8477 46480.2 0
46480.2 -169.716 0
0    0    0

-112.873 46325.5 0
46325.5 -114.74 0
0    0    0

139.861 46874.4 0
46874.4 247.475 0
0    0    0

6.63932 45529.3 0
45529.3 243.202 0
0    0    0

-26.4241 45495.2 0
45495.2 -137.607 0
0    0    0

-28.2232 45037.7 0
45037.7 87.7921 0
0    0    0

112.132 45004.4 0
45004.4 -10.531 0
0    0    0

-198.944 46722.5 0
46722.5 -119.902 0
0    0    0

21.4586 45844.7 0
45844.7 219.47 0
0    0    0

-80.8137 46002.1 0
46002.1 202.484 0
0    0    0

-158.938 46229.4 0
46229.4 148.413 0
0    0    0

-71.7376 44692.5 0
44692.5 102.319 0
0    0    0

53.8344 45199.6 0
45199.6 292.31 0
0    0    0

101.956 47040.2 0
47040.2 -285.533 0
0    0    0

-69.2882 48372.8 0
48372.8 136.922 0
0    0    0

-37.2923 49690.3 0
49690.3 158.066 0
0    0    0

-227.961 47655.8 0
47655.8 -386.49 0
0    0    0

219.258 49004.5 0
49004.5 178.576 0
0    0    0

237.028 47868.8 0
47868.8 286.779 0
0    0    0

-145.282 47320.7 0
47320.7 -11.9205 0
0    0    0

-5.70729 48027.3 0
48027.3 -171.941 0
0    0    0

230.605 46783.3 0
46783.3 285.287 0
0    0    0

70.2142 48092 0
48092 -48.9286 0
0    0    0

294.541 47279.1 0
47279.1 188.623 0
0    0    0

-31.1678 48106.9 0
48106.9 40.5956 0
0    0    0

29.7964 47190.5 0
47190.5 -265.458 0
0    0    0

66.3576 47774.8 0
47774.8 -32.4853 0
0    0    0

-376.781 48067.7 0
48067.7 -206.48 0
0    0    0

45.5 48568.3 0
48568.3 93.3583 0
0    0    0

-26.7773 48335.2 0
48335.2 -188.63 0
0    0    0

-8.94741 47763.1 0
47763.1 149.447 0
0    0    0

-154.313 47495.3 0
47495.3 -277.097 0
0    0    0

-24.048 47745.3 0
47745.3 -67.184 0
0    0    0

208.325 47869.3 0
47869.3 135.171 0
0    0    0

227.233 48595 0
48595 64.1549 0
0    0    0

-138.207 34830.9 0
34830.9 -34.2111 0
0    0    0

-98.1478 33952.4 0
33952.4 74.977 0
0    0    0

-102.932 33553.2 0
33553.2 -296.309 0
0    0    0

-84.4073 33795 0
33795 -442.558 0
0    0    0

-135.602 34180.6 0
34180.6 -372.059 0
0    0    0

190.728 33914.3 0
33914.3 -92.3589 0
0    0    0

-114.502 33471.7 0
33471.7 -25.6822 0
0    0    0

45.5754 33866 0
33866 171.09 0
0    0    0

98.5271 34401.2 0
34401.2 -218.313 0
0    0    0

171.949 34440.5 0
34440.5 159.922 0
0    0    0

-194.508 34660.5 0
34660.5 -253.338 0
0    0    0

-164.991 34375.7 0
34375.7 -317.856 0
0    0    0

88.4042 34346.2 0
34346.2 -4.77815 0
0    0    0

165.603 34895.7 0
34895.7 338.489 0
0    0    0

-112.246 33418.6 0
33418.6 304.565 0
0    0    0

178.886 33784.2 0
33784.2 114.564 0
0    0    0

-110.521 35334.8 0
35334.8 -268.965 0
0    0    0

134.396 35512.7 0
35512.7 199.185 0
0    0    0

133.372 35025.7 0
35025.7 433.839 0
0    0    0

242.893 36131.6 0
36131.6 180.704 0
0    0    0

-215.655 35797.1 0
35797.1 -46.9578 0
0    0    0

-134.248 35186.9 0
35186.9 -58.9888 0
0    0    0

-285.946 34667.2 0
34667.2 59.6281 0
0    0    0

-55.0087 34117.3 0
34117.3 34.9559 0
0    0    0

1.13879 32735.6 0
32735.6 229.163 0
0    0    0

-247.775 33561.8 0
33561.8 -186.51 0
0    0    0

217.732 34300.6 0
34300.6 383.235 0
0    0    0

-174.08 34063.8 0
34063.8 -267.758 0
0    0    0

241.168 35021 0
35021 404.757 0
0    0    0

186.219 35073.4 0
35073.4 333.298 0
0    0    0

-178.879 36529 0
36529 -308.693 0
0    0    0

43.6222 36141.1 0
36141.1 316.053 0
0    0    0

241.641 35509.5 0
35509.5 225.546 0
0    0    0

168.455 36076.8 0
36076.8 203.455 0
0    0    0

69.6015 33523 0
33523 34.0689 0
0    0    0

128.494 33438.7 0
33438.7 -186.524 0
0    0    0

-22.5151 33782.8 0
33782.8 98.1072 0
0    0    0

229.848 34495.4 0
34495.4 126.297 0
0    0    0

-317.866 35345.7 0
35345.7 -407.201 0
0    0    0

-123.223 35583.4 0
35583.4 -270.834 0
0    0    0

-223.944 34774.5 0
34774.5 -362.558 0
0    0    0

-112.538 34326.9 0
34326.9 61.9227 0
0    0    0

149.767 34168.1 0
34168.1 340.397 0
0    0    0

-234.474 34833.3 0
34833.3 -261.57 0
0    0    0

-171.163 34022.9 0
34022.9 -13.8494 0
0    0    0

-186.735 34411.8 0
34411.8 129.811 0
0    0    0

59.3424 32769 0
32769 287.638 0
0    0    0

314.279 33808.5 0
33808.5 20.7771 0
0    0    0

28.4775 32456.8 0
32456.8 191.607 0
0    0    0

114.951 32376.2 0
32376.2 432.971 0
0    0    0

178.883 33744.5 0
33744.5 211.679 0
0    0    0

5.03987 33051.8 0
33051.8 119.376 0
0    0    0

4.47437 31884.8 0
31884.8 -257.949 0
0    0    0

228.206 33334.5 0
33334.5 241.662 0
0    0    0

-134.443 33325.9 0
33325.9 54.965 0
0    0    0

-105.862 33039.9 0
33039.9 -365.164 0
0    0    0

7.94964 32442.4 0
32442.4 -253.187 0
0    0    0

-41.2449 32221.9 0
32221.9 156.096 0
0    0    0

-24.6131 32989.2 0
32989.2 -171.782 0
0    0    0

-43.6491 32924.5 0
32924.5 -282.446 0
0    0    0

-4.41969 14024.1 0
14024.1 -59.9453 0
0    0    0

-280.388 12425.7 0
12425.7 -264.665 0
0    0    0

90.746 14165.7 0
14165.7 210.893 0
0    0    0

3.09436 13506.7 0
13506.7 144.785 0
0    0    0

-174.337 13957.8 0
13957.8 92.6332 0
0    0    0

23.3985 13304.3 0
13304.3 102.058 0
0    0    0

-163.958 13164.4 0
13164.4 -122.386 0
0    0    0

201.991 13764.2 0
13764.2 238.778 0
0    0    0

233.761 16179.8 0
16179.8 267.855 0
0    0    0

-222.322 15378.2 0
15378.2 -316.902 0
0    0    0

-177.485 16179.1 0
16179.1 -229.399 0
0    0    0

-178.027 15509.4 0
15509.4 86.3245 0
0    0    0

48.8695 16199 0
16199 355.69 0
0    0    0

267.173 14929.9 0
14929.9 248.385 0
0    0    0

326.298 15797 0
15797 38.5167 0
0    0    0

-27.58 16289.5 0
16289.5 -14.0918 0
0    0    0

-355.808 16573.2 0
16573.2 -675.931 0
0    0    0

101.783 15741.8 0
15741.8 133.012 0
0    0    0

-276.503 15722.3 0
15722.3 -292.777 0
0    0    0

-2.45567 15508.8 0
15508.8 -284.139 0
0    0    0

243.494 16905.7 0
16905.7 328.904 0
0    0    0

-43.186 16360.5 0
16360.5 -293.72 0
0    0    0

-179.628 14674.1 0
14674.1 -121.833 0
0    0    0

6.10988 15024.8 0
15024.8 45.1759 0
0    0    0

98.8154 15972.1 0
15972.1 -24.9475 0
0    0    0

-38.9631 16062.6 0
16062.6 -116.982 0
0    0    0

277.876 14706.1 0
14706.1 124.337 0
0    0    0

128.408 13071.2 0
13071.2 -11.8142 0
0    0    0

198.849 12991.9 0
12991.9 271.683 0
0    0    0

224.087 13520.4 0
13520.4 280.161 0
0    0    0

130.531 16599.7 0
16599.7 -51.4167 0
0    0    0

285.174 17615.5 0
17615.5 416.819 0
0    0    0

228.078 16069.7 0
16069.7 -144.088 0
0    0    0

-314.42 17356.4 0
17356.4 -494.392 0
0    0    0

-321.421 16521 0
16521 -307.786 0
0    0    0

221.906 17015.4 0
17015.4 291.707 0
0    0    0

101.565 15775 0
15775 -67.7379 0
0    0    0

165.025 16512.8 0
16512.8 -5.3168 0
0    0    0

-194.669 15854.5 0
15854.5 -55.7481 0
0    0    0

52.7886 14922.6 0
14922.6 36.6635 0
0    0    0

318.371 15430.4 0
15430.4 149.552 0
0    0    0

-179.146 15696.7 0
15696.7 -102.373 0
0    0    0

428.384 16730.5 0
16730.5 142.148 0
0    0    0

-173.412 18528.7 0
18528.7 -122.12 0
0    0    0

-245.823 16093 0
16093 -85.0512 0
0    0    0

167.362 15301.1 0
15301.1 325.766 0
0    0    0

-28.0217 16452.2 0
16452.2 119.346 0
0    0    0

185.839 17037.8 0
17037.8 220.087 0
0    0    0

-166.817 15076.2 0
15076.2 -278.587 0
0    0    0

-477.756 15337.1 0
15337.1 -310.087 0
0    0    0

-124.461 21296.3 0
21296.3 205.256 0
0    0    0

-100.874 20975.9 0
20975.9 -82.4731 0
0    0    0

175.187 20375.4 0
20375.4 28.3937 0
0    0    0

-18.7042 21995.4 0
21995.4 167.792 0
0    0    0

-197.493 18084.6 0
18084.6 -199.206 0
0    0    0

63.6572 21373.1 0
21373.1 232.221 0
0    0    0

-228.792 20566.6 0
20566.6 -226.626 0
0    0    0

135.116 20760.7 0
20760.7 284.872 0
0    0    0

206.035 20044.6 0
20044.6 335.575 0
0    0    0

-98.6215 20868.3 0
20868.3 63.0432 0
0    0    0

-210.915 19794.2 0
19794.2 -399.542 0
0    0    0

-273.16 18938.4 0
18938.4 -202.636 0
0    0    0

-108.698 20617.1 0
20617.1 -344.234 0
0    0    0

100.842 21331.5 0
21331.5 47.02 0
0    0    0

71.2782 18519.8 0
18519.8 -167.829 0
0    0    0

-48.6914 20127.6 0
20127.6 106.767 0
0    0    0

-13.9427 20879.8 0
20879.8 31.5547 0
0    0    0

-249.699 21859.9 0
21859.9 -29.5368 0
0    0    0

-105.058 23412.5 0
23412.5 38.4648 0
0    0    0

34.8739 22295.4 0
22295.4 -402.493 0
0    0    0

294.891 18640.3 0
18640.3 125.838 0
0    0    0

203.326 19364.7 0
19364.7 303.758 0
0    0    0

-178.73 19073 0
19073 -61.0955 0
0    0    0

-96.747 19922.8 0
19922.8 143.83 0
0    0    0

-180.663 20291 0
20291 -25.3676 0
0    0    0

32.6348 20107.6 0
20107.6 11.9178 0
0    0    0

-87.9857 20518.5 0
20518.5 22.4751 0
0    0    0

75.2159 20993.6 0
20993.6 415.725 0
0    0    0

-56.0293 21243.2 0
21243.2 -296.962 0
0    0    0

-18.9891 22552.9 0
22552.9 24.2154 0
0    0    0

66.4769 20912.4 0
20912.4 112.175 0
0    0    0

227.553 21635.6 0
21635.6 17.7147 0
0    0    0

-289.236 20137.8 0
20137.8 -215.919 0
0    0    0

-128.184 21874.9 0
21874.9 57.7008 0
0    0    0

-154.985 21460.5 0
21460.5 -255.573 0
0    0    0

90.7517 21300.9 0
21300.9 -42.0734 0
0    0    0

167.919 20431.9 0
20431.9 161.953 0
0    0    0

-83.2184 21123.9 0
21123.9 261.171 0
0    0    0

123.325 20773.8 0
20773.8 -149.386 0
0    0    0

152.797 20923.1 0
20923.1 95.4746 0
0    0    0

-154.237 20541.4 0
20541.4 -74.6675 0
0    0    0

-122.782 22120.3 0
22120.3 -44.5695 0
0    0    0

-219.769 20353.6 0
20353.6 -150.068 0
0    0    0

-16.5465 21089.1 0
21089.1 251.702 0
0    0    0

-38.351 19997 0
19997 -31.2504 0
0    0    0

25.8227 20586.2 0
20586.2 -285.723 0
0    0    0

-77.5919 21771.9 0
21771.9 41.504 0
0    0    0

152.219 23815.9 0
23815.9 167.516 0
0    0    0

234.366 22364.4 0
22364.4 234.524 0
0    0    0

-57.2288 22306 0
22306 109.462 0
0    0    0

4.40901 21720 0
21720 -250.576 0
0    0    0

13.4973 22483.8 0
22483.8 -179.139 0
0    0    0

-80.6495 21756.2 0
21756.2 12.9357 0
0    0    0

36.8285 22209.4 0
22209.4 194.612 0
0    0    0

-68.68 25472.3 0
25472.3 -124.994 0
0    0    0

117.927 26108.6 0
26108.6 57.5041 0
0    0    0

-44.0248 16530.6 0
16530.6 73.0377 0
0    0    0

178.434 15721.2 0
15721.2 120.933 0
0    0    0

99.204 16700.1 0
16700.1 -53.921 0
0    0    0

-289.392 15431.6 0
15431.6 -242.918 0
0    0    0

-246.194 14932.7 0
14932.7 -338.112 0
0    0    0

-97.3779 15278.8 0
15278.8 270.911 0
0    0    0

77.2809 16365.5 0
16365.5 198.161 0
0    0    0

-106.035 16234.7 0
16234.7 294.085 0
0    0    0

-44.677 12499.5 0
12499.5 -238.906 0
0    0    0

23.2055 15827.8 0
15827.8 -164.166 0
0    0    0

206.813 15127.2 0
15127.2 148.941 0
0    0    0

37.9477 14933.2 0
14933.2 -269.305 0
0    0    0

324.782 15640.6 0
15640.6 233.569 0
0    0    0

-46.1006 14520.8 0
14520.8 -56.4133 0
0    0    0

-320.25 13630.8 0
13630.8 -427.203 0
0    0    0

143.491 15315.5 0
15315.5 311.79 0
0    0    0

-160.565 14712.7 0
14712.7 123.041 0
0    0    0

-175.613 15156.1 0
15156.1 -230.451 0
0    0    0

-239.516 16265 0
16265 -473.464 0
0    0    0

51.561 13807.2 0
13807.2 163.297 0
0    0    0

75.3553 15393.5 0
15393.5 -73.4761 0
0    0    0

161.563 15223.1 0
15223.1 355.66 0
0    0    0

136.923 15584.4 0
15584.4 -50.2477 0
0    0    0

-157.996 15567 0
15567 -416.269 0
0    0    0

-172.285 17857 0
17857 -522.047 0
0    0    0

38.9368 16603.2 0
16603.2 -131.127 0
0    0    0

-18.4103 17352.8 0
17352.8 -152.093 0
0    0    0

137.852 16964.1 0
16964.1 -21.8851 0
0    0    0

-278.102 17372.3 0
17372.3 -97.6395 0
0    0    0

-67.3294 17600.9 0
17600.9 58.0462 0
0    0    0

51.9472 17203.6 0
17203.6 -178.417 0
0    0    0

-330.626 17415.4 0
17415.4 -161.287 0
0    0    0

227.505 17624.8 0
17624.8 -110.587 0
0    0    0

14.2153 17211.3 0
17211.3 10.5802 0
0    0    0

-208.389 14723.1 0
14723.1 -200.212 0
0    0    0

160.551 15503.5 0
15503.5 -165.204 0
0    0    0

-233.954 15897.6 0
15897.6 -503.423 0
0    0    0

138.12 16400.3 0
16400.3 167.891 0
0    0    0

-11.3995 16819.6 0
16819.6 126.811 0
0    0    0

-205.958 16678.2 0
16678.2 -343.625 0
0    0    0

80.1361 20241.1 0
20241.1 -42.5375 0
0    0    0

122.509 19754.3 0
19754.3 127.74 0
0    0    0

-319.653 14466.5 0
14466.5 -266.521 0
0    0    0

51.8634 13704.1 0
13704.1 36.6634 0
0    0    0

-170.369 13861.9 0
13861.9 -323.748 0
0    0    0

-292.128 13955.8 0
13955.8 -516.357 0
0    0    0

34.6102 13641.6 0
13641.6 232.784 0
0    0    0

-42.8005 13857.4 0
13857.4 213.446 0
0    0    0

74.8775 12854 0
12854 -1.1067 0
0    0    0

-187.546 11392.1 0
11392.1 -80.3768 0
0    0    0

-230.784 14661.4 0
14661.4 -155.555 0
0    0    0

81.7896 13441.7 0
13441.7 194.503 0
0    0    0

-300.337 14358.3 0
14358.3 -174.64 0
0    0    0

-218.144 14980.8 0
14980.8 -78.3055 0
0    0    0

238.191 14458.4 0
14458.4 167.122 0
0    0    0

-62.0493 13973 0
13973 68.4864 0
0    0    0

110.374 14359.2 0
14359.2 152.076 0
0    0    0

-126.706 14247.3 0
14247.3 -285.531 0
0    0    0

425.962 14531.1 0
14531.1 45.2459 0
0    0    0

132.956 14975.9 0
14975.9 253.966 0
0    0    0

-152.831 14726.9 0
14726.9 -201.59 0
0    0    0

-59.4095 15866.6 0
15866.6 -67.9113 0
0    0    0

-269.579 15233.2 0
15233.2 -346.195 0
0    0    0

125.447 14982.4 0
14982.4 279.082 0
0    0    0

224.042 14364.8 0
14364.8 382.733 0
0    0    0

-153.823 14153.5 0
14153.5 -264.062 0
0    0    0

203.48 14516.8 0
14516.8 265.192 0
0    0    0

143.796 13770.8 0
13770.8 251.653 0
0    0    0

56.6503 13215.9 0
13215.9 222.645 0
0    0    0

-241.495 14080.8 0
14080.8 -365.858 0
0    0    0

-331.125 13658.1 0
13658.1 -166.237 0
0    0    0

-101.896 13513 0
13513 -277.464 0
0    0    0

-144.056 13592.4 0
13592.4 -275.284 0
0    0    0

32.2178 13963.7 0
13963.7 132.619 0
0    0    0

-211.034 15721.1 0
15721.1 -410.241 0
0    0    0

207.414 14441.9 0
14441.9 192.238 0
0    0    0

155.669 15018.6 0
15018.6 130.813 0
0    0    0

-200.809 15478.3 0
15478.3 -178.229 0
0    0    0

155.556 16207.4 0
16207.4 32.7994 0
0    0    0

183.302 15262.2 0
15262.2 255.914 0
0    0    0

-147.401 16183.5 0
16183.5 -352.992 0
0    0    0

158.498 14647.5 0
14647.5 -16.3013 0
0    0    0

213.747 15506.1 0
15506.1 320.905 0
0    0    0

106.884 13862.1 0
13862.1 435.337 0
0    0    0

219.127 14874.9 0
14874.9 215.48 0
0    0    0

-233.949 14844.3 0
14844.3 -216.199 0
0    0    0

273.836 14446.6 0
14446.6 350.59 0
0    0    0

262.584 13943 0
13943 260.544 0
0    0    0

-126.158 14437 0
14437 126.98 0
0    0    0

-283.032 13061.4 0
13061.4 -252.719 0
0    0    0

-25.3477 14140.9 0
14140.9 -178.242 0
0    0    0

-214.584 14265.8 0
14265.8 -355.283 0
0    0    0

187.356 13658.5 0
13658.5 -64.192 0
0    0    0

240.283 13267.6 0
13267.6 109.984 0
0    0    0

-207.264 13778.8 0
13778.8 -101.157 0
0    0    0

-90.4761 13467.5 0
13467.5 22.3863 0
0    0    0

-35.6313 13451.5 0
13451.5 -265.493 0
0    0    0

-113.984 15908.7 0
15908.7 -181.167 0
0    0    0

110.243 15931.2 0
15931.2 275.324 0
0    0    0

113.799 16458.9 0
16458.9 461.733 0
0    0    0

-158.481 16338.2 0
16338.2 -71.8542 0
0    0    0

-146.878 12814.4 0
12814.4 -150.941 0
0    0    0

380.848 13416.6 0
13416.6 213.783 0
0    0    0

-202.927 12692.9 0
12692.9 -123.141 0
0    0    0

267.444 12801.9 0
12801.9 185.21 0
0    0    0

-301.476 13197.4 0
13197.4 -256.244 0
0    0    0

324.166 12954.1 0
12954.1 107.814 0
0    0    0

206.546 13691.7 0
13691.7 356.817 0
0    0    0

-125.141 15618.2 0
15618.2 50.7299 0
0    0    0

-84.791 12361.2 0
12361.2 -199.215 0
0    0    0

118.634 11516.7 0
11516.7 171.937 0
0    0    0

-4.48161 14880.9 0
14880.9 87.9082 0
0    0    0

147.424 15729 0
15729 280.379 0
0    0    0

-59.4054 12161 0
12161 -87.4949 0
0    0    0

144.909 12147.1 0
12147.1 157.662 0
0    0    0

31.7847 11371.5 0
11371.5 177.873 0
0    0    0

38.6194 10069.2 0
10069.2 120.766 0
0    0    0

-278.006 12608.3 0
12608.3 -209.548 0
0    0    0

-84.0899 13045.7 0
13045.7 -249.634 0
0    0    0

192.218 11635.2 0
11635.2 224.603 0
0    0    0

-27.8388 12142.3 0
12142.3 -25.4299 0
0    0    0

163.091 49273.1 0
49273.1 -82.3312 0
0    0    0

-215.758 49626 0
49626 -224.644 0
0    0    0

145.064 49851.7 0
49851.7 360.215 0
0    0    0

-166.675 50132.1 0
50132.1 -101.009 0
0    0    0

-65.2704 48244.1 0
48244.1 -156.391 0
0    0    0

-101.432 48290.1 0
48290.1 133.48 0
0    0    0

-98.5633 48482.2 0
48482.2 -182.7 0
0    0    0

90.8555 48128.9 0
48128.9 133.746 0
0    0    0

160.124 48677 0
48677 256.004 0
0    0    0

-175.534 48962.7 0
48962.7 -234.724 0
0    0    0

59.6224 50719 0
50719 -183.311 0
0    0    0

14.5032 48954.7 0
48954.7 202.353 0
0    0    0

198.595 55399.6 0
55399.6 276.946 0
0    0    0

242.919 55061.8 0
55061.8 -20.9889 0
0    0    0

-340.544 55282.2 0
55282.2 -255.707 0
0    0    0

-190.14 54573.6 0
54573.6 -5.35211 0
0    0    0

-201.744 55178.8 0
55178.8 -4.39592 0
0    0    0

-23.5137 54307.7 0
54307.7 90.0572 0
0    0    0

91.8146 54573.3 0
54573.3 -78.641 0
0    0    0

-160.927 54655 0
54655 -1.59246 0
0    0    0

-194.377 49410.2 0
49410.2 -423.711 0
0    0    0

-128.458 48838.6 0
48838.6 -291.435 0
0    0    0

302.9 55981.8 0
55981.8 177.486 0
0    0    0

24.4408 53692.4 0
53692.4 44.3696 0
0    0    0

-315.394 52962.2 0
52962.2 -201.619 0
0    0    0

-17.9305 53890.9 0
53890.9 -270.446 0
0    0    0

-226.486 53839 0
53839 63.3639 0
0    0    0

46 53247.2 0
53247.2 318.74 0
0    0    0

-129.202 52829.1 0
52829.1 -184.64 0
0    0    0

207.695 52685.1 0
52685.1 -101.684 0
0    0    0

124.063 53121.3 0
53121.3 115.488 0
0    0    0

149.772 53686.7 0
53686.7 262.483 0
0    0    0

-258.213 54289.2 0
54289.2 -313.529 0
0    0    0

-23.6783 53506.6 0
53506.6 -446.296 0
0    0    0

197.554 52769.7 0
52769.7 -38.1187 0
0    0    0

2.39415 53506.6 0
53506.6 -191.655 0
0    0    0

-248.163 55260.5 0
55260.5 -20.6085 0
0    0    0

-93.1068 55208.1 0
55208.1 -316.269 0
0    0    0

168.261 53862.9 0
53862.9 371.971 0
0    0    0

-178.862 54400.1 0
54400.1 9.94446 0
0    0    0

131.597 54318.4 0
54318.4 -82.0883 0
0    0    0

-226.675 54117.4 0
54117.4 -161.052 0
0    0    0

-88.3031 55218.2 0
55218.2 -135.122 0
0    0    0

232.786 54930.4 0
54930.4 277.089 0
0    0    0

-68.912 55726.6 0
55726.6 104.866 0
0    0    0

-55.7937 54580.1 0
54580.1 97.2057 0
0    0    0

73.8926 55629.9 0
55629.9 52.8844 0
0    0    0

-186.4 54707.2 0
54707.2 -97.7045 0
0    0    0

-2.05243 53973.9 0
53973.9 235.035 0
0    0    0

-189.238 53898.8 0
53898.8 -153.946 0
0    0    0

-192.82 55805.1 0
55805.1 -346.557 0
0    0    0

140.577 55313.5 0
55313.5 50.1079 0
0    0    0

135.845 53696.5 0
53696.5 -28.301 0
0    0    0

61.3938 54309.9 0
54309.9 32.0015 0
0    0    0

37.3694 51290 0
51290 87.1952 0
0    0    0

171.969 54080.7 0
54080.7 -92.1849 0
0    0    0

-146.545 51182.4 0
51182.4 72.2836 0
0    0    0

-187.344 62376.2 0
62376.2 -80.1891 0
0    0    0

74.9299 62792.1 0
62792.1 282.156 0
0    0    0

-139.195 63465.6 0
63465.6 -146.316 0
0    0    0

-203.487 63776.6 0
63776.6 -16.7918 0
0    0    0

-190.197 62588.7 0
62588.7 -321.825 0
0    0    0

84.4205 63039.4 0
63039.4 196.981 0
0    0    0

-88.9971 63244.6 0
63244.6 -138.848 0
0    0    0

-194.461 62599.8 0
62599.8 -93.5317 0
0    0    0

-66.7812 63402.6 0
63402.6 157.129 0
0    0    0

58.6152 63500.7 0
63500.7 136.769 0
0    0    0

113.159 62582.5 0
62582.5 264.037 0
0    0    0

14.872 62704.9 0
62704.9 -183.201 0
0    0    0

110.128 63656.2 0
63656.2 -68.0144 0
0    0    0

-83.1415 64130.9 0
64130.9 -123.01 0
0    0    0

-310.775 55509.9 0
55509.9 21.1166 0
0    0    0

-17.3595 63690.7 0
63690.7 -141.755 0
0    0    0

160.722 56471.6 0
56471.6 375.018 0
0    0    0

-155.19 55690.9 0
55690.9 -72.7317 0
0    0    0

39.456 67022.6 0
67022.6 149.714 0
0    0    0

244.29 67529.9 0
67529.9 307.929 0
0    0    0

-169.926 65429.3 0
65429.3 -250.23 0
0    0    0

-97.9713 66442.9 0
66442.9 99.2207 0
0    0    0

-155.647 65556.3 0
65556.3 -237.026 0
0    0    0

-70.4606 66052.5 0
66052.5 -149.666 0
0    0    0

-79.5294 66380.3 0
66380.3 -132.282 0
0    0    0

-245.582 66155.1 0
66155.1 -172.823 0
0    0    0

-161.232 64481.7 0
64481.7 112.934 0
0    0    0

-193.772 66246.6 0
66246.6 -333.525 0
0    0    0

292.734 65623.3 0
65623.3 219.259 0
0    0    0

191.908 65919.9 0
65919.9 149.606 0
0    0    0

72.8288 64603.9 0
64603.9 -234.914 0
0    0    0

-37.0327 65034.8 0
65034.8 75.8631 0
0    0    0

-61.9541 64152.5 0
64152.5 -219.495 0
0    0    0

-8.71634 64807.3 0
64807.3 -50.8546 0
0    0    0

125.157 65065.8 0
65065.8 13.7505 0
0    0    0

-73.2588 65957 0
65957 -221.736 0
0    0    0

98.2206 66217.9 0
66217.9 37.1704 0
0    0    0

-102.683 67130.7 0
67130.7 8.78526 0
0    0    0

48.2308 66662.5 0
66662.5 -20.7804 0
0    0    0

-209.364 66847.3 0
66847.3 -150.546 0
0    0    0

23.7355 66207.3 0
66207.3 120.318 0
0    0    0

176.95 67535.3 0
67535.3 99.064 0
0    0    0

63.9303 66649 0
66649 239.469 0
0    0    0

-155.138 66765.7 0
66765.7 153.349 0
0    0    0

96.9978 65632.9 0
65632.9 -10.5649 0
0    0    0

164.297 65283.4 0
65283.4 353.85 0
0    0    0

-96.7604 63754.6 0
63754.6 317.826 0
0    0    0

66.7701 64342.5 0
64342.5 -85.5047 0
0    0    0

-100.682 65677.3 0
65677.3 -195.057 0
0    0    0

146.624 66328.3 0
66328.3 217.29 0
0    0    0

300.777 68564.4 0
68564.4 473.429 0
0    0    0

203.848 68504 0
68504 237.798 0
0    0    0

-167.446 68693.3 0
68693.3 -139.551 0
0    0    0

-101.796 69846.1 0
69846.1 -239.41 0
0    0    0

119.592 69168.1 0
69168.1 -138.684 0
0    0    0

-186.302 69217.1 0
69217.1 -439.035 0
0    0    0

-36.5021 68233.5 0
68233.5 -273.088 0
0    0    0

176.041 68797.1 0
68797.1 198.979 0
0    0    0

-73.5992 70561 0
70561 90.9234 0
0    0    0

86.5553 71076.4 0
71076.4 178.751 0
0    0    0

156.488 71512.2 0
71512.2 178.037 0
0    0    0

-133.341 72727.4 0
72727.4 -126.65 0
0    0    0

14.4014 70548.2 0
70548.2 5.05486 0
0    0    0

-214.542 70218.7 0
70218.7 -249.543 0
0    0    0

234.692 69472.7 0
69472.7 367.116 0
0    0    0

5.14444 70189.3 0
70189.3 -77.8917 0
0    0    0

30.827 73238.4 0
73238.4 -250.101 0
0    0    0

186.986 73928.8 0
73928.8 328.999 0
0    0    0

-183.825 73288.6 0
73288.6 -228.023 0
0    0    0

-291.206 74248.3 0
74248.3 -446.496 0
0    0    0

240.412 71933.2 0
71933.2 309.183 0
0    0    0

-73.9682 72698.9 0
72698.9 407.555 0
0    0    0

-133.941 72285.1 0
72285.1 -109.341 0
0    0    0

-48.7034 72918.8 0
72918.8 -140.763 0
0    0    0

-55.2987 73327.2 0
73327.2 194.403 0
0    0    0

189.723 73502.6 0
73502.6 433.536 0
0    0    0

90.0763 72625.7 0
72625.7 156.316 0
0    0    0

202.594 73270.4 0
73270.4 -122.305 0
0    0    0

-231.236 73747.7 0
73747.7 -110.543 0
0    0    0

-117.772 73046.3 0
73046.3 -461.567 0
0    0    0

78.4399 75998.6 0
75998.6 -53.7825 0
0    0    0

182.651 74958.2 0
74958.2 248.027 0
0    0    0

131.891 73936.4 0
73936.4 -224.142 0
0    0    0

25.0786 73519.1 0
73519.1 45.8952 0
0    0    0

-49.3485 75460.8 0
75460.8 -226.646 0
0    0    0

-249.687 74338.8 0
74338.8 118.007 0
0    0    0

-110.566 77135.3 0
77135.3 -289.535 0
0    0    0

4.41025 75172.6 0
75172.6 232.312 0
0    0    0

46.5286 74977.6 0
74977.6 -2.10294 0
0    0    0

110.31 76143.5 0
76143.5 75.8349 0
0    0    0

-409.504 72718.9 0
72718.9 -348.533 0
0    0    0

3.45539 74769.5 0
74769.5 -203.35 0
0    0    0

-156.542 75471.6 0
75471.6 -32.5793 0
0    0    0

-198.801 74936.2 0
74936.2 -182.203 0
0    0    0

204.723 74450.1 0
74450.1 292.381 0
0    0    0

73.3771 72497.1 0
72497.1 -161.019 0
0    0    0

157.224 73892.7 0
73892.7 257.301 0
0    0    0

-228.97 73751.7 0
73751.7 -97.9986 0
0    0    0

-85.7384 74231.8 0
74231.8 -287.796 0
0    0    0

125.509 71331.9 0
71331.9 71.5657 0
0    0    0

6.7253 73680.7 0
73680.7 20.5344 0
0    0    0

-290.462 73052.5 0
73052.5 -163.067 0
0    0    0

175.559 72748.1 0
72748.1 277.168 0
0    0    0

29.5174 72843.7 0
72843.7 239.272 0
0    0    0

-137.438 70091.3 0
70091.3 35.576 0
0    0    0

146.398 70161.5 0
70161.5 352.439 0
0    0    0

270.619 70307.6 0
70307.6 343.17 0
0    0    0

103.211 70212.4 0
70212.4 454.745 0
0    0    0

-292.564 71309.1 0
71309.1 -344.609 0
0    0    0

-208.611 70592.3 0
70592.3 -549.94 0
0    0    0

179.116 71492.9 0
71492.9 82.3158 0
0    0    0

-67.8271 71102.4 0
71102.4 -84.7173 0
0    0    0

86.8872 70388.9 0
70388.9 -19.22 0
0    0    0

215.467 70287.7 0
70287.7 309.33 0
0    0    0

-170.866 70091 0
70091 -292.416 0
0    0    0

-124.589 70165.8 0
70165.8 107.016 0
0    0    0

93.7331 70097.8 0
70097.8 -24.2964 0
0    0    0

19.3707 69981.8 0
69981.8 118.258 0
0    0    0

-119.054 70754.9 0
70754.9 8.25341 0
0    0    0

105.122 69973.6 0
69973.6 -70.6951 0
0    0    0

44.669 66290.1 0
66290.1 104.228 0
0    0    0

-217.408 66415.4 0
66415.4 -193.737 0
0    0    0

-4.50902 65854 0
65854 -10.5211 0
0    0    0

142.348 66808.3 0
66808.3 332.144 0
0    0    0

-127.201 65699.3 0
65699.3 -349.689 0
0    0    0

159.847 50341.6 0
50341.6 534.617 0
0    0    0

87.8389 50255.6 0
50255.6 260.727 0
0    0    0

280.246 50081.3 0
50081.3 167.848 0
0    0    0

-107.957 50049.3 0
50049.3 -251.84 0
0    0    0

-224.255 49249.1 0
49249.1 -162.609 0
0    0    0

184.099 47031.2 0
47031.2 240.58 0
0    0    0

58.5164 48869.3 0
48869.3 85.3746 0
0    0    0

76.4975 48461 0
48461 185.728 0
0    0    0

-133.394 47489.6 0
47489.6 -240.415 0
0    0    0

206.958 48826.4 0
48826.4 135.6 0
0    0    0

-270.21 48289.9 0
48289.9 -501.788 0
0    0    0

-63.6644 47723.9 0
47723.9 -308.254 0
0    0    0

76.448 47399.5 0
47399.5 101.558 0
0    0    0

-106.657 47896.6 0
47896.6 -141.101 0
0    0    0

-140.218 47182.7 0
47182.7 -142.909 0
0    0    0

186.479 47655.4 0
47655.4 250.617 0
0    0    0

200.332 48251 0
48251 209.524 0
0    0    0

68.6353 48533.2 0
48533.2 67.1057 0
0    0    0

154.396 47988.4 0
47988.4 5.85823 0
0    0    0

-111.945 48456.2 0
48456.2 -126.447 0
0    0    0

74.4994 47272.8 0
47272.8 289.926 0
0    0    0

-205.189 48446.3 0
48446.3 -217.649 0
0    0    0

138.861 47583.5 0
47583.5 132.699 0
0    0    0

-128.605 47064.5 0
47064.5 -279.179 0
0    0    0

218.195 47896.2 0
47896.2 94.7628 0
0    0    0

42.0036 47385.5 0
47385.5 -220.168 0
0    0    0

-15.6506 48305.4 0
48305.4 96.1546 0
0    0    0

-147.569 48581.4 0
48581.4 -339.992 0
0    0    0

267.771 46729.7 0
46729.7 165.684 0
0    0    0

223.044 46229.9 0
46229.9 399.791 0
0    0    0

-148.761 47273.2 0
47273.2 -370.045 0
0    0    0

91.7099 46214.8 0
46214.8 228.131 0
0    0    0

-205.434 46794.9 0
46794.9 -177.175 0
0    0    0

166.651 46823.2 0
46823.2 348.16 0
0    0    0

79.4746 47628.5 0
47628.5 16.5313 0
0    0    0

207.538 47062.9 0
47062.9 -146.136 0
0    0    0

-159.838 46674.2 0
46674.2 -230.422 0
0    0    0

106.968 46184.8 0
46184.8 391.57 0
0    0    0

-149.387 48110.2 0
48110.2 -118.438 0
0    0    0

90.0172 48847.9 0
48847.9 227.88 0
0    0    0

236.59 48273.3 0
48273.3 315.1 0
0    0    0

-107.425 47980.2 0
47980.2 -319.189 0
0    0    0

-88.3754 47041.2 0
47041.2 -156.073 0
0    0    0

-9.6519 46599.7 0
46599.7 -123.821 0
0    0    0

73.535 50417.1 0
50417.1 -46.3914 0
0    0    0

149.728 50362.1 0
50362.1 152.853 0
0    0    0

-253.739 51652.1 0
51652.1 -113.458 0
0    0    0

-128.12 50658.3 0
50658.3 -52.0447 0
0    0    0

132.907 52291.2 0
52291.2 118.502 0
0    0    0

-8.08484 51656.6 0
51656.6 131.562 0
0    0    0

-86.9128 51765.7 0
51765.7 -232.403 0
0    0    0

108.385 51244.3 0
51244.3 154.35 0
0    0    0

-235.785 52176.5 0
52176.5 -60.7526 0
0    0    0

62.9402 51419.1 0
51419.1 304.287 0
0    0    0

108.625 43523.5 0
43523.5 222.066 0
0    0    0

72.1197 44303.7 0
44303.7 -64.9747 0
0    0    0

-113.579 44872.4 0
44872.4 -146.704 0
0    0    0

-142.303 45261.8 0
45261.8 -353.662 0
0    0    0

101.37 45090.1 0
45090.1 101.955 0
0    0    0

-201.886 44867.9 0
44867.9 68.522 0
0    0    0

-130.488 41478.8 0
41478.8 -82.8566 0
0    0    0

136.193 43512.7 0
43512.7 188.448 0
0    0    0

84.2165 44075.8 0
44075.8 318.084 0
0    0    0

-167.18 43819.7 0
43819.7 -371.981 0
0    0    0

146.269 44415.9 0
44415.9 -146.913 0
0    0    0

-46.8752 43697.4 0
43697.4 301.285 0
0    0    0

-16.1316 43267.6 0
43267.6 -274.332 0
0    0    0

-49.6451 42967.5 0
42967.5 -61.7765 0
0    0    0

147.35 41876.1 0
41876.1 43.2941 0
0    0    0

-23.4209 40763.4 0
40763.4 -16.4625 0
0    0    0

107.99 42158.8 0
42158.8 414.789 0
0    0    0

105.819 42868.3 0
42868.3 236.782 0
0    0    0

-127.072 42520.6 0
42520.6 -250.793 0
0    0    0

41.2793 42350.4 0
42350.4 -183.779 0
0    0    0

61.9486 42900.8 0
42900.8 226.338 0
0    0    0

2.67712 42490.8 0
42490.8 52.3574 0
0    0    0

-116.717 42413 0
42413 96.055 0
0    0    0

106.486 42786.2 0
42786.2 433.335 0
0    0    0

-228.081 41817.1 0
41817.1 -49.4447 0
0    0    0

-142.558 41929.5 0
41929.5 -301.138 0
0    0    0

-55.6437 42973.7 0
42973.7 -142.469 0
0    0    0

174.569 42723.6 0
42723.6 487.786 0
0    0    0

190.303 43293 0
43293 185.443 0
0    0    0

145.625 43137.2 0
43137.2 157.376 0
0    0    0

224.848 42047.1 0
42047.1 243.85 0
0    0    0

113.814 39280.7 0
39280.7 137.232 0
0    0    0

73.0971 42310 0
42310 -257.044 0
0    0    0

124.402 42870.4 0
42870.4 223.512 0
0    0    0

-32.0536 42147.4 0
42147.4 186.34 0
0    0    0

194.239 41641.1 0
41641.1 223.099 0
0    0    0

-357.31 41834.7 0
41834.7 -204.334 0
0    0    0

-81.2127 41164.5 0
41164.5 87.4571 0
0    0    0

249.359 41443.3 0
41443.3 247.279 0
0    0    0

240.499 39640.4 0
39640.4 339.003 0
0    0    0

-39.3505 40828.9 0
40828.9 -180.816 0
0    0    0

-79.4688 40969.3 0
40969.3 51.4879 0
0    0    0

-279.55 40010.4 0
40010.4 -224.789 0
0    0    0

-166.88 39534.5 0
39534.5 -342.889 0
0    0    0

79.5431 41233.1 0
41233.1 -69.8033 0
0    0    0

96.0984 40891.7 0
40891.7 144.344 0
0    0    0

-60.4105 41428.1 0
41428.1 -238.609 0
0    0    0

197.597 40203.2 0
40203.2 137.947 0
0    0    0

108.55 41560.8 0
41560.8 247.491 0
0    0    0

224.862 40348.3 0
40348.3 324.911 0
0    0    0

86.1023 41055.3 0
41055.3 -60.8986 0
0    0    0

145.663 40756.9 0
40756.9 22.6703 0
0    0    0

-231.246 40355.4 0
40355.4 126.261 0
0    0    0

-228.457 39855.3 0
39855.3 -164.227 0
0    0    0

200.121 41356.9 0
41356.9 72.1897 0
0    0    0

-126.335 40460.6 0
40460.6 -190.761 0
0    0    0

144.38 42025.1 0
42025.1 189.474 0
0    0    0

-161.71 41114.1 0
41114.1 23.001 0
0    0    0

-89.9108 39859.1 0
39859.1 142.999 0
0    0    0

71.4663 40123.7 0
40123.7 -94.8569 0
0    0    0

-78.9612 42784 0
42784 -314.521 0
0    0    0

3.04184 40632.8 0
40632.8 -231.795 0
0    0    0

161.172 43249.6 0
43249.6 42.5408 0
0    0    0

231.441 42294 0
42294 541.395 0
0    0    0

211.024 40662.5 0
40662.5 38.4343 0
0    0    0

-215.266 40667.1 0
40667.1 -303.157 0
0    0    0

68.3281 40468.1 0
40468.1 40.6919 0
0    0    0

-52.4609 41012 0
41012 -63.7416 0
0    0    0

-90.6632 41904.6 0
41904.6 -233.074 0
0    0    0

-229.835 42208.5 0
42208.5 -402.629 0
0    0    0

19.8332 41784.9 0
41784.9 -108.132 0
0    0    0

319.17 41554.4 0
41554.4 373.116 0
0    0    0

47.4896 42483.2 0
42483.2 298.873 0
0    0    0

-4.87915 42233.6 0
42233.6 200.559 0
0    0    0

-101.391 40731.9 0
40731.9 125.765 0
0    0    0

169.516 39921.1 0
39921.1 -6.4748 0
0    0    0

81.5098 41209 0
41209 202.147 0
0    0    0

130.453 40993.2 0
40993.2 118.648 0
0    0    0

-106.617 41295.4 0
41295.4 -108.487 0
0    0    0

13.8983 40795 0
40795 -292.246 0
0    0    0

-147.318 42182.5 0
42182.5 87.3989 0
0    0    0

-264.965 41222.3 0
41222.3 -487.449 0
0    0    0

-220.953 42881.7 0
42881.7 107.905 0
0    0    0

-224.478 42579.8 0
42579.8 -359.153 0
0    0    0

220.37 40936.1 0
40936.1 166.966 0
0    0    0

201.289 40061.9 0
40061.9 294.736 0
0    0    0

-131.604 41283.2 0
41283.2 -266.449 0
0    0    0

171.103 40898.7 0
40898.7 196.85 0
0    0    0

-174.633 39456.9 0
39456.9 149.559 0
0    0    0

64.2709 39316.6 0
39316.6 288.865 0
0    0    0

82.9555 38702.1 0
38702.1 360.853 0
0    0    0

74.6662 38750.1 0
38750.1 -123.27 0
0    0    0

35.0106 39678.1 0
39678.1 -172.708 0
0    0    0

-128.107 39627 0
39627 -4.9454 0
0    0    0

-105.266 39455 0
39455 59.5849 0
0    0    0

253.084 39253 0
39253 29.7856 0
0    0    0

-89.2917 40125.1 0
40125.1 -309.925 0
0    0    0

216.496 38877.1 0
38877.1 -24.0936 0
0    0    0

-105.693 40020.9 0
40020.9 161.415 0
0    0    0

-71.8874 39533.4 0
39533.4 -388.946 0
0    0    0

125.804 38457.5 0
38457.5 89.3668 0
0    0    0

33.3717 39178.8 0
39178.8 357.344 0
0    0    0

17.5308 37868.7 0
37868.7 -22.0314 0
0    0    0

-59.6285 38539.1 0
38539.1 87.2645 0
0    0    0

105.729 38627.3 0
38627.3 338.081 0
0    0    0

-115.552 37866 0
37866 36.2208 0
0    0    0

65.3505 31625.4 0
31625.4 235.103 0
0    0    0

149.73 31206.9 0
31206.9 207.989 0
0    0    0

317.392 31453 0
31453 -29.4485 0
0    0    0

200.968 31092.3 0
31092.3 19.2509 0
0    0    0

-215.286 30402.3 0
30402.3 -244.908 0
0    0    0

109.415 30608.8 0
30608.8 -80.3067 0
0    0    0

-199.205 31266.8 0
31266.8 11.8266 0
0    0    0

-75.7257 29235.6 0
29235.6 -32.4539 0
0    0    0

80.0381 31888.1 0
31888.1 29.3852 0
0    0    0

-281.138 31615.8 0
31615.8 -242.416 0
0    0    0

-119.015 30598.3 0
30598.3 -310.305 0
0    0    0

78.6459 30452.9 0
30452.9 212.834 0
0    0    0

-102.582 31125.1 0
31125.1 -235.199 0
0    0    0

124.69 30853.1 0
30853.1 -29.3587 0
0    0    0

144.49 29864.2 0
29864.2 89.0487 0
0    0    0

-73.9055 30775.3 0
30775.3 -17.3039 0
0    0    0

257.258 30412.3 0
30412.3 174.985 0
0    0    0

-195.255 30757.3 0
30757.3 -184.931 0
0    0    0

-146.935 30136.1 0
30136.1 -62.9721 0
0    0    0

118.82 30772.8 0
30772.8 224.468 0
0    0    0

-134.748 29473.2 0
29473.2 -57.7493 0
0    0    0

202.305 30197.1 0
30197.1 213.858 0
0    0    0

208.545 30635.8 0
30635.8 178.644 0
0    0    0

127.162 30313.2 0
30313.2 78.7809 0
0    0    0

-29.7642 29695 0
29695 209.247 0
0    0    0

60.7385 30710.2 0
30710.2 -41.7259 0
0    0    0

21.3776 29788.4 0
29788.4 6.37225 0
0    0    0

272.052 30369.2 0
30369.2 573.366 0
0    0    0

71.4273 29554.5 0
29554.5 -185.883 0
0    0    0

110.981 30124.5 0
30124.5 -264.236 0
0    0    0

264.748 28103.3 0
28103.3 398.392 0
0    0    0

-115.127 28348.1 0
28348.1 -263.506 0
0    0    0

244.436 27840.8 0
27840.8 118.175 0
0    0    0

196.79 26948.3 0
26948.3 203.054 0
0    0    0

215.004 28517.1 0
28517.1 266.324 0
0    0    0

-83.2055 28799.5 0
28799.5 -18.4792 0
0    0    0

-101.403 27912.3 0
27912.3 135.153 0
0    0    0

-78.2625 25442.8 0
25442.8 -33.5411 0
0    0    0

68.4552 28156.9 0
28156.9 -191.979 0
0    0    0

182.558 27232 0
27232 485.13 0
0    0    0

205.113 27868.4 0
27868.4 118.065 0
0    0    0

132.952 27575.1 0
27575.1 -121.61 0
0    0    0

-276.742 26907.5 0
26907.5 -306.392 0
0    0    0

-260.637 27224.8 0
27224.8 -207.847 0
0    0    0

-215.781 28224.3 0
28224.3 -209.903 0
0    0    0

-53.4185 28632.2 0
28632.2 73.5534 0
0    0    0

189.233 26620 0
26620 114.301 0
0    0    0

32.2459 26039.6 0
26039.6 251.752 0
0    0    0

111.588 28424 0
28424 386.974 0
0    0    0

-141.403 27403.4 0
27403.4 -1.09715 0
0    0    0

-100.788 26749.2 0
26749.2 -86.55 0
0    0    0

-198.841 26220.1 0
26220.1 -521.913 0
0    0    0

95.5687 28889.1 0
28889.1 -4.90401 0
0    0    0

181.799 27807.9 0
27807.9 161.816 0
0    0    0

186.005 27003.2 0
27003.2 7.38279 0
0    0    0

-225.26 26805.3 0
26805.3 -138.992 0
0    0    0

230.018 28778.9 0
28778.9 216.312 0
0    0    0

326.985 27949.8 0
27949.8 269.031 0
0    0    0

171.204 27189.1 0
27189.1 158.269 0
0    0    0

-263.924 28232.7 0
28232.7 -249.028 0
0    0    0

-74.7356 26960.2 0
26960.2 -32.0295 0
0    0    0

-182.716 28607.4 0
28607.4 72.8118 0
0    0    0

56.0689 28039.1 0
28039.1 121.721 0
0    0    0

-99.8625 27475.6 0
27475.6 -37.2858 0
0    0    0

-148.608 27747.1 0
27747.1 -158.747 0
0    0    0

-82.9551 26657.9 0
26657.9 -35.5522 0
0    0    0

-151.278 26030.2 0
26030.2 -64.8333 0
0    0    0

-4.00372 27350.8 0
27350.8 -149.27 0
0    0    0

-88.9775 27052.6 0
27052.6 77.8948 0
0    0    0

-29.6128 27067.7 0
27067.7 -152.448 0
0    0    0

-13.4853 26945.9 0
26945.9 -34.8732 0
0    0    0

-295.893 27723.4 0
27723.4 -56.9533 0
0    0    0

174.495 27456.5 0
27456.5 347.299 0
0    0    0

-27.3552 26366.8 0
26366.8 -11.7236 0
0    0    0

171.338 25895.5 0
25895.5 66.2607 0
0    0    0

151.094 27725.8 0
27725.8 -2.79801 0
0    0    0

-165.365 28175.7 0
28175.7 -195.513 0
0    0    0

70.6475 27233.3 0
27233.3 125.592 0
0    0    0

-93.7228 27674.2 0
27674.2 -40.1669 0
0    0    0

121.854 27546.5 0
27546.5 -120.065 0
0    0    0

-7.55038 25378.7 0
25378.7 -184.134 0
0    0    0

145.794 26301.1 0
26301.1 123.232 0
0    0    0

131.525 26304.8 0
26304.8 -26.3808 0
0    0    0

4.0067 26155.3 0
26155.3 241.651 0
0    0    0

-79.0094 25720.4 0
25720.4 -33.8612 0
0    0    0

64.2375 25633.2 0
25633.2 -93.1258 0
0    0    0

-120.698 26377.3 0
26377.3 -31.3855 0
0    0    0

81.1843 26750.8 0
26750.8 66.5427 0
0    0    0

142.495 25053.6 0
25053.6 117.484 0
0    0    0

-70.8864 25174.9 0
25174.9 -30.3799 0
0    0    0

-114.191 24846.8 0
24846.8 -48.9388 0
0    0    0

259.827 25150.4 0
25150.4 526.89 0
0    0    0

-107.566 24531.8 0
24531.8 -46.0999 0
0    0    0

-274.026 24883.8 0
24883.8 -316.263 0
0    0    0

129.987 24337.9 0
24337.9 126.815 0
0    0    0

56.4789 24042.9 0
24042.9 -71.4254 0
0    0    0

-52.7038 24284.6 0
24284.6 -203.079 0
0    0    0

-100.476 23913.8 0
23913.8 -43.061 0
0    0    0

72.65 23760.4 0
23760.4 26.9923 0
0    0    0

-382.87 23966.3 0
23966.3 -182.549 0
0    0    0

-92.43 23283.1 0
23283.1 -39.6129 0
0    0    0

183.076 23111.6 0
23111.6 240.165 0
0    0    0

197.842 22709.7 0
22709.7 141.394 0
0    0    0

-88.2695 23414.3 0
23414.3 -282.072 0
0    0    0

152.94 29664.4 0
29664.4 194.743 0
0    0    0

-171.076 29747.2 0
29747.2 108.281 0
0    0    0

350.695 35443 0
35443 267.242 0
0    0    0

-127.908 36336 0
36336 -297.878 0
0    0    0

-112.109 36252.1 0
36252.1 138.503 0
0    0    0

217.572 37847.9 0
37847.9 314.515 0
0    0    0

3.22546 36982.7 0
36982.7 -160.292 0
0    0    0

27.3383 36337 0
36337 158.836 0
0    0    0

104.732 35846.2 0
35846.2 203.832 0
0    0    0

38.0217 36671.4 0
36671.4 283.411 0
0    0    0

13.8604 36922.7 0
36922.7 -170.698 0
0    0    0

-154.129 39059.3 0
39059.3 -51.2579 0
0    0    0

73.4591 37099.9 0
37099.9 96.313 0
0    0    0

59.6451 35730.8 0
35730.8 127.539 0
0    0    0

-384.184 36554.6 0
36554.6 -95.7618 0
0    0    0

111.169 35835.6 0
35835.6 374.24 0
0    0    0

-114.496 36335 0
36335 -278.526 0
0    0    0

265.016 37228.8 0
37228.8 186.457 0
0    0    0

-178.402 37601.7 0
37601.7 -390.276 0
0    0    0

44.0084 37448.5 0
37448.5 204.776 0
0    0    0

-235.006 37770.9 0
37770.9 2.39802 0
0    0    0

-240.951 36730.3 0
36730.3 -290.994 0
0    0    0

132.231 36885.1 0
36885.1 131.802 0
0    0    0

-53.5225 37185.7 0
37185.7 -202.777 0
0    0    0

-42.4862 36496.9 0
36496.9 154.282 0
0    0    0

-66.4338 36216.9 0
36216.9 -150.105 0
0    0    0

506.702 39581.5 0
39581.5 150.24 0
0    0    0

109.215 37432.7 0
37432.7 -207.322 0
0    0    0

-59.4047 38819.3 0
38819.3 100.158 0
0    0    0

385.239 39143.7 0
39143.7 126.69 0
0    0    0

-214.923 36967 0
36967 -132.06 0
0    0    0

4.40167 37772.8 0
37772.8 -276.678 0
0    0    0

-138.799 38057.8 0
38057.8 -174.917 0
0    0    0

-194.264 37411.6 0
37411.6 -136.11 0
0    0    0

-17.0329 36625 0
36625 -145.066 0
0    0    0

116.143 36505.5 0
36505.5 -89.6759 0
0    0    0

-198.817 37463.7 0
37463.7 -145.44 0
0    0    0

-39.208 37892 0
37892 158.864 0
0    0    0

149.842 39284.8 0
39284.8 -207.835 0
0    0    0

118.082 38094 0
38094 266.193 0
0    0    0

-245.794 39204.4 0
39204.4 -218.311 0
0    0    0

153.186 37931 0
37931 200.269 0
0    0    0

-218.552 38873.5 0
38873.5 -37.4721 0
0    0    0

117.028 37359.7 0
37359.7 -206.687 0
0    0    0

-86.9063 38527.4 0
38527.4 0.6789 0
0    0    0

-30.1557 37569.4 0
37569.4 -129.749 0
0    0    0

81.4698 37299.2 0
37299.2 260.972 0
0    0    0

57.3843 38127 0
38127 -316.485 0
0    0    0

0.161067 38812 0
38812 -330.737 0
0    0    0

-264.964 38135.3 0
38135.3 -296.903 0
0    0    0

-330 39676.4 0
39676.4 -31.3166 0
0    0    0

18.7529 38927.8 0
38927.8 -27.6403 0
0    0    0

46.3199 38503.3 0
38503.3 -21.9706 0
0    0    0

-168.154 38002.6 0
38002.6 -116.244 0
0    0    0

-140.001 37135.4 0
37135.4 153.597 0
0    0    0

-108.595 37340 0
37340 6.40746 0
0    0    0

107.711 38433.2 0
38433.2 228.07 0
0    0    0

29.7435 38166.4 0
38166.4 -227.32 0
0    0    0

64.6024 39248.8 0
39248.8 371.366 0
0    0    0

-180.526 39380.4 0
39380.4 50.6009 0
0    0    0

-77.1197 40340.5 0
40340.5 -219.095 0
0    0    0

-155.704 40099.2 0
40099.2 -63.3963 0
0    0    0

-107.025 40235.6 0
40235.6 65.0605 0
0    0    0

167.199 39410.2 0
39410.2 295.12 0
0    0    0

-293.253 38555 0
38555 -187.095 0
0    0    0

-92.247 38845.4 0
38845.4 29.6388 0
0    0    0

60.4287 39995.7 0
39995.7 189.617 0
0    0    0

240.119 38758.7 0
38758.7 106.873 0
0    0    0

216.443 39035.9 0
39035.9 86.4727 0
0    0    0

-9.40383 38228.7 0
38228.7 -126.204 0
0    0    0

-19.9454 37893.5 0
37893.5 220.393 0
0    0    0

212.113 38356.4 0
38356.4 138.325 0
0    0    0

38.3489 39596.2 0
39596.2 214.144 0
0    0    0

-192.455 38427.2 0
38427.2 -178.32 0
0    0    0

229.359 38789.2 0
38789.2 36.2226 0
0    0    0

-21.3544 39180.8 0
39180.8 -81.2991 0
0    0    0

12.8167 39867.4 0
39867.4 -97.0324 0
0    0    0

-103.363 39171 0
39171 14.3129 0
0    0    0

-83.1924 38918.7 0
38918.7 -148.296 0
0    0    0

-8.89802 38475.1 0
38475.1 12.9095 0
0    0    0

84.401 38329.3 0
38329.3 38.281 0
0    0    0

194.892 38066.8 0
38066.8 14.1234 0
0    0    0

-233.278 39549.8 0
39549.8 -137.956 0
0    0    0

202.933 39418 0
39418 -41.8284 0
0    0    0

74.8038 30121.2 0
30121.2 -14.3455 0
0    0    0

154.123 29813 0
29813 58.7072 0
0    0    0

125.956 29251 0
29251 91.5172 0
0    0    0

60.5375 29276.6 0
29276.6 25.6734 0
0    0    0

146.018 29459.4 0
29459.4 226.176 0
0    0    0

-132.924 28707.6 0
28707.6 -265.559 0
0    0    0

-169.282 29808.8 0
29808.8 -99.8547 0
0    0    0

40.1542 29005.7 0
29005.7 161.625 0
0    0    0

-209.338 68823.9 0
68823.9 -151.81 0
0    0    0

-4.87006 68742.3 0
68742.3 -302.856 0
0    0    0

-129.079 73951.8 0
73951.8 -70.375 0
0    0    0

-13.9602 74915.1 0
74915.1 -213.155 0
0    0    0

-154.325 73021.9 0
73021.9 -201.688 0
0    0    0

247.204 74171.6 0
74171.6 202.784 0
0    0    0

-215.412 75073.5 0
75073.5 -198.932 0
0    0    0

191.771 74578 0
74578 269.169 0
0    0    0

-220.618 73963.5 0
73963.5 -309.226 0
0    0    0

161.517 73591.8 0
73591.8 331.844 0
0    0    0

-212.934 74262.8 0
74262.8 -16.7742 0
0    0    0

-129.636 74714 0
74714 -128.765 0
0    0    0

-113.314 73559.2 0
73559.2 -60.3305 0
0    0    0

345.802 73887.1 0
73887.1 4.03215 0
0    0    0

-222.784 74314.7 0
74314.7 -379.364 0
0    0    0

-76.9876 74264.9 0
74264.9 -118.876 0
0    0    0

-218.125 74316.1 0
74316.1 -85.8948 0
0    0    0

-26.2271 74567.2 0
74567.2 42.8706 0
0    0    0

76.0783 74000.8 0
74000.8 186.736 0
0    0    0

276.479 74524.1 0
74524.1 481.585 0
0    0    0

178.628 74868.8 0
74868.8 56.6698 0
0    0    0

-194.729 74399.8 0
74399.8 -150.593 0
0    0    0

64.3629 73840.9 0
73840.9 136.978 0
0    0    0

-251.366 73927 0
73927 -122.223 0
0    0    0

-92.9521 77351 0
77351 -131.017 0
0    0    0

-202.783 76225.3 0
76225.3 -194.71 0
0    0    0

-23.2264 73278.5 0
73278.5 -334.028 0
0    0    0

144.288 73311.8 0
73311.8 -238.083 0
0    0    0

197.693 76723.6 0
76723.6 80.7014 0
0    0    0

117.611 75295.4 0
75295.4 -10.2676 0
0    0    0

82.6826 75541.5 0
75541.5 189.88 0
0    0    0

-203.588 74507.3 0
74507.3 -460.008 0
0    0    0

-279.23 75707 0
75707 -38.1341 0
0    0    0

-115.748 74860.2 0
74860.2 -92.4256 0
0    0    0

137.119 70797.5 0
70797.5 -55.7871 0
0    0    0

-133.134 71517.7 0
71517.7 -206.935 0
0    0    0

193.452 70860.2 0
70860.2 191.958 0
0    0    0

99.4502 70179.6 0
70179.6 -146.585 0
0    0    0

22.5942 70193.4 0
70193.4 155.096 0
0    0    0

71.7181 69199 0
69199 175.048 0
0    0    0

34.0724 68208.2 0
68208.2 308.489 0
0    0    0

-114.449 70125.4 0
70125.4 134.147 0
0    0    0

-10.418 69439.7 0
69439.7 -329.717 0
0    0    0

-117.515 69654.3 0
69654.3 -150.724 0
0    0    0

13.7159 68983 0
68983 -50.4933 0
0    0    0

42.3945 70420.2 0
70420.2 304.992 0
0    0    0

-53.4231 71426.7 0
71426.7 48.347 0
0    0    0

181.406 71862 0
71862 319.921 0
0    0    0

-4.68863 76235.6 0
76235.6 -298.064 0
0    0    0

-125.194 76413.8 0
76413.8 -224.15 0
0    0    0

79.4636 68419.5 0
68419.5 -128.984 0
0    0    0

-244.894 68044.7 0
68044.7 -216.292 0
0    0    0

204.182 68549.5 0
68549.5 205.631 0
0    0    0

-200.281 68740.3 0
68740.3 -313.222 0
0    0    0

-309.078 69609.1 0
69609.1 -214.738 0
0    0    0

-207.384 70102.1 0
70102.1 -212.492 0
0    0    0

-268.623 69785.4 0
69785.4 -297.899 0
0    0    0

-177.318 69346.6 0
69346.6 -196.45 0
0    0    0

-122.703 68984.1 0
68984.1 13.7589 0
0    0    0

-301.72 69107.1 0
69107.1 172.447 0
0    0    0

228.498 68731.7 0
68731.7 15.4876 0
0    0    0

135.265 69615.3 0
69615.3 141.495 0
0    0    0

138.702 57489 0
57489 411.586 0
0    0    0

133.864 57369.1 0
57369.1 331.115 0
0    0    0

-103.099 55897.7 0
55897.7 181.823 0
0    0    0

27.7744 55682.4 0
55682.4 142.179 0
0    0    0

49.5538 55907.7 0
55907.7 126.13 0
0    0    0

-100.094 55577.1 0
55577.1 -186.219 0
0    0    0

49.6019 55324.4 0
55324.4 211.212 0
0    0    0

-39.9933 54842.7 0
54842.7 211.368 0
0    0    0

224.897 53880.4 0
53880.4 142.209 0
0    0    0

136.094 54275.2 0
54275.2 235.835 0
0    0    0

126.268 53714.5 0
53714.5 -107.659 0
0    0    0

131.598 55697.8 0
55697.8 -66.4159 0
0    0    0

69.8967 53324.2 0
53324.2 -146.359 0
0    0    0

-66.1097 54034.9 0
54034.9 146.519 0
0    0    0

20.571 52663.9 0
52663.9 177.728 0
0    0    0

-196.937 53070.9 0
53070.9 69.6972 0
0    0    0

-2.59596 54136 0
54136 -222.034 0
0    0    0

-196.724 54781.5 0
54781.5 -326.869 0
0    0    0

73.0889 52300.1 0
52300.1 28.0965 0
0    0    0

223.464 54301.8 0
54301.8 -102.193 0
0    0    0

-136.005 52148 0
52148 -153.769 0
0    0    0

117.649 52512.6 0
52512.6 96.9413 0
0    0    0

-166.727 54178.7 0
54178.7 -121.882 0
0    0    0

26.0595 55204.9 0
55204.9 -158.197 0
0    0    0

180.417 54443.4 0
54443.4 248.579 0
0    0    0

150.434 55045 0
55045 -13.4115 0
0    0    0

67.4212 52731.3 0
52731.3 -82.3543 0
0    0    0

87.9718 52714.3 0
52714.3 -170.985 0
0    0    0

40.2418 53615 0
53615 -145.454 0
0    0    0

287.76 54354 0
54354 249.464 0
0    0    0

80.9781 55117.5 0
55117.5 -134.946 0
0    0    0

-0.646404 55110.2 0
55110.2 -158.923 0
0    0    0

41.6194 54881.3 0
54881.3 -61.4842 0
0    0    0

55.1506 55349.7 0
55349.7 124.715 0
0    0    0

63.4267 55359.9 0
55359.9 13.2283 0
0    0    0

-90.0022 55040.3 0
55040.3 122.945 0
0    0    0

-124.985 54668.1 0
54668.1 -234.657 0
0    0    0

-243.285 54875 0
54875 -207.153 0
0    0    0

157.626 54591.4 0
54591.4 260.626 0
0    0    0

224.025 54873.2 0
54873.2 106.677 0
0    0    0

-80.8659 53299.2 0
53299.2 120.712 0
0    0    0

250.12 52974 0
52974 -50.4082 0
0    0    0

80.1355 54141.9 0
54141.9 168.875 0
0    0    0

-16.132 53929.6 0
53929.6 -60.8458 0
0    0    0

-192.075 56978.9 0
56978.9 -162.62 0
0    0    0

285.931 57891.8 0
57891.8 -28.2822 0
0    0    0

-64.0428 53832.9 0
53832.9 182.086 0
0    0    0

-122.548 53358.6 0
53358.6 -108.829 0
0    0    0

208.259 53984.4 0
53984.4 343.108 0
0    0    0

-149.77 54660.4 0
54660.4 52.8474 0
0    0    0

-98.4379 53417 0
53417 -194.456 0
0    0    0

201.436 53039.3 0
53039.3 294.555 0
0    0    0

153.88 54875.7 0
54875.7 -18.3786 0
0    0    0

-19.853 55605.2 0
55605.2 -151.434 0
0    0    0

-173.316 54418.2 0
54418.2 -361.381 0
0    0    0

68.7519 53795.8 0
53795.8 171.188 0
0    0    0

-56.4993 54792.8 0
54792.8 -215.645 0
0    0    0

-170.946 55155.7 0
55155.7 -285.599 0
0    0    0

-54.1583 53343.1 0
53343.1 140.987 0
0    0    0

-205.637 52681.4 0
52681.4 -238.768 0
0    0    0

-196.873 53757.4 0
53757.4 -107.765 0
0    0    0

-195.593 54036.6 0
54036.6 -17.5317 0
0    0    0

59.468 53037.4 0
53037.4 262.591 0
0    0    0

185.145 53608.1 0
53608.1 61.3186 0
0    0    0

-81.2893 52133.3 0
52133.3 -312.953 0
0    0    0

-195.002 52858.3 0
52858.3 -246.207 0
0    0    0

-242.085 55611.7 0
55611.7 -553.287 0
0    0    0

-243.23 57299 0
57299 -258.613 0
0    0    0

65.916 53778.2 0
53778.2 215.509 0
0    0    0

-46.8352 53660.6 0
53660.6 -118.578 0
0    0    0

-232.767 51835.9 0
51835.9 -215.607 0
0    0    0

218.171 52360.1 0
52360.1 48.5263 0
0    0    0

-224.564 55092.2 0
55092.2 -354.726 0
0    0    0

105.868 55402.7 0
55402.7 379.87 0
0    0    0

40.1429 55556.5 0
55556.5 -299.329 0
0    0    0

-15.2126 56094.8 0
56094.8 -91.6263 0
0    0    0

-207.479 56186.9 0
56186.9 -193.682 0
0    0    0

176.218 56374.6 0
56374.6 9.72023 0
0    0    0

69.9041 52801.1 0
52801.1 77.7914 0
0    0    0

200.306 52427.2 0
52427.2 273.262 0
0    0    0

-58.8284 52107.3 0
52107.3 65.3754 0
0    0    0

237.076 49794.2 0
49794.2 328.158 0
0    0    0

185.808 55943.8 0
55943.8 269.43 0
0    0    0

-179.234 56529.5 0
56529.5 -1.16395 0
0    0    0

-107.129 56592.1 0
56592.1 -8.9624 0
0    0    0

-262.855 59067 0
59067 -329.709 0
0    0    0

-3.31676 56922.2 0
56922.2 -162.173 0
0    0    0

140.201 56366.6 0
56366.6 -138.39 0
0    0    0

82.5709 57140.2 0
57140.2 199.555 0
0    0    0

-198.312 58635.7 0
58635.7 -283.527 0
0    0    0

188.229 56845.2 0
56845.2 68.9588 0
0    0    0

179.857 56667.1 0
56667.1 75.7354 0
0    0    0

-79.4533 57109.6 0
57109.6 158.496 0
0    0    0

139.035 57022.8 0
57022.8 167.293 0
0    0    0

114.736 56802.8 0
56802.8 -23.3008 0
0    0    0

136.003 58200.3 0
58200.3 199.863 0
0    0    0

-55.1432 57704.9 0
57704.9 -357.788 0
0    0    0

-241.725 58358.4 0
58358.4 -137.641 0
0    0    0

-74.6587 56913.4 0
56913.4 80.2836 0
0    0    0

-237.123 57761.4 0
57761.4 -297.147 0
0    0    0

-183.422 56950.9 0
56950.9 -322.046 0
0    0    0

208.195 57606.6 0
57606.6 173.909 0
0    0    0

141.113 58594.7 0
58594.7 267.165 0
0    0    0

-278.498 57995.6 0
57995.6 -373.03 0
0    0    0

-25.6268 57120.5 0
57120.5 -235.528 0
0    0    0

-122.315 57471.3 0
57471.3 -171.547 0
0    0    0

238.836 58033.1 0
58033.1 284.033 0
0    0    0

200.324 58575.7 0
58575.7 242.645 0
0    0    0

96.4637 52746.9 0
52746.9 -95.9045 0
0    0    0

159.674 51334.1 0
51334.1 181.458 0
0    0    0

-229.607 52808.6 0
52808.6 -36.5133 0
0    0    0

-90.9422 52198.4 0
52198.4 -224.422 0
0    0    0

218.075 56466.1 0
56466.1 35.9584 0
0    0    0

165.367 55990.3 0
55990.3 -197.74 0
0    0    0

-3.79856 58361.7 0
58361.7 229.973 0
0    0    0

70.8671 59614.7 0
59614.7 5.26443 0
0    0    0

-161.814 57482.5 0
57482.5 -180.812 0
0    0    0

143.393 57616.1 0
57616.1 200.188 0
0    0    0

149.57 56465 0
56465 148.807 0
0    0    0

145.671 56707.3 0
56707.3 378.288 0
0    0    0

-52.8572 57902.3 0
57902.3 -130.488 0
0    0    0

273.598 58374.8 0
58374.8 559.524 0
0    0    0

-4.05676 58654.3 0
58654.3 -257.292 0
0    0    0

30.5811 59908.5 0
59908.5 -83.6887 0
0    0    0

-149.579 60061.8 0
60061.8 -311.646 0
0    0    0

187.466 58950.5 0
58950.5 206.126 0
0    0    0

-241.608 58094.9 0
58094.9 -265.834 0
0    0    0

-146.471 59405 0
59405 17.3662 0
0    0    0

-74.1512 56224.8 0
56224.8 68.6749 0
0    0    0

94.3257 56604.7 0
56604.7 277.245 0
0    0    0

31.7819 55722.2 0
55722.2 55.7382 0
0    0    0

152.486 55177.7 0
55177.7 15.4805 0
0    0    0

298.872 57171.9 0
57171.9 239.274 0
0    0    0

-52.2527 57496.4 0
57496.4 125.644 0
0    0    0

-56.8214 59371.8 0
59371.8 -94.2632 0
0    0    0

57.9666 59853 0
59853 170.554 0
0    0    0

-97.0721 57358.4 0
57358.4 -224.741 0
0    0    0

49.0224 58361.9 0
58361.9 -32.7925 0
0    0    0

-166.191 57858 0
57858 108.213 0
0    0    0

-230.684 58779.1 0
58779.1 -64.3129 0
0    0    0

-157.852 56195.8 0
56195.8 1.62404 0
0    0    0

-183.27 55804.5 0
55804.5 139.071 0
0    0    0

181.927 57106.9 0
57106.9 67.3587 0
0    0    0

-91.1993 57725.9 0
57725.9 160.75 0
0    0    0

-188.011 47694.4 0
47694.4 -360.553 0
0    0    0

85.7239 47543.4 0
47543.4 -113.502 0
0    0    0

345.834 48814 0
48814 258.274 0
0    0    0

-269.786 51166 0
51166 -287.069 0
0    0    0

-216.772 49020.8 0
49020.8 -150.142 0
0    0    0

-183.864 51430.1 0
51430.1 18.1461 0
0    0    0

309.176 48497.8 0
48497.8 153.065 0
0    0    0

7.20766 49305.7 0
49305.7 -62.0144 0
0    0    0

273.717 50319 0
50319 172.744 0
0    0    0

-144.78 51773.9 0
51773.9 -463.803 0
0    0    0

-223.472 51927.5 0
51927.5 142.061 0
0    0    0

149.979 51306.5 0
51306.5 201.548 0
0    0    0

122.998 52346.3 0
52346.3 297.032 0
0    0    0

-18.363 50634.9 0
50634.9 -79.8181 0
0    0    0

105.42 52200.1 0
52200.1 163.338 0
0    0    0

236.66 51867 0
51867 149.127 0
0    0    0

-279.243 51633.3 0
51633.3 -181.771 0
0    0    0

210.532 52113.6 0
52113.6 47.5182 0
0    0    0

-45.1653 52368.8 0
52368.8 -157.126 0
0    0    0

279.905 52515 0
52515 293.644 0
0    0    0

141.956 50293.8 0
50293.8 388.882 0
0    0    0

86.2386 49809.4 0
49809.4 -6.00603 0
0    0    0

45.8402 55140.1 0
55140.1 173.889 0
0    0    0

15.1356 54703.5 0
54703.5 103.152 0
0    0    0

-110.817 51155.4 0
51155.4 32.4845 0
0    0    0

121.897 51160.1 0
51160.1 101.528 0
0    0    0

-134.361 54864.3 0
54864.3 -398.427 0
0    0    0

36.947 53815.7 0
53815.7 -247.711 0
0    0    0

-25.0626 53779 0
53779 254.939 0
0    0    0

99.8188 53455.3 0
53455.3 369.442 0
0    0    0

215.493 54357.6 0
54357.6 279.186 0
0    0    0

-148.468 52034 0
52034 -388.917 0
0    0    0

178.087 57576.2 0
57576.2 280.896 0
0    0    0

-224.629 57920.9 0
57920.9 -248.927 0
0    0    0

23.5308 58309.5 0
58309.5 -120.464 0
0    0    0

13.9803 58323.9 0
58323.9 135.477 0
0    0    0

177.856 59041.2 0
59041.2 -21.4146 0
0    0    0

214.584 58926.8 0
58926.8 228.847 0
0    0    0

-23.158 58173.8 0
58173.8 156.249 0
0    0    0

7.42385 58263.5 0
58263.5 -148.149 0
0    0    0

-206.574 58231.9 0
58231.9 -99.3847 0
0    0    0

-62.0757 58273.2 0
58273.2 -219.633 0
0    0    0

143.514 60080.1 0
60080.1 25.9759 0
0    0    0

208.499 60905.9 0
60905.9 134.686 0
0    0    0

104.763 58049.4 0
58049.4 32.2524 0
0    0    0

-312.265 59093.8 0
59093.8 -339.613 0
0    0    0

-165.853 59230.5 0
59230.5 -212.983 0
0    0    0

143.54 58806.9 0
58806.9 72.4977 0
0    0    0

66.3214 59574.1 0
59574.1 -58.5474 0
0    0    0

223.93 59463.1 0
59463.1 276.9 0
0    0    0

-16.2822 60055.4 0
60055.4 168.113 0
0    0    0

-257.679 59328.1 0
59328.1 -161.828 0
0    0    0

185.324 60180.6 0
60180.6 135.734 0
0    0    0

-111.235 59281.1 0
59281.1 -54.7244 0
0    0    0

10.1218 58508.9 0
58508.9 189.168 0
0    0    0

-94.2997 58721.6 0
58721.6 32.4967 0
0    0    0

444.615 59588.3 0
59588.3 334.977 0
0    0    0

-346.983 59944 0
59944 -319.548 0
0    0    0

184.153 57420.7 0
57420.7 542.398 0
0    0    0

353.601 57277.2 0
57277.2 166.248 0
0    0    0

-61.6508 56346 0
56346 -146.131 0
0    0    0

-255.664 56605.2 0
56605.2 23.5303 0
0    0    0

213.047 55651 0
55651 193.807 0
0    0    0

187.823 55602 0
55602 57.447 0
0    0    0

101.543 46770 0
46770 -212.593 0
0    0    0

67.4404 47087.3 0
47087.3 449.442 0
0    0    0

-61.2325 47103.9 0
47103.9 -26.1572 0
0    0    0

50.3997 47026.6 0
47026.6 51.4235 0
0    0    0

99.8099 46617 0
46617 57.5484 0
0    0    0

112.768 47924.9 0
47924.9 -55.3383 0
0    0    0

-100.699 46738.9 0
46738.9 -292.213 0
0    0    0

-62.1259 46973.8 0
46973.8 -122.063 0
0    0    0

-146.464 48081.7 0
48081.7 -113.681 0
0    0    0

-103.597 47375.7 0
47375.7 -153.626 0
0    0    0

-56.7401 46490.2 0
46490.2 121.647 0
0    0    0

-2.55808 46682.6 0
46682.6 191.227 0
0    0    0

19.241 48376.6 0
48376.6 -240.889 0
0    0    0

281.845 48572.7 0
48572.7 230.492 0
0    0    0

229.088 46996.2 0
46996.2 163.169 0
0    0    0

-125.413 47761.1 0
47761.1 -239.02 0
0    0    0

174.666 46264.7 0
46264.7 245.334 0
0    0    0

51.5108 47246.2 0
47246.2 -201.645 0
0    0    0

-242.005 47902.1 0
47902.1 -122.11 0
0    0    0

228.095 49435.4 0
49435.4 229.773 0
0    0    0

-19.1133 48406.4 0
48406.4 -219.545 0
0    0    0

187.181 48720.9 0
48720.9 328.384 0
0    0    0

85.4875 47577 0
47577 137.907 0
0    0    0

-153.783 48445.7 0
48445.7 -311.174 0
0    0    0

-164.535 49110.6 0
49110.6 -282.011 0
0    0    0

-151.628 48995 0
48995 -216.836 0
0    0    0

-98.6562 47469.8 0
47469.8 -78.3917 0
0    0    0

-168.899 46822.5 0
46822.5 -371.022 0
0    0    0

-275.452 46073.5 0
46073.5 -186.172 0
0    0    0

-271.064 46598 0
46598 -47.1892 0
0    0    0

-228.086 49765.8 0
49765.8 -181.575 0
0    0    0

-106.134 49037.6 0
49037.6 -66.5031 0
0    0    0

-60.1731 49906.2 0
49906.2 28.6861 0
0    0    0

-6.56745 51304.4 0
51304.4 12.992 0
0    0    0

150.962 48974 0
48974 192.877 0
0    0    0

72.7985 49605.1 0
49605.1 -82.8285 0
0    0    0

181.896 48620.2 0
48620.2 299.055 0
0    0    0

-139.665 49564.3 0
49564.3 -197.233 0
0    0    0

127.083 48105 0
48105 283.138 0
0    0    0

-67.5728 48624.2 0
48624.2 188.45 0
0    0    0

155.501 49587 0
49587 224.769 0
0    0    0

-189.278 50509.7 0
50509.7 -7.35888 0
0    0    0

253.33 49283 0
49283 454.458 0
0    0    0

-25.6816 49930.7 0
49930.7 -19.6968 0
0    0    0

194.309 47467.8 0
47467.8 28.0424 0
0    0    0

-181.42 46282.8 0
46282.8 -284.436 0
0    0    0

-108.842 48888.5 0
48888.5 -129.216 0
0    0    0

-125.164 49408.1 0
49408.1 -130.647 0
0    0    0

96.5895 48136.2 0
48136.2 -87.1798 0
0    0    0

8.44301 50219.4 0
50219.4 -209.25 0
0    0    0

-135.548 48016.6 0
48016.6 59.0089 0
0    0    0

73.1709 49292.4 0
49292.4 -130.617 0
0    0    0

24.0471 49532.9 0
49532.9 111.715 0
0    0    0

76.2523 50111.3 0
50111.3 83.9142 0
0    0    0

203.375 49007.8 0
49007.8 158.408 0
0    0    0

-91.0146 49857.9 0
49857.9 -178.039 0
0    0    0

-125.852 49820.7 0
49820.7 -400.312 0
0    0    0

204.879 49538.1 0
49538.1 189.477 0
0    0    0

152.27 48040.5 0
48040.5 142.581 0
0    0    0

-115.459 47552.1 0
47552.1 -247.583 0
0    0    0

-67.4813 48396.5 0
48396.5 -158.741 0
0    0    0

114.096 47397.9 0
47397.9 397.784 0
0    0    0

112.881 46979.7 0
46979.7 369.741 0
0    0    0

-185.621 47100.8 0
47100.8 -498.145 0
0    0    0

77.9036 45966.6 0
45966.6 -159.323 0
0    0    0

-244.721 47312.2 0
47312.2 -289.743 0
0    0    0

212.431 46030.7 0
46030.7 294.38 0
0    0    0

180.75 46865.2 0
46865.2 286.79 0
0    0    0

-109.223 45878 0
45878 -246.58 0
0    0    0

-91.5147 49084.9 0
49084.9 116.072 0
0    0    0

219.982 46450.2 0
46450.2 146.511 0
0    0    0

77.2058 47270.6 0
47270.6 203.054 0
0    0    0

239.469 47446.6 0
47446.6 105.912 0
0    0    0

241.432 48063.9 0
48063.9 296.232 0
0    0    0

-26.2743 46930.8 0
46930.8 -239.858 0
0    0    0

-175.245 46866.5 0
46866.5 61.9335 0
0    0    0

42.6171 47014.2 0
47014.2 220.698 0
0    0    0

-170.215 47555.5 0
47555.5 -168.546 0
0    0    0

44.1288 48581.5 0
48581.5 16.5268 0
0    0    0

-44.5704 48768.8 0
48768.8 175.726 0
0    0    0

-248.264 46656.2 0
46656.2 -400.622 0
0    0    0

-54.6457 46982.7 0
46982.7 1.56647 0
0    0    0

187.367 48205.3 0
48205.3 255.227 0
0    0    0

-205.988 48523.4 0
48523.4 61.8937 0
0    0    0

-89.6588 49009.4 0
49009.4 -214.534 0
0    0    0

150.387 50290.7 0
50290.7 366.536 0
0    0    0

-10.8499 48535.9 0
48535.9 -186.594 0
0    0    0

84.8989 49250.3 0
49250.3 291.931 0
0    0    0

84.9622 47684.1 0
47684.1 178.172 0
0    0    0

14.1775 48182.8 0
48182.8 180.127 0
0    0    0

-132.665 46158.4 0
46158.4 -195.03 0
0    0    0

101.577 48668.6 0
48668.6 284.381 0
0    0    0

-109.778 47985.6 0
47985.6 -192.986 0
0    0    0

-205.949 47866.9 0
47866.9 -230.859 0
0    0    0

-148.786 49588.9 0
49588.9 -305.846 0
0    0    0

-42.45 50031.9 0
50031.9 174.419 0
0    0    0

120.12 49255.6 0
49255.6 233.526 0
0    0    0

-153.441 50633.4 0
50633.4 -305.879 0
0    0    0

50.706 50886.2 0
50886.2 -156.415 0
0    0    0

29.9272 49649.1 0
49649.1 264.511 0
0    0    0

-123.67 48909 0
48909 -252.183 0
0    0    0

-150.295 50327 0
50327 39.2882 0
0    0    0

-125.212 51858.6 0
51858.6 -265.128 0
0    0    0

-240.665 50810.6 0
50810.6 -309.267 0
0    0    0

-47.478 50612.9 0
50612.9 83.4638 0
0    0    0

111.151 50515.5 0
50515.5 222.091 0
0    0    0

176.383 49884.5 0
49884.5 -189.664 0
0    0    0

-290.346 51451 0
51451 -271.507 0
0    0    0

199.177 51016.3 0
51016.3 364.437 0
0    0    0

-61.9249 49850 0
49850 -251.557 0
0    0    0

-149.294 50608 0
50608 -22.6637 0
0    0    0

153.37 51611.3 0
51611.3 -46.1291 0
0    0    0

-127.59 50823.4 0
50823.4 39.8888 0
0    0    0

17.2772 50570 0
50570 216.999 0
0    0    0

123.31 50127.7 0
50127.7 354.283 0
0    0    0

5.15638 50091.7 0
50091.7 263.934 0
0    0    0

-8.91879 50082.6 0
50082.6 -231.477 0
0    0    0

215.977 50947 0
50947 334.946 0
0    0    0

-149.193 50742.8 0
50742.8 -286.976 0
0    0    0

-10.7965 50354.8 0
50354.8 195.971 0
0    0    0

-178.414 51519 0
51519 -180.727 0
0    0    0

66.7714 50707 0
50707 -100.371 0
0    0    0

196.749 46624.4 0
46624.4 510.028 0
0    0    0

-210.78 47284.3 0
47284.3 -256.839 0
0    0    0

-9.56065 47814.1 0
47814.1 205.39 0
0    0    0

-10.783 47364.2 0
47364.2 -226.899 0
0    0    0

231.795 47668.1 0
47668.1 -1.9164 0
0    0    0

-138.284 49685.2 0
49685.2 -133.047 0
0    0    0

-95.8171 48384.2 0
48384.2 -282.595 0
0    0    0

116.593 48736.8 0
48736.8 19.5235 0
0    0    0

86.7541 47861.4 0
47861.4 -128.74 0
0    0    0

-122.571 47194.1 0
47194.1 -89.5631 0
0    0    0

176.153 47313.4 0
47313.4 105.105 0
0    0    0

-202.23 47656.8 0
47656.8 -97.5687 0
0    0    0

-30.381 46433.7 0
46433.7 380.778 0
0    0    0

-157.33 45328.7 0
45328.7 -228.281 0
0    0    0

115.243 45066.7 0
45066.7 279.409 0
0    0    0

-188.711 44827.3 0
44827.3 131.453 0
0    0    0

221.57 46424.2 0
46424.2 431 0
0    0    0

18.9645 46539.9 0
46539.9 34.0702 0
0    0    0

6.7048 46564.4 0
46564.4 9.97365 0
0    0    0

-110.973 46718.6 0
46718.6 -391.85 0
0    0    0

175.991 45759 0
45759 263.014 0
0    0    0

-137.393 46626.8 0
46626.8 -334.405 0
0    0    0

99.5261 45115 0
45115 39.4276 0
0    0    0

157.143 45402.7 0
45402.7 -25.0918 0
0    0    0

91.1264 44802.8 0
44802.8 -102.64 0
0    0    0

-269.038 45583.8 0
45583.8 -164.65 0
0    0    0

-192.187 44978.9 0
44978.9 -83.0469 0
0    0    0

-101.918 45775.2 0
45775.2 44.3729 0
0    0    0

123.377 44739.8 0
44739.8 309.442 0
0    0    0

-137.693 45845.2 0
45845.2 -8.91391 0
0    0    0

234.53 45142.5 0
45142.5 15.1577 0
0    0    0

-21.2201 45669.8 0
45669.8 -93.7435 0
0    0    0

-110.817 48330.8 0
48330.8 87.2734 0
0    0    0

107.43 46320.5 0
46320.5 437.324 0
0    0    0

-102.674 45041.9 0
45041.9 -383.564 0
0    0    0

-211.063 46619.7 0
46619.7 -365.189 0
0    0    0

119.449 44759.3 0
44759.3 508.94 0
0    0    0

-36.2126 45439.3 0
45439.3 -95.6503 0
0    0    0

100.083 46276.5 0
46276.5 117.262 0
0    0    0

66.3738 46398.1 0
46398.1 -104.598 0
0    0    0

-139.773 47252.5 0
47252.5 227.363 0
0    0    0

-119.85 46559.6 0
46559.6 -129.757 0
0    0    0

240.991 46216.2 0
46216.2 244.454 0
0    0    0

211.542 45233.5 0
45233.5 426.237 0
0    0    0

165.957 46678.9 0
46678.9 181.698 0
0    0    0

-18.8081 47033.4 0
47033.4 -146.406 0
0    0    0

215.827 46157.2 0
46157.2 180.526 0
0    0    0

-93.6116 45698.9 0
45698.9 -220.935 0
0    0    0

-1.38288 45498.3 0
45498.3 382.376 0
0    0    0

-142.337 45390.3 0
45390.3 44.6531 0
0    0    0

-202.187 47495.3 0
47495.3 -296.618 0
0    0    0

-44.6072 48319 0
48319 -271.668 0
0    0    0

-308.028 49049.3 0
49049.3 156.408 0
0    0    0

-119.353 49883.6 0
49883.6 -12.7636 0
0    0    0

119.986 48610.7 0
48610.7 194.131 0
0    0    0

173.759 49294.9 0
49294.9 35.3753 0
0    0    0

181.471 44693.4 0
44693.4 -40.1024 0
0    0    0

-85.1445 45820.3 0
45820.3 164.385 0
0    0    0

4.12657 47214.4 0
47214.4 27.5002 0
0    0    0

274.945 46996.7 0
46996.7 410.061 0
0    0    0

-195.949 47015.5 0
47015.5 -65.4765 0
0    0    0

-92.1101 47730.7 0
47730.7 -137.517 0
0    0    0

-257.431 46752.8 0
46752.8 -450.205 0
0    0    0

43.8267 47191.4 0
47191.4 319.685 0
0    0    0

165.335 45703.4 0
45703.4 222.832 0
0    0    0

20.2204 45879.5 0
45879.5 -245.159 0
0    0    0

-44.4691 47931.6 0
47931.6 -260.021 0
0    0    0

-221.349 46552.5 0
46552.5 -294.583 0
0    0    0

167.886 47854.6 0
47854.6 -80.2544 0
0    0    0

269.812 49463.2 0
49463.2 78.4202 0
0    0    0

251.26 49055.8 0
49055.8 324.111 0
0    0    0

-221.537 49737.2 0
49737.2 -408.797 0
0    0    0

4.63359 50051.1 0
50051.1 -218.423 0
0    0    0

139.715 49146.7 0
49146.7 198.719 0
0    0    0

-123.192 48862.2 0
48862.2 -8.02024 0
0    0    0

96.8081 48940.3 0
48940.3 -159.751 0
0    0    0

90.8984 45172.6 0
45172.6 274.368 0
0    0    0

-275.164 45003 0
45003 -557.459 0
0    0    0

-151.712 45094.2 0
45094.2 -2.39271 0
0    0    0

87.878 45200.5 0
45200.5 290.073 0
0    0    0

205.49 46822.6 0
46822.6 343.372 0
0    0    0

261.622 46330.6 0
46330.6 366.954 0
0    0    0

151.332 47123.1 0
47123.1 100.546 0
0    0    0

74.8776 47690.7 0
47690.7 -114.672 0
0    0    0

100.299 46057.2 0
46057.2 88.6672 0
0    0    0

-32.1637 46477 0
46477 -168.355 0
0    0    0

246.092 47539.9 0
47539.9 225.634 0
0    0    0

107.79 48073.6 0
48073.6 112.819 0
0    0    0

147.12 45588.2 0
45588.2 -206.832 0
0    0    0

98.9923 46187 0
46187 -86.5139 0
0    0    0

44.5959 45994.9 0
45994.9 -251.819 0
0    0    0

-42.7952 46425.1 0
46425.1 -187.124 0
0    0    0

-77.6026 46832.7 0
46832.7 132.248 0
0    0    0

7.00518 46923.5 0
46923.5 269.288 0
0    0    0

32.1939 48482.8 0
48482.8 160.316 0
0    0    0

-285.862 49336.7 0
49336.7 -287.399 0
0    0    0

-150.225 49233.3 0
49233.3 -182.966 0
0    0    0

325.762 49657.2 0
49657.2 528.872 0
0    0    0

-229.308 48687.4 0
48687.4 -319.772 0
0    0    0

-123.051 48189.9 0
48189.9 -96.4858 0
0    0    0

-231.078 47314.1 0
47314.1 -284.909 0
0    0    0

-157.717 47612.9 0
47612.9 -191.358 0
0    0    0

206.368 48688.6 0
48688.6 195.666 0
0    0    0

3.79445 48368.5 0
48368.5 -17.8728 0
0    0    0

69.1695 48234.1 0
48234.1 45.5357 0
0    0    0

-352.441 48473.7 0
48473.7 -230.214 0
0    0    0

104.201 45687.6 0
45687.6 -180.121 0
0    0    0

-59.6887 45716.6 0
45716.6 -117.435 0
0    0    0

19.6953 45454.5 0
45454.5 294.1 0
0    0    0

145.525 46004.4 0
46004.4 332.022 0
0    0    0

387.939 39352.3 0
39352.3 242.028 0
0    0    0

209.368 39977.3 0
39977.3 46.4063 0
0    0    0

76.7845 35432.6 0
35432.6 -241.972 0
0    0    0

-169.295 36048.7 0
36048.7 -274.233 0
0    0    0

72.7313 36613.6 0
36613.6 213.811 0
0    0    0

147.644 36212.4 0
36212.4 170.759 0
0    0    0

-306.601 37149 0
37149 -213.095 0
0    0    0

98.6375 38048.2 0
38048.2 -155.84 0
0    0    0

274.004 39984 0
39984 361.708 0
0    0    0

-270.445 39303.7 0
39303.7 -199.112 0
0    0    0

32.8987 39464.8 0
39464.8 210.81 0
0    0    0

-270.685 39746 0
39746 -410.155 0
0    0    0

222.664 38484.2 0
38484.2 59.7998 0
0    0    0

183.128 39500.3 0
39500.3 347.297 0
0    0    0

27.6785 38759.7 0
38759.7 89.9669 0
0    0    0

-216.06 38676 0
38676 -103.275 0
0    0    0

140.41 39105.6 0
39105.6 238.754 0
0    0    0

-156.817 38969.8 0
38969.8 -55.0031 0
0    0    0

-218.324 38175.3 0
38175.3 74.5728 0
0    0    0

268.741 38459.4 0
38459.4 152.834 0
0    0    0

12.3251 39714.2 0
39714.2 -159.889 0
0    0    0

-27.9206 40383.4 0
40383.4 -199.662 0
0    0    0

129.827 36071.3 0
36071.3 66.2192 0
0    0    0

-260.346 37153.8 0
37153.8 -295.717 0
0    0    0

209.652 32832 0
32832 295.081 0
0    0    0

178.92 33091.8 0
33091.8 331.914 0
0    0    0

-85.6863 33641.5 0
33641.5 -55.48 0
0    0    0

-213.087 33065.8 0
33065.8 -236.336 0
0    0    0

-115.034 46630.7 0
46630.7 -351.164 0
0    0    0

75.0028 47230.9 0
47230.9 149.672 0
0    0    0

236.8 49366.8 0
49366.8 317.524 0
0    0    0

-139.687 49283.7 0
49283.7 64.1512 0
0    0    0

-211.925 48091.7 0
48091.7 -150.078 0
0    0    0

-95.7716 46956.6 0
46956.6 -19.1668 0
0    0    0

181.367 47585.1 0
47585.1 68.3086 0
0    0    0

-67.0295 47397.7 0
47397.7 334.331 0
0    0    0

-55.5578 46766.9 0
46766.9 160.003 0
0    0    0

-170.826 47425.3 0
47425.3 -36.4943 0
0    0    0

270.833 47869.1 0
47869.1 207.314 0
0    0    0

-12.9359 48319.4 0
48319.4 141.942 0
0    0    0

-70.647 48715.8 0
48715.8 -76.3304 0
0    0    0

30.0371 48721.9 0
48721.9 43.4089 0
0    0    0

-161.57 47754.2 0
47754.2 -265.37 0
0    0    0

75.1307 48116.7 0
48116.7 -63.3726 0
0    0    0

66.1199 50977.1 0
50977.1 -151.586 0
0    0    0

189.079 49264.9 0
49264.9 232.643 0
0    0    0

154.161 47918 0
47918 -64.7462 0
0    0    0

129.212 49212.7 0
49212.7 182.968 0
0    0    0

56.0656 48534.3 0
48534.3 -11.1817 0
0    0    0

-223.855 49065.2 0
49065.2 -168.585 0
0    0    0

31.2341 45241.8 0
45241.8 -77.7391 0
0    0    0

-20.7252 45996.7 0
45996.7 -91.1844 0
0    0    0

46.4208 47004.7 0
47004.7 163.24 0
0    0    0

-32.9235 47893.1 0
47893.1 -229.025 0
0    0    0

-169.592 47479.1 0
47479.1 -177.2 0
0    0    0

21.0314 47579.3 0
47579.3 35.8756 0
0    0    0

253.999 33099.7 0
33099.7 221.279 0
0    0    0

191.616 32161.8 0
32161.8 93.7957 0
0    0    0

131.183 33209.7 0
33209.7 -157.741 0
0    0    0

356.466 33338.9 0
33338.9 470.724 0
0    0    0

231.565 32616.9 0
32616.9 235.724 0
0    0    0

-147.531 30598.5 0
30598.5 54.9939 0
0    0    0

-139.009 30967.9 0
30967.9 -48.8893 0
0    0    0

-163.699 31498.9 0
31498.9 -307.189 0
0    0    0

294.682 33142.1 0
33142.1 181.576 0
0    0    0

127.377 31552.8 0
31552.8 214.578 0
0    0    0

-196.742 32922.7 0
32922.7 -210.697 0
0    0    0

59.9067 32093.1 0
32093.1 -273.853 0
0    0    0

-248.641 33269.3 0
33269.3 59.6808 0
0    0    0

-81.7792 32435.2 0
32435.2 -98.7081 0
0    0    0

165.151 32187.1 0
32187.1 180.404 0
0    0    0

-165.007 32014 0
32014 -206.763 0
0    0    0

39.0697 32614.2 0
32614.2 126.504 0
0    0    0

137.397 32611.6 0
32611.6 301.074 0
0    0    0

-242.148 32437.5 0
32437.5 -171.509 0
0    0    0

-232.255 31703.8 0
31703.8 -188.181 0
0    0    0

-126.175 30664.9 0
30664.9 -64.1535 0
0    0    0

3.7919 32070.5 0
32070.5 -94.5595 0
0    0    0

134.058 31837.5 0
31837.5 162.98 0
0    0    0

-168.881 32109.1 0
32109.1 -284.827 0
0    0    0

-194.66 31657.4 0
31657.4 -61.4679 0
0    0    0

-82.6943 31789.2 0
31789.2 116.504 0
0    0    0

271.961 31736.1 0
31736.1 313.401 0
0    0    0

-3.34964 32866.7 0
32866.7 260.308 0
0    0    0

57.4594 30941.2 0
30941.2 -111.609 0
0    0    0

-41.0941 31738.9 0
31738.9 175.689 0
0    0    0

-89.1101 33036.5 0
33036.5 338.322 0
0    0    0

-25.4926 32582.1 0
32582.1 -364.756 0
0    0    0

330.397 29687.9 0
29687.9 388.419 0
0    0    0

-146.947 31080.8 0
31080.8 -257.223 0
0    0    0

-102.561 31960.9 0
31960.9 -275.806 0
0    0    0

-47.1187 32555.5 0
32555.5 -249.628 0
0    0    0

140.942 31523.3 0
31523.3 -72.7974 0
0    0    0

-18.9295 30620.4 0
30620.4 48.0935 0
0    0    0

345.161 31637 0
31637 323.868 0
0    0    0

259.448 30238.7 0
30238.7 72.8111 0
0    0    0

174.039 30706 0
30706 -65.5465 0
0    0    0

81.1364 31061.7 0
31061.7 -159.47 0
0    0    0

-15.4892 29330.7 0
29330.7 -229.215 0
0    0    0

139.779 30007.7 0
30007.7 414.284 0
0    0    0

61.1452 31157.4 0
31157.4 187.955 0
0    0    0

-109.521 30409.6 0
30409.6 -14.5844 0
0    0    0

-104.178 31424.7 0
31424.7 139.373 0
0    0    0

33.9169 30846.8 0
30846.8 168.849 0
0    0    0

-181.145 30220 0
30220 -208.35 0
0    0    0

113.913 29812.8 0
29812.8 199.599 0
0    0    0

-25.6717 30532.2 0
30532.2 -173.644 0
0    0    0

-242.595 29764.8 0
29764.8 -75.2517 0
0    0    0

-67.9833 30473 0
30473 158.128 0
0    0    0

198.46 30008.5 0
30008.5 -14.2154 0
0    0    0

203.016 31188.5 0
31188.5 39.1642 0
0    0    0

122.614 30168.9 0
30168.9 -69.9829 0
0    0    0

-94.3977 30973.5 0
30973.5 92.8842 0
0    0    0

-201.186 30258.3 0
30258.3 -160.904 0
0    0    0

-30.7741 31338.1 0
31338.1 148.91 0
0    0    0

-295.221 30800.3 0
30800.3 -123.828 0
0    0    0

-238.751 31398.3 0
31398.3 -234.899 0
0    0    0

245.827 31049.9 0
31049.9 225.206 0
0    0    0

127.317 29344.1 0
29344.1 -0.755725 0
0    0    0

83.443 28612.9 0
28612.9 -200.296 0
0    0    0

-249.373 32010.6 0
32010.6 -259.869 0
0    0    0

-79.1448 31190.4 0
31190.4 -181.449 0
0    0    0

194.225 31234.4 0
31234.4 254.224 0
0    0    0

90.5968 30956.3 0
30956.3 -74.5466 0
0    0    0

31.5256 30352.3 0
30352.3 224.026 0
0    0    0

181.062 30808.9 0
30808.9 226.419 0
0    0    0

234.047 34574.1 0
34574.1 333.886 0
0    0    0

-74.8914 34828.9 0
34828.9 -315.56 0
0    0    0

75.4713 34763.4 0
34763.4 -140.333 0
0    0    0

147.644 34993.8 0
34993.8 -204.328 0
0    0    0

-255.006 33604.2 0
33604.2 -103.087 0
0    0    0

169.575 32693.5 0
32693.5 253.339 0
0    0    0

4.22871 32057.3 0
32057.3 212.287 0
0    0    0

99.4192 33514.6 0
33514.6 -50.6158 0
0    0    0

82.0658 33626.8 0
33626.8 -33.3945 0
0    0    0

111.794 34142.4 0
34142.4 -213.44 0
0    0    0

165.221 11917.8 0
11917.8 42.2781 0
0    0    0

105.263 12480.7 0
12480.7 119.311 0
0    0    0

115.404 14104.2 0
14104.2 -190.257 0
0    0    0

-409.071 13743.1 0
13743.1 -362.847 0
0    0    0

-67.1274 13654.7 0
13654.7 -276.943 0
0    0    0

194.671 14129.7 0
14129.7 355.673 0
0    0    0

0.197087 13493.7 0
13493.7 138.494 0
0    0    0

348.304 14136 0
14136 611.154 0
0    0    0

211.771 15609.4 0
15609.4 303.606 0
0    0    0

49.3693 17698.4 0
17698.4 213.566 0
0    0    0

-181.681 19935.2 0
19935.2 -253.025 0
0    0    0

-48.5758 19114.6 0
19114.6 -252.848 0
0    0    0

-216.109 17894.3 0
17894.3 -204.192 0
0    0    0

101.277 18083.3 0
18083.3 60.7104 0
0    0    0

91.1873 18155.6 0
18155.6 9.27097 0
0    0    0

-101.585 18171.2 0
18171.2 -194.049 0
0    0    0

-134.453 18020.5 0
18020.5 -337.764 0
0    0    0

76.6854 19914.1 0
19914.1 -138.67 0
0    0    0

-181.433 17533.7 0
17533.7 -172.274 0
0    0    0

47.2944 18840.5 0
18840.5 106.521 0
0    0    0

-205.725 18892.4 0
18892.4 -251.291 0
0    0    0

-44.0898 18399.8 0
18399.8 43.977 0
0    0    0

152.1 19353.2 0
19353.2 212.255 0
0    0    0

0.0491362 19356.6 0
19356.6 -225.277 0
0    0    0

357.517 17676.7 0
17676.7 132.939 0
0    0    0

223.812 18300.1 0
18300.1 133.272 0
0    0    0

-124.654 18935.5 0
18935.5 -98.8357 0
0    0    0

229.478 18691.1 0
18691.1 289.263 0
0    0    0

150.106 18669.4 0
18669.4 211.73 0
0    0    0

265.269 19130 0
19130 411.599 0
0    0    0

87.8894 20477.8 0
20477.8 157.253 0
0    0    0

-165.345 19644 0
19644 -87.2534 0
0    0    0

-14.8609 21410.4 0
21410.4 -364.931 0
0    0    0

197.47 22238.3 0
22238.3 17.008 0
0    0    0

235.211 22084.3 0
22084.3 -74.2223 0
0    0    0

-113.433 22612.2 0
22612.2 -131.789 0
0    0    0

185.541 16560.1 0
16560.1 377.982 0
0    0    0

103.087 15280.3 0
15280.3 86.0288 0
0    0    0

-65.3105 16515 0
16515 -158.438 0
0    0    0

370.626 16555.3 0
16555.3 657.437 0
0    0    0

-203.088 16894 0
16894 -392.485 0
0    0    0

171.315 16378.3 0
16378.3 275.68 0
0    0    0

160.69 15598 0
15598 426.579 0
0    0    0

-166.61 16227.4 0
16227.4 -237.713 0
0    0    0

-208.219 15347.3 0
15347.3 -305.895 0
0    0    0

-49.4085 14987 0
14987 28.6456 0
0    0    0

297.443 15074.9 0
15074.9 204.225 0
0    0    0

130.662 14488.7 0
14488.7 -189.779 0
0    0    0

237.097 16048.8 0
16048.8 295.425 0
0    0    0

-53.9423 15841.3 0
15841.3 277.338 0
0    0    0

-234.871 15335.6 0
15335.6 -70.2594 0
0    0    0

-198.103 14669.5 0
14669.5 -256.512 0
0    0    0

-347.571 14153.1 0
14153.1 -518.029 0
0    0    0

-60.7958 14358.1 0
14358.1 59.3907 0
0    0    0

-297.171 14586.8 0
14586.8 -197.629 0
0    0    0

6.38465 15312.5 0
15312.5 158.777 0
0    0    0

110.211 15120.3 0
15120.3 54.8177 0
0    0    0

116.482 15111.6 0
15111.6 -234.532 0
0    0    0

-60.5763 15674.2 0
15674.2 -133.319 0
0    0    0

-145.084 14779.5 0
14779.5 11.9869 0
0    0    0

277.525 14371 0
14371 146.051 0
0    0    0

275.481 13376.5 0
13376.5 322.048 0
0    0    0

-94.2125 14824.9 0
14824.9 125.199 0
0    0    0

155.328 14440.4 0
14440.4 -14.9896 0
0    0    0

118.462 14208.7 0
14208.7 40.4295 0
0    0    0

190.55 14819.9 0
14819.9 290.989 0
0    0    0

53.0697 12668.4 0
12668.4 293.067 0
0    0    0

-54.2664 12744.2 0
12744.2 50.2515 0
0    0    0

255.142 14258.3 0
14258.3 309.58 0
0    0    0

-121.261 13270.6 0
13270.6 -165.241 0
0    0    0

-246.227 14996.6 0
14996.6 -265.303 0
0    0    0

252.867 13944.4 0
13944.4 403.407 0
0    0    0

-335.932 14500.6 0
14500.6 -112.92 0
0    0    0

-12.7571 13969.1 0
13969.1 -274.823 0
0    0    0

-211.309 12540.8 0
12540.8 -91.2919 0
0    0    0

273.425 12185.3 0
12185.3 4.67527 0
0    0    0

-182.107 14304 0
14304 -294.329 0
0    0    0

206.493 14501.6 0
14501.6 222.415 0
0    0    0

-188.504 13756.2 0
13756.2 -318.197 0
0    0    0

95.4577 14135.3 0
14135.3 109.978 0
0    0    0

10.9056 13674.8 0
13674.8 65.8921 0
0    0    0

54.123 12639.8 0
12639.8 -124.776 0
0    0    0

-115.798 13361.9 0
13361.9 102.552 0
0    0    0

224.401 12937 0
12937 251.249 0
0    0    0

62.043 13337 0
13337 253.069 0
0    0    0

145.958 12365.2 0
12365.2 110.947 0
0    0    0

268.571 12889 0
12889 112.034 0
0    0    0

320.769 12744.4 0
12744.4 106.2 0
0    0    0

237.73 14300.6 0
14300.6 -50.7524 0
0    0    0

18.1032 12938.2 0
12938.2 64.1319 0
0    0    0

-303.38 13167.1 0
13167.1 -193.6 0
0    0    0

-172.158 12041.6 0
12041.6 -26.6556 0
0    0    0

-174.257 14118.4 0
14118.4 -207.835 0
0    0    0

-288.871 12998.5 0
12998.5 -209.921 0
0    0    0

-335.521 10488.7 0
10488.7 -299.573 0
0    0    0

290.637 8606.29 0
8606.29 244.982 0
0    0    0

-83.4344 12257.2 0
12257.2 83.2302 0
0    0    0

28.2984 10974.7 0
10974.7 133.761 0
0    0    0

114.21 7498.2 0
7498.2 -90.7933 0
0    0    0

-80.9968 12031.6 0
12031.6 -181.358 0
0    0    0

0.106855 11274 0
11274 93.7836 0
0    0    0

34.8047 11109.7 0
11109.7 323.165 0
0    0    0

21.8541 11612.1 0
11612.1 -86.2336 0
0    0    0

-27.3308 11410.3 0
11410.3 -406.602 0
0    0    0

76.7598 11366 0
11366 -285.758 0
0    0    0

-1.44047 9898.79 0
9898.79 -202.281 0
0    0    0

195.698 12170.8 0
12170.8 154.348 0
0    0    0

50.6808 11925.7 0
11925.7 -2.99096 0
0    0    0

-37.9628 12407.7 0
12407.7 -269.957 0
0    0    0

-262.024 12338.3 0
12338.3 -232.251 0
0    0    0

-258.842 13180.4 0
13180.4 -386.144 0
0    0    0

109.917 12575.1 0
12575.1 279.546 0
0    0    0

208.646 13296.3 0
13296.3 423.5 0
0    0    0

189.735 12520.9 0
12520.9 41.6571 0
0    0    0

-67.7377 14462.7 0
14462.7 -468.975 0
0    0    0

182.73 13224.3 0
13224.3 -94.3021 0
0    0    0

-102.632 13106.3 0
13106.3 194.538 0
0    0    0

51.7386 11140.6 0
11140.6 303.127 0
0    0    0

185.986 12048.2 0
12048.2 260.367 0
0    0    0

229.547 11448 0
11448 454.89 0
0    0    0

288.949 13899.2 0
13899.2 366.541 0
0    0    0

26.1277 13570.9 0
13570.9 -241.69 0
0    0    0

-17.1558 14185.6 0
14185.6 97.0871 0
0    0    0

142.843 13882.3 0
13882.3 202.675 0
0    0    0

-25.7139 13561.6 0
13561.6 -180.869 0
0    0    0

-122.211 13839.9 0
13839.9 -278.78 0
0    0    0

-7.39211 12797.6 0
12797.6 -284.647 0
0    0    0

180.17 12052.5 0
12052.5 260.404 0
0    0    0

109.918 12722.8 0
12722.8 203.437 0
0    0    0

149.551 12999.2 0
12999.2 95.5933 0
0    0    0

-139.639 14136.3 0
14136.3 -26.2884 0
0    0    0

150.037 13958.5 0
13958.5 118.786 0
0    0    0

-232.502 14180.7 0
14180.7 -379.076 0
0    0    0

-149.066 14068.3 0
14068.3 -343.819 0
0    0    0

157.372 14738.9 0
14738.9 486.891 0
0    0    0

23.3004 14619.3 0
14619.3 225.36 0
0    0    0

166.902 13510.6 0
13510.6 477.611 0
0    0    0

154.433 13385.6 0
13385.6 373.383 0
0    0    0

152.792 14427.8 0
14427.8 10.3904 0
0    0    0

208.292 13868.3 0
13868.3 471.661 0
0    0    0

-233.084 13619.8 0
13619.8 -357.317 0
0    0    0

39.0017 13901.9 0
13901.9 314.043 0
0    0    0

88.5978 12693 0
12693 318.203 0
0    0    0

-9.44661 12538.9 0
12538.9 154.441 0
0    0    0

-139.187 12880.1 0
12880.1 -467.49 0
0    0    0

16.5746 11913.1 0
11913.1 -16.3131 0
0    0    0

83.453 12686.6 0
12686.6 262.155 0
0    0    0

-54.3877 12178.3 0
12178.3 -212.705 0
0    0    0

48.4073 12260.8 0
12260.8 194.565 0
0    0    0

180.009 12609.1 0
12609.1 335.184 0
0    0    0

-304.18 13529.9 0
13529.9 -203.513 0
0    0    0

-229.44 12434.6 0
12434.6 -101.319 0
0    0    0

128.413 11720.7 0
11720.7 -10.303 0
0    0    0

195.501 11998.6 0
11998.6 311.648 0
0    0    0

241.497 13212.6 0
13212.6 333.692 0
0    0    0

-49.5105 12936.9 0
12936.9 -177.041 0
0    0    0

96.898 11163 0
11163 431.872 0
0    0    0

-35.1136 10794.3 0
10794.3 -345.977 0
0    0    0

234.773 13226.5 0
13226.5 269.01 0
0    0    0

-130.862 12832.2 0
12832.2 -306.564 0
0    0    0

-230.859 12319.2 0
12319.2 -157.475 0
0    0    0

60.1595 11232.1 0
11232.1 -196.093 0
0    0    0

18.6801 11895.3 0
11895.3 230.59 0
0    0    0

-0.00610688 11881.9 0
11881.9 -221.948 0
0    0    0

-114.768 13264.1 0
13264.1 72.5762 0
0    0    0

-74.5505 13649.7 0
13649.7 -156.505 0
0    0    0

29.5963 12391.3 0
12391.3 -110.613 0
0    0    0

-168.676 11921 0
11921 -210.898 0
0    0    0

-61.2141 10076.6 0
10076.6 -138.516 0
0    0    0

-46.9366 10904.5 0
10904.5 -218.73 0
0    0    0

-70.9746 11260.8 0
11260.8 -281.331 0
0    0    0

-72.9279 11342.2 0
11342.2 -404.479 0
0    0    0

-185.176 8592.6 0
8592.6 -137.926 0
0    0    0

129.996 11028.5 0
11028.5 438.046 0
0    0    0

-164.588 11352.9 0
11352.9 -440.374 0
0    0    0

-118.444 11303.1 0
11303.1 -88.7961 0
0    0    0

18.4577 10650.5 0
10650.5 -124.16 0
0    0    0

241.956 10015.7 0
10015.7 41.2324 0
0    0    0

-192.523 11744.4 0
11744.4 -263.401 0
0    0    0

72.0752 11684.6 0
11684.6 281.718 0
0    0    0

7.10466 11407.4 0
11407.4 -153.089 0
0    0    0

-250.825 9941.06 0
9941.06 -229.786 0
0    0    0

99.5758 9471.17 0
9471.17 -126.446 0
0    0    0

-108.234 8467.01 0
8467.01 -179.133 0
0    0    0

-153.792 10777 0
10777 -214 0
0    0    0

-291.074 10838.7 0
10838.7 -90.6842 0
0    0    0

-168.92 10224.1 0
10224.1 -371.724 0
0    0    0

142.028 11487.8 0
11487.8 -87.9774 0
0    0    0

-202.143 10125.5 0
10125.5 -190.489 0
0    0    0

-240.342 10096.2 0
10096.2 -103.004 0
0    0    0

-165.707 10695.4 0
10695.4 -48.683 0
0    0    0

-19.4571 10434.6 0
10434.6 83.4096 0
0    0    0

167.911 10817.4 0
10817.4 234.25 0
0    0    0

68.4206 10834.9 0
10834.9 251.062 0
0    0    0

158.714 10345.9 0
10345.9 67.1148 0
0    0    0

-24.4547 11782.6 0
11782.6 70.8008 0
0    0    0

-94.3526 11100 0
11100 -328.17 0
0    0    0

156.535 12265.6 0
12265.6 176.654 0
0    0    0

135.338 11776.4 0
11776.4 158.285 0
0    0    0

-134.541 11073.5 0
11073.5 -373.711 0
0    0    0

120.17 9485.74 0
9485.74 101.159 0
0    0    0

152.438 12160.5 0
12160.5 243.606 0
0    0    0

67.5652 11662.6 0
11662.6 -76.1671 0
0    0    0

-12.096 11404.5 0
11404.5 168.745 0
0    0    0

-233.278 10545.6 0
10545.6 -254.903 0
0    0    0

28.2633 11578 0
11578 241.025 0
0    0    0

256.15 10759.3 0
10759.3 426.554 0
0    0    0

-139.735 11640 0
11640 -203.918 0
0    0    0

-134.388 9791.88 0
9791.88 -57.5949 0
0    0    0

-192.348 12022.2 0
12022.2 -47.6327 0
0    0    0

299.422 10072.3 0
10072.3 134.098 0
0    0    0

-101.853 9230.64 0
9230.64 -285.693 0
0    0    0

-178.77 10339.2 0
10339.2 -301.092 0
0    0    0

-23.0108 10635.7 0
10635.7 107.634 0
0    0    0

-179.808 10390.5 0
10390.5 -202.735 0
0    0    0

-66.6724 11609.4 0
11609.4 42.6917 0
0    0    0

-24.2734 11058.7 0
11058.7 186.446 0
0    0    0

162.441 11542.4 0
11542.4 146.2 0
0    0    0

129.43 10531.3 0
10531.3 34.9311 0
0    0    0

6.88526 10267.4 0
10267.4 -103.97 0
0    0    0

-63.6874 11841.3 0
11841.3 -218.143 0
0    0    0

-131.54 11160.5 0
11160.5 -401.392 0
0    0    0

-8.62572 10368.1 0
10368.1 190.242 0
0    0    0

166.957 10370.1 0
10370.1 203.616 0
0    0    0

125.114 9885.49 0
9885.49 35.2917 0
0    0    0

54.266 9456.07 0
9456.07 23.2568 0
0    0    0

79.646 11119.1 0
11119.1 -109.873 0
0    0    0

-206.973 10288.4 0
10288.4 -101.201 0
0    0    0

220.366 10445.9 0
10445.9 173.116 0
0    0    0

67.173 12958.5 0
12958.5 -129.974 0
0    0    0

269.27 11528.1 0
11528.1 230.338 0
0    0    0

-89.9382 11007.4 0
11007.4 -121.333 0
0    0    0

105.194 10965.7 0
10965.7 320.539 0
0    0    0

-57.3983 12083.1 0
12083.1 -19.0079 0
0    0    0

-156.58 11327.1 0
11327.1 -427.368 0
0    0    0

-41.1532 13744.2 0
13744.2 71.1588 0
0    0    0

352.58 12315.5 0
12315.5 467.372 0
0    0    0

-61.0962 11852.5 0
11852.5 -178.912 0
0    0    0

187.502 12360.3 0
12360.3 153.341 0
0    0    0

339.41 13623.4 0
13623.4 524.904 0
0    0    0

-210.098 12943.1 0
12943.1 -100.795 0
0    0    0

195.318 12763.7 0
12763.7 100.537 0
0    0    0

-220.692 12542.3 0
12542.3 -139.838 0
0    0    0

-195.202 11778.1 0
11778.1 -134.613 0
0    0    0

-32.3076 12110 0
12110 221.959 0
0    0    0

18.6546 12407.9 0
12407.9 -140.731 0
0    0    0

-114.696 10400.1 0
10400.1 -49.1554 0
0    0    0

-3.03532 13313.2 0
13313.2 158.542 0
0    0    0

127.715 13205.1 0
13205.1 204.402 0
0    0    0

2.96934 8696.84 0
8696.84 -52.3873 0
0    0    0

200.037 9643.81 0
9643.81 357.171 0
0    0    0

-207.296 10144.3 0
10144.3 -366.839 0
0    0    0

-139.829 11024.5 0
11024.5 241.928 0
0    0    0

159.675 10918.2 0
10918.2 295.188 0
0    0    0

151.9 10452.3 0
10452.3 108.429 0
0    0    0

-202.842 12415.8 0
12415.8 -177.531 0
0    0    0

263.568 12609.3 0
12609.3 298.565 0
0    0    0

93.18 8763.44 0
8763.44 141.564 0
0    0    0

348.094 9539.06 0
9539.06 312.664 0
0    0    0

-151.961 8616.57 0
8616.57 -65.1261 0
0    0    0

-195.557 9241.45 0
9241.45 -371.564 0
0    0    0

-41.7996 9908.78 0
9908.78 65.1633 0
0    0    0

111.379 10401.4 0
10401.4 419.669 0
0    0    0

-409.124 9880.57 0
9880.57 -202.872 0
0    0    0

16.3714 9143.57 0
9143.57 7.01632 0
0    0    0

-47.611 7910.22 0
7910.22 -20.4047 0
0    0    0

-97.5122 8951.56 0
8951.56 -41.7909 0
0    0    0

211.782 8437.31 0
8437.31 420.176 0
0    0    0

38.1785 9541.31 0
9541.31 -6.93601 0
0    0    0

-1.43477 9038.32 0
9038.32 -197.537 0
0    0    0

63.9469 7986.37 0
7986.37 261.192 0
0    0    0

-141.377 8393.1 0
8393.1 -198.919 0
0    0    0

-142.702 8223.22 0
8223.22 -61.1579 0
0    0    0

119.624 8626.97 0
8626.97 218.271 0
0    0    0

-234.442 15765.5 0
15765.5 -29.4097 0
0    0    0

25.2554 15251.4 0
15251.4 82.8704 0
0    0    0

55.2805 19033.4 0
19033.4 105.022 0
0    0    0

343.095 18863.9 0
18863.9 107.66 0
0    0    0

-203.866 19523.5 0
19523.5 -453.573 0
0    0    0

-228.954 19880.3 0
19880.3 1.2226 0
0    0    0

116.217 13944.4 0
13944.4 137.831 0
0    0    0

-1.05104 13274.4 0
13274.4 -0.450447 0
0    0    0

194.313 14711 0
14711 53.0184 0
0    0    0

-273.001 14708.9 0
14708.9 37.6423 0
0    0    0

-131.193 15795 0
15795 -9.44502 0
0    0    0

-154.288 14019.4 0
14019.4 -324.486 0
0    0    0

-109.352 14209.7 0
14209.7 -46.8653 0
0    0    0

338.449 13577.7 0
13577.7 528.506 0
0    0    0

77.3367 13243.7 0
13243.7 -3.82344 0
0    0    0

50.0219 13252.5 0
13252.5 -114.677 0
0    0    0

-199.785 13341.9 0
13341.9 -280.398 0
0    0    0

197.237 15922.3 0
15922.3 96.4291 0
0    0    0

199.513 15642.6 0
15642.6 16.0558 0
0    0    0

-181.358 50013.4 0
50013.4 37.8628 0
0    0    0

-75.1071 49059 0
49059 -256.398 0
0    0    0

160.253 56094.9 0
56094.9 144.527 0
0    0    0

218.056 55365.5 0
55365.5 418.202 0
0    0    0

73.1059 56567.7 0
56567.7 327.702 0
0    0    0

-137.874 55696.2 0
55696.2 -128.195 0
0    0    0

-183.451 56211.5 0
56211.5 -214.082 0
0    0    0

-93.8272 56372.2 0
56372.2 -239.84 0
0    0    0

59.6901 54703.9 0
54703.9 108.773 0
0    0    0

-48.5026 55448.1 0
55448.1 277.681 0
0    0    0

20.3054 55022.1 0
55022.1 -169.766 0
0    0    0

63.2745 55046.1 0
55046.1 147.641 0
0    0    0

197.222 55311.4 0
55311.4 287.964 0
0    0    0

63.2842 55749 0
55749 -115.139 0
0    0    0

198.497 54951.5 0
54951.5 -34.8025 0
0    0    0

-6.52342 55031.1 0
55031.1 182.643 0
0    0    0

-360.494 54537.4 0
54537.4 -61.4922 0
0    0    0

-137.898 55382.8 0
55382.8 -204.4 0
0    0    0

171.477 53277.9 0
53277.9 158.968 0
0    0    0

54.1596 54105.1 0
54105.1 126.372 0
0    0    0

286.73 54228.9 0
54228.9 173.122 0
0    0    0

-237.518 53432.4 0
53432.4 -251.711 0
0    0    0

25.6989 54635.7 0
54635.7 59.964 0
0    0    0

111.005 53763.2 0
53763.2 253.027 0
0    0    0

87.8769 54877.5 0
54877.5 86.6182 0
0    0    0

48.6365 54210.9 0
54210.9 -193.012 0
0    0    0

-182.075 55150.5 0
55150.5 -314.447 0
0    0    0

248.52 54510.8 0
54510.8 -14.1898 0
0    0    0

-171.649 53614.2 0
53614.2 -98.549 0
0    0    0

-153.231 52652.5 0
52652.5 -241.286 0
0    0    0

-68.1275 53849.3 0
53849.3 -38.2708 0
0    0    0

160.265 52845 0
52845 337.981 0
0    0    0

94.1654 52483.3 0
52483.3 -111.544 0
0    0    0

215.839 51807.6 0
51807.6 -106.616 0
0    0    0

49.4109 52929.4 0
52929.4 337.083 0
0    0    0

210.025 50888.9 0
50888.9 191.66 0
0    0    0

47.725 52186.3 0
52186.3 154.258 0
0    0    0

-201.099 51352.5 0
51352.5 -300.318 0
0    0    0

90.9038 53789.4 0
53789.4 -13.527 0
0    0    0

-5.08645 53492 0
53492 125.674 0
0    0    0

164.472 54103.1 0
54103.1 75.2298 0
0    0    0

-65.4968 53071.1 0
53071.1 -387.898 0
0    0    0

-61.7428 53559.4 0
53559.4 -289.98 0
0    0    0

11.1732 53636.4 0
53636.4 26.0708 0
0    0    0

-119.655 53143.8 0
53143.8 -0.298431 0
0    0    0

53.2398 52220.7 0
52220.7 124.226 0
0    0    0

-87.2416 52016.9 0
52016.9 -297.227 0
0    0    0

3.3771 53379.8 0
53379.8 139.061 0
0    0    0

46.6773 53196.9 0
53196.9 108.914 0
0    0    0

255.476 52128.5 0
52128.5 245.557 0
0    0    0

-233.344 52509.7 0
52509.7 -28.6526 0
0    0    0

198.11 51555.3 0
51555.3 319.279 0
0    0    0

58.4335 51721.5 0
51721.5 136.345 0
0    0    0

83.9201 52728.9 0
52728.9 195.813 0
0    0    0

-153.795 51928.9 0
51928.9 -227.695 0
0    0    0

73.1138 50620.5 0
50620.5 -149.98 0
0    0    0

-201.345 49539.2 0
49539.2 78.6619 0
0    0    0

59.3647 51567.7 0
51567.7 -157.361 0
0    0    0

174.194 51058.7 0
51058.7 111.38 0
0    0    0

178.165 52728.3 0
52728.3 131.449 0
0    0    0

-239.552 52418.2 0
52418.2 -229.739 0
0    0    0

-258.165 49236.8 0
49236.8 -285.679 0
0    0    0

286.87 49109.2 0
49109.2 77.6103 0
0    0    0

-188.168 50724.9 0
50724.9 -227.33 0
0    0    0

-142.721 48723.7 0
48723.7 -8.22863 0
0    0    0

-215.169 51214.6 0
51214.6 -111.457 0
0    0    0

176.09 50286.6 0
50286.6 25.2931 0
0    0    0

188.466 49713.7 0
49713.7 377.123 0
0    0    0

-35.6435 49593 0
49593 200.631 0
0    0    0

-139.839 50217.6 0
50217.6 -277.42 0
0    0    0

-164.489 50541 0
50541 -232.878 0
0    0    0

63.3183 50435 0
50435 288.31 0
0    0    0

140.536 50093.7 0
50093.7 184.023 0
0    0    0

-137.181 50330.4 0
50330.4 -31.8513 0
0    0    0

96.6008 49622.6 0
49622.6 382.645 0
0    0    0

276.934 51700.9 0
51700.9 280.625 0
0    0    0

161.529 50859.6 0
50859.6 376.901 0
0    0    0

3.44105 50364.5 0
50364.5 158.546 0
0    0    0

-100.388 50000.4 0
50000.4 26.4617 0
0    0    0

205.466 49039 0
49039 -94.4466 0
0    0    0

-353.923 49428 0
49428 -107.531 0
0    0    0

-208.138 52038.5 0
52038.5 -200.106 0
0    0    0

-14.199 51271.2 0
51271.2 -22.6368 0
0    0    0

83.3786 50789.1 0
50789.1 175.24 0
0    0    0

20.2525 51173.8 0
51173.8 -173.127 0
0    0    0

206.037 62300.2 0
62300.2 353.466 0
0    0    0

-236.467 62466.1 0
62466.1 55.4487 0
0    0    0

-75.3534 64982.8 0
64982.8 -395.453 0
0    0    0

-113.984 65075.4 0
65075.4 -159.394 0
0    0    0

16.0502 64251.8 0
64251.8 61.6225 0
0    0    0

-83.4433 64584.8 0
64584.8 -279.87 0
0    0    0

184.258 65790 0
65790 77.9018 0
0    0    0

-4.52546 65566.9 0
65566.9 -158.286 0
0    0    0

-377.901 66513.1 0
66513.1 -36.2213 0
0    0    0

269.833 65898.5 0
65898.5 190.935 0
0    0    0

-38.2262 67162.7 0
67162.7 36.306 0
0    0    0

-209.012 66776.5 0
66776.5 -41.3963 0
0    0    0

-228.187 66438.1 0
66438.1 -158.667 0
0    0    0

249.94 66609.7 0
66609.7 157.523 0
0    0    0

183.31 66740.4 0
66740.4 -122.551 0
0    0    0

111.907 66589.5 0
66589.5 169.38 0
0    0    0

-133.264 68492.7 0
68492.7 21.6805 0
0    0    0

-123.387 68590.7 0
68590.7 121 0
0    0    0

-12.49 72054.4 0
72054.4 318.325 0
0    0    0

134.163 72217.2 0
72217.2 11.0609 0
0    0    0

-118.583 73838.5 0
73838.5 -126.491 0
0    0    0

41.897 72002.8 0
72002.8 183.622 0
0    0    0

104.264 73343.1 0
73343.1 171.762 0
0    0    0

-39.4875 72421.4 0
72421.4 42.6442 0
0    0    0

-128.764 73318 0
73318 -198.671 0
0    0    0

-318.834 73841.2 0
73841.2 -253.754 0
0    0    0

-15.277 75259.3 0
75259.3 123.635 0
0    0    0

244.775 73544.9 0
73544.9 274.665 0
0    0    0

-184.038 72476.2 0
72476.2 -144.468 0
0    0    0

-212.488 72842.3 0
72842.3 -37.6279 0
0    0    0

48.9954 71708.6 0
71708.6 -120.775 0
0    0    0

-63.1574 71764.4 0
71764.4 -215.574 0
0    0    0

-213.083 71825.2 0
71825.2 -347.446 0
0    0    0

-170.148 70893.8 0
70893.8 -68.2319 0
0    0    0

251.859 73465.7 0
73465.7 200.516 0
0    0    0

144.424 73062.9 0
73062.9 216.312 0
0    0    0

-224.364 73769 0
73769 -265.187 0
0    0    0

24.0578 74678.1 0
74678.1 91.9865 0
0    0    0

188.392 73751.8 0
73751.8 27.1362 0
0    0    0

105.798 72426.8 0
72426.8 -45.5201 0
0    0    0

125.747 74047 0
74047 235.721 0
0    0    0

-323.576 74345.2 0
74345.2 -410.25 0
0    0    0

-163.853 74382.3 0
74382.3 -102.42 0
0    0    0

-287.523 75083.5 0
75083.5 -322.538 0
0    0    0

-238.309 72875.7 0
72875.7 -269.882 0
0    0    0

174.922 72717.3 0
72717.3 -95.0422 0
0    0    0

285.257 72966.5 0
72966.5 140.026 0
0    0    0

-159.932 73240.2 0
73240.2 -43.7751 0
0    0    0

63.1218 72274.2 0
72274.2 -157.721 0
0    0    0

-86.8316 73021.7 0
73021.7 -167.436 0
0    0    0

-7.28905 72192.4 0
72192.4 -94.8844 0
0    0    0

-467.779 72348.5 0
72348.5 -679.603 0
0    0    0

-55.3946 72914.8 0
72914.8 -187.787 0
0    0    0

22.1063 72989 0
72989 -28.1036 0
0    0    0

275.489 72432.8 0
72432.8 -78.5347 0
0    0    0

-166.629 73805.7 0
73805.7 -297.441 0
0    0    0

53.9274 70877.9 0
70877.9 289.153 0
0    0    0

-159.971 71898.4 0
71898.4 126.25 0
0    0    0

-194.704 76951.3 0
76951.3 -387.587 0
0    0    0

-14.3445 74949.2 0
74949.2 -185.54 0
0    0    0

-246.793 72341.2 0
72341.2 -271.328 0
0    0    0

251.183 72802.1 0
72802.1 260.493 0
0    0    0

125.705 71538.5 0
71538.5 269.409 0
0    0    0

147.8 72136.9 0
72136.9 269.852 0
0    0    0

-64.4781 70540.1 0
70540.1 202.765 0
0    0    0

100.851 70923.4 0
70923.4 241.708 0
0    0    0

-86.1062 72270.4 0
72270.4 -98.6193 0
0    0    0

-347.724 72576.8 0
72576.8 -257.932 0
0    0    0

32.5429 72021.3 0
72021.3 222.789 0
0    0    0

63.8932 73553.4 0
73553.4 84.2804 0
0    0    0

-228.558 75824.6 0
75824.6 -231.044 0
0    0    0

45.5294 74929.7 0
74929.7 -169.274 0
0    0    0

261.733 74910.2 0
74910.2 286.737 0
0    0    0

192.19 74006.2 0
74006.2 429.856 0
0    0    0

-51.6245 71100.8 0
71100.8 -200.927 0
0    0    0

-113.728 71228.8 0
71228.8 -449.047 0
0    0    0

37.8618 70387.7 0
70387.7 15.2921 0
0    0    0

68.0499 71755.7 0
71755.7 -100.563 0
0    0    0

8.50113 70376.9 0
70376.9 137.648 0
0    0    0

15.377 70489.4 0
70489.4 -320.603 0
0    0    0

-38.66 70659.9 0
70659.9 -183.718 0
0    0    0

-65.2881 71134.3 0
71134.3 87.716 0
0    0    0

-65.9299 70819.8 0
70819.8 74.4552 0
0    0    0

82.7 69968.2 0
69968.2 -73.571 0
0    0    0

-147.387 70429 0
70429 22.0759 0
0    0    0

-164.463 69661.3 0
69661.3 -148.768 0
0    0    0

-80.8769 69678.2 0
69678.2 -5.0973 0
0    0    0

-16.4444 70047.7 0
70047.7 179.47 0
0    0    0

-178.118 68921.9 0
68921.9 -320.169 0
0    0    0

-15.9418 69067.9 0
69067.9 -166.026 0
0    0    0

-105.653 74857.6 0
74857.6 -162.469 0
0    0    0

-91.3043 74217.5 0
74217.5 109.008 0
0    0    0

233.378 74588.1 0
74588.1 414.437 0
0    0    0

-36.706 74222.5 0
74222.5 -147.078 0
0    0    0

107.691 68066.5 0
68066.5 258.069 0
0    0    0

183.628 68617.1 0
68617.1 244.067 0
0    0    0

-85.5285 69559 0
69559 141.795 0
0    0    0

-214.292 69956.3 0
69956.3 -305.854 0
0    0    0

-200.442 69791.4 0
69791.4 -269.367 0
0    0    0

66.4935 69813.8 0
69813.8 -26.4836 0
0    0    0

-49.3823 75237.8 0
75237.8 -269.478 0
0    0    0

-207.784 74674.1 0
74674.1 -336.202 0
0    0    0

-37.5235 73663.8 0
73663.8 -198.53 0
0    0    0

91.1752 75559.7 0
75559.7 63.0352 0
0    0    0

240.242 74472.1 0
74472.1 171.94 0
0    0    0

133.124 74090.8 0
74090.8 120.929 0
0    0    0

-92.7605 69489.5 0
69489.5 -194.101 0
0    0    0

-105.704 68391.4 0
68391.4 -246.967 0
0    0    0

74.219 68146.9 0
68146.9 -90.7447 0
0    0    0

24.7997 68427.2 0
68427.2 66.1957 0
0    0    0

-48.8441 73459.7 0
73459.7 316.545 0
0    0    0

66.8838 74069.3 0
74069.3 10.1976 0
0    0    0

-160.547 74864.7 0
74864.7 -240.556 0
0    0    0

-235.475 74264.8 0
74264.8 -101.454 0
0    0    0

-206.073 73589.9 0
73589.9 -256.023 0
0    0    0

-209.228 73845.4 0
73845.4 -87.9608 0
0    0    0

-205.972 68323.1 0
68323.1 -348.417 0
0    0    0

-68.7556 67853.6 0
67853.6 -331.841 0
0    0    0

89.3452 67651.2 0
67651.2 175.732 0
0    0    0

66.9058 67551.7 0
67551.7 114.188 0
0    0    0

-176.145 66984.8 0
66984.8 -255.426 0
0    0    0

135.471 67682.8 0
67682.8 -126.365 0
0    0    0

130.456 68991.1 0
68991.1 274.667 0
0    0    0

-170.243 69082.2 0
69082.2 173.812 0
0    0    0

106.548 66746.7 0
66746.7 -38.8413 0
0    0    0

97.7537 67331.1 0
67331.1 166.241 0
0    0    0

98.5896 74004.9 0
74004.9 272.617 0
0    0    0

-148.007 75152.5 0
75152.5 -253.668 0
0    0    0

211.907 74487.1 0
74487.1 224.435 0
0    0    0

134.314 74517.4 0
74517.4 386.978 0
0    0    0

-36.9855 74589.2 0
74589.2 -37.6045 0
0    0    0

107.572 75138.8 0
75138.8 105.821 0
0    0    0

-193.569 69597.6 0
69597.6 -265.251 0
0    0    0

105.402 70468.9 0
70468.9 141.934 0
0    0    0

-104.714 69852.3 0
69852.3 -213.431 0
0    0    0

185.489 69716.4 0
69716.4 -148.756 0
0    0    0

141.328 69262.3 0
69262.3 225.951 0
0    0    0

-318.099 70702.4 0
70702.4 -281.554 0
0    0    0

-17.9954 69815.5 0
69815.5 -137.82 0
0    0    0

106.318 70438.2 0
70438.2 273.072 0
0    0    0

157.909 70545.4 0
70545.4 151.071 0
0    0    0

-43.6776 69751.6 0
69751.6 58.1137 0
0    0    0

-135.391 71228.9 0
71228.9 -442.953 0
0    0    0

-86.6515 71944.6 0
71944.6 -157.8 0
0    0    0

31.5103 70360.3 0
70360.3 199.055 0
0    0    0

-95.9148 70736 0
70736 -74.7159 0
0    0    0

-111.064 70333.3 0
70333.3 -124.151 0
0    0    0

-2.05833 69989.1 0
69989.1 181.953 0
0    0    0

173.045 70979.6 0
70979.6 385.66 0
0    0    0

149.667 70861.6 0
70861.6 307.151 0
0    0    0

120.874 71587 0
71587 314.421 0
0    0    0

-41.3334 72534.3 0
72534.3 113.072 0
0    0    0

-134.097 72695.3 0
72695.3 -80.8329 0
0    0    0

206.813 71365.3 0
71365.3 280.591 0
0    0    0

223.381 72666.3 0
72666.3 310.059 0
0    0    0

-109.971 72176.8 0
72176.8 -340.054 0
0    0    0

65.9475 71881.9 0
71881.9 -7.59299 0
0    0    0

21.9255 71925.4 0
71925.4 297.507 0
0    0    0

-42.9241 72156.8 0
72156.8 -282.632 0
0    0    0

327.122 71771.4 0
71771.4 201.992 0
0    0    0

-138.057 71159.6 0
71159.6 -160.495 0
0    0    0

-5.09759 71465.7 0
71465.7 166.174 0
0    0    0

224.474 72374.2 0
72374.2 279.966 0
0    0    0

90.7627 72239.9 0
72239.9 4.6617 0
0    0    0

230.636 73948.8 0
73948.8 357.841 0
0    0    0

127.642 73540 0
73540 -18.3354 0
0    0    0

173.864 72439.4 0
72439.4 220.4 0
0    0    0

-195.965 73698.8 0
73698.8 -97.7423 0
0    0    0

-235.231 72903.4 0
72903.4 -327.223 0
0    0    0

188.273 73088.6 0
73088.6 274.133 0
0    0    0

221.145 49089.9 0
49089.9 198.556 0
0    0    0

-205.016 49905.5 0
49905.5 -437.738 0
0    0    0

-145.093 48754.9 0
48754.9 -272.081 0
0    0    0

-115.447 48954.8 0
48954.8 -100.27 0
0    0    0

-159.446 48558 0
48558 -225.806 0
0    0    0

108.736 50129 0
50129 4.9881 0
0    0    0

280.076 48933.8 0
48933.8 171.873 0
0    0    0

190.033 49617 0
49617 284.317 0
0    0    0

185.152 48717.3 0
48717.3 177.255 0
0    0    0

216.409 49291.6 0
49291.6 308.724 0
0    0    0

-182.272 50105.3 0
50105.3 -300.6 0
0    0    0

-149.942 50230.7 0
50230.7 51.3702 0
0    0    0

-62.9057 49870.5 0
49870.5 100.758 0
0    0    0

182.089 51422.6 0
51422.6 191.906 0
0    0    0

-292.273 50952.4 0
50952.4 -88.4952 0
0    0    0

-104.344 50355.1 0
50355.1 -297.422 0
0    0    0

-238.395 50704.8 0
50704.8 -174.627 0
0    0    0

-121.922 51153.7 0
51153.7 -335.745 0
0    0    0

-157.884 50600.9 0
50600.9 -229.005 0
0    0    0

167.337 50748.2 0
50748.2 252.11 0
0    0    0

-24.8476 49597.7 0
49597.7 -235.688 0
0    0    0

150.732 50321.6 0
50321.6 218.812 0
0    0    0

8.04317 49220.7 0
49220.7 139.225 0
0    0    0

-175.36 49615.5 0
49615.5 -223.406 0
0    0    0

-219.515 50584 0
50584 -314.096 0
0    0    0

6.94168 52221.1 0
52221.1 -238.259 0
0    0    0

189.008 49862.1 0
49862.1 248.637 0
0    0    0

-31.8722 51307.9 0
51307.9 73.3192 0
0    0    0

191.474 50977.3 0
50977.3 239.645 0
0    0    0

106.404 51689.5 0
51689.5 302.685 0
0    0    0

-113.152 50122.3 0
50122.3 -204.825 0
0    0    0

257.088 50935.9 0
50935.9 345.541 0
0    0    0

36.5242 51553.2 0
51553.2 -127.434 0
0    0    0

-77.5246 50849.2 0
50849.2 71.2774 0
0    0    0

-95.1997 51731.8 0
51731.8 -203.987 0
0    0    0

-13.0815 51977.5 0
51977.5 -30.6671 0
0    0    0

247.719 45611.5 0
45611.5 150.472 0
0    0    0

-89.4784 43931.4 0
43931.4 -111.506 0
0    0    0

-54.939 45890.6 0
45890.6 -399.531 0
0    0    0

-104.56 45889.8 0
45889.8 -333.17 0
0    0    0

2.82971 46346.4 0
46346.4 -77.0636 0
0    0    0

106.999 45899.3 0
45899.3 406.214 0
0    0    0

80.5 45390.5 0
45390.5 -105.382 0
0    0    0

-166.318 45742.5 0
45742.5 -222.099 0
0    0    0

-76.7245 47001.4 0
47001.4 56.9721 0
0    0    0

92.1095 48079.6 0
48079.6 415.162 0
0    0    0

-118.077 47560.5 0
47560.5 -98.8124 0
0    0    0

236.61 47592.9 0
47592.9 484.733 0
0    0    0

-73.5578 43862.7 0
43862.7 -205.735 0
0    0    0

-129.496 44354.9 0
44354.9 92.8892 0
0    0    0

-211.408 44028.8 0
44028.8 40.7351 0
0    0    0

239.828 44749.7 0
44749.7 311.915 0
0    0    0

23.5896 43410.9 0
43410.9 -349.666 0
0    0    0

51.775 43608.7 0
43608.7 237.581 0
0    0    0

-52.7588 44362.3 0
44362.3 -69.7849 0
0    0    0

-155.434 44595.5 0
44595.5 -65.4713 0
0    0    0

-190.438 45297.6 0
45297.6 -318.902 0
0    0    0

132.092 43441.5 0
43441.5 320.162 0
0    0    0

230.674 44312.4 0
44312.4 81.8894 0
0    0    0

241.932 44341.2 0
44341.2 272.585 0
0    0    0

-154.585 45280.6 0
45280.6 -241.503 0
0    0    0

244.258 44624.6 0
44624.6 337.42 0
0    0    0

-56.4306 45609 0
45609 -364.102 0
0    0    0

-118.997 45502.4 0
45502.4 -141.527 0
0    0    0

46.0023 45873.5 0
45873.5 355.488 0
0    0    0

192.706 45634.9 0
45634.9 207.738 0
0    0    0

-75.0196 45635.5 0
45635.5 56.4367 0
0    0    0

-206.239 44853 0
44853 -349.722 0
0    0    0

114.419 45325.4 0
45325.4 246.035 0
0    0    0

122.987 45003.5 0
45003.5 222.555 0
0    0    0

56.8556 45058.3 0
45058.3 329.194 0
0    0    0

-234.589 43811.9 0
43811.9 -429.819 0
0    0    0

-94.4921 45902.8 0
45902.8 -212.895 0
0    0    0

94.5592 46624.6 0
46624.6 220.638 0
0    0    0

-188.792 45989.3 0
45989.3 -169.432 0
0    0    0

29.2735 44245.5 0
44245.5 0.563874 0
0    0    0

28.5715 43687 0
43687 -200.267 0
0    0    0

213.229 45495.6 0
45495.6 353.998 0
0    0    0

-307.845 45302.2 0
45302.2 -196.13 0
0    0    0

-79.9024 45979.8 0
45979.8 13.5853 0
0    0    0

121.578 46319.7 0
46319.7 14.752 0
0    0    0

147.745 46549.4 0
46549.4 -201.436 0
0    0    0

-71.5779 46802.9 0
46802.9 107.416 0
0    0    0

3.01626 45693.6 0
45693.6 7.03794 0
0    0    0

19.7029 45912.9 0
45912.9 -238.755 0
0    0    0

35.2404 46536.6 0
46536.6 -19.3937 0
0    0    0

53.2968 47059.6 0
47059.6 124.359 0
0    0    0

72.6667 46133.7 0
46133.7 169.556 0
0    0    0

-243.893 46657.1 0
46657.1 102.468 0
0    0    0

-123.304 43061 0
43061 -194.915 0
0    0    0

-202.205 42696.5 0
42696.5 -294.863 0
0    0    0

-245.537 40242.4 0
40242.4 28.1386 0
0    0    0

171.657 40615.1 0
40615.1 -178.88 0
0    0    0

120.282 40995.6 0
40995.6 211.941 0
0    0    0

-175.369 39172.8 0
39172.8 -264.02 0
0    0    0

-252.685 39584.1 0
39584.1 -277.695 0
0    0    0

-187.736 40247.1 0
40247.1 43.2048 0
0    0    0

83.9716 40335.6 0
40335.6 162.052 0
0    0    0

183.844 39925.7 0
39925.7 64.1688 0
0    0    0

-149.569 41356.1 0
41356.1 -349.824 0
0    0    0

-192.38 39843.5 0
39843.5 -4.18826 0
0    0    0

-34.1853 39438.6 0
39438.6 17.2684 0
0    0    0

304.744 39780.2 0
39780.2 120.875 0
0    0    0

189.386 39065.9 0
39065.9 -55.4473 0
0    0    0

-211.558 38625 0
38625 -143.303 0
0    0    0

109.362 39041.2 0
39041.2 -185.689 0
0    0    0

131.782 39822.8 0
39822.8 -212.284 0
0    0    0

-240.05 39933.7 0
39933.7 -304.79 0
0    0    0

119.475 38156.7 0
38156.7 -205.704 0
0    0    0

-19.4812 39012.8 0
39012.8 225.776 0
0    0    0

85.4914 38408.2 0
38408.2 90.6802 0
0    0    0

60.5464 37486.6 0
37486.6 -142.262 0
0    0    0

154.5 37266.4 0
37266.4 196.868 0
0    0    0

-203.725 37165.2 0
37165.2 -291.859 0
0    0    0

-211.083 38876 0
38876 155.98 0
0    0    0

200.917 38153.3 0
38153.3 79.9459 0
0    0    0

-160.645 38386.8 0
38386.8 -212.93 0
0    0    0

133.304 37583.6 0
37583.6 112.059 0
0    0    0

-170.953 38577.8 0
38577.8 -167.779 0
0    0    0

-79.8627 39473.1 0
39473.1 190.512 0
0    0    0

-217.096 37796.7 0
37796.7 -216.473 0
0    0    0

166.75 39154.7 0
39154.7 -90.2324 0
0    0    0

-216.01 39115 0
39115 2.24703 0
0    0    0

7.00578 38400.8 0
38400.8 235.462 0
0    0    0

-243.664 37412.7 0
37412.7 -200.483 0
0    0    0

-231.333 38673.4 0
38673.4 -272.837 0
0    0    0

80.7782 37223.4 0
37223.4 49.6352 0
0    0    0

162.539 35514.7 0
35514.7 -108.157 0
0    0    0

-92.4129 38211.6 0
38211.6 -137.475 0
0    0    0

149.177 36943.6 0
36943.6 -79.8863 0
0    0    0

143.19 37956.5 0
37956.5 257.911 0
0    0    0

-110.961 38139.3 0
38139.3 67.7879 0
0    0    0

116.664 37079.6 0
37079.6 342.428 0
0    0    0

-177.666 37231.9 0
37231.9 68.6714 0
0    0    0

5.08668 37885.4 0
37885.4 39.2247 0
0    0    0

-143.784 36792.5 0
36792.5 -4.39256 0
0    0    0

274.705 37472.6 0
37472.6 68.5707 0
0    0    0

10.777 37499.8 0
37499.8 303.588 0
0    0    0

-19.7078 36998.2 0
36998.2 283.462 0
0    0    0

-106.62 34014.6 0
34014.6 -111.536 0
0    0    0

49.9842 37701.4 0
37701.4 259.505 0
0    0    0

21.6683 37822.4 0
37822.4 -227.354 0
0    0    0

-17.3385 37790.9 0
37790.9 -254.056 0
0    0    0

22.6312 38122.5 0
38122.5 160.946 0
0    0    0

23.2947 37340.2 0
37340.2 -187.316 0
0    0    0

60.5276 37263.5 0
37263.5 -269.526 0
0    0    0

-81.0953 38835.7 0
38835.7 -18.7297 0
0    0    0

63.2279 38449.7 0
38449.7 151.483 0
0    0    0

-127.193 30394.7 0
30394.7 49.0762 0
0    0    0

-39.9706 30726.9 0
30726.9 119.408 0
0    0    0

-66.1795 29682.2 0
29682.2 -302.849 0
0    0    0

176.126 28019.2 0
28019.2 114.444 0
0    0    0

-0.686669 31003.5 0
31003.5 -182.441 0
0    0    0

-79.1852 30534.1 0
30534.1 108.501 0
0    0    0

-159.146 30890 0
30890 -135.046 0
0    0    0

-69.7743 31268.8 0
31268.8 -264.573 0
0    0    0

164.274 31400.1 0
31400.1 45.3638 0
0    0    0

-38.6247 31189.3 0
31189.3 84.9434 0
0    0    0

174.824 27572.3 0
27572.3 440.926 0
0    0    0

120.138 27390.3 0
27390.3 269.81 0
0    0    0

-133.35 27304.6 0
27304.6 -57.1499 0
0    0    0

-127.958 27472 0
27472 61.6844 0
0    0    0

-234.959 36349.7 0
36349.7 -7.21022 0
0    0    0

-88.9652 36833.5 0
36833.5 110.805 0
0    0    0

202.484 37337.6 0
37337.6 146.431 0
0    0    0

54.5335 37903.2 0
37903.2 -18.8848 0
0    0    0

243.075 36813.1 0
36813.1 307.41 0
0    0    0

127.724 36616.3 0
36616.3 302.455 0
0    0    0

52.9707 38207.2 0
38207.2 211.237 0
0    0    0

-115.76 38754.5 0
38754.5 44.2599 0
0    0    0

91.8436 38436.8 0
38436.8 24.5508 0
0    0    0

-182.644 38090.3 0
38090.3 -160.122 0
0    0    0

62.7486 37185.9 0
37185.9 -301.141 0
0    0    0

144.658 37827.5 0
37827.5 216.607 0
0    0    0

62.0329 38041.7 0
38041.7 -207.779 0
0    0    0

189.571 38551.6 0
38551.6 15.6438 0
0    0    0

-176.399 37663 0
37663 -224.658 0
0    0    0

205.811 37634.1 0
37634.1 301.195 0
0    0    0

-29.5677 38464.8 0
38464.8 62.0517 0
0    0    0

-71.2721 39328 0
39328 -22.112 0
0    0    0

60.3545 38689.9 0
38689.9 -249.593 0
0    0    0

-38.1767 39031.4 0
39031.4 203.781 0
0    0    0

-260.154 37937.1 0
37937.1 -170.285 0
0    0    0

84.6369 37077.3 0
37077.3 180.855 0
0    0    0

205.474 39227.9 0
39227.9 154.636 0
0    0    0

158.967 38243.8 0
38243.8 35.3744 0
0    0    0

-248.812 39353 0
39353 22.2997 0
0    0    0

-152.299 38925.4 0
38925.4 -23.8811 0
0    0    0

4.73693 37589 0
37589 171.043 0
0    0    0

-133.293 38463.5 0
38463.5 -55.3569 0
0    0    0

-323.789 38270.7 0
38270.7 -73.4042 0
0    0    0

190.612 38083.1 0
38083.1 124.773 0
0    0    0

-32.6083 36625.5 0
36625.5 173.244 0
0    0    0

-15.0924 36122.5 0
36122.5 132.464 0
0    0    0

-215.632 35827.1 0
35827.1 -212.534 0
0    0    0

140.809 34400.9 0
34400.9 59.1524 0
0    0    0

-128.9 34987.5 0
34987.5 -296.493 0
0    0    0

143.505 34766.2 0
34766.2 213.804 0
0    0    0

-45.302 37393.2 0
37393.2 -149.562 0
0    0    0

-81.9772 37004.7 0
37004.7 182.014 0
0    0    0

18.5351 36391.4 0
36391.4 136.675 0
0    0    0

208.664 37258.1 0
37258.1 161.407 0
0    0    0

-153.085 30196.3 0
30196.3 -82.8457 0
0    0    0

279.427 29931.9 0
29931.9 84.0627 0
0    0    0

-69.5444 28927.5 0
28927.5 41.5698 0
0    0    0

-10.7886 29298.6 0
29298.6 -16.3431 0
0    0    0

-173.553 74701.4 0
74701.4 -175.317 0
0    0    0

-38.4541 73814.8 0
73814.8 -230.349 0
0    0    0

-99.165 75293.6 0
75293.6 -285.027 0
0    0    0

38.5591 74193.1 0
74193.1 -83.2057 0
0    0    0

-91.3595 74076.5 0
74076.5 113.431 0
0    0    0

148.28 74275.6 0
74275.6 -38.5721 0
0    0    0

-158.346 74186.3 0
74186.3 116.216 0
0    0    0

-67.5019 74598.8 0
74598.8 127.294 0
0    0    0

81.0935 73792.9 0
73792.9 164.093 0
0    0    0

21.4824 73546 0
73546 -26.2328 0
0    0    0

-126.297 73482.3 0
73482.3 -286.612 0
0    0    0

-137.207 73753.1 0
73753.1 -229.191 0
0    0    0

52.2087 74311.2 0
74311.2 -148.409 0
0    0    0

68.1786 74706 0
74706 -75.6911 0
0    0    0

-266.936 74996.9 0
74996.9 34.8067 0
0    0    0

108.815 75041.7 0
75041.7 166.179 0
0    0    0

279.851 74917.2 0
74917.2 166.589 0
0    0    0

161.084 75590.7 0
75590.7 -121.508 0
0    0    0

-327.306 75384.5 0
75384.5 -519.141 0
0    0    0

189.436 75002.8 0
75002.8 337.173 0
0    0    0

-214.892 74309.8 0
74309.8 -205.567 0
0    0    0

180.582 74365.2 0
74365.2 -174.679 0
0    0    0

96.2302 74579.8 0
74579.8 -114.251 0
0    0    0

103.662 74471.8 0
74471.8 -27.0414 0
0    0    0

63.3877 74784.6 0
74784.6 104.896 0
0    0    0

119.1 74242.4 0
74242.4 80.0284 0
0    0    0

-34.3673 73780.2 0
73780.2 104.155 0
0    0    0

247.816 72285.1 0
72285.1 -79.7937 0
0    0    0

-105.37 76572.5 0
76572.5 -74.9096 0
0    0    0

69.2337 74963.5 0
74963.5 141.603 0
0    0    0

-3.13496 67584.3 0
67584.3 -86.7853 0
0    0    0

-3.39787 69592.3 0
69592.3 -217.907 0
0    0    0

-336.842 68485.6 0
68485.6 -132.851 0
0    0    0

117.402 68655.3 0
68655.3 259.491 0
0    0    0

-244.834 69142.5 0
69142.5 -312.25 0
0    0    0

-110.976 69447.7 0
69447.7 56.3386 0
0    0    0

182.663 68857.4 0
68857.4 191.952 0
0    0    0

318.7 68175.4 0
68175.4 327.46 0
0    0    0

-323.099 69404.1 0
69404.1 -385.462 0
0    0    0

-180.771 70179.2 0
70179.2 -307.204 0
0    0    0

100.067 68115.3 0
68115.3 165.708 0
0    0    0

-60.0692 68849.8 0
68849.8 308.183 0
0    0    0

134.23 67789.8 0
67789.8 134.256 0
0    0    0

192.87 69336.7 0
69336.7 6.98619 0
0    0    0

-41.2984 68049.9 0
68049.9 -34.4834 0
0    0    0

-341.082 68570.3 0
68570.3 -250.974 0
0    0    0

-16.3184 67406.5 0
67406.5 -36.3031 0
0    0    0

132.245 67138.2 0
67138.2 162.408 0
0    0    0

115.702 68718.8 0
68718.8 294.751 0
0    0    0

106.202 69304 0
69304 305.138 0
0    0    0

203.633 67552.6 0
67552.6 109.098 0
0    0    0

38.0102 67462.6 0
67462.6 -229.729 0
0    0    0

-1.72876 69662.9 0
69662.9 -161.091 0
0    0    0

348.026 71122.4 0
71122.4 281.022 0
0    0    0

282.929 68206.2 0
68206.2 239.46 0
0    0    0

359.115 68874.2 0
68874.2 445.833 0
0    0    0

-132.901 69088.6 0
69088.6 -273.064 0
0    0    0

319.053 69747.2 0
69747.2 287.047 0
0    0    0

-198.326 69123.6 0
69123.6 127.253 0
0    0    0

-259.555 68418.5 0
68418.5 -280.247 0
0    0    0

466.711 68027.1 0
68027.1 385.093 0
0    0    0

142.253 66181.1 0
66181.1 228.217 0
0    0    0

-107.263 70940.2 0
70940.2 -138.767 0
0    0    0

70.0061 71987.2 0
71987.2 127.398 0
0    0    0

-220.022 68541.5 0
68541.5 -255.067 0
0    0    0

-301.849 67802.2 0
67802.2 -262.355 0
0    0    0

242.589 70419.4 0
70419.4 75.2179 0
0    0    0

-251.44 72064.6 0
72064.6 -212.736 0
0    0    0

-155.145 71204.2 0
71204.2 142.955 0
0    0    0

-154.008 71417.8 0
71417.8 22.7428 0
0    0    0

122.382 71848.5 0
71848.5 63.1353 0
0    0    0

-32.625 71802.9 0
71802.9 13.3122 0
0    0    0

-376.147 70222.2 0
70222.2 -223.275 0
0    0    0

105.309 69100.8 0
69100.8 303.809 0
0    0    0

-204.172 73987.3 0
73987.3 -303.549 0
0    0    0

176.361 73688.7 0
73688.7 93.2736 0
0    0    0

45.5621 71291.9 0
71291.9 -67.2219 0
0    0    0

141.96 71018.5 0
71018.5 -32.7703 0
0    0    0

183.184 69948.1 0
69948.1 140.489 0
0    0    0

-33.0494 70558 0
70558 21.6642 0
0    0    0

135.104 73401.5 0
73401.5 218.801 0
0    0    0

296.605 72837.6 0
72837.6 0.914223 0
0    0    0

-12.4682 72311.8 0
72311.8 -309.662 0
0    0    0

-72.8919 73325.1 0
73325.1 -74.5913 0
0    0    0

34.4093 72219.2 0
72219.2 24.2859 0
0    0    0

-66.1855 72867 0
72867 -228.698 0
0    0    0

-185.667 72287.8 0
72287.8 -41.3139 0
0    0    0

25.2924 72655.8 0
72655.8 296.578 0
0    0    0

-32.7792 71437.9 0
71437.9 -3.90668 0
0    0    0

162.002 71334.4 0
71334.4 20.9606 0
0    0    0

22.1919 69848.2 0
69848.2 290.002 0
0    0    0

217.978 69945.6 0
69945.6 300.733 0
0    0    0

86.1532 70909.7 0
70909.7 -253.52 0
0    0    0

163.623 71336.3 0
71336.3 405.675 0
0    0    0

81.3235 73427.3 0
73427.3 -23.5746 0
0    0    0

-58.3068 74951.9 0
74951.9 -234.332 0
0    0    0

-48.7348 73321.8 0
73321.8 -71.1313 0
0    0    0

158.116 73427.9 0
73427.9 138.123 0
0    0    0

-122.478 70507.5 0
70507.5 -119.666 0
0    0    0

-85.4566 70190 0
70190 -106.159 0
0    0    0

-51.8073 70095.1 0
70095.1 253.431 0
0    0    0

99.8648 70413.2 0
70413.2 97.1256 0
0    0    0

11.8218 69452.4 0
69452.4 -189.016 0
0    0    0

93.1286 70868 0
70868 292.988 0
0    0    0

65.9476 69861.5 0
69861.5 253.253 0
0    0    0

170.006 70334.1 0
70334.1 207.094 0
0    0    0

62.15 71070.7 0
71070.7 -98.4006 0
0    0    0

-22.5562 71468.8 0
71468.8 181.151 0
0    0    0

62.3185 72616.2 0
72616.2 50.139 0
0    0    0

35.8428 71683.8 0
71683.8 -198.979 0
0    0    0

55.5221 74251.5 0
74251.5 177.651 0
0    0    0

227.676 74934.6 0
74934.6 2.93704 0
0    0    0

-130.791 68330.3 0
68330.3 -228.603 0
0    0    0

-145.203 68988.2 0
68988.2 105.662 0
0    0    0

-109.554 71721.9 0
71721.9 62.99 0
0    0    0

-107.025 71120.7 0
71120.7 -53.1762 0
0    0    0

148.765 70647.6 0
70647.6 83.315 0
0    0    0

-58.4945 70564.8 0
70564.8 -206.87 0
0    0    0

-210.148 70320.5 0
70320.5 -305.593 0
0    0    0

164.417 70848.8 0
70848.8 218.66 0
0    0    0

-206.221 73083.2 0
73083.2 -81.5208 0
0    0    0

91.6849 73246 0
73246 299.016 0
0    0    0

-111.206 72993.9 0
72993.9 -296.972 0
0    0    0

170.663 73636.1 0
73636.1 237.474 0
0    0    0

-141.249 72383.2 0
72383.2 111.861 0
0    0    0

-219.863 72829.6 0
72829.6 -327.513 0
0    0    0

-139.486 75700.5 0
75700.5 -6.66889 0
0    0    0

-88.5144 75305.1 0
75305.1 137.256 0
0    0    0

-108.87 73848.1 0
73848.1 4.20048 0
0    0    0

166.914 74709.1 0
74709.1 120.835 0
0    0    0

179.364 73692 0
73692 335.857 0
0    0    0

-315.683 74561.7 0
74561.7 -159.1 0
0    0    0

-29.316 74276.8 0
74276.8 223.076 0
0    0    0

-240.831 75104.3 0
75104.3 -140.369 0
0    0    0

251.208 74210.5 0
74210.5 261.108 0
0    0    0

95.3484 74593.9 0
74593.9 108.985 0
0    0    0

173.731 73972.1 0
73972.1 76.6746 0
0    0    0

-259.982 75615.2 0
75615.2 -295.904 0
0    0    0

-112.804 74681 0
74681 -121.074 0
0    0    0

191.529 75195.1 0
75195.1 266.912 0
0    0    0

-183.539 75119.1 0
75119.1 -193.893 0
0    0    0

-306.337 74994 0
74994 -241.057 0
0    0    0

-136.571 69319.7 0
69319.7 -257.029 0
0    0    0

-62.9826 69629.4 0
69629.4 -320.366 0
0    0    0

-175.839 71168 0
71168 -297.857 0
0    0    0

24.8776 72084.1 0
72084.1 -357.747 0
0    0    0

66.9868 72106.1 0
72106.1 -57.2665 0
0    0    0

-171.675 73022.5 0
73022.5 -271.462 0
0    0    0

-179.059 74568.1 0
74568.1 -85.5197 0
0    0    0

-184.284 75609.1 0
75609.1 -44.5426 0
0    0    0

165.226 74270.5 0
74270.5 147.217 0
0    0    0

-62.3759 74806.1 0
74806.1 91.6363 0
0    0    0

187.913 74031.5 0
74031.5 -135.701 0
0    0    0

-73.4146 74510.6 0
74510.6 -263.73 0
0    0    0

103.539 70923.6 0
70923.6 323.09 0
0    0    0

11.7066 71641.4 0
71641.4 -410.819 0
0    0    0

-207.949 70706.9 0
70706.9 -118.198 0
0    0    0

-272.377 71815.7 0
71815.7 -80.7944 0
0    0    0

212.517 72525.8 0
72525.8 403.792 0
0    0    0

178.032 72281.8 0
72281.8 203.372 0
0    0    0

-177.736 72626.5 0
72626.5 -281.996 0
0    0    0

-44.5202 73989.4 0
73989.4 -218.664 0
0    0    0

-160.069 72560.1 0
72560.1 -153.806 0
0    0    0

-43.6736 71794.5 0
71794.5 117.592 0
0    0    0

-133.079 73462.2 0
73462.2 -283.891 0
0    0    0

19.0407 72729.7 0
72729.7 -65.991 0
0    0    0

226.513 72327.6 0
72327.6 218.044 0
0    0    0

10.787 73310.7 0
73310.7 1.5758 0
0    0    0

-163.337 73430.9 0
73430.9 -380.738 0
0    0    0

-10.5771 72668.9 0
72668.9 -76.6926 0
0    0    0

170.735 72946.3 0
72946.3 161.612 0
0    0    0

-8.89977 73627.3 0
73627.3 68.5431 0
0    0    0

77.1426 73211.7 0
73211.7 224.515 0
0    0    0

101.83 72747.9 0
72747.9 224.573 0
0    0    0

71.187 72339.6 0
72339.6 220.435 0
0    0    0

223.857 72807.7 0
72807.7 226.799 0
0    0    0

214.338 72116.5 0
72116.5 6.37406 0
0    0    0

-166.428 72149.6 0
72149.6 -54.2962 0
0    0    0

-45.2344 74040.6 0
74040.6 -176.86 0
0    0    0

-46.1566 75660.8 0
75660.8 99.3023 0
0    0    0

-61.3017 71902.8 0
71902.8 201.266 0
0    0    0

130.837 71584.1 0
71584.1 -145.098 0
0    0    0

-31.434 70452.5 0
70452.5 124.763 0
0    0    0

249.17 71781.7 0
71781.7 -7.53079 0
0    0    0

21.925 72125.2 0
72125.2 -108.957 0
0    0    0

29.3277 72565.1 0
72565.1 -112.929 0
0    0    0

-143.131 71864.3 0
71864.3 197.709 0
0    0    0

-278.176 72235.6 0
72235.6 -386.69 0
0    0    0

87.0526 72933.4 0
72933.4 -164.321 0
0    0    0

-320.636 73392.8 0
73392.8 -204.599 0
0    0    0

162.32 71717.3 0
71717.3 255.831 0
0    0    0

130.64 72163.4 0
72163.4 93.6938 0
0    0    0

153.389 72347.2 0
72347.2 174.974 0
0    0    0

154.625 73099.6 0
73099.6 194.346 0
0    0    0

-187.956 73803.9 0
73803.9 -83.7436 0
0    0    0

-25.1613 73018.3 0
73018.3 168.776 0
0    0    0

182.273 73693.6 0
73693.6 277.855 0
0    0    0

207.948 73603.9 0
73603.9 116.312 0
0    0    0

220.72 74284 0
74284 99.5568 0
0    0    0

104.12 73682.4 0
73682.4 -115.877 0
0    0    0

-164.89 71658.2 0
71658.2 -161.789 0
0    0    0

-193.223 70492.9 0
70492.9 76.9999 0
0    0    0

-165.963 70685.4 0
70685.4 -262.917 0
0    0    0

-51.5688 69515.9 0
69515.9 191.342 0
0    0    0

-84.2425 71360.3 0
71360.3 159.848 0
0    0    0

-417.003 70405.4 0
70405.4 -238.342 0
0    0    0

-34.0823 71132.3 0
71132.3 160.047 0
0    0    0

86.6364 71358.9 0
71358.9 258.828 0
0    0    0

13.6888 71161 0
71161 -149.95 0
0    0    0

-129.198 72063.6 0
72063.6 -144.366 0
0    0    0

-196.387 72652.8 0
72652.8 -35.5313 0
0    0    0

-186.925 72772.7 0
72772.7 12.7506 0
0    0    0

223.342 71845 0
71845 178.417 0
0    0    0

-121.304 72757.9 0
72757.9 -173.032 0
0    0    0

124.186 70596.8 0
70596.8 -32.8686 0
0    0    0

116.672 71406.4 0
71406.4 187.477 0
0    0    0

62.7698 71468.5 0
71468.5 -214.616 0
0    0    0

-50.5098 71423.7 0
71423.7 -259.115 0
0    0    0

35.3713 72580.9 0
72580.9 314.726 0
0    0    0

251.936 73302.9 0
73302.9 227.362 0
0    0    0

-206.375 71668.3 0
71668.3 -244.203 0
0    0    0

180.03 71924 0
71924 306.809 0
0    0    0

79.0635 72444 0
72444 229.572 0
0    0    0

119.03 72455.7 0
72455.7 226.628 0
0    0    0

-33.99 72928.3 0
72928.3 248.521 0
0    0    0

120.644 74210.3 0
74210.3 133.584 0
0    0    0

25.434 72833.3 0
72833.3 -217.66 0
0    0    0

-103.215 73300.4 0
73300.4 -284.266 0
0    0    0

-9.33265 72967.4 0
72967.4 123.913 0
0    0    0

216.856 73525.6 0
73525.6 261.466 0
0    0    0

-84.929 70736.8 0
70736.8 -36.2487 0
0    0    0

-66.8936 69910.1 0
69910.1 108.995 0
0    0    0

126.379 69267.1 0
69267.1 301.913 0
0    0    0

62.1824 68611.6 0
68611.6 -133.627 0
0    0    0

-189.6 56045.2 0
56045.2 -224.852 0
0    0    0

188.024 55945.6 0
55945.6 -113.303 0
0    0    0

222.731 53226.4 0
53226.4 -57.6254 0
0    0    0

-166.064 54028.4 0
54028.4 -393.152 0
0    0    0

-12.3846 52567.2 0
52567.2 294.69 0
0    0    0

-76.6523 53191.9 0
53191.9 -232.504 0
0    0    0

-213.794 53866.2 0
53866.2 -256.877 0
0    0    0

56.4309 53353.2 0
53353.2 -108.403 0
0    0    0

276.259 54070.3 0
54070.3 52.4527 0
0    0    0

96.803 54856.5 0
54856.5 81.4147 0
0    0    0

159.851 53588.9 0
53588.9 174.522 0
0    0    0

-170.311 54720 0
54720 -299.979 0
0    0    0

353.972 55217.7 0
55217.7 113.739 0
0    0    0

-117.082 55429.8 0
55429.8 310.883 0
0    0    0

-240.994 54061.1 0
54061.1 -45.6506 0
0    0    0

74.9076 53641 0
53641 277.143 0
0    0    0

180.053 53021.6 0
53021.6 -47.4357 0
0    0    0

336.758 53295.7 0
53295.7 232.738 0
0    0    0

-48.1116 53028.4 0
53028.4 165.037 0
0    0    0

263.673 53782.3 0
53782.3 53.5351 0
0    0    0

-60.7663 52034.2 0
52034.2 -111.601 0
0    0    0

341.237 53162.4 0
53162.4 78.6344 0
0    0    0

53.4108 52747.8 0
52747.8 -59.3727 0
0    0    0

-353.533 52771.2 0
52771.2 -126.577 0
0    0    0

185.5 52542.9 0
52542.9 91.4759 0
0    0    0

-139.76 53470.7 0
53470.7 -106.77 0
0    0    0

-173.541 54335.1 0
54335.1 1.27169 0
0    0    0

129.403 53895.3 0
53895.3 396.978 0
0    0    0

-48.3286 53691.4 0
53691.4 199.866 0
0    0    0

216.944 54358.9 0
54358.9 268.812 0
0    0    0

-106.299 53156.8 0
53156.8 -132.764 0
0    0    0

-236.642 52443.8 0
52443.8 -219.73 0
0    0    0

-171.469 51243.3 0
51243.3 -149.958 0
0    0    0

-136.294 50726.1 0
50726.1 -253.058 0
0    0    0

-109.001 55789.3 0
55789.3 -23.3571 0
0    0    0

124.175 56007.2 0
56007.2 105.821 0
0    0    0

-171.935 59212.2 0
59212.2 -252.442 0
0    0    0

259.57 58959.7 0
58959.7 55.1671 0
0    0    0

-191.62 54825 0
54825 -197.224 0
0    0    0

-44.5457 53949.7 0
53949.7 -301.058 0
0    0    0

-183.609 56567.8 0
56567.8 0.151053 0
0    0    0

101.319 56197.6 0
56197.6 153.092 0
0    0    0

-186.062 56144.1 0
56144.1 72.013 0
0    0    0

224.265 54755.1 0
54755.1 -28.701 0
0    0    0

-194.916 58223.5 0
58223.5 91.9165 0
0    0    0

-25.3783 58419.3 0
58419.3 -209.033 0
0    0    0

-15.0741 48362.7 0
48362.7 162.834 0
0    0    0

2.90181 49764.8 0
49764.8 206.462 0
0    0    0

-114.18 48919.5 0
48919.5 -155.102 0
0    0    0

-163.67 49188.1 0
49188.1 -34.4241 0
0    0    0

-410.724 49080.9 0
49080.9 -278.005 0
0    0    0

-97.8965 48587.5 0
48587.5 -328.197 0
0    0    0

193.223 48780.2 0
48780.2 201.444 0
0    0    0

-159.574 49835 0
49835 -73.0526 0
0    0    0

327.264 48905.2 0
48905.2 180.503 0
0    0    0

-51.7528 49283.6 0
49283.6 -193.284 0
0    0    0

241.813 48339.6 0
48339.6 372.678 0
0    0    0

47.8397 49260 0
49260 -304.606 0
0    0    0

-253.36 49311.4 0
49311.4 -275.828 0
0    0    0

313.705 50883.2 0
50883.2 206.452 0
0    0    0

-157.593 48157 0
48157 -271.372 0
0    0    0

-137.064 48540.4 0
48540.4 -43.3053 0
0    0    0

-33.9653 48236.7 0
48236.7 206.602 0
0    0    0

-43.7532 48571.7 0
48571.7 156.596 0
0    0    0

158.677 48661.1 0
48661.1 134.642 0
0    0    0

50.2254 48459 0
48459 -18.8312 0
0    0    0

-89.0354 49982.2 0
49982.2 -132.019 0
0    0    0

-76.641 48895.1 0
48895.1 -77.0766 0
0    0    0

-367.427 48408.4 0
48408.4 -118.205 0
0    0    0

-364.031 49457.7 0
49457.7 -236.487 0
0    0    0

-70.0279 49039.5 0
49039.5 -61.5139 0
0    0    0

321.88 49052 0
49052 139.983 0
0    0    0

176.939 49627.7 0
49627.7 321.081 0
0    0    0

-388.853 49888.2 0
49888.2 -378.195 0
0    0    0

305.619 49507 0
49507 262.73 0
0    0    0

164.015 50128.5 0
50128.5 432.161 0
0    0    0

146.275 49543.5 0
49543.5 148.024 0
0    0    0

229.745 49501.9 0
49501.9 176.722 0
0    0    0

348.701 48311.4 0
48311.4 72.4976 0
0    0    0

-175.955 48952.2 0
48952.2 -73.1478 0
0    0    0

173.383 50586.1 0
50586.1 14.8976 0
0    0    0

-8.02888 50116.9 0
50116.9 300.322 0
0    0    0

-307.833 49949.5 0
49949.5 -263.861 0
0    0    0

-196.395 50477.7 0
50477.7 -300.387 0
0    0    0

263.852 49634.7 0
49634.7 165.634 0
0    0    0

-132.014 51015.1 0
51015.1 -224.544 0
0    0    0

-207.207 50881 0
50881 -262.721 0
0    0    0

83.8382 51193.8 0
51193.8 -103.72 0
0    0    0

171.32 50160.3 0
50160.3 309.925 0
0    0    0

188.685 50918.7 0
50918.7 237.995 0
0    0    0

146.895 50539.8 0
50539.8 242.988 0
0    0    0

-171.953 50390.8 0
50390.8 -256.422 0
0    0    0

156.203 51037.1 0
51037.1 146.184 0
0    0    0

51.6378 50748.2 0
50748.2 -69.6995 0
0    0    0

-189.561 49609.2 0
49609.2 -423.604 0
0    0    0

245.381 51033.6 0
51033.6 13.5567 0
0    0    0

-186.919 50137.1 0
50137.1 -215.752 0
0    0    0

192.759 50416.2 0
50416.2 144.579 0
0    0    0

-186.671 50861.5 0
50861.5 -258.885 0
0    0    0

-284.519 51187 0
51187 -187.421 0
0    0    0

319.584 50582.4 0
50582.4 535.734 0
0    0    0

-244.552 50598.5 0
50598.5 -267.272 0
0    0    0

137.238 49999.9 0
49999.9 323.353 0
0    0    0

166.671 50344.4 0
50344.4 468.334 0
0    0    0

-219.517 50350 0
50350 -349.284 0
0    0    0

34.8281 50825.4 0
50825.4 258.242 0
0    0    0

-246.205 51606.3 0
51606.3 -144.787 0
0    0    0

-225.287 52826.1 0
52826.1 -130.614 0
0    0    0

-6.07742 52043.7 0
52043.7 -161.417 0
0    0    0

-129.068 51707.1 0
51707.1 -212.873 0
0    0    0

-155.273 52264.7 0
52264.7 -220.675 0
0    0    0

179.241 51853.1 0
51853.1 57.9053 0
0    0    0

131.678 52016.6 0
52016.6 -36.1383 0
0    0    0

-41.1853 51942.4 0
51942.4 -340.937 0
0    0    0

-68.3947 52373.5 0
52373.5 232.911 0
0    0    0

-96.2541 51066.6 0
51066.6 195.433 0
0    0    0

-192.04 52170.8 0
52170.8 -333.996 0
0    0    0

-227.631 51779 0
51779 -206.169 0
0    0    0

-21.8661 51614.3 0
51614.3 310.245 0
0    0    0

-151.097 52095.2 0
52095.2 -104.959 0
0    0    0

251.821 51686.2 0
51686.2 393.64 0
0    0    0

199.937 51307 0
51307 256.274 0
0    0    0

-68.9457 51404.4 0
51404.4 -305.708 0
0    0    0

223.748 51790.9 0
51790.9 359.874 0
0    0    0

216.634 51691.1 0
51691.1 335.966 0
0    0    0

95.2227 52486.3 0
52486.3 -71.3901 0
0    0    0

-97.4255 51262.8 0
51262.8 -158.234 0
0    0    0

84.3233 51045.7 0
51045.7 -28.8955 0
0    0    0

-241.714 52916.4 0
52916.4 -145.648 0
0    0    0

-48.9605 51936.2 0
51936.2 9.82757 0
0    0    0

-100.481 52792.9 0
52792.9 182.82 0
0    0    0

-164.385 52020.6 0
52020.6 -324.267 0
0    0    0

-131.088 52594.7 0
52594.7 -319.809 0
0    0    0

130.184 52266 0
52266 141.267 0
0    0    0

-212.395 55442.1 0
55442.1 -340.672 0
0    0    0

-126.365 54067.6 0
54067.6 -300.449 0
0    0    0

86.8585 54883.4 0
54883.4 310.251 0
0    0    0

42.8842 54322 0
54322 -183.429 0
0    0    0

-165.576 54939 0
54939 56.1086 0
0    0    0

-40.7425 54209.9 0
54209.9 312.759 0
0    0    0

230.762 55160.1 0
55160.1 514.422 0
0    0    0

95.647 54836.2 0
54836.2 27.5203 0
0    0    0

-40.8731 56425.5 0
56425.5 -282.898 0
0    0    0

21.5092 55291.4 0
55291.4 159.853 0
0    0    0

-138.987 55442.5 0
55442.5 121.799 0
0    0    0

256.151 53872.3 0
53872.3 237.502 0
0    0    0

48.9782 54398.5 0
54398.5 -23.0306 0
0    0    0

38.1101 54427 0
54427 275.664 0
0    0    0

3.31548 55591.8 0
55591.8 -140.053 0
0    0    0

-72.7959 54619.4 0
54619.4 -343.278 0
0    0    0

-168.354 56393 0
56393 12.654 0
0    0    0

-111.415 56611 0
56611 -48.9312 0
0    0    0

-240.805 55792.6 0
55792.6 -65.174 0
0    0    0

136.009 55662.4 0
55662.4 -54.5232 0
0    0    0

236.148 55666.6 0
55666.6 119.246 0
0    0    0

5.31973 56219.3 0
56219.3 241.038 0
0    0    0

153.64 55158.1 0
55158.1 -81.353 0
0    0    0

74.2486 55999.7 0
55999.7 -134.366 0
0    0    0

-72.5323 55541.3 0
55541.3 -271.76 0
0    0    0

78.0456 55285.8 0
55285.8 89.552 0
0    0    0

-38.1122 53472.5 0
53472.5 -470.003 0
0    0    0

-111.829 53749.1 0
53749.1 -210.859 0
0    0    0

-84.6317 54638.4 0
54638.4 25.1656 0
0    0    0

363.657 54183.5 0
54183.5 29.9509 0
0    0    0

-187.457 55180.7 0
55180.7 -163.547 0
0    0    0

-135.676 55061.5 0
55061.5 -255.163 0
0    0    0

-154.399 53416.4 0
53416.4 121.038 0
0    0    0

-244.585 54050.2 0
54050.2 -115.887 0
0    0    0

102.898 55663.3 0
55663.3 76.7666 0
0    0    0

93.7191 55189.5 0
55189.5 164.367 0
0    0    0

203.209 55303 0
55303 264.366 0
0    0    0

230.88 54513.8 0
54513.8 207.097 0
0    0    0

-85.3221 55634.2 0
55634.2 -144.178 0
0    0    0

-263.683 54851.2 0
54851.2 -257.859 0
0    0    0

-513.006 54071.7 0
54071.7 -117.805 0
0    0    0

-123.034 53661 0
53661 -289.51 0
0    0    0

-161.876 52950.2 0
52950.2 -38.1379 0
0    0    0

-627.86 53010.7 0
53010.7 -316.344 0
0    0    0

176.746 54127 0
54127 87.9442 0
0    0    0

81.581 53894.8 0
53894.8 138.084 0
0    0    0

115.748 52421.8 0
52421.8 54.8436 0
0    0    0

-77.7033 52208.4 0
52208.4 -254.075 0
0    0    0

221.995 52751.4 0
52751.4 10.7876 0
0    0    0

-123.942 52281.2 0
52281.2 -385.683 0
0    0    0

293.595 52792.1 0
52792.1 137.515 0
0    0    0

-94.0413 53655.9 0
53655.9 -172.46 0
0    0    0

-257.967 53035.9 0
53035.9 93.1451 0
0    0    0

282.875 52549 0
52549 237.651 0
0    0    0

-229.83 57833.6 0
57833.6 -414.187 0
0    0    0

-45.0766 57483.6 0
57483.6 203.291 0
0    0    0

-70.9986 56850.2 0
56850.2 -296.158 0
0    0    0

275.765 56817.9 0
56817.9 -109.331 0
0    0    0

8.73759 57022.4 0
57022.4 -237.869 0
0    0    0

-144.831 55952.9 0
55952.9 -205.473 0
0    0    0

-33.7034 56222.5 0
56222.5 109.303 0
0    0    0

134.833 56168.9 0
56168.9 397.273 0
0    0    0

-72.2459 57091 0
57091 -94.4601 0
0    0    0

120.485 57038.2 0
57038.2 134.417 0
0    0    0

144.169 55976.4 0
55976.4 41.0709 0
0    0    0

-247.054 56793 0
56793 -173.632 0
0    0    0

33.933 56856.7 0
56856.7 257.734 0
0    0    0

176.766 56583.1 0
56583.1 95.3348 0
0    0    0

-105.39 57947.3 0
57947.3 -368.104 0
0    0    0

-215.496 58268 0
58268 -137.437 0
0    0    0

85.2616 58588.5 0
58588.5 303.693 0
0    0    0

-290.029 58646.5 0
58646.5 -204.095 0
0    0    0

216.222 57595.3 0
57595.3 364.563 0
0    0    0

3.48133 57829.9 0
57829.9 12.6082 0
0    0    0

302.49 59378 0
59378 278.722 0
0    0    0

-322.578 58913 0
58913 -92.3465 0
0    0    0

-57.918 58157 0
58157 95.3366 0
0    0    0

249.719 58039 0
58039 105.773 0
0    0    0

8.88906 58481.9 0
58481.9 -121.213 0
0    0    0

-25.6312 58714.7 0
58714.7 305.26 0
0    0    0

-152.376 58648.2 0
58648.2 -78.6935 0
0    0    0

-286.658 57588.8 0
57588.8 -208.807 0
0    0    0

-187.511 57746.8 0
57746.8 -208.143 0
0    0    0

192.843 57872.8 0
57872.8 287.133 0
0    0    0

277.356 59619.8 0
59619.8 155.2 0
0    0    0

-153.482 58858.6 0
58858.6 -429.154 0
0    0    0

-6.34202 60838.3 0
60838.3 -285.31 0
0    0    0

-81.7277 59337.4 0
59337.4 -206.502 0
0    0    0

165.2 58461.2 0
58461.2 160.657 0
0    0    0

-62.8988 58124.7 0
58124.7 -140.067 0
0    0    0

16.6584 58964.9 0
58964.9 53.7928 0
0    0    0

-4.77545 59177.5 0
59177.5 217.97 0
0    0    0

203.874 58321.2 0
58321.2 128.608 0
0    0    0

50.3278 56568.9 0
56568.9 -22.4982 0
0    0    0

-336.128 60553 0
60553 -240.523 0
0    0    0

-369.818 59843.1 0
59843.1 -283.859 0
0    0    0

-350.173 59316.4 0
59316.4 -49.9405 0
0    0    0

-25.7962 59915 0
59915 -0.618657 0
0    0    0

-214.815 59507.1 0
59507.1 -76.7577 0
0    0    0

-165.665 59042.1 0
59042.1 -98.0857 0
0    0    0

-119.588 58654.6 0
58654.6 -65.4299 0
0    0    0

-189.052 57480 0
57480 -17.0835 0
0    0    0

217.246 59053.5 0
59053.5 217.611 0
0    0    0

25.5953 60191.8 0
60191.8 -161.025 0
0    0    0

-158.096 60326.7 0
60326.7 -26.0458 0
0    0    0

45.7568 60056.8 0
60056.8 127.169 0
0    0    0

-110.22 59589.2 0
59589.2 97.5491 0
0    0    0

-130.031 60612.2 0
60612.2 -392.476 0
0    0    0

252.801 58863.2 0
58863.2 -132.105 0
0    0    0

-98.1212 59318.5 0
59318.5 -295.955 0
0    0    0

78.782 58279.9 0
58279.9 172.447 0
0    0    0

218.079 58949.3 0
58949.3 -96.3385 0
0    0    0

-61.8501 59737.9 0
59737.9 231.667 0
0    0    0

-105.551 60846.9 0
60846.9 53.4583 0
0    0    0

186.569 60464.3 0
60464.3 98.099 0
0    0    0

-35.4632 59695.3 0
59695.3 -135.194 0
0    0    0

100.12 58982.6 0
58982.6 -105.331 0
0    0    0

308.999 57413.6 0
57413.6 341.504 0
0    0    0

-246.534 58163.7 0
58163.7 -182.68 0
0    0    0

107.89 58014.6 0
58014.6 69.1616 0
0    0    0

-39.4934 59491 0
59491 -210.802 0
0    0    0

-324.076 58612.2 0
58612.2 -320.553 0
0    0    0

-17.425 58300.7 0
58300.7 -380.716 0
0    0    0

-278.741 57139.7 0
57139.7 -581.844 0
0    0    0

88.2143 60164.5 0
60164.5 -123.717 0
0    0    0

188.74 58831.2 0
58831.2 287.533 0
0    0    0

57.7298 60255.9 0
60255.9 269.114 0
0    0    0

288.446 59741.6 0
59741.6 181.309 0
0    0    0

-93.925 60373.1 0
60373.1 -63.7609 0
0    0    0

-60.9843 60103.2 0
60103.2 137.288 0
0    0    0

130.665 59803.1 0
59803.1 324.099 0
0    0    0

178.7 59188.4 0
59188.4 277.149 0
0    0    0

88.2831 58531.4 0
58531.4 129.456 0
0    0    0

24.3054 59249.4 0
59249.4 -282.656 0
0    0    0

230.329 58087.5 0
58087.5 595.875 0
0    0    0

-112.817 58522.5 0
58522.5 138.268 0
0    0    0

134.437 60432.8 0
60432.8 -70.8812 0
0    0    0

-265.04 60998.9 0
60998.9 -218.071 0
0    0    0

-11.3087 60118.2 0
60118.2 -258.62 0
0    0    0

-91.2233 60572.1 0
60572.1 -68.4712 0
0    0    0

28.2265 59941.4 0
59941.4 -152.317 0
0    0    0

-142.795 59484.9 0
59484.9 -344.907 0
0    0    0

-245.182 57725.8 0
57725.8 -361.507 0
0    0    0

-10.1787 58183.9 0
58183.9 102.963 0
0    0    0

-31.3446 59001.7 0
59001.7 115.265 0
0    0    0

260.513 58809.8 0
58809.8 291.118 0
0    0    0

85.049 56813.3 0
56813.3 -124.064 0
0    0    0

-185.111 57290.3 0
57290.3 -154.962 0
0    0    0

150.646 49212 0
49212 125.804 0
0    0    0

124.569 48726.5 0
48726.5 127.157 0
0    0    0

92.4256 49725.9 0
49725.9 77.9618 0
0    0    0

-71.7936 50524.6 0
50524.6 -299.407 0
0    0    0

-110.11 50361.5 0
50361.5 -12.8404 0
0    0    0

77.5854 51975.1 0
51975.1 19.6298 0
0    0    0

-81.7582 50179.9 0
50179.9 134.872 0
0    0    0

-51.2036 51369.2 0
51369.2 100.255 0
0    0    0

160.294 49702.2 0
49702.2 3.62433 0
0    0    0

-248.002 49763.8 0
49763.8 -358.149 0
0    0    0

-10.0009 50322.5 0
50322.5 -189.218 0
0    0    0

99.5848 50980.8 0
50980.8 -62.6517 0
0    0    0

181.038 51965.4 0
51965.4 258.103 0
0    0    0

-65.4442 52388.8 0
52388.8 191.869 0
0    0    0

221.102 51536.6 0
51536.6 138.766 0
0    0    0

-215.676 51154.5 0
51154.5 -113.573 0
0    0    0

238.194 50701.9 0
50701.9 73.3319 0
0    0    0

151.367 50426.1 0
50426.1 -65.0573 0
0    0    0

-150.8 50871.2 0
50871.2 78.1627 0
0    0    0

49.4588 50096.7 0
50096.7 127.784 0
0    0    0

198.532 51350.6 0
51350.6 148.892 0
0    0    0

-234.74 50692.5 0
50692.5 -493.495 0
0    0    0

228.281 50810.8 0
50810.8 236.762 0
0    0    0

214.038 50504.4 0
50504.4 114.44 0
0    0    0

215.15 37992 0
37992 154.46 0
0    0    0

107.739 38592.9 0
38592.9 -167.02 0
0    0    0

47.0408 39195.3 0
39195.3 -102.04 0
0    0    0

3.34841 39065.7 0
39065.7 -266.096 0
0    0    0

-165.029 36051.1 0
36051.1 -225.981 0
0    0    0

187.027 35919.4 0
35919.4 -69.2402 0
0    0    0

215.77 33971.7 0
33971.7 210.806 0
0    0    0

-183.857 36445.5 0
36445.5 -270.508 0
0    0    0

73.2622 37914 0
37914 118.094 0
0    0    0

52.9509 37345 0
37345 -17.4065 0
0    0    0

-130.723 37481.7 0
37481.7 -33.2176 0
0    0    0

139.509 37707.2 0
37707.2 -146.434 0
0    0    0

149.703 37360.4 0
37360.4 216.165 0
0    0    0

150.357 38864.9 0
38864.9 136.752 0
0    0    0

46.6544 38309.5 0
38309.5 71.4293 0
0    0    0

-316.26 37754.3 0
37754.3 -23.2319 0
0    0    0

-158.647 37094.9 0
37094.9 -135.661 0
0    0    0

128.051 38554.9 0
38554.9 -36.5932 0
0    0    0

-190.712 37885.7 0
37885.7 -194.147 0
0    0    0

-245.836 38742.2 0
38742.2 -15.0899 0
0    0    0

132.981 37632 0
37632 347.71 0
0    0    0

145.13 39777.9 0
39777.9 196.986 0
0    0    0

269.53 39633.1 0
39633.1 393.018 0
0    0    0

127.877 38875.8 0
38875.8 74.9994 0
0    0    0

-124.391 38758.4 0
38758.4 -133.593 0
0    0    0

37.0499 39244.6 0
39244.6 -201.898 0
0    0    0

167.106 40231.6 0
40231.6 241.625 0
0    0    0

-35.2238 39890.5 0
39890.5 214.174 0
0    0    0

-46.9181 39115.4 0
39115.4 167.278 0
0    0    0

-303.263 40080.9 0
40080.9 -427.448 0
0    0    0

-224.973 37052.4 0
37052.4 -282.161 0
0    0    0

279.632 36746.5 0
36746.5 274.706 0
0    0    0

117.086 38284.9 0
38284.9 194.878 0
0    0    0

-102.305 38384.2 0
38384.2 114.197 0
0    0    0

-209.15 39419.1 0
39419.1 -287.306 0
0    0    0

35.8912 39763.9 0
39763.9 278.115 0
0    0    0

-63.7199 40404.7 0
40404.7 20.348 0
0    0    0

46.7412 40032 0
40032 297.282 0
0    0    0

71.4792 37685.6 0
37685.6 101.524 0
0    0    0

9.80255 39685.4 0
39685.4 -73.5173 0
0    0    0

77.3492 38743.3 0
38743.3 -217.071 0
0    0    0

-184.734 40045.4 0
40045.4 -301.765 0
0    0    0

153.025 40310 0
40310 351.415 0
0    0    0

-84.439 39982.5 0
39982.5 85.4694 0
0    0    0

-93.0181 40575.1 0
40575.1 -217.563 0
0    0    0

36.9894 41535.4 0
41535.4 -147.484 0
0    0    0

-213.943 38172 0
38172 -69.9471 0
0    0    0

12.1241 38500 0
38500 50.1259 0
0    0    0

-219.695 38059 0
38059 -351.443 0
0    0    0

0.534063 40080.7 0
40080.7 118.386 0
0    0    0

8.0049 41778.4 0
41778.4 -114.949 0
0    0    0

-183.685 39995.4 0
39995.4 -271.911 0
0    0    0

-61.734 42218.6 0
42218.6 175.511 0
0    0    0

233.797 40845.7 0
40845.7 -70.5464 0
0    0    0

-137.695 41690.4 0
41690.4 -310.149 0
0    0    0

-19.3034 41431.4 0
41431.4 -255.924 0
0    0    0

-120.733 40788.6 0
40788.6 -96.3448 0
0    0    0

-34.3307 40938.3 0
40938.3 177.299 0
0    0    0

-261.931 41001.6 0
41001.6 -380.796 0
0    0    0

103.238 41478 0
41478 194.443 0
0    0    0

-74.3653 39106.5 0
39106.5 159.665 0
0    0    0

198.575 39900.5 0
39900.5 16.8812 0
0    0    0

-227.347 38743.7 0
38743.7 -72.6901 0
0    0    0

-14.5937 39312.9 0
39312.9 -142.851 0
0    0    0

75.1378 39248.7 0
39248.7 54.669 0
0    0    0

-68.9778 39327 0
39327 -81.4545 0
0    0    0

284.14 38424.8 0
38424.8 108.812 0
0    0    0

192.448 38909.1 0
38909.1 253.377 0
0    0    0

-271.821 38212.4 0
38212.4 -292.279 0
0    0    0

310.631 38294.5 0
38294.5 368.727 0
0    0    0

123.929 32838.1 0
32838.1 266.701 0
0    0    0

-144.561 32665.1 0
32665.1 -26.7227 0
0    0    0

108.097 31974.3 0
31974.3 348.921 0
0    0    0

-31.0547 31814 0
31814 -345.533 0
0    0    0

-265.383 33862.2 0
33862.2 -611.493 0
0    0    0

-101.437 34274 0
34274 -81.7087 0
0    0    0

267.848 32848.4 0
32848.4 195.526 0
0    0    0

14.083 33312.6 0
33312.6 -34.9829 0
0    0    0

131.797 31275.7 0
31275.7 -71.7919 0
0    0    0

87.1035 33633.6 0
33633.6 -153.827 0
0    0    0

-96.8967 33221.2 0
33221.2 -15.3524 0
0    0    0

1.21728 33163 0
33163 -240.322 0
0    0    0

182.346 32053.7 0
32053.7 353.543 0
0    0    0

23.2967 32954.9 0
32954.9 189.689 0
0    0    0

152.051 32365.6 0
32365.6 -13.1891 0
0    0    0

128.041 33200.3 0
33200.3 -139.931 0
0    0    0

131.553 33460.4 0
33460.4 271.415 0
0    0    0

-120.169 33757.9 0
33757.9 -148.383 0
0    0    0

214.906 34458.8 0
34458.8 193.92 0
0    0    0

186.165 32896 0
32896 -37.4458 0
0    0    0

-151.79 33753.4 0
33753.4 -203.613 0
0    0    0

-124.961 33436.8 0
33436.8 -26.0578 0
0    0    0

-72.086 32659.8 0
32659.8 -91.0869 0
0    0    0

-147.364 32686.9 0
32686.9 -104.473 0
0    0    0

-69.5673 33196 0
33196 184.701 0
0    0    0

-233.035 35756.9 0
35756.9 -55.0983 0
0    0    0

-66.2504 34168.6 0
34168.6 -205.29 0
0    0    0

88.3996 33332 0
33332 115.509 0
0    0    0

-57.2177 32930.4 0
32930.4 66.3062 0
0    0    0

-75.5422 33727.6 0
33727.6 -176.265 0
0    0    0

104.956 33428.7 0
33428.7 241.304 0
0    0    0

26.8756 34295.2 0
34295.2 49.9201 0
0    0    0

-201.361 34581.2 0
34581.2 56.8303 0
0    0    0

-51.063 35919.3 0
35919.3 140.493 0
0    0    0

-84.1244 33252.9 0
33252.9 -196.29 0
0    0    0

-302.571 34236.3 0
34236.3 -329.102 0
0    0    0

-43.8937 35306 0
35306 23.8882 0
0    0    0

170.245 34899.6 0
34899.6 159.753 0
0    0    0

-102.706 34680 0
34680 -239.647 0
0    0    0

246.527 35952.8 0
35952.8 128.397 0
0    0    0

87.7849 35448.7 0
35448.7 230.211 0
0    0    0

-225.577 35065.7 0
35065.7 -218.144 0
0    0    0

-49.6346 34489.3 0
34489.3 95.1497 0
0    0    0

231.566 34404.7 0
34404.7 -75.7701 0
0    0    0

266.2 33890.2 0
33890.2 77.6605 0
0    0    0

-79.5365 34708.3 0
34708.3 -75.1139 0
0    0    0

-28.5217 34951.3 0
34951.3 -17.9226 0
0    0    0

0.318103 35284.4 0
35284.4 -218.09 0
0    0    0

-250.335 35849.7 0
35849.7 -289.842 0
0    0    0

315.097 35289.4 0
35289.4 364.548 0
0    0    0

327.769 36123.9 0
36123.9 157.9 0
0    0    0

-341.834 35754 0
35754 -155.194 0
0    0    0

-177.29 35573.7 0
35573.7 -191.03 0
0    0    0

77.4262 34691.3 0
34691.3 210.215 0
0    0    0

-233.572 36551.7 0
36551.7 -113.422 0
0    0    0

417.875 36726.2 0
36726.2 375.348 0
0    0    0

210.891 36386.6 0
36386.6 14.1139 0
0    0    0

-90.6159 36998.9 0
36998.9 -247.643 0
0    0    0

-182.415 36209.4 0
36209.4 -138.36 0
0    0    0

-123.959 37065.1 0
37065.1 -299.801 0
0    0    0

257.639 36661.6 0
36661.6 353.488 0
0    0    0

75.2785 36691.9 0
36691.9 228.901 0
0    0    0

27.804 37437.7 0
37437.7 -172.528 0
0    0    0

-46.9816 37547.5 0
37547.5 -169.64 0
0    0    0

111.239 38031.6 0
38031.6 204.346 0
0    0    0

197.716 37896 0
37896 334.001 0
0    0    0

-151.986 38208.2 0
38208.2 -252.992 0
0    0    0

4.05826 37381.6 0
37381.6 231.498 0
0    0    0

-133.093 35976.3 0
35976.3 -221.498 0
0    0    0

-248.677 38256.8 0
38256.8 -180.404 0
0    0    0

33.2407 37635 0
37635 -174.633 0
0    0    0

33.1688 37829.5 0
37829.5 311.872 0
0    0    0

326.248 36188.4 0
36188.4 118.903 0
0    0    0

-53.4394 36966.8 0
36966.8 -336.29 0
0    0    0

-276.984 38828.6 0
38828.6 -372.422 0
0    0    0

93.7345 37769.5 0
37769.5 178.431 0
0    0    0

2.62895 37114.3 0
37114.3 44.7755 0
0    0    0

172.265 37454.9 0
37454.9 -94.1702 0
0    0    0

-108.138 37534.5 0
37534.5 74.4947 0
0    0    0

-97.1158 37686.6 0
37686.6 155.788 0
0    0    0

284.606 47011.4 0
47011.4 371.679 0
0    0    0

-320.583 48005.6 0
48005.6 -128.105 0
0    0    0

142.446 47440.6 0
47440.6 48.1385 0
0    0    0

19.9095 47244.3 0
47244.3 245.675 0
0    0    0

-115.179 48228 0
48228 -185.136 0
0    0    0

-227.363 47685.5 0
47685.5 -129.634 0
0    0    0

174.695 48801.3 0
48801.3 117.368 0
0    0    0

-174.975 49253.9 0
49253.9 -104.662 0
0    0    0

152.849 49872.9 0
49872.9 234.513 0
0    0    0

79.1547 50168.9 0
50168.9 180.711 0
0    0    0

-34.5781 33094.6 0
33094.6 -247.133 0
0    0    0

-224.861 32184.7 0
32184.7 -225.976 0
0    0    0

296.583 29171.2 0
29171.2 387.2 0
0    0    0

233.898 27957.9 0
27957.9 -34.75 0
0    0    0

-162.443 29759.3 0
29759.3 -395.486 0
0    0    0

-186.931 30002 0
30002 9.13981 0
0    0    0

32.36 33251.1 0
33251.1 273.024 0
0    0    0

-16.9653 30511.5 0
30511.5 -232.573 0
0    0    0

-14.0191 31271.3 0
31271.3 -67.8656 0
0    0    0

53.6945 31434.1 0
31434.1 66.1105 0
0    0    0

-36.1159 32391 0
32391 -216.077 0
0    0    0

-167.721 32554.2 0
32554.2 -80.0126 0
0    0    0

32.7596 32236.2 0
32236.2 220.036 0
0    0    0

81.7471 31677.8 0
31677.8 336.699 0
0    0    0

-157.622 32609.5 0
32609.5 -246.248 0
0    0    0

64.1635 33238.9 0
33238.9 -122.343 0
0    0    0

-67.5091 31190.5 0
31190.5 132.359 0
0    0    0

149.72 31073 0
31073 439.822 0
0    0    0

45.9135 31767.6 0
31767.6 170.468 0
0    0    0

262.733 32622.6 0
32622.6 301.977 0
0    0    0

-151.712 32923.3 0
32923.3 -351.341 0
0    0    0

-151.742 33159.2 0
33159.2 -215.903 0
0    0    0

78.6986 31084.9 0
31084.9 218.846 0
0    0    0

-94.9258 31375.2 0
31375.2 -197.455 0
0    0    0

200.327 32295.1 0
32295.1 181.891 0
0    0    0

-161.642 32574.9 0
32574.9 -284.793 0
0    0    0

-131.812 32118.9 0
32118.9 -281.294 0
0    0    0

263.027 32235.1 0
32235.1 286.881 0
0    0    0

-164.789 31323.6 0
31323.6 -317.418 0
0    0    0

36.1797 29195.6 0
29195.6 283.833 0
0    0    0

47.031 31699 0
31699 295.266 0
0    0    0

163.624 31376.2 0
31376.2 -3.6566 0
0    0    0

-148.023 31463.3 0
31463.3 88.3941 0
0    0    0

54.9151 31634.1 0
31634.1 64.2006 0
0    0    0

-228.742 32212.2 0
32212.2 122.853 0
0    0    0

-80.9148 33110 0
33110 -208.071 0
0    0    0

-83.3609 33358.7 0
33358.7 234.571 0
0    0    0

-37.7064 33777.7 0
33777.7 162.781 0
0    0    0

-251.614 33613.7 0
33613.7 -94.4547 0
0    0    0

34.0609 33980.7 0
33980.7 -158.511 0
0    0    0

18.9437 33337.5 0
33337.5 134.354 0
0    0    0

6.56541 33667.6 0
33667.6 -84.7868 0
0    0    0

-292.222 32477.6 0
32477.6 -287.149 0
0    0    0

104.795 32115.6 0
32115.6 316.967 0
0    0    0

1.79292 30656.8 0
30656.8 166.403 0
0    0    0

181.257 30375.1 0
30375.1 37.5542 0
0    0    0

105.165 11631.9 0
11631.9 47.3753 0
0    0    0

-308.178 12090.4 0
12090.4 -348.932 0
0    0    0

191.72 12903.4 0
12903.4 423.399 0
0    0    0

460.104 12085.7 0
12085.7 320.413 0
0    0    0

238.87 13239 0
13239 218.711 0
0    0    0

118.941 13013 0
13013 -177.933 0
0    0    0

300.897 13319.7 0
13319.7 96.1039 0
0    0    0

11.3698 11896.2 0
11896.2 300.182 0
0    0    0

-213.682 13184.9 0
13184.9 -174.492 0
0    0    0

-242.579 12361.2 0
12361.2 -141.849 0
0    0    0

-247.56 13212.7 0
13212.7 -159.826 0
0    0    0

227.486 12757.8 0
12757.8 -12.6793 0
0    0    0

124.454 12560.1 0
12560.1 137.21 0
0    0    0

33.7996 12353.7 0
12353.7 79.5991 0
0    0    0

-212.393 11944.7 0
11944.7 -5.12523 0
0    0    0

-255.432 12028.9 0
12028.9 -476.683 0
0    0    0

-18.6601 12802.7 0
12802.7 339.436 0
0    0    0

-138 12473.9 0
12473.9 -475.011 0
0    0    0

-113.12 12757.9 0
12757.9 -118.47 0
0    0    0

-69.4626 12218.4 0
12218.4 161.082 0
0    0    0

126.683 10747.3 0
10747.3 -17.6415 0
0    0    0

205.582 11656.7 0
11656.7 498.987 0
0    0    0

-120.595 12268.8 0
12268.8 -285.549 0
0    0    0

153.505 12355.9 0
12355.9 451.693 0
0    0    0

-308.246 10702 0
10702 -366.315 0
0    0    0

193.029 11783.9 0
11783.9 327.457 0
0    0    0

-148.312 11290.5 0
11290.5 -457.589 0
0    0    0

-106.43 10008 0
10008 -383.946 0
0    0    0

125.514 10941.5 0
10941.5 355.7 0
0    0    0

78.6266 10198.2 0
10198.2 274.809 0
0    0    0

-148.216 9409.48 0
9409.48 -147.976 0
0    0    0

32.1012 10143.7 0
10143.7 -85.0477 0
0    0    0

10.7861 11080.4 0
11080.4 -130.107 0
0    0    0

-170.068 11244.1 0
11244.1 -28.7865 0
0    0    0

172.108 10980.9 0
10980.9 337.633 0
0    0    0

-83.6483 11079 0
11079 -274.236 0
0    0    0

121.649 10224.5 0
10224.5 259.68 0
0    0    0

89.1509 10850.6 0
10850.6 246.867 0
0    0    0

-514.621 16717.8 0
16717.8 -59.6201 0
0    0    0

178.641 16169.4 0
16169.4 249.254 0
0    0    0

357.55 15040 0
15040 457.565 0
0    0    0

-81.6227 16691.5 0
16691.5 40.8493 0
0    0    0

229.805 14964.8 0
14964.8 195.43 0
0    0    0

317.39 15641.2 0
15641.2 245.156 0
0    0    0

2.83377 17115.3 0
17115.3 215.244 0
0    0    0

80.9068 17986.7 0
17986.7 -2.40015 0
0    0    0

149.713 17390.7 0
17390.7 -200.905 0
0    0    0

-123.615 17719.4 0
17719.4 200.264 0
0    0    0

-23.2713 17982.9 0
17982.9 -107.887 0
0    0    0

-40.268 18471 0
18471 -66.3628 0
0    0    0

-164.443 20811 0
20811 -136.829 0
0    0    0

-219.608 19534.5 0
19534.5 -75.7677 0
0    0    0

-59.1567 20328.1 0
20328.1 -112.867 0
0    0    0

323.25 20346.3 0
20346.3 264.586 0
0    0    0

67.4845 19658.4 0
19658.4 191.71 0
0    0    0

255.748 19851 0
19851 81.8876 0
0    0    0

-198.266 18676.6 0
18676.6 -83.3583 0
0    0    0

-142.622 19755 0
19755 -348.202 0
0    0    0

-151.985 20528.1 0
20528.1 138.092 0
0    0    0

136.875 19942.5 0
19942.5 167.51 0
0    0    0

31.7588 19483.6 0
19483.6 183.273 0
0    0    0

-67.1944 19189.8 0
19189.8 124.691 0
0    0    0

182.375 19913.8 0
19913.8 167.485 0
0    0    0

27.3548 19687.4 0
19687.4 -126.005 0
0    0    0

-74.3134 19730.8 0
19730.8 58.5325 0
0    0    0

50.5586 19173.7 0
19173.7 -29.774 0
0    0    0

173.271 19187.7 0
19187.7 129.824 0
0    0    0

-225.248 18451.2 0
18451.2 -209.282 0
0    0    0

168.199 19681.2 0
19681.2 225.869 0
0    0    0

129.75 19513.9 0
19513.9 167.553 0
0    0    0

1.54358 19614.9 0
19614.9 138.474 0
0    0    0

-114.021 20981.1 0
20981.1 -154.85 0
0    0    0

37.8154 20235.1 0
20235.1 230.828 0
0    0    0

216.874 20105.5 0
20105.5 218.159 0
0    0    0

22.0941 19118.7 0
19118.7 -344.85 0
0    0    0

-24.0298 19992.1 0
19992.1 -240.636 0
0    0    0

-199.121 19303.5 0
19303.5 85.67 0
0    0    0

237.179 18643.3 0
18643.3 277.492 0
0    0    0

63.395 19560.9 0
19560.9 -113.084 0
0    0    0

-119.852 19210.9 0
19210.9 -400.295 0
0    0    0

201.33 18823.8 0
18823.8 217.823 0
0    0    0

39.6969 18405.6 0
18405.6 77.4975 0
0    0    0

-115.446 16227.6 0
16227.6 110.755 0
0    0    0

-158.314 19043 0
19043 -251.207 0
0    0    0

236.607 18673.5 0
18673.5 211.941 0
0    0    0

90.3211 18802.8 0
18802.8 102.654 0
0    0    0

-234.648 19036.7 0
19036.7 -222.052 0
0    0    0

71.9092 18124.4 0
18124.4 219.731 0
0    0    0

-1.03323 17386.1 0
17386.1 -236.173 0
0    0    0

165.632 18105.5 0
18105.5 216.129 0
0    0    0

147.082 16993.6 0
16993.6 334.023 0
0    0    0

-25.9081 17902.8 0
17902.8 -250.71 0
0    0    0

-26.7127 17131.2 0
17131.2 237.755 0
0    0    0

54.1735 16723.5 0
16723.5 -52.7589 0
0    0    0

130.989 21111.9 0
21111.9 272.544 0
0    0    0

139.856 22144.9 0
22144.9 129.877 0
0    0    0

-236.195 21452.2 0
21452.2 -32.6691 0
0    0    0

-164.115 21796.2 0
21796.2 -4.75494 0
0    0    0

-109.742 14089.6 0
14089.6 -328.649 0
0    0    0

-179.646 14166.6 0
14166.6 -433.129 0
0    0    0

96.2985 11102.9 0
11102.9 -279.627 0
0    0    0

-45.4122 11186.7 0
11186.7 -310.509 0
0    0    0

-71.7297 13491.8 0
13491.8 203.995 0
0    0    0

-256.385 12947.3 0
12947.3 -49.7598 0
0    0    0

284.96 13818.6 0
13818.6 470.885 0
0    0    0

-127.481 13911.2 0
13911.2 -164.178 0
0    0    0

5.54713 13331.9 0
13331.9 -302.539 0
0    0    0

-254.933 13500.8 0
13500.8 -121.507 0
0    0    0

35.3369 13131.3 0
13131.3 -161.684 0
0    0    0

-217.415 11039 0
11039 -93.1776 0
0    0    0

256.255 13162.9 0
13162.9 339.053 0
0    0    0

-125.961 12668.9 0
12668.9 -350.274 0
0    0    0

162.513 12919.7 0
12919.7 294.826 0
0    0    0

-206.332 13384.5 0
13384.5 -439.145 0
0    0    0

-194.206 12094.6 0
12094.6 35.1473 0
0    0    0

-174.018 11183.6 0
11183.6 79.6872 0
0    0    0

124.774 12209.8 0
12209.8 191.842 0
0    0    0

171.499 11965.9 0
11965.9 -49.7857 0
0    0    0

-111.111 13271.4 0
13271.4 7.83753 0
0    0    0

-167.867 11764.8 0
11764.8 -71.9431 0
0    0    0

-135.457 11735 0
11735 -22.7136 0
0    0    0

187.866 11988.8 0
11988.8 177.956 0
0    0    0

201.394 11361.7 0
11361.7 60.3137 0
0    0    0

65.6129 11246 0
11246 -165.175 0
0    0    0

192.554 11208 0
11208 173.243 0
0    0    0

138.93 10765.8 0
10765.8 88.661 0
0    0    0

83.5737 11668.7 0
11668.7 -16.4588 0
0    0    0

-269.231 11518.3 0
11518.3 24.854 0
0    0    0

-7.33621 11429.5 0
11429.5 193.834 0
0    0    0

201.02 11728.6 0
11728.6 -33.9268 0
0    0    0

161.491 11554.8 0
11554.8 254.958 0
0    0    0

38.0073 13981.2 0
13981.2 -123.435 0
0    0    0

162.534 13581.8 0
13581.8 -10.0375 0
0    0    0

-272.502 8184.01 0
8184.01 -269.582 0
0    0    0

-27.5129 10712.6 0
10712.6 -11.7913 0
0    0    0

-336.259 9592.65 0
9592.65 -104.245 0
0    0    0

-103.038 8019.42 0
8019.42 -157.762 0
0    0    0

-182.021 8277.21 0
8277.21 -312.733 0
0    0    0

-5.14833 9094.83 0
9094.83 -72.9539 0
0    0    0

178.691 19298.2 0
19298.2 496.931 0
0    0    0

117.314 19096.3 0
19096.3 434.265 0
0    0    0

40.363 19360.1 0
19360.1 124.489 0
0    0    0

-48.7478 21239.3 0
21239.3 -188.786 0
0    0    0

-120.178 20865.4 0
20865.4 33.8899 0
0    0    0

21.2612 19469.9 0
19469.9 87.1899 0
0    0    0

367.345 13785.4 0
13785.4 656.155 0
0    0    0

-248.787 15955.5 0
15955.5 -229.789 0
0    0    0

-144.476 13554.3 0
13554.3 -61.9184 0
0    0    0

-269.866 14186.7 0
14186.7 -545.423 0
0    0    0

328.928 14112.3 0
14112.3 249.544 0
0    0    0

-202.509 15017.4 0
15017.4 25.512 0
0    0    0

-375.225 14469.2 0
14469.2 -356.558 0
0    0    0

207.996 16495.7 0
16495.7 -15.595 0
0    0    0

79.2813 14864.5 0
14864.5 194.588 0
0    0    0

172.001 12361.4 0
12361.4 73.7146 0
0    0    0

-240.901 12039.7 0
12039.7 -103.243 0
0    0    0

-149.179 12530.4 0
12530.4 -374.981 0
0    0    0

-240.89 12673.9 0
12673.9 -103.239 0
0    0    0

360.29 12937.5 0
12937.5 641.062 0
0    0    0

-290.942 13773.8 0
13773.8 -225.521 0
0    0    0

-77.2886 12752.8 0
12752.8 308.938 0
0    0    0

-50.6699 12520.6 0
12520.6 -458.669 0
0    0    0

282.121 12759.3 0
12759.3 194.562 0
0    0    0

-290.414 12594.7 0
12594.7 -521.315 0
0    0    0

-321.677 12995.1 0
12995.1 -247.484 0
0    0    0

67.2753 55532.1 0
55532.1 156.976 0
0    0    0

171.911 55093.5 0
55093.5 76.2421 0
0    0    0

24.6323 54333.4 0
54333.4 104.997 0
0    0    0

200.264 54843.9 0
54843.9 201.587 0
0    0    0

-50.139 49567.8 0
49567.8 -20.1795 0
0    0    0

211.762 48216.2 0
48216.2 290.114 0
0    0    0

56.6078 49873 0
49873 -159.378 0
0    0    0

147.246 51598.2 0
51598.2 -31.6151 0
0    0    0

35.2541 49856.7 0
49856.7 -357.467 0
0    0    0

53.2264 64721.2 0
64721.2 87 0
0    0    0

235.064 65355.5 0
65355.5 460.546 0
0    0    0

161.629 63796.1 0
63796.1 334.288 0
0    0    0

147.263 64291.4 0
64291.4 -6.34611 0
0    0    0

19.6657 64843.9 0
64843.9 106.362 0
0    0    0

-291.818 65132.6 0
65132.6 -80.5967 0
0    0    0

-233.354 64073.2 0
64073.2 -309.448 0
0    0    0

-65.7173 64390.5 0
64390.5 -346.97 0
0    0    0

-72.6162 65332.7 0
65332.7 113.21 0
0    0    0

16.2247 65424.7 0
65424.7 318.757 0
0    0    0

185.048 64380.7 0
64380.7 173.26 0
0    0    0

-24.7713 64983.8 0
64983.8 202.457 0
0    0    0

-12.7968 65898 0
65898 162.708 0
0    0    0

373.018 66366.9 0
66366.9 178.259 0
0    0    0

-46.3899 67120.6 0
67120.6 136.799 0
0    0    0

-96.8753 67240.4 0
67240.4 -128.418 0
0    0    0

-106.801 67446.1 0
67446.1 -151.83 0
0    0    0

55.1884 67445.3 0
67445.3 112.907 0
0    0    0

-24.9384 67480.7 0
67480.7 33.8361 0
0    0    0

20.192 67738.9 0
67738.9 -153.201 0
0    0    0

-69.9055 75398.7 0
75398.7 157.766 0
0    0    0

-183.61 75236.7 0
75236.7 -114.925 0
0    0    0

174.61 76043.5 0
76043.5 322.621 0
0    0    0

-271.45 76726.5 0
76726.5 -401.225 0
0    0    0

-94.792 75671.2 0
75671.2 -186.604 0
0    0    0

148.302 76627.1 0
76627.1 78.347 0
0    0    0

16.9225 75600.9 0
75600.9 206.561 0
0    0    0

33.3633 76503.6 0
76503.6 246.279 0
0    0    0

58.0037 73819.3 0
73819.3 200.029 0
0    0    0

94.4004 73532.9 0
73532.9 -171.749 0
0    0    0

-122.321 70825.6 0
70825.6 -187.601 0
0    0    0

5.81392 70231.8 0
70231.8 -281.792 0
0    0    0

135.988 47188.1 0
47188.1 8.68911 0
0    0    0

-110.211 47001.5 0
47001.5 145.95 0
0    0    0

-197.797 48009.9 0
48009.9 -310.763 0
0    0    0

-12.236 47672.5 0
47672.5 -191.097 0
0    0    0

-266.673 48655.3 0
48655.3 -244.897 0
0    0    0

-323.365 49072.5 0
49072.5 -198.83 0
0    0    0

132.31 48361.7 0
48361.7 61.9353 0
0    0    0

65.7662 49114.9 0
49114.9 -49.2784 0
0    0    0

162.429 49496.4 0
49496.4 199.009 0
0    0    0

-72.9176 50484.5 0
50484.5 31.2729 0
0    0    0

157.935 50242.3 0
50242.3 105.673 0
0    0    0

-251.838 50317.8 0
50317.8 -210.108 0
0    0    0

128.39 49773.9 0
49773.9 188.126 0
0    0    0

209.659 49311.5 0
49311.5 163.828 0
0    0    0

153.983 50008.4 0
50008.4 174.034 0
0    0    0

6.15865 50869.7 0
50869.7 -92.0664 0
0    0    0

-196.966 49858.1 0
49858.1 -218.58 0
0    0    0

40.0901 49640.7 0
49640.7 -78.8924 0
0    0    0

146.551 50564.2 0
50564.2 247.274 0
0    0    0

283.661 50168.2 0
50168.2 35.1306 0
0    0    0

-213.31 49679.2 0
49679.2 -257.245 0
0    0    0

249.516 49359.3 0
49359.3 315.668 0
0    0    0

-181.172 48675.8 0
48675.8 -35.8045 0
0    0    0

204.945 48446.2 0
48446.2 -11.2943 0
0    0    0

-134.726 49191.6 0
49191.6 -110.634 0
0    0    0

250.755 46701.8 0
46701.8 298.93 0
0    0    0

-117.48 47652.9 0
47652.9 -178.148 0
0    0    0

-283.332 48573.5 0
48573.5 -468.029 0
0    0    0

-144.813 49166.3 0
49166.3 -288.696 0
0    0    0

274.232 48278.4 0
48278.4 199.889 0
0    0    0

-28.1567 48753.5 0
48753.5 152.102 0
0    0    0

290.667 48539.5 0
48539.5 2.71408 0
0    0    0

-160.291 48241.5 0
48241.5 -240.812 0
0    0    0

270.72 48856.4 0
48856.4 411.681 0
0    0    0

-304.566 48054.3 0
48054.3 -149.241 0
0    0    0

-74.4108 48041.2 0
48041.2 -132.252 0
0    0    0

-22.0904 48864.1 0
48864.1 -170.851 0
0    0    0

93.3542 48847.6 0
48847.6 238.787 0
0    0    0

234.124 47559 0
47559 300.382 0
0    0    0

33.7891 46711.9 0
46711.9 -234.415 0
0    0    0

-335.959 47831.9 0
47831.9 -186.151 0
0    0    0

73.0517 47818.8 0
47818.8 293.398 0
0    0    0

31.8956 45991 0
45991 277.939 0
0    0    0

56.1222 47597 0
47597 -200.778 0
0    0    0

-169.121 46402.2 0
46402.2 -112.635 0
0    0    0

36.468 46406.9 0
46406.9 184.102 0
0    0    0

70.1555 47271.8 0
47271.8 -45.8513 0
0    0    0

-153.669 46771.3 0
46771.3 -91.4647 0
0    0    0

194.576 48070.8 0
48070.8 205.615 0
0    0    0

-5.13904 47156 0
47156 141.118 0
0    0    0

-82.023 48050.8 0
48050.8 248.918 0
0    0    0

30.666 47395 0
47395 -43.8747 0
0    0    0

57.3112 46764.3 0
46764.3 -174.444 0
0    0    0

-64.2993 46230.9 0
46230.9 -256.939 0
0    0    0

98.0796 47141.3 0
47141.3 41.1867 0
0    0    0

136.947 46889.5 0
46889.5 35.0266 0
0    0    0

-167.089 48086.2 0
48086.2 -242.552 0
0    0    0

-187.897 47021.1 0
47021.1 -328.883 0
0    0    0

4.77326 48212.6 0
48212.6 -305.278 0
0    0    0

230.613 47394.4 0
47394.4 450.48 0
0    0    0

186.696 47689.7 0
47689.7 279.603 0
0    0    0

210.249 47143.6 0
47143.6 364.208 0
0    0    0

-105.289 46590.4 0
46590.4 -218.415 0
0    0    0

11.1255 47369 0
47369 159.546 0
0    0    0

-120.971 45958.4 0
45958.4 -218.649 0
0    0    0

-309.997 46388.9 0
46388.9 -334.481 0
0    0    0

-91.3604 46396.1 0
46396.1 -108.799 0
0    0    0

131.839 45459.1 0
45459.1 131.24 0
0    0    0

218.987 47864.5 0
47864.5 270.026 0
0    0    0

-176.75 47675 0
47675 -81.0215 0
0    0    0

-259.041 46602.9 0
46602.9 -210.99 0
0    0    0

211.043 46278.7 0
46278.7 163.954 0
0    0    0

-82.0419 46868.9 0
46868.9 -176.66 0
0    0    0

236.693 46290.9 0
46290.9 20.8161 0
0    0    0

-148.778 46532.6 0
46532.6 98.7004 0
0    0    0

-188.527 46063.2 0
46063.2 -151.702 0
0    0    0

96.8966 45611 0
45611 154.07 0
0    0    0

133.885 46018 0
46018 190.699 0
0    0    0

-285.583 47439.4 0
47439.4 -297.759 0
0    0    0

-106.193 46871.9 0
46871.9 -33.7489 0
0    0    0

239.594 46079.2 0
46079.2 107.023 0
0    0    0

210.464 46588.5 0
46588.5 272.223 0
0    0    0

97.5365 51087.9 0
51087.9 -232.599 0
0    0    0

30.4123 51723.1 0
51723.1 136.266 0
0    0    0

166.536 47009.7 0
47009.7 -9.71718 0
0    0    0

3.96231 46139.1 0
46139.1 -232.359 0
0    0    0

-28.2412 46368.4 0
46368.4 115.328 0
0    0    0

-69.093 46243.6 0
46243.6 266.561 0
0    0    0

321.386 43157.6 0
43157.6 130.641 0
0    0    0

155.764 42743.5 0
42743.5 73.7493 0
0    0    0

-52.0057 43161.5 0
43161.5 -155.368 0
0    0    0

-156.611 43326.4 0
43326.4 20.9152 0
0    0    0

87.923 43450.2 0
43450.2 32.4718 0
0    0    0

-189.594 43281.7 0
43281.7 -91.3428 0
0    0    0

213.385 43198.3 0
43198.3 439.26 0
0    0    0

176.927 42286.9 0
42286.9 427.046 0
0    0    0

-152.645 41912.9 0
41912.9 -349.592 0
0    0    0

-323.84 41944.5 0
41944.5 -481.31 0
0    0    0

-66.0505 41987.9 0
41987.9 -289.538 0
0    0    0

172.383 41005.9 0
41005.9 293.555 0
0    0    0

-130.301 45075.3 0
45075.3 -301.983 0
0    0    0

-167.952 44717.8 0
44717.8 -280.817 0
0    0    0

192.254 43852.6 0
43852.6 22.3822 0
0    0    0

-11.3271 45182.1 0
45182.1 -49.4048 0
0    0    0

-260.605 44653.4 0
44653.4 -64.6896 0
0    0    0

27.5895 46228.6 0
46228.6 253.803 0
0    0    0

-9.27405 48537.6 0
48537.6 0.42358 0
0    0    0

93.8746 46858.2 0
46858.2 -76.2714 0
0    0    0

-177.876 37568.7 0
37568.7 -291.032 0
0    0    0

145.468 37743.7 0
37743.7 156.984 0
0    0    0

-96.6765 37890.2 0
37890.2 -270.91 0
0    0    0

184.487 37248.5 0
37248.5 167.163 0
0    0    0

-96.1755 35662.4 0
35662.4 -178.813 0
0    0    0

-30.6817 37048.2 0
37048.2 -139.733 0
0    0    0

148.927 36884.7 0
36884.7 -124.144 0
0    0    0

18.8278 37103.7 0
37103.7 230.255 0
0    0    0

-4.03437 36518.9 0
36518.9 -213.799 0
0    0    0

-62.1204 36535.1 0
36535.1 -157.811 0
0    0    0

-81.7965 36792 0
36792 -222.614 0
0    0    0

135.088 36552.2 0
36552.2 258.764 0
0    0    0

-126.63 35804 0
35804 57.8865 0
0    0    0

86.6395 38186.6 0
38186.6 -115.035 0
0    0    0

-54.3261 37708.3 0
37708.3 -412.433 0
0    0    0

-170.295 29950.4 0
29950.4 123.175 0
0    0    0

-162.404 29099.3 0
29099.3 -332.723 0
0    0    0

-158.516 30306.3 0
30306.3 -140.988 0
0    0    0

89.554 29401.4 0
29401.4 372.897 0
0    0    0

-9.63212 29195.8 0
29195.8 -372.993 0
0    0    0

86.5101 28018.9 0
28018.9 166.823 0
0    0    0

158.512 30437.1 0
30437.1 47.5586 0
0    0    0

9.86425 30148.4 0
30148.4 -128.885 0
0    0    0

71.2449 30349.8 0
30349.8 -139.031 0
0    0    0

-39.364 30147.8 0
30147.8 48.4302 0
0    0    0

49.1516 29942.2 0
29942.2 -21.8835 0
0    0    0

-14.1557 29719.6 0
29719.6 -167.566 0
0    0    0

18.2122 30197.3 0
30197.3 -145.625 0
0    0    0

34.9789 29476.5 0
29476.5 216.635 0
0    0    0

-223.132 28851 0
28851 -95.6278 0
0    0    0

-129.255 28537.4 0
28537.4 -55.3952 0
0    0    0

187.918 28365.5 0
28365.5 110.795 0
0    0    0

-107.246 29245 0
29245 -211.338 0
0    0    0

-70.5402 29035.8 0
29035.8 114.584 0
0    0    0

182.457 28892.5 0
28892.5 186.39 0
0    0    0

137.795 29008.2 0
29008.2 332.917 0
0    0    0

111.205 28669.9 0
28669.9 50.628 0
0    0    0

-122.547 27885.2 0
27885.2 -52.5201 0
0    0    0

35.3734 28904.4 0
28904.4 113.224 0
0    0    0

66.8985 27793.6 0
27793.6 -226.54 0
0    0    0

-150.749 28212.7 0
28212.7 -64.6067 0
0    0    0

-268.439 28349.4 0
28349.4 -189.459 0
0    0    0

-285.629 28720.9 0
28720.9 -145.001 0
0    0    0

209.625 28515.6 0
28515.6 118.622 0
0    0    0

22.9005 36823.5 0
36823.5 16.6227 0
0    0    0

-12.5254 37310.5 0
37310.5 -107.381 0
0    0    0

271.122 37520.8 0
37520.8 467.799 0
0    0    0

-180.864 37323 0
37323 -59.2142 0
0    0    0

116.609 35694 0
35694 -70.8673 0
0    0    0

11.0807 35571.9 0
35571.9 -245.734 0
0    0    0

-109.338 35141.7 0
35141.7 -225.037 0
0    0    0

-157.361 35535.6 0
35535.6 -375.006 0
0    0    0

9.17056 37979.2 0
37979.2 143.896 0
0    0    0

-102.45 37441.1 0
37441.1 -348.059 0
0    0    0

92.0054 36370.8 0
36370.8 227.968 0
0    0    0

124.344 36885.9 0
36885.9 216.947 0
0    0    0

-67.0858 37865.7 0
37865.7 167.481 0
0    0    0

-191.782 37151.5 0
37151.5 -86.7228 0
0    0    0

-0.124596 77447.7 0
77447.7 -106.203 0
0    0    0

267.671 75326.7 0
75326.7 228.636 0
0    0    0

135.703 73913.4 0
73913.4 39.6042 0
0    0    0

233.917 74548 0
74548 41.9768 0
0    0    0

98.5769 74278.2 0
74278.2 -25.4059 0
0    0    0

-152.854 73904.2 0
73904.2 -501.207 0
0    0    0

143.108 73559.4 0
73559.4 366.461 0
0    0    0

396.007 73105.7 0
73105.7 277.385 0
0    0    0

-83.2912 75613.7 0
75613.7 -85.3268 0
0    0    0

-163.191 75813.6 0
75813.6 -307.905 0
0    0    0

35.2368 74567.1 0
74567.1 271.472 0
0    0    0

-50.635 73839.9 0
73839.9 -354.035 0
0    0    0

-213.203 75005.8 0
75005.8 -650.864 0
0    0    0

48.1097 74147 0
74147 171.342 0
0    0    0

250.551 74751.8 0
74751.8 566.768 0
0    0    0

-13.7111 74321.6 0
74321.6 -131.926 0
0    0    0

-11.8574 73406 0
73406 -89.6338 0
0    0    0

92.5592 72552.5 0
72552.5 116.263 0
0    0    0

143.438 69808 0
69808 378.324 0
0    0    0

29.6056 71518.7 0
71518.7 470.04 0
0    0    0

6.92632 75198.1 0
75198.1 158.584 0
0    0    0

299.006 75954.4 0
75954.4 291.549 0
0    0    0

-147.126 76575.7 0
76575.7 -240.066 0
0    0    0

49.8298 76057.4 0
76057.4 122.1 0
0    0    0

-165.719 75831.4 0
75831.4 -249.336 0
0    0    0

-236.828 76941.2 0
76941.2 -53.6895 0
0    0    0

-214.83 77621.1 0
77621.1 -401.256 0
0    0    0

-41.6499 77878.7 0
77878.7 -6.45765 0
0    0    0

-376.578 75675 0
75675 -312.349 0
0    0    0

-288.367 75071.2 0
75071.2 -422.88 0
0    0    0

-150.332 76342.8 0
76342.8 -344.79 0
0    0    0

-29.3028 77738 0
77738 -277.856 0
0    0    0

-59.2935 77030.8 0
77030.8 96.5248 0
0    0    0

184.438 76476.2 0
76476.2 -15.9003 0
0    0    0

149.884 75467.2 0
75467.2 169.052 0
0    0    0

255.015 75972.9 0
75972.9 318.7 0
0    0    0

67.9011 75329.4 0
75329.4 -208.496 0
0    0    0

109.413 76189.8 0
76189.8 334.927 0
0    0    0

-26.867 74718.9 0
74718.9 -38.4064 0
0    0    0

21.3146 75407.7 0
75407.7 43.7691 0
0    0    0

-137.265 75912.1 0
75912.1 -260.164 0
0    0    0

-228.986 76965.6 0
76965.6 -377.599 0
0    0    0

-102.221 77007.9 0
77007.9 -192.653 0
0    0    0

104.85 76150.6 0
76150.6 184.377 0
0    0    0

210.506 77319.6 0
77319.6 300.737 0
0    0    0

-11.8719 77049.9 0
77049.9 47.2563 0
0    0    0

207.216 77215.5 0
77215.5 -15.3322 0
0    0    0

-148.715 78088.9 0
78088.9 -316.071 0
0    0    0

-104.317 77383 0
77383 62.9723 0
0    0    0

61.9588 76157.8 0
76157.8 155.905 0
0    0    0

-13.4317 67725.4 0
67725.4 -188.694 0
0    0    0

-110.092 67057.6 0
67057.6 -434.859 0
0    0    0

363.214 67372.1 0
67372.1 293.785 0
0    0    0

-231.921 66500.9 0
66500.9 -111.772 0
0    0    0

12.7882 67517 0
67517 190.896 0
0    0    0

169.048 66673.5 0
66673.5 353.318 0
0    0    0

158.725 66740.5 0
66740.5 341.53 0
0    0    0

-428.381 67763.5 0
67763.5 -203.247 0
0    0    0

-278.005 66489.9 0
66489.9 -242.686 0
0    0    0

126.978 67373.2 0
67373.2 328.96 0
0    0    0

65.3078 66252.5 0
66252.5 211.307 0
0    0    0

-33.5573 67585.3 0
67585.3 -340.78 0
0    0    0

-175.104 66704.3 0
66704.3 -155.861 0
0    0    0

-207.728 67126.8 0
67126.8 -187.779 0
0    0    0

-128.128 67159.4 0
67159.4 -225.876 0
0    0    0

129.476 66781.9 0
66781.9 187.781 0
0    0    0

87.0033 67971 0
67971 226.364 0
0    0    0

-82.6441 67632.3 0
67632.3 -283.967 0
0    0    0

-142.716 67771.1 0
67771.1 -13.0426 0
0    0    0

-124.132 69017 0
69017 -258.017 0
0    0    0

-74.956 66144.2 0
66144.2 -161.938 0
0    0    0

-65.0734 66104.4 0
66104.4 -79.6926 0
0    0    0

91.4824 66365.4 0
66365.4 208.371 0
0    0    0

-104.83 68495 0
68495 -59.677 0
0    0    0

-18.7971 68480.6 0
68480.6 -174.968 0
0    0    0

166.373 68169.3 0
68169.3 280.45 0
0    0    0

-25.92 67556.2 0
67556.2 220.387 0
0    0    0

-251.974 70166.4 0
70166.4 -202.333 0
0    0    0

-34.3735 65885.3 0
65885.3 -241.142 0
0    0    0

-56.721 67169.6 0
67169.6 -199.794 0
0    0    0

32.2524 67172.3 0
67172.3 31.0059 0
0    0    0

12.6458 67052.2 0
67052.2 -165.93 0
0    0    0

13.6032 67707.7 0
67707.7 -68.2729 0
0    0    0

191.404 67349.9 0
67349.9 -15.6845 0
0    0    0

18.721 66542.8 0
66542.8 -297.128 0
0    0    0

-152.406 66692.9 0
66692.9 -315.264 0
0    0    0

41.873 65668.2 0
65668.2 153.188 0
0    0    0

96.7065 66347.9 0
66347.9 106.839 0
0    0    0

149.063 68042 0
68042 5.71402 0
0    0    0

-46.6132 68969.5 0
68969.5 187.616 0
0    0    0

93.0369 67316.1 0
67316.1 233.104 0
0    0    0

305.758 66853.4 0
66853.4 156.065 0
0    0    0

106.688 68385.5 0
68385.5 -66.93 0
0    0    0

139.988 68038.5 0
68038.5 -104.634 0
0    0    0

-120.016 69151.3 0
69151.3 -108.243 0
0    0    0

-224.852 69244 0
69244 -268.462 0
0    0    0

-109.966 67977.7 0
67977.7 -8.84758 0
0    0    0

-137.867 68213.4 0
68213.4 89.4387 0
0    0    0

-84.0389 67339.9 0
67339.9 -182.473 0
0    0    0

211.341 69147.3 0
69147.3 113.955 0
0    0    0

114.116 67570.1 0
67570.1 -134.272 0
0    0    0

-188.814 68432.2 0
68432.2 -298.886 0
0    0    0

210.947 66856.6 0
66856.6 135.8 0
0    0    0

181.899 67383.9 0
67383.9 229.614 0
0    0    0

-214.335 68823.6 0
68823.6 -12.2149 0
0    0    0

171.88 68650.6 0
68650.6 229.889 0
0    0    0

-205.579 70029.4 0
70029.4 -285.706 0
0    0    0

-26.5416 70293.9 0
70293.9 -149.39 0
0    0    0

-63.4197 69660.1 0
69660.1 -39.4903 0
0    0    0

301.593 70081.5 0
70081.5 301.298 0
0    0    0

-284.884 68425.7 0
68425.7 -232.013 0
0    0    0

-88.3605 67906 0
67906 -163.41 0
0    0    0

15.266 67501.7 0
67501.7 192.089 0
0    0    0

251.195 67111.7 0
67111.7 14.0901 0
0    0    0

8.47511 76870.3 0
76870.3 -60.6091 0
0    0    0

38.4565 74960.3 0
74960.3 -172.073 0
0    0    0

175.899 79488 0
79488 237.997 0
0    0    0

103.383 75934.2 0
75934.2 202.076 0
0    0    0

271.586 75266.1 0
75266.1 101.466 0
0    0    0

-91.4561 76730.3 0
76730.3 -450.555 0
0    0    0

157.36 72053.4 0
72053.4 265.899 0
0    0    0

100.559 72533.8 0
72533.8 230.636 0
0    0    0

-4.16896 75716.8 0
75716.8 -86.2517 0
0    0    0

-129.436 73652.8 0
73652.8 128.571 0
0    0    0

281.059 52036.4 0
52036.4 274.762 0
0    0    0

164.561 51646.8 0
51646.8 -7.79519 0
0    0    0

-214.306 52354.9 0
52354.9 -269.524 0
0    0    0

-272.127 51679.1 0
51679.1 -319.749 0
0    0    0

-19.7258 51583.5 0
51583.5 155.836 0
0    0    0

142.403 51843.6 0
51843.6 338.442 0
0    0    0

92.0029 50904.4 0
50904.4 339.138 0
0    0    0

80.5953 50989.8 0
50989.8 481.292 0
0    0    0

14.0929 51115.5 0
51115.5 -159.905 0
0    0    0

-36.5524 51148.3 0
51148.3 -287.674 0
0    0    0

201.332 50235.8 0
50235.8 236.38 0
0    0    0

200.472 51482.2 0
51482.2 -28.6661 0
0    0    0

-170.098 51109 0
51109 -500.806 0
0    0    0

-285.732 51248.1 0
51248.1 -365.147 0
0    0    0

299.622 48684.1 0
48684.1 -20.9395 0
0    0    0

275.827 49318.5 0
49318.5 268.432 0
0    0    0

-190.961 49522.8 0
49522.8 -134.525 0
0    0    0

-25.0078 50258.3 0
50258.3 -188.829 0
0    0    0

100.145 49295.4 0
49295.4 -34.6279 0
0    0    0

-258.122 49965.6 0
49965.6 -246.901 0
0    0    0

-234.076 50644.2 0
50644.2 -431.164 0
0    0    0

41.3964 50019.7 0
50019.7 204.203 0
0    0    0

-52.843 50314.8 0
50314.8 69.9542 0
0    0    0

-38.9869 50285.1 0
50285.1 -262.546 0
0    0    0

-45.0762 51459.7 0
51459.7 -102.943 0
0    0    0

157.038 50776.6 0
50776.6 35.9858 0
0    0    0

-167.046 50740.5 0
50740.5 -24.1048 0
0    0    0

108.606 50419 0
50419 170.371 0
0    0    0

-59.8048 51861.1 0
51861.1 -251.847 0
0    0    0

162.826 51199.6 0
51199.6 109.424 0
0    0    0

-227.019 51031.4 0
51031.4 -373.713 0
0    0    0

-86.1035 51825.4 0
51825.4 76.8905 0
0    0    0

-9.04445 53904.2 0
53904.2 242.032 0
0    0    0

-7.25206 52583.9 0
52583.9 -244.418 0
0    0    0

338.975 51380.8 0
51380.8 106.387 0
0    0    0

-105.137 52192.9 0
52192.9 -348.956 0
0    0    0

127.945 52070.1 0
52070.1 340.536 0
0    0    0

224.065 51917.7 0
51917.7 181.606 0
0    0    0

-183.573 49429.2 0
49429.2 -97.3465 0
0    0    0

215.736 49339.7 0
49339.7 -112.728 0
0    0    0

41.5581 49076.5 0
49076.5 330.747 0
0    0    0

22.9796 49462.9 0
49462.9 53.9458 0
0    0    0

-172.719 48805.7 0
48805.7 -270.201 0
0    0    0

-81.6836 49030.8 0
49030.8 -103.373 0
0    0    0

-180.889 48552.7 0
48552.7 -108.795 0
0    0    0

-6.28179 49540.7 0
49540.7 -228.153 0
0    0    0

146.203 48714.6 0
48714.6 261.315 0
0    0    0

118.721 48717 0
48717 34.3945 0
0    0    0

49.2687 50110.3 0
50110.3 187.926 0
0    0    0

-53.8986 49539.1 0
49539.1 -137.211 0
0    0    0

-168.008 49623.7 0
49623.7 47.7003 0
0    0    0

32.5095 50553.8 0
50553.8 79.6391 0
0    0    0

-210.199 49660.9 0
49660.9 43.0313 0
0    0    0

64.947 49750.6 0
49750.6 -50.3404 0
0    0    0

267.548 48285.9 0
48285.9 41.584 0
0    0    0

-108.932 49046.4 0
49046.4 -265.763 0
0    0    0

52.8644 49942.3 0
49942.3 145.222 0
0    0    0

-201.193 49951.6 0
49951.6 97.3252 0
0    0    0

-52.3555 49701 0
49701 -107.865 0
0    0    0

-286.53 50241.3 0
50241.3 -234.335 0
0    0    0

101.786 49296.7 0
49296.7 226.094 0
0    0    0

235.309 49936.5 0
49936.5 436.79 0
0    0    0

180.99 56327.4 0
56327.4 208.687 0
0    0    0

-185.729 57514.8 0
57514.8 -237.622 0
0    0    0

188.49 57076.7 0
57076.7 77.3964 0
0    0    0

-215.11 56531.4 0
56531.4 -263.314 0
0    0    0

-434.77 56918 0
56918 -141.119 0
0    0    0

368.067 56741 0
56741 158.386 0
0    0    0

-66.3393 56030.6 0
56030.6 -174.943 0
0    0    0

-154.972 55508.1 0
55508.1 -229.83 0
0    0    0

345.842 59104.9 0
59104.9 277.249 0
0    0    0

146.8 59880.7 0
59880.7 24.1653 0
0    0    0

373.177 60138.8 0
60138.8 230.456 0
0    0    0

-45.3206 60808.3 0
60808.3 23.2058 0
0    0    0

-18.1298 57316.5 0
57316.5 -244.481 0
0    0    0

-62.3944 57650.2 0
57650.2 -210.871 0
0    0    0

143.326 60858.6 0
60858.6 40.2124 0
0    0    0

-37.12 61251.3 0
61251.3 -93.5332 0
0    0    0

-115.112 61392.3 0
61392.3 -175.556 0
0    0    0

-42.8617 62596.8 0
62596.8 -174.679 0
0    0    0

-189.875 61238.4 0
61238.4 -109.665 0
0    0    0

-147.391 61421.3 0
61421.3 104.483 0
0    0    0

272.658 50158.9 0
50158.9 440.588 0
0    0    0

39.7949 50460.1 0
50460.1 291.505 0
0    0    0

270.982 51491.9 0
51491.9 69.7643 0
0    0    0

121.174 50510.1 0
50510.1 135.617 0
0    0    0

45.2109 50923.6 0
50923.6 278.986 0
0    0    0

-188.447 50050.4 0
50050.4 -198.839 0
0    0    0

-127.213 50506.1 0
50506.1 -151.166 0
0    0    0

61.3744 50738.4 0
50738.4 -266.017 0
0    0    0

-177.762 51774.2 0
51774.2 -344.052 0
0    0    0

13.4793 52374.8 0
52374.8 -280.269 0
0    0    0

54.1611 52268.2 0
52268.2 -260.768 0
0    0    0

277.934 51892.4 0
51892.4 228.994 0
0    0    0

-235.866 52236 0
52236 -78.4492 0
0    0    0

10.5884 51595 0
51595 49.3546 0
0    0    0

275.153 50938.8 0
50938.8 450.695 0
0    0    0

201.712 50841.7 0
50841.7 189.772 0
0    0    0

-27.8561 50938 0
50938 -39.7179 0
0    0    0

86.4808 51120.3 0
51120.3 -45.8518 0
0    0    0

-188.044 50587.6 0
50587.6 -377.597 0
0    0    0

91.6922 51252 0
51252 224.225 0
0    0    0

83.8734 51479.5 0
51479.5 54.2464 0
0    0    0

2.6076 50933.4 0
50933.4 232.153 0
0    0    0

-259.208 51672 0
51672 -330.719 0
0    0    0

-118.919 52278.8 0
52278.8 -134.125 0
0    0    0

-190.233 50333.5 0
50333.5 19.9472 0
0    0    0

39.7445 50253.5 0
50253.5 230.216 0
0    0    0

-207.583 50064.8 0
50064.8 -252.34 0
0    0    0

-185.595 50138.7 0
50138.7 -297.313 0
0    0    0

-120.772 50866.5 0
50866.5 -218.731 0
0    0    0

-105.761 51252.3 0
51252.3 -123.046 0
0    0    0

197.578 51391.7 0
51391.7 193.118 0
0    0    0

267.004 51185.6 0
51185.6 228.575 0
0    0    0

-239.993 51483.1 0
51483.1 -82.36 0
0    0    0

-155.787 50823.3 0
50823.3 62.6732 0
0    0    0

157.274 50219.8 0
50219.8 162.573 0
0    0    0

210.402 50696.5 0
50696.5 53.4518 0
0    0    0

419.509 36259.1 0
36259.1 251.235 0
0    0    0

-220.515 37020.1 0
37020.1 -191.697 0
0    0    0

-125.47 39495.3 0
39495.3 37.4811 0
0    0    0

-111.196 39612.6 0
39612.6 -296.107 0
0    0    0

137.557 39480.8 0
39480.8 -147.688 0
0    0    0

-45.5001 39966.4 0
39966.4 -24.0946 0
0    0    0

-88.7932 40732.7 0
40732.7 -229.063 0
0    0    0

-185.457 41111.9 0
41111.9 -312.148 0
0    0    0

270.745 40256.3 0
40256.3 354.648 0
0    0    0

112.069 41110.1 0
41110.1 -114.83 0
0    0    0

-182.788 41530.7 0
41530.7 -194.101 0
0    0    0

-159.666 40601.4 0
40601.4 -341.948 0
0    0    0

-33.5887 41986.7 0
41986.7 -338.11 0
0    0    0

46.5622 41076.7 0
41076.7 228.64 0
0    0    0

107.967 41480.9 0
41480.9 223.898 0
0    0    0

155.915 41708.3 0
41708.3 322.375 0
0    0    0

-136.623 40189.7 0
40189.7 -392.075 0
0    0    0

-97.0265 41217.1 0
41217.1 -250.457 0
0    0    0

236.477 41407.1 0
41407.1 73.3381 0
0    0    0

-35.1312 42259.1 0
42259.1 -272.659 0
0    0    0

77.1639 42512.6 0
42512.6 -179.699 0
0    0    0

-195.633 42407.9 0
42407.9 -145.159 0
0    0    0

-19.221 41829.5 0
41829.5 309.254 0
0    0    0

-88.4313 41796.9 0
41796.9 -333.43 0
0    0    0

-42.9879 40394 0
40394 125.554 0
0    0    0

-164.239 40755 0
40755 -127.278 0
0    0    0

32.9961 40990 0
40990 -230.684 0
0    0    0

-21.0711 40477.9 0
40477.9 310.153 0
0    0    0

-119.299 43076.1 0
43076.1 -275.448 0
0    0    0

-155.936 42371.6 0
42371.6 -336.622 0
0    0    0

-27.6322 42351.7 0
42351.7 -260.175 0
0    0    0

142.626 42214.3 0
42214.3 198.517 0
0    0    0

-227.941 42024.6 0
42024.6 6.54895 0
0    0    0

-67.5998 42504.5 0
42504.5 -310.922 0
0    0    0

-66.0406 39796.1 0
39796.1 66.1701 0
0    0    0

-55.6824 40466.4 0
40466.4 -230.148 0
0    0    0

249.574 39050.3 0
39050.3 221.009 0
0    0    0

279.44 39528.6 0
39528.6 303.966 0
0    0    0

216.131 41475.4 0
41475.4 131.06 0
0    0    0

60.8017 40643 0
40643 73.2562 0
0    0    0

163.941 38661.2 0
38661.2 198.583 0
0    0    0

144.714 40339.6 0
40339.6 22.6344 0
0    0    0

-303.241 39287.3 0
39287.3 -257.363 0
0    0    0

-216.25 39837.8 0
39837.8 -245.05 0
0    0    0

-124.656 39084.5 0
39084.5 234.36 0
0    0    0

151.154 37895.4 0
37895.4 219.644 0
0    0    0

-142.404 38492.8 0
38492.8 -370.572 0
0    0    0

165.503 38933.3 0
38933.3 244.605 0
0    0    0

207.075 40558.3 0
40558.3 348.862 0
0    0    0

-107.749 41457.6 0
41457.6 -318.351 0
0    0    0

-90.7225 39929.4 0
39929.4 -176.878 0
0    0    0

129.889 40485.8 0
40485.8 174.576 0
0    0    0

-154.782 41719.5 0
41719.5 145.374 0
0    0    0

4.04461 41156.3 0
41156.3 189.783 0
0    0    0

-116.891 43592.6 0
43592.6 105.15 0
0    0    0

-170.918 42637.2 0
42637.2 -65.1523 0
0    0    0

-144.984 42894 0
42894 -223.73 0
0    0    0

-27.8864 44467.3 0
44467.3 207.763 0
0    0    0

44.1512 42324.3 0
42324.3 331.691 0
0    0    0

-231.353 43533.6 0
43533.6 -259.611 0
0    0    0

189.389 42623.1 0
42623.1 445.523 0
0    0    0

35.6918 42725.4 0
42725.4 232.306 0
0    0    0

30.1387 42079.1 0
42079.1 -136.687 0
0    0    0

-86.4429 42910 0
42910 136.695 0
0    0    0

52.4522 43173.5 0
43173.5 89.3517 0
0    0    0

215.493 42203.8 0
42203.8 131.854 0
0    0    0

204.367 43592.2 0
43592.2 343.925 0
0    0    0

132.229 42276.3 0
42276.3 352.071 0
0    0    0

208.959 42649.5 0
42649.5 176.608 0
0    0    0

-223.663 42657.4 0
42657.4 -212.323 0
0    0    0

-270.369 42252.2 0
42252.2 -323.69 0
0    0    0

176.564 42453 0
42453 242.036 0
0    0    0

145.855 43587.3 0
43587.3 186.908 0
0    0    0

-208.405 42855.1 0
42855.1 -308.255 0
0    0    0

103.362 33472.1 0
33472.1 64.1441 0
0    0    0

81.5242 32863.9 0
32863.9 53.7652 0
0    0    0

24.418 32360.6 0
32360.6 55.4063 0
0    0    0

161.544 32389.5 0
32389.5 195.332 0
0    0    0

121.816 31984.9 0
31984.9 168.988 0
0    0    0

-264.29 32215.5 0
32215.5 -242.787 0
0    0    0

311.075 31378.8 0
31378.8 171.821 0
0    0    0

24.6723 31550.5 0
31550.5 178.36 0
0    0    0

-120.528 32402.8 0
32402.8 -202.97 0
0    0    0

-226.673 33326.9 0
33326.9 -389.628 0
0    0    0

194.983 31412.2 0
31412.2 227.057 0
0    0    0

141.9 31095.1 0
31095.1 -40.9386 0
0    0    0

277.688 30059.4 0
30059.4 349.827 0
0    0    0

160.338 32070 0
32070 116.568 0
0    0    0

-45.4988 31906.1 0
31906.1 -264.303 0
0    0    0

134.339 32599.5 0
32599.5 141.797 0
0    0    0

103.283 32545.5 0
32545.5 205.804 0
0    0    0

-192.511 32928.2 0
32928.2 -168.914 0
0    0    0

-72.4806 31584.8 0
31584.8 70.0657 0
0    0    0

-313.452 30743.9 0
30743.9 -442.746 0
0    0    0

-144.98 31840.7 0
31840.7 -128.984 0
0    0    0

-294.582 31059.6 0
31059.6 -272.39 0
0    0    0

-89.8187 30573.6 0
30573.6 -322.96 0
0    0    0

191.247 28144.8 0
28144.8 92.2183 0
0    0    0

-275.289 32080.2 0
32080.2 -680.934 0
0    0    0

-194.07 31770.4 0
31770.4 -271.918 0
0    0    0

267.388 30826.3 0
30826.3 134.741 0
0    0    0

-132.337 32428.7 0
32428.7 -126.259 0
0    0    0

146.362 31744.3 0
31744.3 -81.0936 0
0    0    0

16.1365 30160.2 0
30160.2 -124.583 0
0    0    0

230.224 29949.9 0
29949.9 353.677 0
0    0    0

-249.258 31236.1 0
31236.1 -118.111 0
0    0    0

250.252 30348.7 0
30348.7 256.332 0
0    0    0

-238.687 29755 0
29755 -151.953 0
0    0    0

251.459 30657 0
30657 337.71 0
0    0    0

10.4272 29101.7 0
29101.7 -196.927 0
0    0    0

-283.006 30401.2 0
30401.2 -362.888 0
0    0    0

141.921 28946.2 0
28946.2 293.723 0
0    0    0

195.592 29432.6 0
29432.6 264.792 0
0    0    0

182.776 30014.1 0
30014.1 229.185 0
0    0    0

-183.412 29516.8 0
29516.8 81.8467 0
0    0    0

104.141 29361.4 0
29361.4 262.084 0
0    0    0

90.4847 30299.1 0
30299.1 28.9075 0
0    0    0

113.589 28510.2 0
28510.2 -116.867 0
0    0    0

-44.5199 28656.6 0
28656.6 -191.662 0
0    0    0

-33.3662 29857.1 0
29857.1 97.9491 0
0    0    0

269.594 28637.4 0
28637.4 250.28 0
0    0    0

-116.054 28743.3 0
28743.3 -296.727 0
0    0    0

-97.5749 29495.7 0
29495.7 116.462 0
0    0    0

138.957 28336.7 0
28336.7 357.602 0
0    0    0

-141.02 29011.8 0
29011.8 -329.048 0
0    0    0

-31.5802 29006.7 0
29006.7 -272.134 0
0    0    0

-256.227 31263.8 0
31263.8 -79.5525 0
0    0    0

-167.792 29237.1 0
29237.1 -360.769 0
0    0    0

-17.6567 27782.4 0
27782.4 170.019 0
0    0    0

-203.565 29856.2 0
29856.2 -155.42 0
0    0    0

102.253 30315.6 0
30315.6 293.986 0
0    0    0

73.3465 29401 0
29401 381.427 0
0    0    0

-230.492 30087.4 0
30087.4 -380.81 0
0    0    0

-126.913 29141.3 0
29141.3 -22.9165 0
0    0    0

-191.894 28629.9 0
28629.9 -248.421 0
0    0    0

-29.5388 28902.8 0
28902.8 172.521 0
0    0    0

320.096 27789.9 0
27789.9 335.231 0
0    0    0

102.557 28487.5 0
28487.5 -1.71323 0
0    0    0

178.809 27897.3 0
27897.3 141.982 0
0    0    0

-210.034 28076.3 0
28076.3 -276.073 0
0    0    0

210.186 28222 0
28222 227.431 0
0    0    0

-159.907 27406.3 0
27406.3 25.4244 0
0    0    0

-85.5341 27135 0
27135 155.161 0
0    0    0

-172.629 27608.5 0
27608.5 -107.391 0
0    0    0

168.95 30697 0
30697 143.875 0
0    0    0

59.1703 31575.1 0
31575.1 277.63 0
0    0    0

-246.78 30156.5 0
30156.5 -36.6776 0
0    0    0

280.251 31035.4 0
31035.4 158.857 0
0    0    0

132.319 31590.7 0
31590.7 254.874 0
0    0    0

-121.936 32430.8 0
32430.8 -232.949 0
0    0    0

5.07437 28767.6 0
28767.6 215.939 0
0    0    0

254.615 27621.2 0
27621.2 233.423 0
0    0    0

121.86 28393.2 0
28393.2 193.39 0
0    0    0

114.962 28872.4 0
28872.4 378.345 0
0    0    0

192.822 27751.9 0
27751.9 145.612 0
0    0    0

130.132 28081.7 0
28081.7 -201.093 0
0    0    0

-48.1485 27592.5 0
27592.5 -112.347 0
0    0    0

-134.223 29009.7 0
29009.7 -209.959 0
0    0    0

-160.988 28437.5 0
28437.5 -314.121 0
0    0    0

79.0921 29195.5 0
29195.5 -135.009 0
0    0    0

-142.937 28902.9 0
28902.9 -75.6224 0
0    0    0

-290.567 30666.9 0
30666.9 -171.868 0
0    0    0

-30.2796 29384.9 0
29384.9 110.754 0
0    0    0

-107.272 29095.8 0
29095.8 25.4723 0
0    0    0

249.574 29136.9 0
29136.9 -61.5749 0
0    0    0

99.2795 28150.8 0
28150.8 273.376 0
0    0    0

-212.221 27092.4 0
27092.4 -123.934 0
0    0    0

-77.3426 28033 0
28033 -180.466 0
0    0    0

-180.933 28399.8 0
28399.8 24.7978 0
0    0    0

196.246 29740.9 0
29740.9 284.098 0
0    0    0

5.28836 29346.3 0
29346.3 -22.9124 0
0    0    0

64.9459 30519.8 0
30519.8 165.319 0
0    0    0

27.1086 29601.3 0
29601.3 -204.224 0
0    0    0

-17.7413 29558.6 0
29558.6 135.613 0
0    0    0

-187.64 27967.8 0
27967.8 -215.316 0
0    0    0

-20.2163 28469.2 0
28469.2 -231.512 0
0    0    0

-141.493 27451.3 0
27451.3 -200.987 0
0    0    0

-159.55 28374.2 0
28374.2 49.062 0
0    0    0

-293.756 27748.9 0
27748.9 -195.997 0
0    0    0

108.164 27386.6 0
27386.6 21.1301 0
0    0    0

-198.453 28030 0
28030 -175.244 0
0    0    0

-162.458 30931.5 0
30931.5 31.5593 0
0    0    0

-102.729 30469.8 0
30469.8 106.83 0
0    0    0

-104.517 30369.8 0
30369.8 -305.613 0
0    0    0

220.911 29672.3 0
29672.3 423.886 0
0    0    0

37.7116 31045.9 0
31045.9 -251.575 0
0    0    0

-240.389 30296.6 0
30296.6 -119.699 0
0    0    0

186.601 30281.8 0
30281.8 384.964 0
0    0    0

87.3564 28787.6 0
28787.6 -137.531 0
0    0    0

48.9365 29874.1 0
29874.1 -13.6195 0
0    0    0

-212.73 29402 0
29402 -480.982 0
0    0    0

28.1525 26695 0
26695 185.468 0
0    0    0

92.943 27497.4 0
27497.4 90.9977 0
0    0    0

26.6704 29045.1 0
29045.1 100.399 0
0    0    0

63.7055 29228.8 0
29228.8 294.254 0
0    0    0

-293.881 30078.1 0
30078.1 -586.525 0
0    0    0

-134.863 28824.1 0
28824.1 -168.346 0
0    0    0

11.9275 28184 0
28184 -239.274 0
0    0    0

156.301 27254.3 0
27254.3 276.515 0
0    0    0

-100.865 26362.6 0
26362.6 -243.269 0
0    0    0

17.9791 25376 0
25376 84.1791 0
0    0    0

42.4223 30816 0
30816 -184.261 0
0    0    0

-61.0657 29419.2 0
29419.2 180.798 0
0    0    0

-118.453 30739.6 0
30739.6 73.9439 0
0    0    0

-119.975 30629.7 0
30629.7 -250.543 0
0    0    0

130.69 30414.5 0
30414.5 -45.0218 0
0    0    0

-213.937 29419.6 0
29419.6 -400.269 0
0    0    0

62.221 29648.5 0
29648.5 100.396 0
0    0    0

41.8548 29892.8 0
29892.8 -197.94 0
0    0    0

69.264 25994.5 0
25994.5 -13.7898 0
0    0    0

76.0259 27120.8 0
27120.8 311.556 0
0    0    0

13.811 29775.8 0
29775.8 222.9 0
0    0    0

125.738 29501.9 0
29501.9 455.652 0
0    0    0

114.619 26902.2 0
26902.2 -35.3304 0
0    0    0

4.5007 26817.7 0
26817.7 -168.573 0
0    0    0

227.544 26415.3 0
26415.3 -85.9211 0
0    0    0

207.899 27196.1 0
27196.1 361.107 0
0    0    0

-228.168 26785.2 0
26785.2 -302.674 0
0    0    0

-25.3399 25886.6 0
25886.6 183.732 0
0    0    0

-23.4135 26481.2 0
26481.2 -287.647 0
0    0    0

347.833 26542.6 0
26542.6 174.769 0
0    0    0

-146.504 34880.1 0
34880.1 113.387 0
0    0    0

303.635 34989.8 0
34989.8 17.6809 0
0    0    0

123.442 35668.9 0
35668.9 164.624 0
0    0    0

32.288 35581.7 0
35581.7 446.486 0
0    0    0

19.1278 35080.6 0
35080.6 -449.897 0
0    0    0

119.608 35218.9 0
35218.9 -209.48 0
0    0    0

6.96284 36765.7 0
36765.7 138.536 0
0    0    0

36.4276 37273.8 0
37273.8 145.634 0
0    0    0

63.1799 39736.9 0
39736.9 -47.3 0
0    0    0

67.1629 36801.1 0
36801.1 -67.1803 0
0    0    0

331.068 39080 0
39080 136.34 0
0    0    0

-229.483 37870.1 0
37870.1 -109.03 0
0    0    0

-66.779 37745.3 0
37745.3 104.961 0
0    0    0

156.653 37464.7 0
37464.7 -76.4007 0
0    0    0

-44.6597 38623.6 0
38623.6 -139.623 0
0    0    0

-76.4918 36588.3 0
36588.3 -172.862 0
0    0    0

-107.027 37239.7 0
37239.7 55.7327 0
0    0    0

-132.254 35940.5 0
35940.5 -88.6449 0
0    0    0

11.6344 36241.9 0
36241.9 37.6142 0
0    0    0

219.033 35505.7 0
35505.7 98.7906 0
0    0    0

66.6862 36325.8 0
36325.8 417.785 0
0    0    0

-108.421 34135.3 0
34135.3 -252.983 0
0    0    0

-67.6585 35615.3 0
35615.3 -157.87 0
0    0    0

5.55933 36874.9 0
36874.9 158.246 0
0    0    0

127.876 38241.9 0
38241.9 239.269 0
0    0    0

-56.1516 37115.3 0
37115.3 -283.732 0
0    0    0

-34.2118 36241.7 0
36241.7 85.7922 0
0    0    0

54.008 36705.7 0
36705.7 216.537 0
0    0    0

25.9647 36487.1 0
36487.1 -228.597 0
0    0    0

231.394 35615 0
35615 334.063 0
0    0    0

-52.6582 34943.3 0
34943.3 142.157 0
0    0    0

-106.845 37876.1 0
37876.1 175.478 0
0    0    0

113.728 35802.1 0
35802.1 -105.603 0
0    0    0

-106.806 37613.9 0
37613.9 -260.77 0
0    0    0

-99.2036 37884.7 0
37884.7 -184.922 0
0    0    0

-203.313 36647.1 0
36647.1 -4.7634 0
0    0    0

-164.894 37560.6 0
37560.6 -144.24 0
0    0    0

-226.456 35408.6 0
35408.6 -279.58 0
0    0    0

232.201 35326.8 0
35326.8 276.746 0
0    0    0

283.033 35046.2 0
35046.2 288.198 0
0    0    0

212.816 34309.5 0
34309.5 34.7591 0
0    0    0

243.87 35186.7 0
35186.7 268.115 0
0    0    0

-300.466 35628.5 0
35628.5 -183.563 0
0    0    0

-63.8614 35109.7 0
35109.7 -149.01 0
0    0    0

-86.9586 37474.3 0
37474.3 -202.903 0
0    0    0

176.325 37692.8 0
37692.8 138.558 0
0    0    0

2.31438 36667.5 0
36667.5 -126.781 0
0    0    0

342.404 34356.7 0
34356.7 214.252 0
0    0    0

-231.422 37683 0
37683 -193.728 0
0    0    0

-313.556 34718.7 0
34718.7 -189.098 0
0    0    0

-165.499 33979.4 0
33979.4 51.191 0
0    0    0

-123.759 45740.8 0
45740.8 -512.823 0
0    0    0

140.144 46973 0
46973 101.679 0
0    0    0

233.3 47680.9 0
47680.9 243.227 0
0    0    0

152.105 48177.2 0
48177.2 243.534 0
0    0    0

110.983 48286 0
48286 294.275 0
0    0    0

-134.965 48670.7 0
48670.7 -223.124 0
0    0    0

-137.379 48463.7 0
48463.7 -180.429 0
0    0    0

-130.312 48873.5 0
48873.5 33.6834 0
0    0    0

257.351 48850.1 0
48850.1 6.04113 0
0    0    0

-156.211 48453.8 0
48453.8 71.5242 0
0    0    0

-176.128 49134.9 0
49134.9 -253.862 0
0    0    0

79.5037 49731.9 0
49731.9 197.778 0
0    0    0

64.2329 49205 0
49205 165.059 0
0    0    0

-69.6059 50257.3 0
50257.3 153.896 0
0    0    0

-103.995 48071 0
48071 -278.157 0
0    0    0

198.109 48260 0
48260 161.393 0
0    0    0

-194.38 50110.9 0
50110.9 -276.898 0
0    0    0

-283.909 51116.3 0
51116.3 -142.317 0
0    0    0

-32.8985 48969.3 0
48969.3 147.362 0
0    0    0

175.423 49468.2 0
49468.2 381.527 0
0    0    0

-155.398 49722.5 0
49722.5 -156.721 0
0    0    0

167.069 50079.7 0
50079.7 407.698 0
0    0    0

206.574 49412.4 0
49412.4 310.803 0
0    0    0

-178.543 50335.4 0
50335.4 -286.772 0
0    0    0

94.4819 48202.1 0
48202.1 241.162 0
0    0    0

154.797 48724 0
48724 221.228 0
0    0    0

-309.231 49136.9 0
49136.9 -243.168 0
0    0    0

60.8679 49439.1 0
49439.1 215.71 0
0    0    0

-215.049 48517.7 0
48517.7 -275.312 0
0    0    0

34.3378 49844.8 0
49844.8 233.514 0
0    0    0

111.551 49144.8 0
49144.8 -89.3911 0
0    0    0

-142.664 49683.1 0
49683.1 -354.616 0
0    0    0

190.399 50558.5 0
50558.5 241.932 0
0    0    0

-94.4497 49669.9 0
49669.9 -268.646 0
0    0    0

108.138 49851.4 0
49851.4 -17.1603 0
0    0    0

-353.43 50975.9 0
50975.9 -49.2035 0
0    0    0

-210.986 51233.8 0
51233.8 -21.9723 0
0    0    0

218.757 49955.2 0
49955.2 -73.7457 0
0    0    0

-121.29 32893.4 0
32893.4 44.7981 0
0    0    0

257.87 32930.5 0
32930.5 212.175 0
0    0    0

-182.457 32428 0
32428 -38.549 0
0    0    0

-65.2491 32844.8 0
32844.8 -32.9775 0
0    0    0

-32.239 30912.6 0
30912.6 95.0519 0
0    0    0

95.951 30267.4 0
30267.4 -129.172 0
0    0    0

216.585 31872.2 0
31872.2 74.8332 0
0    0    0

-146.087 31886.3 0
31886.3 -206.083 0
0    0    0

-122.771 29252.3 0
29252.3 105.454 0
0    0    0

6.69531 30790.5 0
30790.5 -238.667 0
0    0    0

98.1259 29869.1 0
29869.1 -120.866 0
0    0    0

-134.914 31295.1 0
31295.1 35.0382 0
0    0    0

-276.464 32313.6 0
32313.6 -185.888 0
0    0    0

-138.401 31483.8 0
31483.8 -200.844 0
0    0    0

167.953 31613.2 0
31613.2 46.7426 0
0    0    0

-228.725 31704.6 0
31704.6 -171.906 0
0    0    0

218.587 30444.6 0
30444.6 92.4617 0
0    0    0

153.827 31247.5 0
31247.5 84.8714 0
0    0    0

61.6288 30756.2 0
30756.2 -58.0859 0
0    0    0

-31.8827 31185 0
31185 99.0083 0
0    0    0

252.408 31470.6 0
31470.6 147.092 0
0    0    0

242.23 32068.2 0
32068.2 160.543 0
0    0    0

-24.5786 31259.2 0
31259.2 -226.924 0
0    0    0

-227.528 31948.2 0
31948.2 -314.431 0
0    0    0

-249.763 31896.2 0
31896.2 -152.179 0
0    0    0

58.5805 30900.9 0
30900.9 -31.4432 0
0    0    0

-97.6811 30529.1 0
30529.1 181.605 0
0    0    0

-18.5515 31327.7 0
31327.7 -119.727 0
0    0    0

-150.345 29715.1 0
29715.1 -354.661 0
0    0    0

119.035 30567.4 0
30567.4 184.367 0
0    0    0

14.7347 30703.4 0
30703.4 -265.34 0
0    0    0

86.7421 29885.8 0
29885.8 225.038 0
0    0    0

-338.332 31350.8 0
31350.8 -256.816 0
0    0    0

163.448 31553.3 0
31553.3 368.855 0
0    0    0

245.842 32714.9 0
32714.9 295.737 0
0    0    0

50.7811 32355 0
32355 -92.606 0
0    0    0

306.68 31951.1 0
31951.1 179.72 0
0    0    0

212.372 32160.4 0
32160.4 339.083 0
0    0    0

164.383 30891.7 0
30891.7 183.088 0
0    0    0

-139.131 31014.3 0
31014.3 118.847 0
0    0    0

285.476 31091.2 0
31091.2 14.7419 0
0    0    0

5.60701 31741.7 0
31741.7 -104.9 0
0    0    0

14.1206 32921.5 0
32921.5 -170.517 0
0    0    0

260.946 32393.8 0
32393.8 329.88 0
0    0    0

92.2124 34554.8 0
34554.8 247.069 0
0    0    0

-64.6318 34007.8 0
34007.8 -233.404 0
0    0    0

67.3243 34152.6 0
34152.6 -130.14 0
0    0    0

-12.7695 34518.5 0
34518.5 -99.8045 0
0    0    0

194.151 33419.3 0
33419.3 -2.27282 0
0    0    0

171.15 34321.7 0
34321.7 356.201 0
0    0    0

-234.716 33192.7 0
33192.7 -110.689 0
0    0    0

-213.26 33402 0
33402 -337.555 0
0    0    0

-51.7712 34600.5 0
34600.5 -256.063 0
0    0    0

-89.4707 35199.1 0
35199.1 -226.951 0
0    0    0

-76.8539 33929.4 0
33929.4 -318.295 0
0    0    0

-76.2955 35334.6 0
35334.6 -98.8793 0
0    0    0

-212.201 35778.6 0
35778.6 -146.97 0
0    0    0

286.489 34962.9 0
34962.9 -59.4461 0
0    0    0

-173.5 34567.5 0
34567.5 -154.434 0
0    0    0

-134.673 34926.5 0
34926.5 111.062 0
0    0    0

51.4591 33816.2 0
33816.2 -161.911 0
0    0    0

227.612 33648.6 0
33648.6 321.486 0
0    0    0

-300.036 32696.5 0
32696.5 -227.254 0
0    0    0

-261.825 32878.5 0
32878.5 -246.494 0
0    0    0

-16.7996 34265.2 0
34265.2 229.141 0
0    0    0

142.929 33421.6 0
33421.6 98.1323 0
0    0    0

28.6857 33674.7 0
33674.7 6.37684 0
0    0    0

25.8306 34274 0
34274 -86.5501 0
0    0    0

-0.445662 34143 0
34143 204.542 0
0    0    0

-31.1526 33716.7 0
33716.7 -162.647 0
0    0    0

184.911 28130.4 0
28130.4 428.605 0
0    0    0

30.9779 28722 0
28722 234.504 0
0    0    0

-207.469 27416.2 0
27416.2 -321.119 0
0    0    0

43.2003 27834 0
27834 224.493 0
0    0    0

-124.816 28228.3 0
28228.3 -14.9247 0
0    0    0

153.948 27954.6 0
27954.6 236.743 0
0    0    0

-221.754 28934.9 0
28934.9 -32.5559 0
0    0    0

397.551 28464 0
28464 186.831 0
0    0    0

149.47 27684.5 0
27684.5 -153.847 0
0    0    0

22.3807 27670.6 0
27670.6 -125.412 0
0    0    0

-86.27 30542 0
30542 -229.579 0
0    0    0

-80.3768 30760.2 0
30760.2 -321.252 0
0    0    0

243.33 30454.8 0
30454.8 -6.80417 0
0    0    0

-234.856 30283.8 0
30283.8 -115.021 0
0    0    0

-122.301 30712.1 0
30712.1 -247.644 0
0    0    0

181.881 29983.8 0
29983.8 223.829 0
0    0    0

169.572 28900 0
28900 242.004 0
0    0    0

84.4239 29917.4 0
29917.4 88.0335 0
0    0    0

265.223 29067.4 0
29067.4 27.4133 0
0    0    0

8.42186 26965 0
26965 -188.866 0
0    0    0

-59.3311 27858.6 0
27858.6 -213.423 0
0    0    0

-136.401 29525.4 0
29525.4 -151.202 0
0    0    0

-66.1971 29907.6 0
29907.6 118.24 0
0    0    0

-240.127 29533.8 0
29533.8 -129.779 0
0    0    0

-41.012 29362.3 0
29362.3 142.993 0
0    0    0

-226.722 29661 0
29661 -184.053 0
0    0    0

-26.9424 29749.2 0
29749.2 -221.934 0
0    0    0

182.572 27634.7 0
27634.7 -90.7329 0
0    0    0

159.239 29441.7 0
29441.7 272.281 0
0    0    0

197.024 28895.9 0
28895.9 62.5874 0
0    0    0

-83.3434 29706.3 0
29706.3 -211.01 0
0    0    0

243.38 28647.6 0
28647.6 111.603 0
0    0    0

-220.101 30277.5 0
30277.5 -240.071 0
0    0    0

-142.038 29010.5 0
29010.5 -34.8785 0
0    0    0

36.4056 30399.1 0
30399.1 -112.694 0
0    0    0

1.54012 29496.5 0
29496.5 187.136 0
0    0    0

96.149 28656.8 0
28656.8 136.554 0
0    0    0

-135.927 28618.4 0
28618.4 -309.208 0
0    0    0

77.2489 30433 0
30433 207.433 0
0    0    0

-86.0401 30187.2 0
30187.2 -185.835 0
0    0    0

243.181 29930.4 0
29930.4 278.868 0
0    0    0

182.804 29229.6 0
29229.6 -18.8906 0
0    0    0

-239.132 29228.5 0
29228.5 -265.509 0
0    0    0

-161.907 28619.6 0
28619.6 -191.871 0
0    0    0

144.008 26817.8 0
26817.8 151.41 0
0    0    0

-389.585 28478.1 0
28478.1 -254.307 0
0    0    0

-315.695 30270.4 0
30270.4 -227.123 0
0    0    0

-94.3865 29577 0
29577 88.3732 0
0    0    0

-84.1922 29139 0
29139 75.4189 0
0    0    0

-67.439 28531.2 0
28531.2 -241.192 0
0    0    0

-12.1742 28569.4 0
28569.4 145.211 0
0    0    0

156.386 29080.8 0
29080.8 52.305 0
0    0    0

37.228 28167 0
28167 -277.198 0
0    0    0

-12.7836 28436.3 0
28436.3 234.162 0
0    0    0

-10.2504 27787.5 0
27787.5 -297.322 0
0    0    0

-106.118 26318.2 0
26318.2 -326.777 0
0    0    0

-228.224 28347.7 0
28347.7 -424.784 0
0    0    0

-115.417 27138.1 0
27138.1 -225.155 0
0    0    0

37.1452 28218.1 0
28218.1 -185.817 0
0    0    0

143.651 27468.8 0
27468.8 240.911 0
0    0    0

160.728 28325.8 0
28325.8 141.408 0
0    0    0

37.2753 27574.9 0
27574.9 269.518 0
0    0    0

-33.2916 28208 0
28208 187.719 0
0    0    0

-211.022 28891.6 0
28891.6 -12.5166 0
0    0    0

35.1298 29802.5 0
29802.5 -317.285 0
0    0    0

213.922 29458.7 0
29458.7 225.007 0
0    0    0

-71.6406 28688.7 0
28688.7 31.2471 0
0    0    0

136.557 28255.9 0
28255.9 202.159 0
0    0    0

42.1899 27937.7 0
27937.7 -136.389 0
0    0    0

-24.9765 27782.6 0
27782.6 121.28 0
0    0    0

-0.838181 27321.8 0
27321.8 138.487 0
0    0    0

-213.81 27328.9 0
27328.9 -76.7771 0
0    0    0

-5.41284 28091.3 0
28091.3 -204.515 0
0    0    0

-129.013 27310.3 0
27310.3 -142.088 0
0    0    0

-72.0097 28013.8 0
28013.8 -193.798 0
0    0    0

-126.479 26629.1 0
26629.1 -295.208 0
0    0    0

-161.954 28555.5 0
28555.5 -262.467 0
0    0    0

-238.695 28652 0
28652 -278.902 0
0    0    0

88.3642 27374.4 0
27374.4 53.6308 0
0    0    0

-307.549 27879.6 0
27879.6 -348.893 0
0    0    0

179.837 26427.1 0
26427.1 -98.5736 0
0    0    0

-113.027 27702.8 0
27702.8 -160.732 0
0    0    0

-64.2933 27946.5 0
27946.5 85.7758 0
0    0    0

189.386 27235.6 0
27235.6 188.915 0
0    0    0

-99.2097 27357.1 0
27357.1 -195.989 0
0    0    0

-358.663 27202.8 0
27202.8 -375.731 0
0    0    0

-191.948 27309.4 0
27309.4 -171.719 0
0    0    0

274.762 27847.7 0
27847.7 274.977 0
0    0    0

-120.886 27130.2 0
27130.2 166.977 0
0    0    0

151.165 27572.8 0
27572.8 -189.849 0
0    0    0

25.7967 27026.2 0
27026.2 23.3621 0
0    0    0

276.59 27532.2 0
27532.2 395.975 0
0    0    0

-242.647 27652.2 0
27652.2 86.6577 0
0    0    0

27.5866 27010.2 0
27010.2 158.202 0
0    0    0

283.003 12981.3 0
12981.3 338.317 0
0    0    0

-139.854 12735.2 0
12735.2 102.92 0
0    0    0

-198.182 11810.6 0
11810.6 -144.435 0
0    0    0

-189.592 11629.2 0
11629.2 -139.403 0
0    0    0

129.441 11337.8 0
11337.8 171.539 0
0    0    0

-101.869 10896.6 0
10896.6 112.749 0
0    0    0

53.5916 10103.8 0
10103.8 51.0192 0
0    0    0

107.499 11194.3 0
11194.3 -84.6866 0
0    0    0

292.685 11431.9 0
11431.9 210.855 0
0    0    0

-124.178 10953 0
10953 87.909 0
0    0    0

-100.304 11684.3 0
11684.3 -175.616 0
0    0    0

128.615 10455.5 0
10455.5 -109.064 0
0    0    0

5.27252 11357.1 0
11357.1 195.803 0
0    0    0

44.166 11476.9 0
11476.9 190.458 0
0    0    0

229.035 10108.6 0
10108.6 95.2672 0
0    0    0

271.92 10836.5 0
10836.5 7.06222 0
0    0    0

32.7894 11436.1 0
11436.1 -104.449 0
0    0    0

104.597 12062.8 0
12062.8 60.1708 0
0    0    0

44.794 11141.3 0
11141.3 26.9944 0
0    0    0

169.158 11303.2 0
11303.2 300.613 0
0    0    0

-6.18669 12349.1 0
12349.1 -158.136 0
0    0    0

-255.48 11800.7 0
11800.7 -380.327 0
0    0    0

108.509 10570.8 0
10570.8 155.765 0
0    0    0

203.856 11783.7 0
11783.7 218.939 0
0    0    0

-186.948 10004.7 0
10004.7 42.247 0
0    0    0

-235.68 11102.1 0
11102.1 -183.872 0
0    0    0

-132.054 12213.6 0
12213.6 -165.645 0
0    0    0

-295.108 12697.4 0
12697.4 -376.862 0
0    0    0

18.065 11741.5 0
11741.5 241.245 0
0    0    0

298.417 12347 0
12347 335.777 0
0    0    0

-14.2629 11165.2 0
11165.2 220.998 0
0    0    0

225.865 10809.7 0
10809.7 145.794 0
0    0    0

-128.441 10827.6 0
10827.6 -309.877 0
0    0    0

-281.153 10984.9 0
10984.9 -172.44 0
0    0    0

147.877 11741 0
11741 10.6563 0
0    0    0

-134.332 12113.4 0
12113.4 8.94193 0
0    0    0

38.7361 10950.5 0
10950.5 -213.328 0
0    0    0

50.7879 10656.4 0
10656.4 270.183 0
0    0    0

225.857 10716.3 0
10716.3 261.051 0
0    0    0

-321.48 11260.6 0
11260.6 -309.561 0
0    0    0

-232.706 10583.5 0
10583.5 -86.979 0
0    0    0

81.4035 10474.6 0
10474.6 14.2902 0
0    0    0

-189.499 11761.1 0
11761.1 -162.972 0
0    0    0

138.388 12625.8 0
12625.8 70.0803 0
0    0    0

77.0514 10323.7 0
10323.7 130.927 0
0    0    0

-107.073 10478.5 0
10478.5 -243.887 0
0    0    0

169.817 10015.9 0
10015.9 214.966 0
0    0    0

-128.128 10356.3 0
10356.3 -1.57621 0
0    0    0

224.956 11375.7 0
11375.7 117.317 0
0    0    0

-136.219 13728.5 0
13728.5 -74.2853 0
0    0    0

60.0018 9046.68 0
9046.68 121.757 0
0    0    0

-83.0047 10324.3 0
10324.3 292.984 0
0    0    0

212.031 13261.4 0
13261.4 189.839 0
0    0    0

159.516 13000.4 0
13000.4 167.902 0
0    0    0

192.337 12334 0
12334 278.907 0
0    0    0

-11.3584 13677.7 0
13677.7 75.8003 0
0    0    0

133.98 14001.9 0
14001.9 69.5195 0
0    0    0

-123.728 14108.2 0
14108.2 39.083 0
0    0    0

-103.419 12886.4 0
12886.4 -26.6053 0
0    0    0

-265.908 13292.3 0
13292.3 -346.792 0
0    0    0

-85.8538 10500.3 0
10500.3 76.0833 0
0    0    0

-35.3608 9911.36 0
9911.36 -104.566 0
0    0    0

245.517 6303.44 0
6303.44 194.586 0
0    0    0

-117.628 8882.54 0
8882.54 -159.54 0
0    0    0

226.551 11933.3 0
11933.3 150.119 0
0    0    0

169.078 11492.3 0
11492.3 333.043 0
0    0    0

241.99 10960 0
10960 123.543 0
0    0    0

-16.4223 11672.1 0
11672.1 -148.869 0
0    0    0

-163.455 9960 0
9960 -121.273 0
0    0    0

-64.4307 9180.78 0
9180.78 -41.9654 0
0    0    0

-159.694 10363.9 0
10363.9 -217.361 0
0    0    0

-129.799 9542.34 0
9542.34 -179.839 0
0    0    0

-99.0317 12770.4 0
12770.4 -75.8713 0
0    0    0

-53.6968 13737.4 0
13737.4 -190.58 0
0    0    0

-274.677 12680.4 0
12680.4 -299.411 0
0    0    0

-151.398 13277.7 0
13277.7 -182.714 0
0    0    0

179.266 12819.1 0
12819.1 209.646 0
0    0    0

331.493 13619.6 0
13619.6 555.436 0
0    0    0

-90.5789 14805.7 0
14805.7 -170.571 0
0    0    0

37.2946 14231.2 0
14231.2 -149.419 0
0    0    0

-31.4471 14194.8 0
14194.8 164.758 0
0    0    0

174.287 13579.2 0
13579.2 36.72 0
0    0    0

-140.572 9553.2 0
9553.2 -231.397 0
0    0    0

176.99 9492.11 0
9492.11 594.894 0
0    0    0

12.4202 9844.32 0
9844.32 -233.755 0
0    0    0

204.658 9894.36 0
9894.36 -217.767 0
0    0    0

163.801 9311.24 0
9311.24 120.409 0
0    0    0

5.12631 9111.35 0
9111.35 -267.318 0
0    0    0

50.2831 15732.5 0
15732.5 354.543 0
0    0    0

204.623 15789.7 0
15789.7 56.8404 0
0    0    0

-183.611 15409.8 0
15409.8 -239.433 0
0    0    0

176.291 15020.7 0
15020.7 86.1936 0
0    0    0

17.6525 15866.3 0
15866.3 -144.533 0
0    0    0

94.9829 16258.1 0
16258.1 -71.4548 0
0    0    0

-210.483 15340.7 0
15340.7 -60.477 0
0    0    0

-291.891 15622.8 0
15622.8 -184.761 0
0    0    0

-6.99645 14768.7 0
14768.7 -186.591 0
0    0    0

283.818 14263.4 0
14263.4 358.324 0
0    0    0

-33.9878 14664.8 0
14664.8 121.874 0
0    0    0

59.91 16135.8 0
16135.8 -107.164 0
0    0    0

39.5168 16033.3 0
16033.3 134.664 0
0    0    0

-1.21731 15820.5 0
15820.5 20.8765 0
0    0    0

-255.293 16189.2 0
16189.2 -132.787 0
0    0    0

106.143 16495.5 0
16495.5 -34.6888 0
0    0    0

-50.7603 15418.3 0
15418.3 -118.441 0
0    0    0

-84.9273 15878.7 0
15878.7 -198.164 0
0    0    0

203.744 16444.8 0
16444.8 106.066 0
0    0    0

24.9654 17273.5 0
17273.5 58.2525 0
0    0    0

59.3063 15534.6 0
15534.6 189.94 0
0    0    0

-160.542 16743.9 0
16743.9 -383.787 0
0    0    0

143.819 17832.7 0
17832.7 -108.841 0
0    0    0

3.12818 16506.5 0
16506.5 101.65 0
0    0    0

173.778 16773.9 0
16773.9 49.5623 0
0    0    0

78.3858 17653.2 0
17653.2 385.158 0
0    0    0

-4.94638 16804.7 0
16804.7 -11.5415 0
0    0    0

-150.542 16610.4 0
16610.4 8.56224 0
0    0    0

-210.482 15937.6 0
15937.6 -309.36 0
0    0    0

-61.8217 16341.8 0
16341.8 -144.251 0
0    0    0

-141.301 16048.7 0
16048.7 -363.646 0
0    0    0

-13.0037 11919.8 0
11919.8 -120.202 0
0    0    0

-151.38 12589 0
12589 -157.149 0
0    0    0

274.221 12294.6 0
12294.6 565.883 0
0    0    0

-233.223 9191.35 0
9191.35 -68.0593 0
0    0    0

148.59 10089.8 0
10089.8 417.714 0
0    0    0

-72.9355 10620.6 0
10620.6 141.454 0
0    0    0

159.856 9032.53 0
9032.53 234.662 0
0    0    0

-119.865 10451.2 0
10451.2 -57.43 0
0    0    0

-258.407 10261.7 0
10261.7 -278.118 0
0    0    0

-20.1569 10724.9 0
10724.9 -97.8382 0
0    0    0

338.568 9900.53 0
9900.53 303.079 0
0    0    0

106.87 9120.49 0
9120.49 -40.9345 0
0    0    0

-80.7284 9772.68 0
9772.68 128.776 0
0    0    0

195.647 6600.7 0
6600.7 92.8455 0
0    0    0

207.909 8974.34 0
8974.34 157.089 0
0    0    0

180.909 9584.69 0
9584.69 97.8624 0
0    0    0

-69.4055 9901.25 0
9901.25 41.8519 0
0    0    0

-26.1949 19018.4 0
19018.4 7.40119 0
0    0    0

246.341 19906.1 0
19906.1 80.0821 0
0    0    0

-39.6602 18832.2 0
18832.2 44.096 0
0    0    0

-291.677 20294.8 0
20294.8 -190.864 0
0    0    0

-25.5003 20633.5 0
20633.5 66.2221 0
0    0    0

-75.8534 21170.7 0
21170.7 86.5547 0
0    0    0

196.99 19695.5 0
19695.5 29.0497 0
0    0    0

-6.29036 20466.8 0
20466.8 -100.601 0
0    0    0

99.3497 18955.5 0
18955.5 -88.4096 0
0    0    0

176.953 19441.1 0
19441.1 194.531 0
0    0    0

-12.3331 19125.9 0
19125.9 221.878 0
0    0    0

-216.62 19301.2 0
19301.2 -126.881 0
0    0    0

162.295 19929.4 0
19929.4 -52.0547 0
0    0    0

-280.915 20126.3 0
20126.3 -162.345 0
0    0    0

25.4261 20971.5 0
20971.5 383.952 0
0    0    0

-168.094 20167.8 0
20167.8 -172.78 0
0    0    0

111.958 21426.3 0
21426.3 254.58 0
0    0    0

198.766 19908.5 0
19908.5 192.105 0
0    0    0

-154.25 19732.3 0
19732.3 -385.441 0
0    0    0

-105.088 19930.7 0
19930.7 60.0147 0
0    0    0

211.957 20504.7 0
20504.7 237.217 0
0    0    0

-59.6128 20129.7 0
20129.7 104.734 0
0    0    0

16.0577 21215 0
21215 -132.579 0
0    0    0

145.492 21711.4 0
21711.4 -11.6266 0
0    0    0

-27.3195 19371.9 0
19371.9 -86.9819 0
0    0    0

-150.276 19746.7 0
19746.7 -82.6305 0
0    0    0

-28.2677 19707.1 0
19707.1 -280.299 0
0    0    0

-162.825 19781.5 0
19781.5 -79.8853 0
0    0    0

195.694 19562.2 0
19562.2 297.325 0
0    0    0

1.58494 20351.4 0
20351.4 -6.66978 0
0    0    0

287.44 21429 0
21429 446.332 0
0    0    0

38.0462 20672.3 0
20672.3 -134.45 0
0    0    0

47.0565 20873.1 0
20873.1 338.932 0
0    0    0

153.127 20147.4 0
20147.4 18.7594 0
0    0    0

8.64263 19626.3 0
19626.3 -218.452 0
0    0    0

-249.494 20722.5 0
20722.5 -85.2452 0
0    0    0

-177.492 20371.4 0
20371.4 67.4431 0
0    0    0

284.066 20289 0
20289 85.1187 0
0    0    0

79.955 22676.3 0
22676.3 364.762 0
0    0    0

-75.7638 20958 0
20958 -260.358 0
0    0    0

79.223 21571.4 0
21571.4 -51.7887 0
0    0    0

34.8481 21186.4 0
21186.4 -238.856 0
0    0    0

-145.721 21130.8 0
21130.8 -29.9302 0
0    0    0

-10.1432 21492.7 0
21492.7 149.853 0
0    0    0

25.6582 19427.7 0
19427.7 151.21 0
0    0    0

220.885 19842.9 0
19842.9 115.676 0
0    0    0

70.6914 21940.4 0
21940.4 173.133 0
0    0    0

25.2634 21536.4 0
21536.4 -158.279 0
0    0    0

-34.1486 23371.3 0
23371.3 29.9879 0
0    0    0

-26.3969 22029.6 0
22029.6 -117.773 0
0    0    0

42.6923 21452.7 0
21452.7 159.636 0
0    0    0

84.8511 20570.2 0
20570.2 188.708 0
0    0    0

-174.498 22196.1 0
22196.1 -29.7024 0
0    0    0

-135.367 22293.3 0
22293.3 81.6059 0
0    0    0

27.2716 21983.3 0
21983.3 80.4786 0
0    0    0

-128.632 19666.5 0
19666.5 -442.334 0
0    0    0

79.9653 20696.7 0
20696.7 -184.316 0
0    0    0

-93.1097 20311.3 0
20311.3 -282.812 0
0    0    0

20.3253 20029.6 0
20029.6 201.161 0
0    0    0

169.481 20106.4 0
20106.4 -40.0123 0
0    0    0

66.3736 21109.3 0
21109.3 331.179 0
0    0    0

-50.9418 20946.1 0
20946.1 -188.996 0
0    0    0

-45.4459 21742 0
21742 -104.89 0
0    0    0

-141.096 21169 0
21169 -194.414 0
0    0    0

212.1 14969.9 0
14969.9 12.6346 0
0    0    0

-225.317 15162.8 0
15162.8 -280.792 0
0    0    0

171.5 15085 0
15085 -6.95522 0
0    0    0

182.571 15636.4 0
15636.4 147.738 0
0    0    0

-246.022 16025.3 0
16025.3 -193.625 0
0    0    0

-283.14 16248.8 0
16248.8 -7.27986 0
0    0    0

-109.081 16438.5 0
16438.5 81.3509 0
0    0    0

181.362 16037.2 0
16037.2 220.906 0
0    0    0

-128.538 50009.3 0
50009.3 -136.756 0
0    0    0

23.6661 50383.1 0
50383.1 55.2209 0
0    0    0

-85.5664 49165.3 0
49165.3 162.322 0
0    0    0

45.8278 49393 0
49393 106.931 0
0    0    0

123.758 49079.4 0
49079.4 -65.1306 0
0    0    0

224 49449.8 0
49449.8 404.851 0
0    0    0

32.6794 48811.2 0
48811.2 -44.472 0
0    0    0

-190.178 48367.8 0
48367.8 -107.823 0
0    0    0

65.8623 47579.6 0
47579.6 173.028 0
0    0    0

-119.5 47823.1 0
47823.1 -259.559 0
0    0    0

-65.9527 48280.2 0
48280.2 105.116 0
0    0    0

51.3378 49047.5 0
49047.5 243.944 0
0    0    0

-114.723 48358 0
48358 -200.604 0
0    0    0

106.597 64018.8 0
64018.8 -155.853 0
0    0    0

-280.988 64015.9 0
64015.9 -298.776 0
0    0    0

-75.6651 49221.5 0
49221.5 78.1678 0
0    0    0

-58.408 49340.5 0
49340.5 124.155 0
0    0    0

18.3593 46852.8 0
46852.8 179.655 0
0    0    0

-85.8157 47099.6 0
47099.6 74.38 0
0    0    0

62.6349 47190 0
47190 209.777 0
0    0    0

-213.587 47281.6 0
47281.6 151.194 0
0    0    0

141.869 47430 0
47430 96.3207 0
0    0    0

-167.102 47272.4 0
47272.4 -172.383 0
0    0    0

-21.9898 47883.8 0
47883.8 -80.8838 0
0    0    0

115.896 47553.5 0
47553.5 270.423 0
0    0    0

-213.493 48905.3 0
48905.3 -42.5373 0
0    0    0

-170.401 47933.3 0
47933.3 -171.189 0
0    0    0

62.6128 48966.7 0
48966.7 146.096 0
0    0    0

-20.8618 48541.7 0
48541.7 -8.44177 0
0    0    0

-70.7566 48778.3 0
48778.3 -232.839 0
0    0    0

-38.3886 48655.5 0
48655.5 159.833 0
0    0    0

-23.5161 49484.9 0
49484.9 -64.0103 0
0    0    0

100.335 48509 0
48509 234.114 0
0    0    0

275.743 48163.5 0
48163.5 71.7202 0
0    0    0

-83.0952 47569.1 0
47569.1 149.764 0
0    0    0

57.0477 47997 0
47997 133.111 0
0    0    0

-134.047 44595.7 0
44595.7 -138.259 0
0    0    0

-69.6427 47803.6 0
47803.6 -294.143 0
0    0    0

217.757 44838.9 0
44838.9 64.2633 0
0    0    0

-236.187 44223.1 0
44223.1 -244.386 0
0    0    0

70.8052 45224.8 0
45224.8 165.212 0
0    0    0

-248.129 42487.6 0
42487.6 -658.633 0
0    0    0

494.045 43781.4 0
43781.4 328.105 0
0    0    0

-239.494 43158.6 0
43158.6 -56.8049 0
0    0    0

67.2706 42780.3 0
42780.3 240.734 0
0    0    0

9.54441 42377.1 0
42377.1 -13.627 0
0    0    0

-42.0775 37859.2 0
37859.2 179.875 0
0    0    0

-46.626 37006.6 0
37006.6 -189.958 0
0    0    0

324.85 38330.8 0
38330.8 244.872 0
0    0    0

131.088 37964.3 0
37964.3 17.201 0
0    0    0

-138.91 38248.6 0
38248.6 -160.952 0
0    0    0

-19.7902 37349.1 0
37349.1 -8.48151 0
0    0    0

150 36786.6 0
36786.6 268.835 0
0    0    0

-199.034 37606 0
37606 -85.3004 0
0    0    0

244.074 37945.3 0
37945.3 -84.7736 0
0    0    0

-94.9477 36677.5 0
36677.5 -40.6919 0
0    0    0

29.871 37231 0
37231 191.19 0
0    0    0

192.448 37309.6 0
37309.6 -43.9696 0
0    0    0

-119.213 37002.7 0
37002.7 -51.0914 0
0    0    0

-343.56 38091.1 0
38091.1 -126.369 0
0    0    0

269.248 37604.8 0
37604.8 30.6484 0
0    0    0

239.385 38393.8 0
38393.8 50.8598 0
0    0    0

-136.038 38702.6 0
38702.6 48.2048 0
0    0    0

-101.45 38950.3 0
38950.3 -10.234 0
0    0    0

-227.906 37375.7 0
37375.7 1.72863 0
0    0    0

25.6549 36396 0
36396 -113.157 0
0    0    0

19.1911 36200.8 0
36200.8 382.712 0
0    0    0

168.601 35323.1 0
35323.1 316.579 0
0    0    0

-142.153 36622.3 0
36622.3 133.688 0
0    0    0

-20.816 36108.8 0
36108.8 174.491 0
0    0    0

226.666 34332.6 0
34332.6 104.895 0
0    0    0

89.2871 34394.5 0
34394.5 -209.236 0
0    0    0

219.767 33763.1 0
33763.1 25.2747 0
0    0    0

227.076 34836.8 0
34836.8 231.857 0
0    0    0

83.3862 35417.9 0
35417.9 -89.9994 0
0    0    0

11.4459 35067.8 0
35067.8 12.3117 0
0    0    0

-106.741 34285.3 0
34285.3 121.875 0
0    0    0

-62.5893 34742.3 0
34742.3 176.198 0
0    0    0

-288.578 36272.4 0
36272.4 -85.8996 0
0    0    0

51.205 35606.4 0
35606.4 228.945 0
0    0    0

42.8218 35326.1 0
35326.1 -125.015 0
0    0    0

-161.2 35403.7 0
35403.7 -73.6038 0
0    0    0

56.6534 35198.8 0
35198.8 164.229 0
0    0    0

31.7845 34607.8 0
34607.8 144.648 0
0    0    0

-130 36004.6 0
36004.6 -316.94 0
0    0    0

145.522 35722.9 0
35722.9 92.4926 0
0    0    0

107.85 29337.1 0
29337.1 -141.253 0
0    0    0

-176.647 29999 0
29999 -92.5531 0
0    0    0

-193.914 29646.1 0
29646.1 225.752 0
0    0    0

50.066 35270.8 0
35270.8 288.857 0
0    0    0

-1.82424 35360.5 0
35360.5 213.977 0
0    0    0

275.166 35240.3 0
35240.3 181.276 0
0    0    0

43.3056 35979.7 0
35979.7 -242.014 0
0    0    0

10.2208 75137.9 0
75137.9 219.086 0
0    0    0

75.5667 75647.4 0
75647.4 198.163 0
0    0    0

85.324 76061 0
76061 234.682 0
0    0    0

-109.772 75694.1 0
75694.1 -1.00706 0
0    0    0

12.8702 75287.2 0
75287.2 443.151 0
0    0    0

67.7404 74959.7 0
74959.7 81.0612 0
0    0    0

-309.453 75037.7 0
75037.7 -246.581 0
0    0    0

96.2069 73575.1 0
73575.1 191.856 0
0    0    0

-253.083 74468.1 0
74468.1 -156.552 0
0    0    0

-6.51333 74013.9 0
74013.9 -136.987 0
0    0    0

216.708 74759 0
74759 93.039 0
0    0    0

224.65 74802.6 0
74802.6 12.0966 0
0    0    0

357.084 72870.4 0
72870.4 291.783 0
0    0    0

261.617 73004.1 0
73004.1 55.8713 0
0    0    0

-230.987 70664.1 0
70664.1 -251.656 0
0    0    0

107.842 73287.9 0
73287.9 139.879 0
0    0    0

-158.991 73739.3 0
73739.3 -94.7119 0
0    0    0

-328.665 73260.8 0
73260.8 -230.195 0
0    0    0

269.788 74080.3 0
74080.3 323.342 0
0    0    0

104.565 74286.8 0
74286.8 -93.1607 0
0    0    0

117.649 71511 0
71511 121.202 0
0    0    0

96.9618 72952.2 0
72952.2 -134.467 0
0    0    0

-194.255 73451.7 0
73451.7 -40.5202 0
0    0    0

-84.8951 72513 0
72513 -97.3008 0
0    0    0

138.722 72294 0
72294 100.465 0
0    0    0

184.187 71970.8 0
71970.8 116.719 0
0    0    0

101.703 72634.2 0
72634.2 -113.035 0
0    0    0

217.658 72344.2 0
72344.2 -39.0654 0
0    0    0

-241.612 73855.1 0
73855.1 -323.008 0
0    0    0

-173.081 73680.5 0
73680.5 31.2559 0
0    0    0

-161.732 72604 0
72604 -294.057 0
0    0    0

-83.2345 72865 0
72865 -273.964 0
0    0    0

192.593 73507.4 0
73507.4 404.119 0
0    0    0

-23.7189 73391.4 0
73391.4 186.799 0
0    0    0

95.1849 74416.9 0
74416.9 -69.8633 0
0    0    0

185.364 73890.5 0
73890.5 244.672 0
0    0    0

-37.9246 75598.5 0
75598.5 -262.258 0
0    0    0

-10.683 74211.5 0
74211.5 -433.998 0
0    0    0

-320.846 75077.9 0
75077.9 -223.799 0
0    0    0

-204.927 74545.7 0
74545.7 -278.268 0
0    0    0

31.5101 75964.4 0
75964.4 220.098 0
0    0    0

36.0831 74896.3 0
74896.3 46.6048 0
0    0    0

-228.506 74340.6 0
74340.6 -206.734 0
0    0    0

160.071 74533.3 0
74533.3 62.4041 0
0    0    0

416.024 74765.2 0
74765.2 212.227 0
0    0    0

49.4621 75509.5 0
75509.5 56.5585 0
0    0    0

46.7849 75303.6 0
75303.6 310.949 0
0    0    0

269.057 75278.9 0
75278.9 369.018 0
0    0    0

126.539 76090.9 0
76090.9 334.222 0
0    0    0

-18.5217 76473.9 0
76473.9 48.732 0
0    0    0

-100.44 75734.8 0
75734.8 -199.957 0
0    0    0

281.282 75240.1 0
75240.1 104.082 0
0    0    0

73.6779 76017.2 0
76017.2 299.98 0
0    0    0

-266.27 75033.2 0
75033.2 -391.576 0
0    0    0

103.438 75529.5 0
75529.5 272.203 0
0    0    0

-87.4461 76253.2 0
76253.2 -177.822 0
0    0    0

210.557 77796.7 0
77796.7 47.7318 0
0    0    0

-360.502 77867.8 0
77867.8 -26.4143 0
0    0    0

178.16 78274.3 0
78274.3 245.938 0
0    0    0

-152.874 77961.2 0
77961.2 -190.644 0
0    0    0

292.767 80049.6 0
80049.6 36.8283 0
0    0    0

-53.8239 76555.2 0
76555.2 121.139 0
0    0    0

284.527 77025.4 0
77025.4 123.871 0
0    0    0

-48.3864 76378.9 0
76378.9 -202.147 0
0    0    0

-116.788 79030.8 0
79030.8 -266.474 0
0    0    0

129.48 76731.4 0
76731.4 268.557 0
0    0    0

-173.743 76414 0
76414 -378.906 0
0    0    0

-3.96042 75884 0
75884 -244.403 0
0    0    0

96.1838 76011.5 0
76011.5 -102.796 0
0    0    0

-218.804 75155.9 0
75155.9 60.2555 0
0    0    0

177.227 76797.5 0
76797.5 -110.224 0
0    0    0

5.18556 77326 0
77326 75.245 0
0    0    0

29.5094 76895.2 0
76895.2 -96.7665 0
0    0    0

1.02489 76489.3 0
76489.3 -51.5447 0
0    0    0

122.352 77353.1 0
77353.1 15.3732 0
0    0    0

-106.672 77893.3 0
77893.3 137.317 0
0    0    0

-97.0619 75722 0
75722 109.671 0
0    0    0

115.895 75253.2 0
75253.2 -90.3097 0
0    0    0

-112.306 79141.2 0
79141.2 8.81378 0
0    0    0

28.3132 80948.6 0
80948.6 111.059 0
0    0    0

-15.7791 78033.8 0
78033.8 159.609 0
0    0    0

8.41326 78494.6 0
78494.6 -272.103 0
0    0    0

-250.1 77736.9 0
77736.9 -41.3436 0
0    0    0

-0.299703 78190.8 0
78190.8 -40.0125 0
0    0    0

-72.6925 66483.5 0
66483.5 101.719 0
0    0    0

182.72 67304.3 0
67304.3 302.251 0
0    0    0

-54.8927 67949.4 0
67949.4 -162.929 0
0    0    0

-84.1779 67238.3 0
67238.3 62.2547 0
0    0    0

-156.691 67102.8 0
67102.8 -56.3272 0
0    0    0

126.78 66646.2 0
66646.2 47.0844 0
0    0    0

204.345 66373.6 0
66373.6 8.69022 0
0    0    0

180.031 66954.6 0
66954.6 214.826 0
0    0    0

76.2299 68283.9 0
68283.9 143.559 0
0    0    0

39.6297 70106.4 0
70106.4 -287.884 0
0    0    0

357.818 69468.9 0
69468.9 276.856 0
0    0    0

-243.708 68479.5 0
68479.5 53.368 0
0    0    0

109.11 68038.4 0
68038.4 82.7976 0
0    0    0

326.285 68657.7 0
68657.7 445.452 0
0    0    0

-455.392 69799.1 0
69799.1 -316.807 0
0    0    0

154.907 69026.7 0
69026.7 209.99 0
0    0    0

230.265 68712.3 0
68712.3 42.7227 0
0    0    0

128.016 69281.6 0
69281.6 -180.051 0
0    0    0

233.468 69807.6 0
69807.6 276.8 0
0    0    0

-81.9302 70848.4 0
70848.4 120.023 0
0    0    0

41.6537 71106.5 0
71106.5 -71.4943 0
0    0    0

-23.6079 70714.9 0
70714.9 -129.615 0
0    0    0

166.581 70928.8 0
70928.8 270.165 0
0    0    0

-212.491 71222 0
71222 -229.271 0
0    0    0

81.8999 71362.9 0
71362.9 288.881 0
0    0    0

-170.768 71075.7 0
71075.7 -356.579 0
0    0    0

-132.009 73825.2 0
73825.2 -160.484 0
0    0    0

-228.135 74122.7 0
74122.7 -482.567 0
0    0    0

79.0041 73176 0
73176 -88.2472 0
0    0    0

-54.4627 73396.2 0
73396.2 -47.4972 0
0    0    0

131.869 73118.4 0
73118.4 13.4791 0
0    0    0

361.225 73623.6 0
73623.6 694.157 0
0    0    0

-41.7539 73138.9 0
73138.9 -238.041 0
0    0    0

-203.246 75598.7 0
75598.7 -102.419 0
0    0    0

-193.179 74535 0
74535 -139.596 0
0    0    0

-77.5561 73871.2 0
73871.2 -250.511 0
0    0    0

-146.943 73700.8 0
73700.8 -52.4032 0
0    0    0

-142.562 74676.8 0
74676.8 -170.27 0
0    0    0

217.293 75713.3 0
75713.3 30.3647 0
0    0    0

170.573 74340.2 0
74340.2 200.181 0
0    0    0

-78.4673 76186.3 0
76186.3 161.853 0
0    0    0

-36.0549 75046.2 0
75046.2 86.9642 0
0    0    0

63.3035 73338.3 0
73338.3 315.683 0
0    0    0

147.234 73854.4 0
73854.4 153.655 0
0    0    0

80.2626 74769.7 0
74769.7 -40.1289 0
0    0    0

122.462 74887.3 0
74887.3 -23.5862 0
0    0    0

-192.939 74029.9 0
74029.9 -248.495 0
0    0    0

31.9614 74482.2 0
74482.2 175.438 0
0    0    0

52.1491 74055.9 0
74055.9 -210.007 0
0    0    0

-85.1097 74541.8 0
74541.8 -198.792 0
0    0    0

-61.1935 75238.6 0
75238.6 132.492 0
0    0    0

87.4982 74219.6 0
74219.6 192.864 0
0    0    0

19.5224 73810.4 0
73810.4 -54.4943 0
0    0    0

-182.221 74428.8 0
74428.8 -281.067 0
0    0    0

-16.6398 70702.3 0
70702.3 147.752 0
0    0    0

-353.977 73305.5 0
73305.5 -439.429 0
0    0    0

216.806 51412.9 0
51412.9 182.207 0
0    0    0

-267.54 50954.4 0
50954.4 -303.71 0
0    0    0

-164.859 49988.2 0
49988.2 -35.9105 0
0    0    0

85.3857 50412.7 0
50412.7 90.494 0
0    0    0

-132.841 51473.3 0
51473.3 -94.3813 0
0    0    0

193.641 50673 0
50673 197.858 0
0    0    0

45.3971 50716.9 0
50716.9 173.61 0
0    0    0

302.641 51225.4 0
51225.4 446.784 0
0    0    0

233.27 50168.7 0
50168.7 192.609 0
0    0    0

-192.324 50500 0
50500 -79.2058 0
0    0    0

379.976 49633.6 0
49633.6 247.743 0
0    0    0

-10.0164 50335.5 0
50335.5 -112.655 0
0    0    0

-165.784 50449.3 0
50449.3 -458.985 0
0    0    0

368.514 51197.6 0
51197.6 155.8 0
0    0    0

-13.8623 50008 0
50008 -167.003 0
0    0    0

-71.8777 50307.1 0
50307.1 202.849 0
0    0    0

-233.461 50312.9 0
50312.9 -195.7 0
0    0    0

206.84 50673.3 0
50673.3 317.776 0
0    0    0

-250.124 61131.1 0
61131.1 -219.163 0
0    0    0

142.548 60463.4 0
60463.4 71.4552 0
0    0    0

236.895 61358.3 0
61358.3 325.792 0
0    0    0

-240.345 61749 0
61749 -284.262 0
0    0    0

-187.662 60970.4 0
60970.4 -27.1915 0
0    0    0

200.391 61221.3 0
61221.3 -19.7405 0
0    0    0

245.307 60753.7 0
60753.7 219.943 0
0    0    0

80.7803 61625.6 0
61625.6 156.13 0
0    0    0

-77.5774 60623.1 0
60623.1 69.2831 0
0    0    0

67.7196 61465.8 0
61465.8 257.532 0
0    0    0

-50.1934 62289.6 0
62289.6 -128.366 0
0    0    0

57.7082 62328.5 0
62328.5 -95.2231 0
0    0    0

132.564 61058.2 0
61058.2 196.003 0
0    0    0

-23.2183 61921.5 0
61921.5 -210.007 0
0    0    0

-143.549 61772.9 0
61772.9 -228.666 0
0    0    0

115.343 61606.6 0
61606.6 249.879 0
0    0    0

143.124 61138.5 0
61138.5 95.3391 0
0    0    0

-87.5768 62055.6 0
62055.6 -27.224 0
0    0    0

88.4111 62005.7 0
62005.7 -59.982 0
0    0    0

29.0243 62487.1 0
62487.1 291.368 0
0    0    0

46.0844 60348.6 0
60348.6 -128.842 0
0    0    0

159.982 61161.9 0
61161.9 -17.7975 0
0    0    0

-66.016 60407.2 0
60407.2 -143.707 0
0    0    0

-206.29 60814.6 0
60814.6 -209.347 0
0    0    0

236.958 61568.2 0
61568.2 -82.2639 0
0    0    0

61.2369 62698.7 0
62698.7 235.763 0
0    0    0

-182.95 61427 0
61427 12.492 0
0    0    0

65.4054 61508 0
61508 -197.93 0
0    0    0

-376.295 62408.7 0
62408.7 -99.1396 0
0    0    0

69.5739 63609.4 0
63609.4 -154.206 0
0    0    0

-189.121 61317.3 0
61317.3 -334.767 0
0    0    0

216.982 61026.1 0
61026.1 234.397 0
0    0    0

219.582 60531.2 0
60531.2 177.76 0
0    0    0

-253.162 59742.4 0
59742.4 -273.407 0
0    0    0

193.413 58739.3 0
58739.3 -20.1612 0
0    0    0

88.076 61744.8 0
61744.8 169.939 0
0    0    0

125.519 59451.2 0
59451.2 143.257 0
0    0    0

-220.789 60479.5 0
60479.5 -125.88 0
0    0    0

-10.0436 60902.5 0
60902.5 -174.779 0
0    0    0

34.5391 60069.3 0
60069.3 196.308 0
0    0    0

135.711 62665.2 0
62665.2 128.48 0
0    0    0

306.136 62224.3 0
62224.3 215.226 0
0    0    0

45.9777 62239.5 0
62239.5 -325.986 0
0    0    0

-208.564 62834.4 0
62834.4 -185.748 0
0    0    0

189.807 62534.9 0
62534.9 316.823 0
0    0    0

-117.797 62392.5 0
62392.5 -108.095 0
0    0    0

-240.582 63447.2 0
63447.2 -166.921 0
0    0    0

104.414 62690.8 0
62690.8 -38.0463 0
0    0    0

71.604 62471.9 0
62471.9 174.996 0
0    0    0

-66.8135 61806.7 0
61806.7 -225.696 0
0    0    0

-181.353 60892.3 0
60892.3 -14.0086 0
0    0    0

-89.2329 61274.1 0
61274.1 126.517 0
0    0    0

157.179 61704.9 0
61704.9 292.253 0
0    0    0

0.770665 61804.2 0
61804.2 297.398 0
0    0    0

-108.072 62595.4 0
62595.4 -304.212 0
0    0    0

-37.7722 63146.5 0
63146.5 -270.522 0
0    0    0

152.889 61970.2 0
61970.2 174.626 0
0    0    0

-96.4432 62076.6 0
62076.6 118.235 0
0    0    0

-285.775 64973.1 0
64973.1 -433.765 0
0    0    0

183.806 62660.3 0
62660.3 194.728 0
0    0    0

-195.647 62002 0
62002 -369.958 0
0    0    0

-148.878 63062.6 0
63062.6 -193.498 0
0    0    0

82.2188 62144.4 0
62144.4 179.16 0
0    0    0

288.773 62842 0
62842 129.176 0
0    0    0

166.627 63298.2 0
63298.2 252.816 0
0    0    0

-243.619 63653.9 0
63653.9 -343.431 0
0    0    0

56.247 61941 0
61941 -231.264 0
0    0    0

-107.889 62579.3 0
62579.3 -60.1276 0
0    0    0

-139.898 60220.4 0
60220.4 -26.7361 0
0    0    0

-53.9794 60620.4 0
60620.4 147.239 0
0    0    0

48.8344 59808.1 0
59808.1 56.2893 0
0    0    0

102.788 59473.4 0
59473.4 34.397 0
0    0    0

233.195 61721.2 0
61721.2 336.102 0
0    0    0

206.701 60786.2 0
60786.2 265.861 0
0    0    0

-75.5461 62059.1 0
62059.1 -218.133 0
0    0    0

60.8216 61777.1 0
61777.1 142.028 0
0    0    0

19.1218 62087.5 0
62087.5 291.856 0
0    0    0

11.6436 60892.1 0
60892.1 -178.471 0
0    0    0

-74.8901 62034.5 0
62034.5 -179.23 0
0    0    0

-251.907 61463.7 0
61463.7 -393.201 0
0    0    0

-120.529 61672.6 0
61672.6 -233.825 0
0    0    0

-117.11 61942.7 0
61942.7 24.4773 0
0    0    0

-7.91891 60535.2 0
60535.2 127.641 0
0    0    0

-338.719 60950.7 0
60950.7 -195.6 0
0    0    0

160.192 61248.6 0
61248.6 135.612 0
0    0    0

240.489 60529.8 0
60529.8 88.7555 0
0    0    0

-231.696 60184.1 0
60184.1 -229.589 0
0    0    0

317.064 60688.4 0
60688.4 99.3103 0
0    0    0

-193.714 49830.3 0
49830.3 -19.6061 0
0    0    0

50.8983 50207.4 0
50207.4 42.6358 0
0    0    0

142.225 51995.2 0
51995.2 374.282 0
0    0    0

-107.134 51812.1 0
51812.1 -231.764 0
0    0    0

19.8908 51250.6 0
51250.6 -54.6559 0
0    0    0

-77.7466 51469.5 0
51469.5 -189.253 0
0    0    0

-164.486 41765 0
41765 -354.505 0
0    0    0

106.439 41977.6 0
41977.6 253.122 0
0    0    0

-141.846 40816.2 0
40816.2 -417.76 0
0    0    0

160.235 41640.4 0
41640.4 330.134 0
0    0    0

-224.275 39757.5 0
39757.5 -362.465 0
0    0    0

-96.6953 41363 0
41363 109.449 0
0    0    0

177.063 42651.1 0
42651.1 98.5492 0
0    0    0

96.8511 41135 0
41135 351.738 0
0    0    0

191.597 40060 0
40060 464.466 0
0    0    0

79.9915 41167.3 0
41167.3 -25.7577 0
0    0    0

-129.887 42150.2 0
42150.2 -180.959 0
0    0    0

81.8873 40882.4 0
40882.4 -71.9983 0
0    0    0

-15.8242 42772.7 0
42772.7 -177.76 0
0    0    0

47.1138 42046.2 0
42046.2 -232.049 0
0    0    0

93.1866 41370.5 0
41370.5 262.048 0
0    0    0

-220.272 41886.7 0
41886.7 -168.759 0
0    0    0

6.13261 40900.7 0
40900.7 160.871 0
0    0    0

159.775 40896.6 0
40896.6 22.7687 0
0    0    0

-205.992 41656.1 0
41656.1 -179.166 0
0    0    0

15.0963 42540.9 0
42540.9 -62.448 0
0    0    0

-41.8598 42481.9 0
42481.9 176.109 0
0    0    0

-157.392 43691.5 0
43691.5 -161.688 0
0    0    0

182.207 41497.7 0
41497.7 -19.185 0
0    0    0

259.38 41654.4 0
41654.4 245.555 0
0    0    0

-162.831 42759.8 0
42759.8 -106.934 0
0    0    0

-115.499 42664.9 0
42664.9 -4.89415 0
0    0    0

-115.109 42224.6 0
42224.6 -273.869 0
0    0    0

277.51 41850.4 0
41850.4 248.722 0
0    0    0

-286.993 41458.8 0
41458.8 -203.392 0
0    0    0

54.5027 41898.5 0
41898.5 154.293 0
0    0    0

-86.1768 42965.2 0
42965.2 -47.7935 0
0    0    0

70.2639 42247.4 0
42247.4 97.6261 0
0    0    0

324.831 41281.4 0
41281.4 262.119 0
0    0    0

154.479 42941.2 0
42941.2 242.423 0
0    0    0

-116.598 39626.4 0
39626.4 -196.012 0
0    0    0

-62.0071 42276.5 0
42276.5 62.0928 0
0    0    0

206.482 41258.6 0
41258.6 0.910165 0
0    0    0

-8.66366 41845 0
41845 -206.632 0
0    0    0

-75.8704 42296.9 0
42296.9 -104.201 0
0    0    0

197.564 42626 0
42626 130.611 0
0    0    0

63.2283 42752.5 0
42752.5 343.409 0
0    0    0

-9.60606 43099.4 0
43099.4 63.0344 0
0    0    0

-63.9257 41540.7 0
41540.7 73.4882 0
0    0    0

152.716 42499.2 0
42499.2 -124.037 0
0    0    0

23.9027 41929.1 0
41929.1 127.907 0
0    0    0

164.202 45084.1 0
45084.1 199.791 0
0    0    0

-234.603 42748 0
42748 -7.52538 0
0    0    0

-214.229 43592.5 0
43592.5 -124.557 0
0    0    0

134.843 44852 0
44852 27.3118 0
0    0    0

-58.6179 43403.8 0
43403.8 -228.036 0
0    0    0

17.174 43228.1 0
43228.1 233.401 0
0    0    0

-203.992 42406.5 0
42406.5 105.149 0
0    0    0

41.2952 42532.8 0
42532.8 -123.535 0
0    0    0

-162.146 42983.2 0
42983.2 -199.284 0
0    0    0

-39.1135 43564 0
43564 -136.284 0
0    0    0

129.637 43041.2 0
43041.2 193.232 0
0    0    0

62.9712 42724.5 0
42724.5 88.7843 0
0    0    0

67.0481 42384.3 0
42384.3 115.18 0
0    0    0

-252.436 38473.1 0
38473.1 65.0155 0
0    0    0

-181.349 39303.9 0
39303.9 -182.104 0
0    0    0

257.074 38877.5 0
38877.5 -58.0881 0
0    0    0

21.5435 40115 0
40115 179.395 0
0    0    0

-142.339 38817.4 0
38817.4 -227.205 0
0    0    0

291.981 39425.2 0
39425.2 320.396 0
0    0    0

-212.697 39145.3 0
39145.3 -168.495 0
0    0    0

40.8454 40730.4 0
40730.4 -77.8712 0
0    0    0

-197.215 40294 0
40294 -361.013 0
0    0    0

-30.1535 40185.8 0
40185.8 -197.328 0
0    0    0

-305.102 38181.4 0
38181.4 -164.817 0
0    0    0

-173.566 38665.7 0
38665.7 -271.116 0
0    0    0

239.651 38477.7 0
38477.7 407.494 0
0    0    0

204.241 38370.3 0
38370.3 261.073 0
0    0    0

95.7518 45238.2 0
45238.2 14.1853 0
0    0    0

-73.8561 44117.4 0
44117.4 -274.134 0
0    0    0

102.718 42769.5 0
42769.5 96.6206 0
0    0    0

-15.7254 43764.9 0
43764.9 196.099 0
0    0    0

24.5443 42953.4 0
42953.4 -111.39 0
0    0    0

37.8944 43218.5 0
43218.5 198.115 0
0    0    0

104.037 32357.6 0
32357.6 96.1021 0
0    0    0

200.752 31973.7 0
31973.7 178.311 0
0    0    0

-43.2841 29945.4 0
29945.4 -100.996 0
0    0    0

61.5676 28703.3 0
28703.3 189.523 0
0    0    0

-79.71 28551.2 0
28551.2 -185.99 0
0    0    0

-97.2635 29656.8 0
29656.8 -213.294 0
0    0    0

-223.992 30330.7 0
30330.7 -264.733 0
0    0    0

190.865 29853.6 0
29853.6 273.848 0
0    0    0

66.2904 30453.2 0
30453.2 59.8626 0
0    0    0

-209.601 31244.7 0
31244.7 -205.637 0
0    0    0

-286.705 30880 0
30880 -110.54 0
0    0    0

159.59 30557.4 0
30557.4 275.16 0
0    0    0

106.896 26558.9 0
26558.9 101.572 0
0    0    0

-101.347 27117.7 0
27117.7 -236.476 0
0    0    0

129.169 27363 0
27363 262.447 0
0    0    0

-75.0277 26688.9 0
26688.9 -175.065 0
0    0    0

25.8132 27107 0
27107 -43.8198 0
0    0    0

-241.503 28204.5 0
28204.5 -225.22 0
0    0    0

-206.645 27560.1 0
27560.1 -377.049 0
0    0    0

-132.706 30060.1 0
30060.1 -174.07 0
0    0    0

-196.973 30284.5 0
30284.5 -212.879 0
0    0    0

-95.9021 36520.6 0
36520.6 -223.772 0
0    0    0

248.418 36852.1 0
36852.1 168.532 0
0    0    0

36.3615 36150.2 0
36150.2 -280.179 0
0    0    0

130.24 36435.5 0
36435.5 206.491 0
0    0    0

-394.088 35332.9 0
35332.9 -78.3853 0
0    0    0

-80.8439 36043.2 0
36043.2 -188.636 0
0    0    0

-222.544 34657.9 0
34657.9 -71.8076 0
0    0    0

-266.502 46753.5 0
46753.5 -421.148 0
0    0    0

-65.9456 37032.4 0
37032.4 -153.873 0
0    0    0

-73.9469 47084.2 0
47084.2 118.367 0
0    0    0

-115.514 47253.4 0
47253.4 -463.606 0
0    0    0

-275.897 46779.2 0
46779.2 -287.853 0
0    0    0

222.057 46773.2 0
46773.2 -51.132 0
0    0    0

-119.474 47563.8 0
47563.8 -0.621373 0
0    0    0

177.075 46941 0
46941 -99.8818 0
0    0    0

-54.975 47961.3 0
47961.3 -258.581 0
0    0    0

-35.9267 46875 0
46875 -122.027 0
0    0    0

56.8307 47246.4 0
47246.4 121.304 0
0    0    0

-92.7702 50355.6 0
50355.6 -132.876 0
0    0    0

-264.063 51580.2 0
51580.2 -179.793 0
0    0    0

-75.7898 29151.9 0
29151.9 327.264 0
0    0    0

141.079 28515.3 0
28515.3 48.1911 0
0    0    0

-296.773 28847.3 0
28847.3 -272.825 0
0    0    0

16.2785 28991.5 0
28991.5 193.082 0
0    0    0

-215.869 28901.5 0
28901.5 -169.608 0
0    0    0

-162.593 28272.7 0
28272.7 -208.306 0
0    0    0

-130.728 28519.8 0
28519.8 -272.721 0
0    0    0

182.254 25251.5 0
25251.5 122.953 0
0    0    0

5.99406 28997.6 0
28997.6 -217.592 0
0    0    0

-70.9772 28469.6 0
28469.6 -299.63 0
0    0    0

-28.4661 24216.1 0
24216.1 319.668 0
0    0    0

46.5417 26431 0
26431 -18.7287 0
0    0    0

148.556 27422.4 0
27422.4 46.3723 0
0    0    0

-50.5096 27342.3 0
27342.3 -283.2 0
0    0    0

288.086 25855.2 0
25855.2 468.111 0
0    0    0

-204.534 26698 0
26698 -27.2415 0
0    0    0

-137.815 26016.5 0
26016.5 -80.6653 0
0    0    0

2.35316 25899.6 0
25899.6 271.016 0
0    0    0

206.926 26440.5 0
26440.5 68.0807 0
0    0    0

-110.776 27288.7 0
27288.7 -375.849 0
0    0    0

291.845 25133.9 0
25133.9 139.129 0
0    0    0

-179.891 26958.6 0
26958.6 -191.703 0
0    0    0

14.5924 12067.7 0
12067.7 -160.025 0
0    0    0

239.835 12994.7 0
12994.7 509.368 0
0    0    0

-223.333 14538.6 0
14538.6 -338.672 0
0    0    0

49.3571 14508.8 0
14508.8 41.2087 0
0    0    0

-180.832 8571.46 0
8571.46 -64.3466 0
0    0    0

-177.035 8129.31 0
8129.31 -299.315 0
0    0    0

111.64 14239.4 0
14239.4 198.343 0
0    0    0

-120.24 13487.5 0
13487.5 -280.561 0
0    0    0

28.1683 14844.3 0
14844.3 105.944 0
0    0    0

-87.9382 14463.3 0
14463.3 -205.189 0
0    0    0

78.4738 14904.4 0
14904.4 -72.9271 0
0    0    0

196.708 14183.6 0
14183.6 292.273 0
0    0    0

-88.7891 14904.4 0
14904.4 -207.174 0
0    0    0

-197.163 15237.1 0
15237.1 -52.4646 0
0    0    0

-46.0999 15200.5 0
15200.5 61.8446 0
0    0    0

-58.5484 14421.8 0
14421.8 120.156 0
0    0    0

-95.1398 13751.3 0
13751.3 104.559 0
0    0    0

-50.6678 13969 0
13969 -118.225 0
0    0    0

-157.902 14492.7 0
14492.7 -204.439 0
0    0    0

172.017 13768.1 0
13768.1 334.147 0
0    0    0

-0.717396 18281.9 0
18281.9 -278.216 0
0    0    0

-246.18 13991.4 0
13991.4 -481.887 0
0    0    0

151.618 18763.5 0
18763.5 -62.9066 0
0    0    0

176.533 19262.1 0
19262.1 62.2904 0
0    0    0

-217.407 18420 0
18420 64.1125 0
0    0    0

187.075 18192.3 0
18192.3 448.357 0
0    0    0

112.66 17576.2 0
17576.2 243.594 0
0    0    0

-81.1813 18500.8 0
18500.8 -295.095 0
0    0    0

148.554 18659.5 0
18659.5 -185.884 0
0    0    0

-141.776 17327.5 0
17327.5 -311.855 0
0    0    0

-125.351 17423 0
17423 -295.152 0
0    0    0

-192.515 16993 0
16993 -146.145 0
0    0    0

-22.2623 17458.6 0
17458.6 -311.983 0
0    0    0

-31.6734 17256.6 0
17256.6 69.9519 0
0    0    0

146.464 17157.3 0
17157.3 363.518 0
0    0    0

223.854 17119.3 0
17119.3 343.709 0
0    0    0

3.07636 18318.8 0
18318.8 -150.519 0
0    0    0

-1.33892 18294.8 0
18294.8 -208.084 0
0    0    0

-158.688 17781.5 0
17781.5 -553.594 0
0    0    0

-92.3949 17529.3 0
17529.3 -78.9114 0
0    0    0

70.1041 18065.3 0
18065.3 34.8652 0
0    0    0

11.2134 8595.96 0
8595.96 -196.652 0
0    0    0

259.764 9457.99 0
9457.99 99.0956 0
0    0    0

-5.58173 8235.38 0
8235.38 231.695 0
0    0    0

-101.362 7836.31 0
7836.31 -190.496 0
0    0    0

-61.9693 8631.92 0
8631.92 -112.935 0
0    0    0

24.161 7842.19 0
7842.19 -212.546 0
0    0    0

-233.925 8479.51 0
8479.51 -194.448 0
0    0    0

196.497 7655.77 0
7655.77 167.44 0
0    0    0

-230.965 9177.19 0
9177.19 122.648 0
0    0    0

-162.366 9842.78 0
9842.78 -378.792 0
0    0    0

79.6481 8715.1 0
8715.1 138.511 0
0    0    0

-83.3863 8745.48 0
8745.48 131.831 0
0    0    0

-85.887 7540.5 0
7540.5 -26.6068 0
0    0    0

-220.111 5563.86 0
5563.86 -329.992 0
0    0    0

135.799 8013.44 0
8013.44 107.097 0
0    0    0

-117.314 8928.96 0
8928.96 -151.388 0
0    0    0

-28.97 9583.49 0
9583.49 -91.0906 0
0    0    0

-294.695 8734.62 0
8734.62 -350.761 0
0    0    0

98.8507 8629.86 0
8629.86 85.3188 0
0    0    0

9.19042 7424.65 0
7424.65 -197.516 0
0    0    0

397.25 8425.48 0
8425.48 272.161 0
0    0    0

116.391 8021.43 0
8021.43 74.5621 0
0    0    0

-189.747 8798.12 0
8798.12 -258.324 0
0    0    0

-368.887 8146.49 0
8146.49 -290.93 0
0    0    0

-219.427 6361.55 0
6361.55 -94.04 0
0    0    0

-181.185 6728.78 0
6728.78 -72.0105 0
0    0    0

8.51377 7699.78 0
7699.78 228.57 0
0    0    0

-70.4891 7332.16 0
7332.16 -299.995 0
0    0    0

-89.0173 8763.43 0
8763.43 -110.605 0
0    0    0

291.558 9440.62 0
9440.62 258.797 0
0    0    0

-23.2138 10046.3 0
10046.3 -406.85 0
0    0    0

281.405 9593.8 0
9593.8 251.867 0
0    0    0

23.4207 6966.33 0
6966.33 162.231 0
0    0    0

299.197 7491.65 0
7491.65 418.654 0
0    0    0

267.628 5312.33 0
5312.33 155.267 0
0    0    0

-142.866 4888.04 0
4888.04 -61.2281 0
0    0    0

61.1889 6288.19 0
6288.19 252.572 0
0    0    0

-370.644 8363.27 0
8363.27 -236.129 0
0    0    0

43.8716 6164.44 0
6164.44 -77.6794 0
0    0    0

-206.549 6622.11 0
6622.11 -472.166 0
0    0    0

-269.892 7219.3 0
7219.3 -363.842 0
0    0    0

-146.403 7551.94 0
7551.94 38.0226 0
0    0    0

185.781 7412.34 0
7412.34 88.1266 0
0    0    0

366.789 8149.45 0
8149.45 79.2915 0
0    0    0

39.2398 8496.06 0
8496.06 50.6888 0
0    0    0

232.435 9084.37 0
9084.37 505.797 0
0    0    0

49.0769 9226.9 0
9226.9 335.062 0
0    0    0

300.884 10375.8 0
10375.8 234.262 0
0    0    0

-79.0942 8626.1 0
8626.1 102.414 0
0    0    0

-7.103 8969.79 0
8969.79 -89.6657 0
0    0    0

369.448 9712.58 0
9712.58 555.731 0
0    0    0

-42.841 9849.32 0
9849.32 70.8192 0
0    0    0

13.1549 6301.37 0
6301.37 259.361 0
0    0    0

-82.0898 5760.19 0
5760.19 -35.1813 0
0    0    0

127.153 6650.28 0
6650.28 -140.605 0
0    0    0

-16.653 6014.73 0
6014.73 -200.064 0
0    0    0

31.6213 7105.52 0
7105.52 -84.7629 0
0    0    0

34.1925 6310.62 0
6310.62 209.578 0
0    0    0

14.9416 7811.04 0
7811.04 -164.083 0
0    0    0

-340.491 9395.76 0
9395.76 -404.289 0
0    0    0

-0.908482 9773.75 0
9773.75 -271.881 0
0    0    0

-13.5415 10229.4 0
10229.4 244.243 0
0    0    0

-199.484 10635 0
10635 -208.194 0
0    0    0

-10.6299 6442.73 0
6442.73 211.318 0
0    0    0

-119.623 5736.38 0
5736.38 -97.1661 0
0    0    0

49.7559 6426.59 0
6426.59 284.986 0
0    0    0

14.72 5447.69 0
5447.69 6.30858 0
0    0    0

69.0921 7107.37 0
7107.37 314.397 0
0    0    0

-103.382 6093.7 0
6093.7 -44.3067 0
0    0    0

-109.836 6217.32 0
6217.32 -264.841 0
0    0    0

194.047 5912.05 0
5912.05 404.686 0
0    0    0

64.8025 5816.56 0
5816.56 87.6161 0
0    0    0

169.999 7597.72 0
7597.72 72.8566 0
0    0    0

-11.8559 6615.86 0
6615.86 183.585 0
0    0    0

331.022 8181.4 0
8181.4 485.775 0
0    0    0

179.825 9766.28 0
9766.28 158.855 0
0    0    0

-157.403 7341.33 0
7341.33 -67.4585 0
0    0    0

232.807 9162.55 0
9162.55 93.647 0
0    0    0

-230.47 9451.34 0
9451.34 -172.012 0
0    0    0

-250.776 8829.79 0
8829.79 -239.257 0
0    0    0

-15.7011 9548.68 0
9548.68 221.887 0
0    0    0

354.192 9068.37 0
9068.37 282.521 0
0    0    0

-51.3563 9886.89 0
9886.89 -358.032 0
0    0    0

-248.997 9218.86 0
9218.86 -47.9036 0
0    0    0

109.468 10177.1 0
10177.1 375.231 0
0    0    0

152.672 9993.28 0
9993.28 282.137 0
0    0    0

164.566 8764.21 0
8764.21 78.4684 0
0    0    0

261.686 8412.53 0
8412.53 127.084 0
0    0    0

-226.65 8929.11 0
8929.11 -45.8383 0
0    0    0

132.767 8113.54 0
8113.54 74.8897 0
0    0    0

-227.753 9602 0
9602 -124.929 0
0    0    0

127.7 9100.67 0
9100.67 52.6161 0
0    0    0

-34.3938 10166.2 0
10166.2 -154.533 0
0    0    0

-147.601 9647.3 0
9647.3 -49.6585 0
0    0    0

-291.234 8880.57 0
8880.57 -457.43 0
0    0    0

-89.7917 9313.82 0
9313.82 -14.9732 0
0    0    0

171.141 9436.52 0
9436.52 -14.4863 0
0    0    0

-6.85854 10260.2 0
10260.2 -57.1564 0
0    0    0

-61.1365 9911.44 0
9911.44 212.03 0
0    0    0

216.411 9804.8 0
9804.8 393.407 0
0    0    0

130.893 21955.3 0
21955.3 75.1087 0
0    0    0

-49.1846 22470.9 0
22470.9 -38.0224 0
0    0    0

-210.084 22870.1 0
22870.1 -203.225 0
0    0    0

-161.4 22049.5 0
22049.5 -112.375 0
0    0    0

-1.08608 22674.6 0
22674.6 -348.482 0
0    0    0

92.3312 22355.5 0
22355.5 -179.292 0
0    0    0

-29.1149 23133.3 0
23133.3 224.912 0
0    0    0

-214.976 23159.7 0
23159.7 201.452 0
0    0    0

160.485 14392.6 0
14392.6 -37.743 0
0    0    0

80.8342 14285.4 0
14285.4 137.447 0
0    0    0

-177.715 15304.7 0
15304.7 75.2537 0
0    0    0

-106.482 14601.9 0
14601.9 -421.605 0
0    0    0

125.27 15858.5 0
15858.5 160.148 0
0    0    0

51.4329 15576.5 0
15576.5 167.053 0
0    0    0

-45.8911 50674.6 0
50674.6 -195.52 0
0    0    0

56.6041 49914.3 0
49914.3 132.076 0
0    0    0

15.117 49793 0
49793 -342.842 0
0    0    0

-39.8068 50814.5 0
50814.5 173.403 0
0    0    0

-147.425 50480.3 0
50480.3 -312.256 0
0    0    0

81.6722 50225.1 0
50225.1 261.315 0
0    0    0

201.925 50184.5 0
50184.5 44.8567 0
0    0    0

113.387 48646.4 0
48646.4 -14.704 0
0    0    0

-163.887 49845.9 0
49845.9 17.5668 0
0    0    0

41.8388 49185.7 0
49185.7 -113.681 0
0    0    0

178.991 44166.6 0
44166.6 170.909 0
0    0    0

-168.375 43549.7 0
43549.7 -454.422 0
0    0    0

-20.595 44527.7 0
44527.7 -329.374 0
0    0    0

53.0605 43747.8 0
43747.8 123.808 0
0    0    0

84.9103 44938.1 0
44938.1 435.09 0
0    0    0

123.274 44755.7 0
44755.7 287.638 0
0    0    0

-186.669 42075.6 0
42075.6 -99.7828 0
0    0    0

14.9297 44263.1 0
44263.1 34.8359 0
0    0    0

-78.5055 43514.7 0
43514.7 -256.694 0
0    0    0

-433.33 44176.9 0
44176.9 -139.318 0
0    0    0

-118.216 43420.1 0
43420.1 -45.0924 0
0    0    0

215.593 40330.1 0
40330.1 230.252 0
0    0    0

104.026 41628.9 0
41628.9 283.221 0
0    0    0

197.398 35206.7 0
35206.7 123.064 0
0    0    0

-176.517 35784.4 0
35784.4 -75.6501 0
0    0    0

-207.463 38733.2 0
38733.2 105.682 0
0    0    0

326.27 38062.5 0
38062.5 168.002 0
0    0    0

145.438 36024.2 0
36024.2 153.267 0
0    0    0

-56.584 35570.7 0
35570.7 -333.531 0
0    0    0

-60.7117 36783 0
36783 -198.59 0
0    0    0

224.035 34083.8 0
34083.8 129.973 0
0    0    0

23.8831 36800.9 0
36800.9 -261.227 0
0    0    0

-130.434 36279 0
36279 -327.031 0
0    0    0

203.406 34752.3 0
34752.3 320.014 0
0    0    0

60.0285 35721.9 0
35721.9 159.049 0
0    0    0

-326.604 36111.1 0
36111.1 -12.956 0
0    0    0

-130.289 35481.1 0
35481.1 -71.422 0
0    0    0

16.734 35302.8 0
35302.8 -241.981 0
0    0    0

-88.4153 35013 0
35013 -180.93 0
0    0    0

239.155 32701.9 0
32701.9 134.101 0
0    0    0

115.581 35035.2 0
35035.2 35.3322 0
0    0    0

-151.458 35304.8 0
35304.8 -33.1226 0
0    0    0

117.698 34627.2 0
34627.2 -95.1712 0
0    0    0

9.86243 34141.8 0
34141.8 281.441 0
0    0    0

-138.528 33558.9 0
33558.9 -59.369 0
0    0    0

-33.6173 34371.5 0
34371.5 108.219 0
0    0    0

5.93378 34473.3 0
34473.3 -175.408 0
0    0    0

95.1478 33586.6 0
33586.6 -40.0652 0
0    0    0

185.962 34001.1 0
34001.1 17.2124 0
0    0    0

-174.984 33803.2 0
33803.2 -187.965 0
0    0    0

-140.408 32905.3 0
32905.3 -60.175 0
0    0    0

107.361 33675.5 0
33675.5 1.29391 0
0    0    0

-177.572 33176.1 0
33176.1 -76.1024 0
0    0    0

-33.9977 33546.9 0
33546.9 96.8303 0
0    0    0

-101.188 34040.8 0
34040.8 78.2497 0
0    0    0

199.129 33338.7 0
33338.7 284.185 0
0    0    0

-127.168 34677.9 0
34677.9 70.6222 0
0    0    0

-240.588 33852.9 0
33852.9 -103.109 0
0    0    0

106.441 35356.2 0
35356.2 315.881 0
0    0    0

-161.766 34833.2 0
34833.2 -69.3282 0
0    0    0

-56.3463 34182.3 0
34182.3 -24.1484 0
0    0    0

-4.83353 34871.2 0
34871.2 -50.0308 0
0    0    0

-229.067 34514.2 0
34514.2 -265.187 0
0    0    0

-49.8578 30012.3 0
30012.3 16.7091 0
0    0    0

-100.935 30235.1 0
30235.1 -2.38181 0
0    0    0

117.402 75058.5 0
75058.5 389.734 0
0    0    0

-56.9987 75093.2 0
75093.2 223.589 0
0    0    0

-178.925 75864.2 0
75864.2 -71.5733 0
0    0    0

-116.932 75808.7 0
75808.7 -197.545 0
0    0    0

221.18 75648.8 0
75648.8 412.434 0
0    0    0

96.5885 75412 0
75412 220.964 0
0    0    0

-7.38875 76027.7 0
76027.7 58.2503 0
0    0    0

67.9666 75190.5 0
75190.5 288.762 0
0    0    0

-47.0474 74917.6 0
74917.6 -176.059 0
0    0    0

-26.6237 75441.4 0
75441.4 -11.7142 0
0    0    0

-26.9779 75882 0
75882 -227.72 0
0    0    0

-45.3929 75982.2 0
75982.2 -192.883 0
0    0    0

-99.4135 75028.5 0
75028.5 188.631 0
0    0    0

-141.934 74768.1 0
74768.1 -392.022 0
0    0    0

-154.556 72162.2 0
72162.2 42.6602 0
0    0    0

182.196 71669.7 0
71669.7 23.0047 0
0    0    0

-90.6545 72136.5 0
72136.5 33.1001 0
0    0    0

-240.907 72389.8 0
72389.8 -71.6956 0
0    0    0

-258.153 75028.9 0
75028.9 -210 0
0    0    0

-171.837 73212.4 0
73212.4 148.865 0
0    0    0

91.0141 78559.5 0
78559.5 -10.3759 0
0    0    0

-25.1374 76658.8 0
76658.8 -53.3813 0
0    0    0

182.131 78099.5 0
78099.5 64.4015 0
0    0    0

-312.069 76240.5 0
76240.5 -495.492 0
0    0    0

245.65 77339.5 0
77339.5 147.202 0
0    0    0

-341.686 76160.3 0
76160.3 -305.024 0
0    0    0

225.093 77210.4 0
77210.4 330.447 0
0    0    0

-40.349 76903.3 0
76903.3 173.769 0
0    0    0

-180.82 76962.9 0
76962.9 -47.3202 0
0    0    0

363.501 75313.2 0
75313.2 402.968 0
0    0    0

-72.0783 76368.2 0
76368.2 -113.614 0
0    0    0

-104.842 75355.6 0
75355.6 -72.9341 0
0    0    0

51.2249 76905 0
76905 -109.139 0
0    0    0

-133.047 77389.4 0
77389.4 -266.206 0
0    0    0

-322.436 75686.4 0
75686.4 -298.232 0
0    0    0

247.74 75924.2 0
75924.2 258.834 0
0    0    0

284.373 76520.5 0
76520.5 547.782 0
0    0    0

158.167 76162.5 0
76162.5 -43.9664 0
0    0    0

-15.8862 75516.8 0
75516.8 -311.332 0
0    0    0

112.387 76002.8 0
76002.8 23.2831 0
0    0    0

30.9635 77208.4 0
77208.4 198.291 0
0    0    0

-210.973 78119 0
78119 -7.83309 0
0    0    0

149.381 76721 0
76721 255.903 0
0    0    0

-34.0702 76901.8 0
76901.8 -0.842227 0
0    0    0

7.48357 76516 0
76516 -353.699 0
0    0    0

-62.1974 76661.3 0
76661.3 89.8997 0
0    0    0

-96.1898 77524.6 0
77524.6 25.6539 0
0    0    0

-339.814 78885.2 0
78885.2 -347.888 0
0    0    0

280.44 77802.8 0
77802.8 4.98294 0
0    0    0

187.308 78491.7 0
78491.7 101.684 0
0    0    0

91.4978 77410.2 0
77410.2 263.872 0
0    0    0

238.069 77825 0
77825 221.383 0
0    0    0

215.687 78155.4 0
78155.4 -83.1387 0
0    0    0

-225.871 78721.3 0
78721.3 -296.578 0
0    0    0

249.455 78851.9 0
78851.9 243.474 0
0    0    0

-424.213 81102.3 0
81102.3 -219.945 0
0    0    0

-3.5963 78115.8 0
78115.8 -117.563 0
0    0    0

-247.457 77590.8 0
77590.8 -360.053 0
0    0    0

-68.353 75290.5 0
75290.5 -354.702 0
0    0    0

95.4135 75550.2 0
75550.2 367.443 0
0    0    0

208.222 67995.1 0
67995.1 -17.1203 0
0    0    0

-263.805 68089.9 0
68089.9 -78.0819 0
0    0    0

-72.7108 68741.3 0
68741.3 11.4981 0
0    0    0

304.942 69170.2 0
69170.2 131.69 0
0    0    0

-22.7493 69916 0
69916 -1.24653 0
0    0    0

178.698 70419.3 0
70419.3 432.479 0
0    0    0

-166.223 72298.7 0
72298.7 -346.394 0
0    0    0

149.914 72189 0
72189 121.567 0
0    0    0

195.927 71950.6 0
71950.6 312.142 0
0    0    0

266.593 71408.6 0
71408.6 249.024 0
0    0    0

-118.877 72274.2 0
72274.2 -198.754 0
0    0    0

-138.534 71737.3 0
71737.3 -228.635 0
0    0    0

-282.766 72707.5 0
72707.5 -392.854 0
0    0    0

-80.5346 73438.5 0
73438.5 49.5839 0
0    0    0

-227.834 72373.4 0
72373.4 -117.969 0
0    0    0

238.856 72959.4 0
72959.4 269.588 0
0    0    0

267.546 50198.9 0
50198.9 16.46 0
0    0    0

-184.67 51338.7 0
51338.7 27.6589 0
0    0    0

122.029 50344.3 0
50344.3 31.6721 0
0    0    0

-177.342 51468.4 0
51468.4 -258.987 0
0    0    0

-355.76 51774.6 0
51774.6 -112.724 0
0    0    0

132.661 52253.9 0
52253.9 142.044 0
0    0    0

199.497 51767.6 0
51767.6 165.875 0
0    0    0

194.3 50775.7 0
50775.7 -38.3934 0
0    0    0

4.19937 64652.9 0
64652.9 403.794 0
0    0    0

-140.378 62250.8 0
62250.8 54.3771 0
0    0    0

70.2934 61904.2 0
61904.2 246.653 0
0    0    0

-137.433 62802.6 0
62802.6 -291.599 0
0    0    0

-114.394 62799.3 0
62799.3 89.2558 0
0    0    0

91.2461 63464.4 0
63464.4 242.599 0
0    0    0

20.1693 61777.8 0
61777.8 165.277 0
0    0    0

3.02314 62284 0
62284 166.789 0
0    0    0

-126.076 60096 0
60096 -125.172 0
0    0    0

-28.1768 61309.6 0
61309.6 -103.48 0
0    0    0

-109.741 61765.3 0
61765.3 66.0077 0
0    0    0

28.1488 61839.2 0
61839.2 -109.837 0
0    0    0

268.578 63862.5 0
63862.5 188.16 0
0    0    0

-209.815 63055 0
63055 -262.344 0
0    0    0

-2.09541 64706.9 0
64706.9 93.9916 0
0    0    0

227.504 63008.5 0
63008.5 243.685 0
0    0    0

68.9633 63406.3 0
63406.3 -57.2263 0
0    0    0

-253.725 64453.2 0
64453.2 -200.577 0
0    0    0

-226.734 64078.2 0
64078.2 -80.4472 0
0    0    0

10.6865 63327.5 0
63327.5 280.779 0
0    0    0

-268.248 64365.5 0
64365.5 -157.877 0
0    0    0

73.5045 64318.4 0
64318.4 -50.6471 0
0    0    0

-169.555 63228.2 0
63228.2 -45.1547 0
0    0    0

-174.252 63469.7 0
63469.7 -190.506 0
0    0    0

340.342 64077.1 0
64077.1 204.092 0
0    0    0

100.251 64787.2 0
64787.2 -42.5284 0
0    0    0

-293.433 63850.5 0
63850.5 -168.028 0
0    0    0

55.2521 63548.8 0
63548.8 266.42 0
0    0    0

-132.437 62634.4 0
62634.4 106.042 0
0    0    0

10.6246 62089.2 0
62089.2 -302.187 0
0    0    0

63.0854 63109.8 0
63109.8 466.479 0
0    0    0

37.1953 63548.9 0
63548.9 -259.792 0
0    0    0

107.708 62298.9 0
62298.9 -67.2188 0
0    0    0

-259.51 63054.3 0
63054.3 -204.483 0
0    0    0

-95.6422 63661.3 0
63661.3 -73.6685 0
0    0    0

161.295 62908.1 0
62908.1 73.0955 0
0    0    0

-242.974 63223.2 0
63223.2 -556.325 0
0    0    0

182.181 62770.7 0
62770.7 93.8429 0
0    0    0

186.746 40755.3 0
40755.3 -119.557 0
0    0    0

-134.589 42265.6 0
42265.6 -219.182 0
0    0    0

87.7566 42049.2 0
42049.2 319.349 0
0    0    0

115.479 41021.2 0
41021.2 193.76 0
0    0    0

56.1127 38276.3 0
38276.3 115.35 0
0    0    0

-318.772 39067.8 0
39067.8 -497.679 0
0    0    0

-53.0719 39116 0
39116 18.7059 0
0    0    0

167.782 38761.1 0
38761.1 231.286 0
0    0    0

386.073 39034.2 0
39034.2 198.032 0
0    0    0

-145.487 40076.1 0
40076.1 -39.6734 0
0    0    0

-105.149 40447.6 0
40447.6 -147.557 0
0    0    0

167.388 39309.1 0
39309.1 228.165 0
0    0    0

-62.8887 38788.2 0
38788.2 -158.304 0
0    0    0

97.3622 39445.1 0
39445.1 -152.549 0
0    0    0

-92.3226 39898.2 0
39898.2 52.4762 0
0    0    0

-7.03153 40338.5 0
40338.5 -144.692 0
0    0    0

65.8595 39834.2 0
39834.2 87.7804 0
0    0    0

253.956 41041.7 0
41041.7 241.298 0
0    0    0

-180.977 40843 0
40843 -274.043 0
0    0    0

-102.003 40828.8 0
40828.8 -59.0828 0
0    0    0

-147.139 41012.8 0
41012.8 108.359 0
0    0    0

-26.9984 40453.8 0
40453.8 146.777 0
0    0    0

-87.5986 39593.3 0
39593.3 189.072 0
0    0    0

97.3077 39945.9 0
39945.9 298.373 0
0    0    0

-161.702 41312.1 0
41312.1 -145.251 0
0    0    0

145.106 40275.3 0
40275.3 135.323 0
0    0    0

-224.763 41295.9 0
41295.9 8.79608 0
0    0    0

75.0138 40565.5 0
40565.5 259.417 0
0    0    0

-129.195 40326 0
40326 -242.922 0
0    0    0

44.9324 39598.5 0
39598.5 54.2586 0
0    0    0

49.9574 39614.8 0
39614.8 204.331 0
0    0    0

93.6308 40051.5 0
40051.5 175.085 0
0    0    0

222.835 29820.8 0
29820.8 231.45 0
0    0    0

-43.2841 29476.6 0
29476.6 -100.996 0
0    0    0

-195.743 29656.2 0
29656.2 -323.582 0
0    0    0

-309.718 37135.7 0
37135.7 -178.263 0
0    0    0

-128.141 31467.8 0
31467.8 -173.014 0
0    0    0

82.6279 36383.4 0
36383.4 136.749 0
0    0    0

-80.6405 44782.4 0
44782.4 -91.7568 0
0    0    0

-280.083 46440.4 0
46440.4 -349.873 0
0    0    0

308.839 48249.9 0
48249.9 147.468 0
0    0    0

-264.034 48544.7 0
48544.7 -278.574 0
0    0    0

-31.9101 48519.3 0
48519.3 -152.9 0
0    0    0

130.223 49042.7 0
49042.7 -6.30109 0
0    0    0

322.261 47715.9 0
47715.9 183.707 0
0    0    0

-164.174 47570 0
47570 -201.082 0
0    0    0

35.6939 47240.6 0
47240.6 171.167 0
0    0    0

-77.5811 47979.8 0
47979.8 -200.013 0
0    0    0

197.935 47692.5 0
47692.5 226.716 0
0    0    0

34.4857 47539.4 0
47539.4 -169.081 0
0    0    0

13.8062 28376.8 0
28376.8 -234.191 0
0    0    0

160.488 26877.6 0
26877.6 -20.5206 0
0    0    0

107.36 27761.3 0
27761.3 -1.04745 0
0    0    0

-191.586 28126 0
28126 111.737 0
0    0    0

72.9528 26402.8 0
26402.8 44.8217 0
0    0    0

200.572 27018.4 0
27018.4 155.675 0
0    0    0

-112.846 27630.5 0
27630.5 -133.056 0
0    0    0

172.26 26149.8 0
26149.8 -69.1385 0
0    0    0

-51.2325 27930.3 0
27930.3 -108.653 0
0    0    0

231.643 26753 0
26753 250.282 0
0    0    0

221.013 27035 0
27035 80.9461 0
0    0    0

-3.30563 27669.7 0
27669.7 152.274 0
0    0    0

-2.89237 26651.1 0
26651.1 273.557 0
0    0    0

181.393 27215.2 0
27215.2 -7.09494 0
0    0    0

202.945 26822.6 0
26822.6 319.923 0
0    0    0

-123.379 26224.9 0
26224.9 -105.716 0
0    0    0

164.967 26659.2 0
26659.2 -105.782 0
0    0    0

108.953 26311.3 0
26311.3 92.2839 0
0    0    0

-115.693 26650.5 0
26650.5 169.137 0
0    0    0

-168.513 25853.3 0
25853.3 94.3488 0
0    0    0

188.354 26533.2 0
26533.2 -139.372 0
0    0    0

217.324 27027.6 0
27027.6 136.856 0
0    0    0

-56.5242 13204.3 0
13204.3 -151.479 0
0    0    0

-231.639 12611.3 0
12611.3 -363.358 0
0    0    0

213.661 12285.6 0
12285.6 117.679 0
0    0    0

-86.5355 12176.2 0
12176.2 -261.144 0
0    0    0

-60.1107 11343.4 0
11343.4 169.754 0
0    0    0

-50.6975 10806.7 0
10806.7 -289.065 0
0    0    0

-109.767 10849.4 0
10849.4 -57.1253 0
0    0    0

70.9059 10486.6 0
10486.6 238.019 0
0    0    0

82.0287 12926.5 0
12926.5 338.401 0
0    0    0

107.12 12434 0
12434 123.27 0
0    0    0

107.042 13112.7 0
13112.7 167.203 0
0    0    0

-112.345 13941.1 0
13941.1 -229.299 0
0    0    0

-225.329 12427.8 0
12427.8 -250.31 0
0    0    0

-118.038 12398.4 0
12398.4 -246.641 0
0    0    0

172.797 14178.9 0
14178.9 320.613 0
0    0    0

217.982 14453.8 0
14453.8 278.861 0
0    0    0

-288.455 13315.2 0
13315.2 -540.205 0
0    0    0

262.148 13527 0
13527 286.582 0
0    0    0

29.1438 13467.8 0
13467.8 -229.397 0
0    0    0

138.208 13418.7 0
13418.7 -141.611 0
0    0    0

-211.488 14665.9 0
14665.9 -203.495 0
0    0    0

-169.457 14803.2 0
14803.2 -369.929 0
0    0    0

-215.575 14238.7 0
14238.7 -298.859 0
0    0    0

-92.4639 14572.5 0
14572.5 -130.407 0
0    0    0

12.5275 15050.7 0
15050.7 229.383 0
0    0    0

-65.5358 15337.1 0
15337.1 -110.891 0
0    0    0

125.786 14838.9 0
14838.9 284.272 0
0    0    0

3.07916 15144.4 0
15144.4 -164.064 0
0    0    0

-120.55 16099.5 0
16099.5 -92.8296 0
0    0    0

55.5724 15392.1 0
15392.1 59.1156 0
0    0    0

8.29512 15424.6 0
15424.6 73.5838 0
0    0    0

94.0614 15435.8 0
15435.8 206.358 0
0    0    0

-198.763 16326.8 0
16326.8 -74.6834 0
0    0    0

-54.8828 15616.7 0
15616.7 220.16 0
0    0    0

242.909 14216.5 0
14216.5 405.737 0
0    0    0

131.745 14859.2 0
14859.2 -46.9035 0
0    0    0

-119.574 13962.2 0
13962.2 -299.704 0
0    0    0

-101.376 14248.7 0
14248.7 82.9007 0
0    0    0

-219.994 15350 0
15350 -239.189 0
0    0    0

13.5581 16057.7 0
16057.7 -252.223 0
0    0    0

-63.7357 14854.5 0
14854.5 -306.244 0
0    0    0

-104.942 14409.4 0
14409.4 -105.044 0
0    0    0

-178.888 15585.5 0
15585.5 -505.376 0
0    0    0

-62.6439 15913.8 0
15913.8 67.348 0
0    0    0

-71.0358 14808.6 0
14808.6 -193.56 0
0    0    0

-203.612 14593.9 0
14593.9 -256.948 0
0    0    0

261.906 15174.4 0
15174.4 156.185 0
0    0    0

102.204 15692.1 0
15692.1 -65.6959 0
0    0    0

-145.593 15397.5 0
15397.5 244.375 0
0    0    0

-160.484 15790.4 0
15790.4 -46.4597 0
0    0    0

-163.195 15992.8 0
15992.8 -22.1327 0
0    0    0

-168.816 15727.3 0
15727.3 -365.261 0
0    0    0

-183.492 15282.4 0
15282.4 -215.35 0
0    0    0

-216.601 15027.7 0
15027.7 2.67837 0
0    0    0

-151.974 15547.2 0
15547.2 126.544 0
0    0    0

-231.191 14871 0
14871 -314.929 0
0    0    0

190.832 14435.4 0
14435.4 152.166 0
0    0    0

-158.12 12533.7 0
12533.7 88.3223 0
0    0    0

276.626 13661.4 0
13661.4 129.405 0
0    0    0

69.1858 15091.9 0
15091.9 11.9606 0
0    0    0

164.728 14550.7 0
14550.7 348.127 0
0    0    0

121.688 14029.7 0
14029.7 -69.6811 0
0    0    0

-105.659 14251.8 0
14251.8 -312.319 0
0    0    0

91.1345 14586.4 0
14586.4 403.571 0
0    0    0

222.199 14108.8 0
14108.8 30.2638 0
0    0    0

320.582 14809 0
14809 344.675 0
0    0    0

102.34 15231 0
15231 -116.569 0
0    0    0

-45.5658 14488.8 0
14488.8 58.3543 0
0    0    0

-56.7202 15135.3 0
15135.3 290.084 0
0    0    0

71.6884 14687.9 0
14687.9 -105.065 0
0    0    0

74.6901 14065 0
14065 388.021 0
0    0    0

82.0077 13635.8 0
13635.8 -103.131 0
0    0    0

-191.981 12673.6 0
12673.6 105.992 0
0    0    0

-17.2495 14012.4 0
14012.4 -211.143 0
0    0    0

-123.298 14183.1 0
14183.1 -404.534 0
0    0    0

267.476 13402.2 0
13402.2 292.6 0
0    0    0

-132.186 13733.1 0
13733.1 -335.906 0
0    0    0

100.259 13983.8 0
13983.8 327.554 0
0    0    0

-67.3534 13222 0
13222 -119.312 0
0    0    0

-126.275 12804 0
12804 5.69565 0
0    0    0

-149.802 13810 0
13810 65.6829 0
0    0    0

-18.8469 13262.4 0
13262.4 -38.5593 0
0    0    0

28.8066 12895.7 0
12895.7 122.829 0
0    0    0

-114.35 13466.3 0
13466.3 104.046 0
0    0    0

-103.788 8630.76 0
8630.76 100.809 0
0    0    0

-190.555 6974.63 0
6974.63 -73.4916 0
0    0    0

-71.8366 13671.4 0
13671.4 143.724 0
0    0    0

165.861 13898 0
13898 -33.778 0
0    0    0

-56.081 12533.4 0
12533.4 -130.856 0
0    0    0

139.071 13044.2 0
13044.2 -109.069 0
0    0    0

138.696 13557.8 0
13557.8 156.363 0
0    0    0

-162.418 13399.6 0
13399.6 -28.8668 0
0    0    0

-161.441 14084.2 0
14084.2 -33.7342 0
0    0    0

-78.4602 13319 0
13319 40.4325 0
0    0    0

-22.751 13002.1 0
13002.1 -53.0858 0
0    0    0

-17.0318 12127.7 0
12127.7 -279.221 0
0    0    0

-62.1682 13289.6 0
13289.6 -124.944 0
0    0    0

-168.507 12675.4 0
12675.4 -202.782 0
0    0    0

-192.39 16848.9 0
16848.9 -63.7054 0
0    0    0

-97.7771 17775.4 0
17775.4 -228.147 0
0    0    0

56.2262 17922.3 0
17922.3 176.921 0
0    0    0

-82.6174 17585.4 0
17585.4 -389.742 0
0    0    0

30.4555 18170.1 0
18170.1 382.982 0
0    0    0

154.909 18708.4 0
18708.4 -27.0862 0
0    0    0

145.268 17318.7 0
17318.7 162.697 0
0    0    0

-74.4712 18576.8 0
18576.8 53.9894 0
0    0    0

-47.5985 17711.5 0
17711.5 90.7696 0
0    0    0

-80.2109 18135.4 0
18135.4 121.311 0
0    0    0

134.326 19019.6 0
19019.6 200.876 0
0    0    0

-137.076 18235.6 0
18235.6 -319.845 0
0    0    0

115.526 19467.3 0
19467.3 178.073 0
0    0    0

-46.5705 18940.5 0
18940.5 -50.3419 0
0    0    0

-49.1228 19343 0
19343 -90.9378 0
0    0    0

78.1571 7558.35 0
7558.35 256.578 0
0    0    0

136.259 9635.97 0
9635.97 156.555 0
0    0    0

-31.1114 5781.07 0
5781.07 -5.1296 0
0    0    0

-90.2018 4642.19 0
4642.19 36.9128 0
0    0    0

54.3895 4976.98 0
4976.98 -247.035 0
0    0    0

-42.4321 6678.41 0
6678.41 -18.1852 0
0    0    0

-50.8096 6756.34 0
6756.34 -220.698 0
0    0    0

71.2025 6178.16 0
6178.16 -84.5988 0
0    0    0

57.0627 7213.77 0
7213.77 191.185 0
0    0    0

-267.228 7014.17 0
7014.17 -190.462 0
0    0    0

301.044 7207.96 0
7207.96 256.191 0
0    0    0

-389.587 7828.82 0
7828.82 -476.297 0
0    0    0

130.561 7060.04 0
7060.04 151.072 0
0    0    0

-40.5244 15616.7 0
15616.7 -168.462 0
0    0    0

192.431 7504.56 0
7504.56 242.625 0
0    0    0

-3.26106 15552.5 0
15552.5 -327.757 0
0    0    0

343.779 42924.6 0
42924.6 288.994 0
0    0    0

-181.708 41359 0
41359 -320.37 0
0    0    0

-268.094 42045.4 0
42045.4 -186.868 0
0    0    0

217.223 41652 0
41652 225.078 0
0    0    0

-90.4588 41550.6 0
41550.6 -261.35 0
0    0    0

-162.956 40795.6 0
40795.6 -370.241 0
0    0    0

93.2234 38368.5 0
38368.5 480.429 0
0    0    0

179.599 40114.4 0
40114.4 15.7879 0
0    0    0

221.643 41708.2 0
41708.2 163.475 0
0    0    0

90.7176 40534.7 0
40534.7 58.8512 0
0    0    0

8.38517 40513.9 0
40513.9 210.225 0
0    0    0

-99.0109 38915 0
38915 -42.4332 0
0    0    0

162.008 41046.3 0
41046.3 421.692 0
0    0    0

170.752 40475 0
40475 150.779 0
0    0    0

-102.798 40832.6 0
40832.6 -125.295 0
0    0    0

-193.764 40324.4 0
40324.4 -230.522 0
0    0    0

182.9 39655 0
39655 170.455 0
0    0    0

90.5633 39747.5 0
39747.5 -68.8251 0
0    0    0

-220.252 37776 0
37776 179.333 0
0    0    0

251.395 41769.6 0
41769.6 347.917 0
0    0    0

58.3027 36888.5 0
36888.5 -31.0931 0
0    0    0

51.3886 36365 0
36365 22.0237 0
0    0    0

112.533 36799 0
36799 429.41 0
0    0    0

142.876 35964.9 0
35964.9 240.399 0
0    0    0

-113.521 36141.5 0
36141.5 -48.6519 0
0    0    0

210.303 36546.1 0
36546.1 -4.53328 0
0    0    0

-138.136 36404.1 0
36404.1 57.8937 0
0    0    0

-97.4808 35654 0
35654 -81.9909 0
0    0    0

227.246 34639.1 0
34639.1 453.15 0
0    0    0

175.328 35796.5 0
35796.5 181.018 0
0    0    0

206.965 34906.9 0
34906.9 388.25 0
0    0    0

-99.6798 35076 0
35076 -42.7199 0
0    0    0

33.5302 35016.5 0
35016.5 -175.148 0
0    0    0

-134.47 34433.8 0
34433.8 -57.6299 0
0    0    0

-89.2279 35086.7 0
35086.7 -199.21 0
0    0    0

-91.2615 75234.9 0
75234.9 -254.659 0
0    0    0

-113.202 34456.1 0
34456.1 -229.981 0
0    0    0

-33.6392 75692 0
75692 -278.921 0
0    0    0

151.34 77628.4 0
77628.4 271.922 0
0    0    0

-156.031 77205.2 0
77205.2 -8.16123 0
0    0    0

149.538 75488.3 0
75488.3 156.153 0
0    0    0

130.285 76064.6 0
76064.6 43.3529 0
0    0    0

45.7848 76695.7 0
76695.7 108.84 0
0    0    0

144.509 77038.8 0
77038.8 94.7863 0
0    0    0

-202.581 72931.9 0
72931.9 11.4476 0
0    0    0

-159.503 72218 0
72218 -177.753 0
0    0    0

-105.603 71585.3 0
71585.3 -81.7231 0
0    0    0

276.677 70301.6 0
70301.6 156.213 0
0    0    0

-191.606 69904.8 0
69904.8 -281.206 0
0    0    0

176.364 69294.7 0
69294.7 204.333 0
0    0    0

128.582 69334.4 0
69334.4 58.9784 0
0    0    0

134.023 70480.6 0
70480.6 -95.9839 0
0    0    0

-146.926 70576.2 0
70576.2 -275.386 0
0    0    0

308.431 70035.7 0
70035.7 378.338 0
0    0    0

-115.665 71771.2 0
71771.2 -215.469 0
0    0    0

-136.522 71153.4 0
71153.4 60.6359 0
0    0    0

-139.808 70715.5 0
70715.5 -260.14 0
0    0    0

89.782 70953.6 0
70953.6 282.166 0
0    0    0

-1.86085 71167.7 0
71167.7 -281.545 0
0    0    0

-312.889 70519.4 0
70519.4 -358.631 0
0    0    0

-172.056 71477.6 0
71477.6 127.927 0
0    0    0

124.701 71242 0
71242 217.232 0
0    0    0

49.5756 71335.5 0
71335.5 -57.6581 0
0    0    0

239.883 70752.7 0
70752.7 74.4874 0
0    0    0

-99.2333 70805.6 0
70805.6 93.4262 0
0    0    0

-20.5187 70632.5 0
70632.5 76.5612 0
0    0    0

54.5884 71075.6 0
71075.6 49.3054 0
0    0    0

-41.7397 70490.9 0
70490.9 124.457 0
0    0    0

-46.3583 70126.1 0
70126.1 -219.873 0
0    0    0

-162.561 70262.9 0
70262.9 -297.597 0
0    0    0

-64.7458 70113.9 0
70113.9 -36.086 0
0    0    0

-30.5908 68952.4 0
68952.4 119.268 0
0    0    0

130.079 68980.4 0
68980.4 -35.2645 0
0    0    0

124.943 69663.7 0
69663.7 63.118 0
0    0    0

-24.5689 70302 0
70302 -209.025 0
0    0    0

308.603 69592.9 0
69592.9 271.112 0
0    0    0

159.832 71838.7 0
71838.7 42.9535 0
0    0    0

-87.5457 71743.3 0
71743.3 69.7105 0
0    0    0

-47.9581 74014 0
74014 -14.6167 0
0    0    0

-129.131 74162 0
74162 172.109 0
0    0    0

-195.401 76044.4 0
76044.4 26.3696 0
0    0    0

-166.129 73008 0
73008 6.58131 0
0    0    0

-196.056 75516.2 0
75516.2 -299.827 0
0    0    0

179.197 74609.8 0
74609.8 329.701 0
0    0    0

-68.9405 74474.4 0
74474.4 -139.129 0
0    0    0

140.761 74756.6 0
74756.6 277.782 0
0    0    0

292.719 74009.2 0
74009.2 276.705 0
0    0    0

60.1081 73906 0
73906 -138.249 0
0    0    0

162.835 75553.7 0
75553.7 -32.1829 0
0    0    0

-139.458 72798.3 0
72798.3 210.772 0
0    0    0

46.2063 74468.7 0
74468.7 259.151 0
0    0    0

-102.723 73645.4 0
73645.4 211.384 0
0    0    0

82.4853 73308.1 0
73308.1 -22.7656 0
0    0    0

203.569 73211.2 0
73211.2 -84.9583 0
0    0    0

-21.7027 73263.5 0
73263.5 180.869 0
0    0    0

79.928 72811.5 0
72811.5 -222.148 0
0    0    0

-115.044 72736.8 0
72736.8 -246.489 0
0    0    0

-232.619 73200.5 0
73200.5 -148.443 0
0    0    0

-151.053 73478 0
73478 75.1292 0
0    0    0

-112.021 72857 0
72857 101.986 0
0    0    0

81.7604 72435.7 0
72435.7 215.664 0
0    0    0

-60.3276 70071.3 0
70071.3 206.646 0
0    0    0

-70.437 69973.5 0
69973.5 -66.2532 0
0    0    0

20.1362 70676.1 0
70676.1 -110.04 0
0    0    0

35.4878 70190.1 0
70190.1 141.708 0
0    0    0

137.315 70166.5 0
70166.5 233.073 0
0    0    0

-200.037 71828.6 0
71828.6 31.2713 0
0    0    0

-91.8361 71627.7 0
71627.7 110.773 0
0    0    0

105.451 70398.9 0
70398.9 189.399 0
0    0    0

71.1704 71195.7 0
71195.7 -89.0101 0
0    0    0

-47.9919 71103.1 0
71103.1 107.21 0
0    0    0

-93.1656 70899.3 0
70899.3 17.3952 0
0    0    0

-55.6013 71358.9 0
71358.9 102.307 0
0    0    0

-126.575 72314.9 0
72314.9 -189.48 0
0    0    0

35.8275 70912.8 0
70912.8 -102.125 0
0    0    0

11.5672 70499.8 0
70499.8 -105.632 0
0    0    0

55.7369 73346.7 0
73346.7 -3.48597 0
0    0    0

97.9427 73001.7 0
73001.7 64.6738 0
0    0    0

-129.613 72609.9 0
72609.9 167.037 0
0    0    0

-8.13335 71504.6 0
71504.6 126.014 0
0    0    0

-208.073 71203.8 0
71203.8 97.3305 0
0    0    0

112.345 70794.6 0
70794.6 -22.4557 0
0    0    0

175.114 72334.5 0
72334.5 175.367 0
0    0    0

43.3051 72769.8 0
72769.8 -282.274 0
0    0    0

95.939 71980.8 0
71980.8 111.608 0
0    0    0

9.44671 71608.3 0
71608.3 -120.824 0
0    0    0

172.343 71988.7 0
71988.7 300.108 0
0    0    0

-42.5213 72166.9 0
72166.9 -272.723 0
0    0    0

40.4949 71946.9 0
71946.9 -132.835 0
0    0    0

-20.5043 72462.1 0
72462.1 141.021 0
0    0    0

204.827 72462.3 0
72462.3 248.317 0
0    0    0

109.622 72010.4 0
72010.4 96.819 0
0    0    0

-10.5147 77173.6 0
77173.6 77.2885 0
0    0    0

111.1 77911.6 0
77911.6 148.042 0
0    0    0

-218.098 76336.5 0
76336.5 -9.16918 0
0    0    0

-17.0457 76712.2 0
76712.2 193.229 0
0    0    0

59.0864 76744 0
76744 -181.816 0
0    0    0

35.5603 77206 0
77206 -100.88 0
0    0    0

122.698 77760.5 0
77760.5 18.6921 0
0    0    0

59.8216 77556.6 0
77556.6 175.788 0
0    0    0

-170.735 78236.7 0
78236.7 78.1926 0
0    0    0

-117.111 79552.4 0
79552.4 -65.2218 0
0    0    0

-59.2954 77671.2 0
77671.2 -17.3327 0
0    0    0

209.406 78843.1 0
78843.1 360.299 0
0    0    0

-144.686 77391.3 0
77391.3 28.6497 0
0    0    0

-49.7333 77721.5 0
77721.5 -185.98 0
0    0    0

-210.758 78350.1 0
78350.1 -351.051 0
0    0    0

65.7618 78516.1 0
78516.1 16.1627 0
0    0    0

60.1542 77723.1 0
77723.1 79.0395 0
0    0    0

-97.6755 77676.6 0
77676.6 -181.74 0
0    0    0

-86.2739 78303.9 0
78303.9 169.212 0
0    0    0

84.8361 78148 0
78148 239.002 0
0    0    0

87.7054 78009 0
78009 223.065 0
0    0    0

-95.2987 77028.9 0
77028.9 -65.6232 0
0    0    0

-289.591 78216.4 0
78216.4 -354.103 0
0    0    0

-222.865 77550 0
77550 -328.726 0
0    0    0

313.415 77339.2 0
77339.2 360.734 0
0    0    0

-268.937 77676.6 0
77676.6 -428.107 0
0    0    0

-253.346 79144.6 0
79144.6 -284.464 0
0    0    0

179.011 78592.7 0
78592.7 296.57 0
0    0    0

-95.6089 78922.1 0
78922.1 -291.172 0
0    0    0

-284.896 78841.6 0
78841.6 -273.904 0
0    0    0

-24.8164 79145.1 0
79145.1 98.9446 0
0    0    0

150.713 79865.4 0
79865.4 98.3448 0
0    0    0

-208.321 79160 0
79160 55.4737 0
0    0    0

-54.8075 77552.7 0
77552.7 -233.412 0
0    0    0

87.0396 79269.2 0
79269.2 -93.6225 0
0    0    0

220.388 79040 0
79040 180.57 0
0    0    0

258.484 78557.2 0
78557.2 323.196 0
0    0    0

79.16 77726.1 0
77726.1 -234.041 0
0    0    0

205.436 77809.2 0
77809.2 266.54 0
0    0    0

247.446 78473.6 0
78473.6 345.995 0
0    0    0

-61.5423 78340 0
78340 -255.423 0
0    0    0

-86.5358 76114.7 0
76114.7 -154.526 0
0    0    0

-110.464 78161 0
78161 -207.802 0
0    0    0

-61.9168 77372.4 0
77372.4 164.943 0
0    0    0

-236.155 80823.7 0
80823.7 -126.133 0
0    0    0

27.7423 79440.2 0
79440.2 -24.9554 0
0    0    0

177.037 81490 0
81490 -70.185 0
0    0    0

41.0462 80201.1 0
80201.1 -74.5538 0
0    0    0

207.831 80143.8 0
80143.8 -89.2498 0
0    0    0

-45.3016 80612.6 0
80612.6 56.4536 0
0    0    0

18.5039 79748 0
79748 -295.983 0
0    0    0

324.908 78542.4 0
78542.4 325.267 0
0    0    0

-29.4298 78993.4 0
78993.4 -223.651 0
0    0    0

-223.516 78923.5 0
78923.5 -248.661 0
0    0    0

166.325 77079.5 0
77079.5 187.749 0
0    0    0

150.345 76897.1 0
76897.1 64.4196 0
0    0    0

-225.046 76974.7 0
76974.7 -191.357 0
0    0    0

-60.1037 75711.8 0
75711.8 104.202 0
0    0    0

-99.9569 77827.9 0
77827.9 -32.7411 0
0    0    0

43.9514 77367.6 0
77367.6 -143.112 0
0    0    0

-306.288 81376.3 0
81376.3 -282.829 0
0    0    0

-202.5 81515.6 0
81515.6 -283.173 0
0    0    0

237.566 80546.7 0
80546.7 63.1055 0
0    0    0

-105.549 79599.4 0
79599.4 -117.916 0
0    0    0

-265.101 78618 0
78618 -164.363 0
0    0    0

-120.671 75099.2 0
75099.2 -261.6 0
0    0    0

-213.111 80304.3 0
80304.3 -131.737 0
0    0    0

-144.42 81623.5 0
81623.5 204.812 0
0    0    0

52.6782 79938.7 0
79938.7 134.538 0
0    0    0

-65.0642 79447.7 0
79447.7 86.8615 0
0    0    0

-136.324 80889.6 0
80889.6 -62.8734 0
0    0    0

-199.459 80294.4 0
80294.4 -149.809 0
0    0    0

-181.747 80599.1 0
80599.1 -5.07188 0
0    0    0

-125.994 80435.5 0
80435.5 131.948 0
0    0    0

-25.618 78060.9 0
78060.9 149.988 0
0    0    0

-141.105 78697.8 0
78697.8 122.106 0
0    0    0

-156.479 79045.5 0
79045.5 -225.501 0
0    0    0

67.7022 78231.7 0
78231.7 368.587 0
0    0    0

204.332 80438.9 0
80438.9 80.2511 0
0    0    0

211.393 81073 0
81073 159.12 0
0    0    0

-108.603 79889.4 0
79889.4 90.8888 0
0    0    0

113.369 80720.6 0
80720.6 -73.3778 0
0    0    0

171.648 80710.1 0
80710.1 67.761 0
0    0    0

-142.682 81191.1 0
81191.1 144.272 0
0    0    0

-127.427 80528.4 0
80528.4 -114.047 0
0    0    0

24.6384 80930.3 0
80930.3 46.617 0
0    0    0

336.91 79398.6 0
79398.6 322.688 0
0    0    0

62.4959 80213.8 0
80213.8 265.357 0
0    0    0

-95.2945 80600.7 0
80600.7 261.125 0
0    0    0

-194.533 81482.6 0
81482.6 10.3368 0
0    0    0

-84.418 78727.8 0
78727.8 -195.61 0
0    0    0

-194.533 79978.9 0
79978.9 -327.941 0
0    0    0

158.815 79373.7 0
79373.7 236.973 0
0    0    0

50.9817 79774.7 0
79774.7 130.34 0
0    0    0

238.556 78552.5 0
78552.5 212.937 0
0    0    0

118.309 78319.5 0
78319.5 36.333 0
0    0    0

49.6084 80454.5 0
80454.5 -26.0505 0
0    0    0

144.116 80384.6 0
80384.6 -6.81134 0
0    0    0

249.511 79881.4 0
79881.4 230.446 0
0    0    0

-256.423 80306.1 0
80306.1 -459.22 0
0    0    0

140.885 80935.8 0
80935.8 -28.6033 0
0    0    0

-40.5061 82372.8 0
82372.8 -182.744 0
0    0    0

-262.406 80118.7 0
80118.7 -473.176 0
0    0    0

187.276 80676.7 0
80676.7 194.386 0
0    0    0

301.388 81086.8 0
81086.8 120.914 0
0    0    0

13.7615 82095.9 0
82095.9 135.351 0
0    0    0

-58.1391 80934.2 0
80934.2 -149.435 0
0    0    0

437.778 81329.4 0
81329.4 231.466 0
0    0    0

138.041 76640.8 0
76640.8 -83.5454 0
0    0    0

-14.7837 77061.3 0
77061.3 93.7377 0
0    0    0

-177.886 79260.6 0
79260.6 -300.548 0
0    0    0

-310.943 79710.4 0
79710.4 -359.034 0
0    0    0

-249.183 67979.2 0
67979.2 -151.295 0
0    0    0

283.133 68506.5 0
68506.5 303.96 0
0    0    0

-378.975 68956.9 0
68956.9 -322.546 0
0    0    0

-191.328 69251.2 0
69251.2 14.4434 0
0    0    0

161.749 68551.4 0
68551.4 194.534 0
0    0    0

-6.47189 69900.9 0
69900.9 -337.267 0
0    0    0

87.1404 70760.5 0
70760.5 -99.7411 0
0    0    0

-109.55 69557.5 0
69557.5 -58.7902 0
0    0    0

-218.214 69658.5 0
69658.5 -112.724 0
0    0    0

-88.9725 69735.7 0
69735.7 256.154 0
0    0    0

32.2639 70647.3 0
70647.3 235.398 0
0    0    0

402.037 70098.6 0
70098.6 165.488 0
0    0    0

-40.8571 69003.2 0
69003.2 -222.959 0
0    0    0

11.5038 69781.2 0
69781.2 266.331 0
0    0    0

51.5126 68807.1 0
68807.1 -201.846 0
0    0    0

61.2303 69510.3 0
69510.3 28.9095 0
0    0    0

212.867 69880 0
69880 -198.537 0
0    0    0

-92.5364 70588.7 0
70588.7 -146.723 0
0    0    0

11.6055 70988.4 0
70988.4 -87.4483 0
0    0    0

118.142 72007.1 0
72007.1 295.561 0
0    0    0

187.401 75328.2 0
75328.2 263.393 0
0    0    0

7.79164 74068.8 0
74068.8 -248.349 0
0    0    0

-117.344 74351.4 0
74351.4 102.444 0
0    0    0

-159.863 76273.6 0
76273.6 -238.928 0
0    0    0

-163.88 74168.3 0
74168.3 -443.202 0
0    0    0

45.8952 74557.2 0
74557.2 348.873 0
0    0    0

-110.188 50657.3 0
50657.3 -167.602 0
0    0    0

-192.174 50991.6 0
50991.6 -81.7351 0
0    0    0

-200.107 50878.4 0
50878.4 -89.8025 0
0    0    0

112.229 51465 0
51465 202.622 0
0    0    0

104.289 51114.9 0
51114.9 -44.2879 0
0    0    0

-218.329 51594.1 0
51594.1 159.472 0
0    0    0

-32.079 51707.2 0
51707.2 -30.5502 0
0    0    0

-24.9567 51967.3 0
51967.3 -291.802 0
0    0    0

-212.002 53185.2 0
53185.2 -131.075 0
0    0    0

-63.0378 51885.5 0
51885.5 123.568 0
0    0    0

-166.575 52183.3 0
52183.3 -133.207 0
0    0    0

198.284 51581.1 0
51581.1 137.091 0
0    0    0

-196.985 61008.8 0
61008.8 -199.772 0
0    0    0

-142.322 61230.1 0
61230.1 -99.3892 0
0    0    0

177.597 60619.2 0
60619.2 163.523 0
0    0    0

135.83 60221.5 0
60221.5 198.544 0
0    0    0

175.025 61380.4 0
61380.4 12.6452 0
0    0    0

182.398 62291.4 0
62291.4 237.956 0
0    0    0

239.54 60961 0
60961 223.406 0
0    0    0

251.257 61611.4 0
61611.4 101.399 0
0    0    0

183.137 60117.9 0
60117.9 -6.36561 0
0    0    0

110.141 60885 0
60885 -54.1685 0
0    0    0

-188.078 60787 0
60787 -210.043 0
0    0    0

-8.86549 61085.2 0
61085.2 257.573 0
0    0    0

11.61 61193.6 0
61193.6 -167.342 0
0    0    0

-25.067 61544.2 0
61544.2 137.154 0
0    0    0

-153.124 62031.8 0
62031.8 -312.126 0
0    0    0

-229.228 61396.7 0
61396.7 -229.917 0
0    0    0

-138.952 60283.4 0
60283.4 -86.7144 0
0    0    0

101.511 61560.2 0
61560.2 -94.686 0
0    0    0

38.2851 62453.6 0
62453.6 -170.863 0
0    0    0

-39.215 64144.8 0
64144.8 148.551 0
0    0    0

14.2037 59658.7 0
59658.7 382.73 0
0    0    0

-134.977 60588.2 0
60588.2 187.033 0
0    0    0

-16.2403 58686.1 0
58686.1 73.6727 0
0    0    0

71.476 62122.4 0
62122.4 165.315 0
0    0    0

111.966 62224.8 0
62224.8 -168.826 0
0    0    0

-71.5648 61991.1 0
61991.1 20.2861 0
0    0    0

-130.483 62548.3 0
62548.3 -4.59443 0
0    0    0

60.3287 62965.7 0
62965.7 395.32 0
0    0    0

233.866 63996.3 0
63996.3 355.355 0
0    0    0

-106.575 62107.5 0
62107.5 201.652 0
0    0    0

146.554 60441.5 0
60441.5 -91.7425 0
0    0    0

25.994 60483.5 0
60483.5 -86.1177 0
0    0    0

-40.4291 60393.7 0
60393.7 226.686 0
0    0    0

-122.002 60281.3 0
60281.3 -114.008 0
0    0    0

-85.2515 59828 0
59828 -147.117 0
0    0    0

-148.049 59180.4 0
59180.4 -107.479 0
0    0    0

46.7652 60624.8 0
60624.8 -195.851 0
0    0    0

159.021 59954.6 0
59954.6 197.96 0
0    0    0

291.859 60304 0
60304 352.22 0
0    0    0

185.199 58927.4 0
58927.4 101.852 0
0    0    0

190.204 59451.9 0
59451.9 146.405 0
0    0    0

136.656 59433.6 0
59433.6 -83.6565 0
0    0    0

-146.843 59726.6 0
59726.6 -136.768 0
0    0    0

-130.181 58786.3 0
58786.3 -242.203 0
0    0    0

259.524 59794.8 0
59794.8 -34.9519 0
0    0    0

-38.59 58922.7 0
58922.7 32.4122 0
0    0    0

-129.342 58532.1 0
58532.1 -144.96 0
0    0    0

73.6572 59275.9 0
59275.9 -111.886 0
0    0    0

-292.518 60045.1 0
60045.1 -284.015 0
0    0    0

-232.413 59245.6 0
59245.6 -44.9183 0
0    0    0

106.128 61311.2 0
61311.2 459.231 0
0    0    0

178.129 62604.5 0
62604.5 227.414 0
0    0    0

-98.8517 62598.6 0
62598.6 337.58 0
0    0    0

-286.219 64291.1 0
64291.1 -462.418 0
0    0    0

22.2774 63774.9 0
63774.9 -106.848 0
0    0    0

-67.1661 63902.2 0
63902.2 18.6007 0
0    0    0

-68.4794 61258.5 0
61258.5 26.6108 0
0    0    0

-221.215 62817.1 0
62817.1 -522.633 0
0    0    0

-229.029 60610.1 0
60610.1 -146.445 0
0    0    0

-195.88 59866.2 0
59866.2 101.386 0
0    0    0

-233.009 59146.1 0
59146.1 9.89936 0
0    0    0

159.173 59748.5 0
59748.5 207.191 0
0    0    0

193.39 57659.9 0
57659.9 141.672 0
0    0    0

-167.369 58144.7 0
58144.7 -9.81747 0
0    0    0

-133.445 56925.5 0
56925.5 -194.423 0
0    0    0

301.874 56700.2 0
56700.2 322.1 0
0    0    0

169.624 57124 0
57124 -4.48898 0
0    0    0

-133.697 57839.5 0
57839.5 150.128 0
0    0    0

-41.3702 57161.4 0
57161.4 156.379 0
0    0    0

194.463 57271 0
57271 301.301 0
0    0    0

160.669 57088.3 0
57088.3 25.8626 0
0    0    0

-24.4688 58882.5 0
58882.5 -76.9638 0
0    0    0

-103.594 57504.5 0
57504.5 -174.026 0
0    0    0

-188.782 56889.4 0
56889.4 -49.383 0
0    0    0

96.8266 57831.8 0
57831.8 110.981 0
0    0    0

-21.612 58658.1 0
58658.1 204.458 0
0    0    0

150.46 59730.8 0
59730.8 90.9427 0
0    0    0

-5.51363 59598.2 0
59598.2 95.6491 0
0    0    0

-65.2527 59994.8 0
59994.8 14.0252 0
0    0    0

126.217 61015.3 0
61015.3 137.941 0
0    0    0

135.596 62903.2 0
62903.2 30.9788 0
0    0    0

107.731 63609.1 0
63609.1 -89.7373 0
0    0    0

3.5392 61693.7 0
61693.7 216.57 0
0    0    0

129.846 62472.2 0
62472.2 39.1716 0
0    0    0

-121.571 63300.4 0
63300.4 -121.591 0
0    0    0

-172.708 63332.9 0
63332.9 -75.734 0
0    0    0

24.1789 62439.3 0
62439.3 -91.2213 0
0    0    0

204.099 63181.5 0
63181.5 251.669 0
0    0    0

-147.49 62998.4 0
62998.4 -191.709 0
0    0    0

-63.8223 62805.9 0
62805.9 136.355 0
0    0    0

176.992 59543.8 0
59543.8 -118.76 0
0    0    0

67.8513 59225 0
59225 37.8636 0
0    0    0

101.062 60231.2 0
60231.2 106.12 0
0    0    0

288.774 60777.4 0
60777.4 409.922 0
0    0    0

40.4226 61950.5 0
61950.5 6.02933 0
0    0    0

-172.335 62336.4 0
62336.4 -228.527 0
0    0    0

-324.122 61205 0
61205 -326.273 0
0    0    0

17.5272 60635.4 0
60635.4 187.089 0
0    0    0

189.736 62968.9 0
62968.9 501.321 0
0    0    0

4.49703 62682.2 0
62682.2 -142.698 0
0    0    0

-134.215 61703.5 0
61703.5 -92.9062 0
0    0    0

-229.951 61845.7 0
61845.7 -214.405 0
0    0    0

-70.3836 62230.6 0
62230.6 272.469 0
0    0    0

-198.911 62829 0
62829 -135.144 0
0    0    0

48.1875 62115.2 0
62115.2 267.025 0
0    0    0

198.441 61595.4 0
61595.4 218.497 0
0    0    0

-25.6556 60925.4 0
60925.4 -146.179 0
0    0    0

383.632 61480.2 0
61480.2 334.538 0
0    0    0

-9.54171 62356.1 0
62356.1 -243.385 0
0    0    0

-116.24 62813.1 0
62813.1 -244.798 0
0    0    0

-320.872 63499 0
63499 -414.709 0
0    0    0

-118.939 63962.8 0
63962.8 -86.1035 0
0    0    0

203.692 65051.9 0
65051.9 112.305 0
0    0    0

-93.7828 66709.2 0
66709.2 -48.78 0
0    0    0

-160.304 64889.3 0
64889.3 -272.396 0
0    0    0

145.612 63955.9 0
63955.9 -48.6551 0
0    0    0

-103.546 63154.2 0
63154.2 41.7479 0
0    0    0

296.336 63190.8 0
63190.8 401.849 0
0    0    0

-159.417 64038.6 0
64038.6 -123.434 0
0    0    0

10.2127 66674.1 0
66674.1 -274.061 0
0    0    0

-111.799 62965.6 0
62965.6 -270.364 0
0    0    0

201.193 63463.6 0
63463.6 495.509 0
0    0    0

-91.8092 41173.4 0
41173.4 19.8172 0
0    0    0

142.898 40720 0
40720 87.9015 0
0    0    0

22.3314 41953.8 0
41953.8 247.901 0
0    0    0

-270.622 41650.3 0
41650.3 -138.832 0
0    0    0

137.833 40589.2 0
40589.2 20.5779 0
0    0    0

11.7339 40894.2 0
40894.2 37.7309 0
0    0    0

-222.717 41683.1 0
41683.1 -315.273 0
0    0    0

-166.829 41004.7 0
41004.7 -296.481 0
0    0    0

66.3201 42687 0
42687 97.1113 0
0    0    0

-325.791 41737.8 0
41737.8 -1.59018 0
0    0    0

277.358 38541.1 0
38541.1 674.532 0
0    0    0

-178.818 39446.5 0
39446.5 -16.2777 0
0    0    0

29.9157 38586.4 0
38586.4 -13.4077 0
0    0    0

76.6116 40125.2 0
40125.2 -213.587 0
0    0    0

83.3958 31065 0
31065 163.463 0
0    0    0

264.561 31648.4 0
31648.4 560.198 0
0    0    0

22.2186 32309.3 0
32309.3 -217.015 0
0    0    0

-338.032 31281 0
31281 -223.835 0
0    0    0

-156.988 32559.8 0
32559.8 103.073 0
0    0    0

174.46 32020.7 0
32020.7 -111.764 0
0    0    0

-175.08 31793.3 0
31793.3 -354.727 0
0    0    0

-66.6865 32144.7 0
32144.7 168.889 0
0    0    0

278.957 30037.1 0
30037.1 74.3574 0
0    0    0

-75.5444 30763.9 0
30763.9 -299.986 0
0    0    0

-283.236 45805.1 0
45805.1 -466.956 0
0    0    0

-55.5441 47089 0
47089 39.5925 0
0    0    0

171.14 47788.1 0
47788.1 355.24 0
0    0    0

92.6292 47768.9 0
47768.9 282.643 0
0    0    0

-134.406 48069.8 0
48069.8 -216.4 0
0    0    0

136.213 48938.4 0
48938.4 -15.2431 0
0    0    0

-82.0493 48122.4 0
48122.4 -171.322 0
0    0    0

-237.476 48678.2 0
48678.2 -50.7082 0
0    0    0

276.195 47851.1 0
47851.1 328.968 0
0    0    0

-39.9493 48795.7 0
48795.7 105.386 0
0    0    0

214.331 47605.6 0
47605.6 212.537 0
0    0    0

67.8521 48190.9 0
48190.9 24.2525 0
0    0    0

7.13339 46583.8 0
46583.8 -48.8967 0
0    0    0

-207.829 44717.5 0
44717.5 -208.156 0
0    0    0

37.73 48861.1 0
48861.1 -269.043 0
0    0    0

79.8897 49272.6 0
49272.6 271.365 0
0    0    0

-138.326 47790.4 0
47790.4 58.884 0
0    0    0

272.827 47165.2 0
47165.2 214.113 0
0    0    0

240.167 48471.2 0
48471.2 309.586 0
0    0    0

-40.1612 49459.5 0
49459.5 164.983 0
0    0    0

45.1172 48610.1 0
48610.1 -172.675 0
0    0    0

30.5929 48353.2 0
48353.2 230.343 0
0    0    0

186.32 47338.7 0
47338.7 -1.71642 0
0    0    0

-189.496 47427.4 0
47427.4 -200.072 0
0    0    0

-271.847 47523.9 0
47523.9 -268.604 0
0    0    0

-25.7169 46564 0
46564 83.4554 0
0    0    0

-209.572 46491.4 0
46491.4 -86.5317 0
0    0    0

257.542 46198.4 0
46198.4 361.031 0
0    0    0

-289.503 46924.9 0
46924.9 -257.366 0
0    0    0

-157.461 47327.8 0
47327.8 88.4706 0
0    0    0

114.193 47561.3 0
47561.3 -33.7199 0
0    0    0

-272.173 48215.7 0
48215.7 -460.541 0
0    0    0

165.786 47420.4 0
47420.4 -75.4347 0
0    0    0

140.665 47894 0
47894 156.605 0
0    0    0

85.407 27793 0
27793 246.532 0
0    0    0

94.3484 27638.8 0
27638.8 53.5035 0
0    0    0

-241.069 26884.4 0
26884.4 -47.7528 0
0    0    0

-190.847 26204.2 0
26204.2 -109.682 0
0    0    0

156.176 24917.7 0
24917.7 11.3986 0
0    0    0

-84.9299 26175.8 0
26175.8 -156.234 0
0    0    0

196.901 11895.9 0
11895.9 416.31 0
0    0    0

-53.9229 11574.5 0
11574.5 190.238 0
0    0    0

-213.905 11628.2 0
11628.2 -375.047 0
0    0    0

-190.823 11879.2 0
11879.2 -73.1694 0
0    0    0

-192.773 11925.8 0
11925.8 -92.8913 0
0    0    0

275.823 12115.6 0
12115.6 281.458 0
0    0    0

-72.8388 11553.5 0
11553.5 127.211 0
0    0    0

206.21 13341.9 0
13341.9 198.28 0
0    0    0

-144.331 13675.6 0
13675.6 -355.196 0
0    0    0

190.865 13407.4 0
13407.4 215.531 0
0    0    0

-8.22211 11263.1 0
11263.1 -245.075 0
0    0    0

186.704 13081.1 0
13081.1 9.50607 0
0    0    0

-50.7372 12985.2 0
12985.2 164.024 0
0    0    0

95.7478 12509.7 0
12509.7 -102.656 0
0    0    0

-227.379 13740.9 0
13740.9 -163.311 0
0    0    0

162.02 12941.7 0
12941.7 24.9634 0
0    0    0

29.0295 12291.4 0
12291.4 80.3561 0
0    0    0

285.696 12597.3 0
12597.3 -98.5893 0
0    0    0

-96.6531 12920.3 0
12920.3 -117.354 0
0    0    0

-252.29 13288.4 0
13288.4 -299.442 0
0    0    0

-126.292 10675.3 0
10675.3 -163.195 0
0    0    0

65.3198 9986.59 0
9986.59 284.922 0
0    0    0

78.5572 9499.11 0
9499.11 183.882 0
0    0    0

-13.8094 9747.9 0
9747.9 -228.452 0
0    0    0

103.442 10405.4 0
10405.4 42.803 0
0    0    0

-183.331 9698.68 0
9698.68 -423.761 0
0    0    0

141.811 10153.5 0
10153.5 109.543 0
0    0    0

294.884 9910.73 0
9910.73 90.8666 0
0    0    0

103.279 8444.91 0
8444.91 391.952 0
0    0    0

141.629 9044.08 0
9044.08 403.209 0
0    0    0

-193.565 7805.5 0
7805.5 -193.244 0
0    0    0

-123.981 9550 0
9550 -213.689 0
0    0    0

-31.2904 8736.25 0
8736.25 -171.715 0
0    0    0

203.013 8683.15 0
8683.15 387.454 0
0    0    0

-116.033 9262.02 0
9262.02 -166.964 0
0    0    0

105.724 10480.9 0
10480.9 348.525 0
0    0    0

-142.687 10273.2 0
10273.2 -233.424 0
0    0    0

109.19 10508.2 0
10508.2 240.58 0
0    0    0

-106.645 10755.8 0
10755.8 -225.135 0
0    0    0

-2.66323 11142.3 0
11142.3 241.981 0
0    0    0

57.3479 8352.96 0
8352.96 -63.5478 0
0    0    0

105.591 11414.8 0
11414.8 71.4306 0
0    0    0

199.588 11492.3 0
11492.3 305.65 0
0    0    0

47.0207 10648.6 0
10648.6 -201.364 0
0    0    0

-52.9619 11165.3 0
11165.3 -220.048 0
0    0    0

-122.676 11296.7 0
11296.7 -257.711 0
0    0    0

-176.58 10191.2 0
10191.2 -367.768 0
0    0    0

-139.132 10476.1 0
10476.1 22.5033 0
0    0    0

160.577 11222.6 0
11222.6 144.516 0
0    0    0

76.8374 12050.5 0
12050.5 266.848 0
0    0    0

-125.567 11392.3 0
11392.3 59.8661 0
0    0    0

184.714 13101.2 0
13101.2 70.3526 0
0    0    0

85.3673 11808.9 0
11808.9 -109.838 0
0    0    0

-73.4596 12074.6 0
12074.6 75.4772 0
0    0    0

19.884 10930.9 0
10930.9 217.405 0
0    0    0

34.1192 11525.8 0
11525.8 -52.0027 0
0    0    0

-39.9794 11871.2 0
11871.2 -278.43 0
0    0    0

-142.49 13236.6 0
13236.6 -121.273 0
0    0    0

184.19 11938.9 0
11938.9 140.366 0
0    0    0

-255.574 12469.4 0
12469.4 -170.835 0
0    0    0

-66.228 10522.1 0
10522.1 -162.609 0
0    0    0

128.306 13229.4 0
13229.4 -195.257 0
0    0    0

127.286 12722.8 0
12722.8 44.2307 0
0    0    0

253.093 12774.5 0
12774.5 -28.6771 0
0    0    0

-25.6639 13687.1 0
13687.1 97.1354 0
0    0    0

156.316 13601.1 0
13601.1 39.0196 0
0    0    0

170.293 14489.4 0
14489.4 236.927 0
0    0    0

153.795 14824.7 0
14824.7 116.973 0
0    0    0

61.5501 14758.9 0
14758.9 267.604 0
0    0    0

154.625 14399.7 0
14399.7 -86.265 0
0    0    0

93.1495 12763 0
12763 73.0095 0
0    0    0

-100.251 12978.7 0
12978.7 -221.084 0
0    0    0

-162.66 14699.7 0
14699.7 14.3669 0
0    0    0

112.351 14181.9 0
14181.9 -126.616 0
0    0    0

47.1547 14847.3 0
14847.3 472.833 0
0    0    0

-141.997 14639.9 0
14639.9 -250.864 0
0    0    0

-397.691 14510.3 0
14510.3 -108.018 0
0    0    0

84.1746 13919.1 0
13919.1 -88.1426 0
0    0    0

-34.6211 11961.9 0
11961.9 -9.10608 0
0    0    0

126.143 12722.2 0
12722.2 93.1748 0
0    0    0

226.535 12791.9 0
12791.9 -61.1985 0
0    0    0

4.97425 13527.2 0
13527.2 301.549 0
0    0    0

-234.851 14534.1 0
14534.1 -70.8053 0
0    0    0

-170.588 14067.8 0
14067.8 -393.043 0
0    0    0

50.9394 13168.8 0
13168.8 96.1147 0
0    0    0

177.22 12369.7 0
12369.7 322.632 0
0    0    0

132.796 13757.3 0
13757.3 198.338 0
0    0    0

-8.65358 12778.5 0
12778.5 48.7619 0
0    0    0

62.7687 13364.6 0
13364.6 -217.029 0
0    0    0

198.685 13172.8 0
13172.8 345.538 0
0    0    0

-145.158 14075 0
14075 -8.61072 0
0    0    0

-288.883 13440.4 0
13440.4 -397.933 0
0    0    0

-122 11641.7 0
11641.7 -284.666 0
0    0    0

54.0542 12437.1 0
12437.1 329.932 0
0    0    0

-144.051 13456.9 0
13456.9 -246.215 0
0    0    0

-155.391 12997.4 0
12997.4 -225.26 0
0    0    0

-187.431 12172.4 0
12172.4 -300.275 0
0    0    0

-110.179 11357.2 0
11357.2 -99.6588 0
0    0    0

-128.5 12116 0
12116 -299.833 0
0    0    0

-107.692 11000.8 0
11000.8 -96.6097 0
0    0    0

-114.661 8231.39 0
8231.39 -458.774 0
0    0    0

-181.473 8791.97 0
8791.97 -144.113 0
0    0    0

189.206 8953.23 0
8953.23 338.478 0
0    0    0

192.03 8640.4 0
8640.4 76.5433 0
0    0    0

197.086 7875.21 0
7875.21 444.33 0
0    0    0

270.959 7841.03 0
7841.03 213.456 0
0    0    0

-117.304 21814.3 0
21814.3 1.41236 0
0    0    0

38.0136 20072.3 0
20072.3 215.051 0
0    0    0

-21.4139 18679.5 0
18679.5 -49.9657 0
0    0    0

139.513 18675.5 0
18675.5 217.184 0
0    0    0

239.715 19850.8 0
19850.8 96.5992 0
0    0    0

-8.46805 19679.3 0
19679.3 -19.7588 0
0    0    0

-316.929 19821.3 0
19821.3 59.6223 0
0    0    0

-141.605 19612.2 0
19612.2 21.5521 0
0    0    0

-20.0096 19196.2 0
19196.2 -46.689 0
0    0    0

235.731 20110.9 0
20110.9 321.696 0
0    0    0

-72.1134 20532.2 0
20532.2 -168.265 0
0    0    0

207.502 20250.1 0
20250.1 347.934 0
0    0    0

-151.017 19525.1 0
19525.1 -168.387 0
0    0    0

-155.11 19910.7 0
19910.7 -106.465 0
0    0    0

18.18 20721.9 0
20721.9 244.061 0
0    0    0

-52.8394 21008.6 0
21008.6 -148.108 0
0    0    0

206.422 19662.2 0
19662.2 100.752 0
0    0    0

196.417 19222 0
19222 -16.4223 0
0    0    0

-203.547 20531.3 0
20531.3 -49.0352 0
0    0    0

95.1764 20247.5 0
20247.5 111.183 0
0    0    0

-167.724 20053.2 0
20053.2 -180.751 0
0    0    0

214.616 20061.3 0
20061.3 -58.9391 0
0    0    0

-215.668 20457.1 0
20457.1 -243.332 0
0    0    0

131.352 20674.1 0
20674.1 423.735 0
0    0    0

211.934 20641 0
20641 233.062 0
0    0    0

-139.732 20396.3 0
20396.3 -363.781 0
0    0    0

-133.114 19828.4 0
19828.4 -167.516 0
0    0    0

325.891 19545.5 0
19545.5 144.166 0
0    0    0

94.6099 20885.2 0
20885.2 -38.3305 0
0    0    0

-303.13 21902 0
21902 -374.905 0
0    0    0

-6.10945 20070.1 0
20070.1 -14.2554 0
0    0    0

-294.095 20471.6 0
20471.6 -285.986 0
0    0    0

-140.887 19245.8 0
19245.8 8.75884 0
0    0    0

-2.43825 19523.2 0
19523.2 15.2268 0
0    0    0

-94.3046 9338.68 0
9338.68 -13.0307 0
0    0    0

-198.363 9003.3 0
9003.3 -339.716 0
0    0    0

90.4516 8203.5 0
8203.5 217.598 0
0    0    0

237.715 8669.72 0
8669.72 345.402 0
0    0    0

198.96 6174.67 0
6174.67 133.959 0
0    0    0

-92.1798 7939.93 0
7939.93 140.82 0
0    0    0

317.356 8129.48 0
8129.48 240.175 0
0    0    0

-19.6108 8199.86 0
8199.86 146.291 0
0    0    0

136.34 9383.07 0
9383.07 -192.093 0
0    0    0

116.695 8866.42 0
8866.42 5.21964 0
0    0    0

156.676 5801.78 0
5801.78 275.938 0
0    0    0

52.8937 5164.57 0
5164.57 22.6687 0
0    0    0

251.722 5225.96 0
5225.96 127.382 0
0    0    0

-105.299 6247.66 0
6247.66 -4.03428 0
0    0    0

-0.663439 6314.12 0
6314.12 212.143 0
0    0    0

150.498 6573.74 0
6573.74 254.854 0
0    0    0

-8.73834 6161.05 0
6161.05 -62.4147 0
0    0    0

-94.1185 3005.88 0
3005.88 -40.3365 0
0    0    0

-103.125 5834.37 0
5834.37 -240.883 0
0    0    0

112.932 6921.36 0
6921.36 -126.431 0
0    0    0

-42.4321 6990.91 0
6990.91 -18.1852 0
0    0    0

-279.013 7531.97 0
7531.97 -317.636 0
0    0    0

70.7058 43405.7 0
43405.7 -125.661 0
0    0    0

185.351 42390.6 0
42390.6 359.715 0
0    0    0

56.4565 42821.9 0
42821.9 131.732 0
0    0    0

-1.75891 42159 0
42159 111.58 0
0    0    0

260.548 42715.2 0
42715.2 38.5281 0
0    0    0

53.197 42537.3 0
42537.3 -93.1666 0
0    0    0

73.4215 41936.2 0
41936.2 171.317 0
0    0    0

-35.0236 41485.7 0
41485.7 -80.6821 0
0    0    0

-39.5222 42626.6 0
42626.6 4.21422 0
0    0    0

54.5925 43324.5 0
43324.5 127.383 0
0    0    0

-225.352 43005.7 0
43005.7 -199.662 0
0    0    0

15.9357 39369.5 0
39369.5 -277.626 0
0    0    0

59.2671 42376.7 0
42376.7 138.29 0
0    0    0

186.703 40599.4 0
40599.4 383.987 0
0    0    0

-215.048 41853.3 0
41853.3 38.3156 0
0    0    0

112.322 41298.8 0
41298.8 377.346 0
0    0    0

21.9824 42100.1 0
42100.1 -153.425 0
0    0    0

-100.675 41731.8 0
41731.8 -214.216 0
0    0    0

132.261 40907.1 0
40907.1 -218.497 0
0    0    0

74.5308 41260.1 0
41260.1 63.6782 0
0    0    0

-44.0745 41462.3 0
41462.3 13.3036 0
0    0    0

-85.325 38660 0
38660 -36.5678 0
0    0    0

49.9923 40304.5 0
40304.5 -44.4747 0
0    0    0

23.0331 40747.4 0
40747.4 -171.419 0
0    0    0

174.679 40148.2 0
40148.2 295.345 0
0    0    0

61.2415 40948.2 0
40948.2 142.897 0
0    0    0

-90.2672 40780 0
40780 -156.367 0
0    0    0

-173.539 39796.7 0
39796.7 -74.3738 0
0    0    0

-284.756 39967.2 0
39967.2 -253.465 0
0    0    0

-100.29 40178.7 0
40178.7 127.86 0
0    0    0

173.128 39584.4 0
39584.4 218.32 0
0    0    0

37.3638 41075.2 0
41075.2 -153.192 0
0    0    0

-258.527 40590.5 0
40590.5 -441.472 0
0    0    0

-127.221 40027.2 0
40027.2 40.0677 0
0    0    0

41.83 40500.9 0
40500.9 279.603 0
0    0    0

173.295 35587.8 0
35587.8 275.619 0
0    0    0

-210.768 36429.1 0
36429.1 -263.773 0
0    0    0

119.049 35972.5 0
35972.5 -142.693 0
0    0    0

190.147 36676.5 0
36676.5 139.095 0
0    0    0

141.2 36314.9 0
36314.9 104.569 0
0    0    0

-203.77 35404.9 0
35404.9 -87.3301 0
0    0    0

-303.766 35616.2 0
35616.2 -240.128 0
0    0    0

179.837 36228 0
36228 42.4695 0
0    0    0

-195.416 36052.9 0
36052.9 -267.209 0
0    0    0

-62.4506 36923.5 0
36923.5 -17.3977 0
0    0    0

-5.04667 36923.7 0
36923.7 275.29 0
0    0    0

-213.638 37458.8 0
37458.8 -117.16 0
0    0    0

-183.416 36509.1 0
36509.1 -375.684 0
0    0    0

-85.8552 36797.2 0
36797.2 -78.9606 0
0    0    0

212.645 35390.9 0
35390.9 384.581 0
0    0    0

-316.746 35164.3 0
35164.3 -608.946 0
0    0    0

224.975 77042 0
77042 291.054 0
0    0    0

-199.698 76597.8 0
76597.8 -134.876 0
0    0    0

-56.4531 76797 0
76797 -316.035 0
0    0    0

291.677 77113.1 0
77113.1 168.931 0
0    0    0

84.7165 80403.3 0
80403.3 -179.058 0
0    0    0

-76.0739 77851.5 0
77851.5 101.706 0
0    0    0

271.696 76275 0
76275 155.76 0
0    0    0

-109.032 77974 0
77974 -384.567 0
0    0    0

43.9712 76462.7 0
76462.7 294.881 0
0    0    0

-185.848 77820.9 0
77820.9 -169.796 0
0    0    0

-104.396 76110.2 0
76110.2 -287.086 0
0    0    0

-170.631 75667 0
75667 42.5807 0
0    0    0

-6.71883 75994.1 0
75994.1 86.6766 0
0    0    0

77.0402 75759.8 0
75759.8 143.892 0
0    0    0

130.567 75585.6 0
75585.6 27.5903 0
0    0    0

-19.0658 75616.8 0
75616.8 -147.82 0
0    0    0

173.548 77086.7 0
77086.7 349.266 0
0    0    0

-227.995 78479.1 0
78479.1 -273.645 0
0    0    0

-17.3804 76550.4 0
76550.4 -228.375 0
0    0    0

155.33 75289.5 0
75289.5 1.89726 0
0    0    0

-78.4741 76123.5 0
76123.5 -159.597 0
0    0    0

270.798 75768.2 0
75768.2 183.252 0
0    0    0

139.111 75941.9 0
75941.9 140.956 0
0    0    0

158.114 78316.8 0
78316.8 -129.591 0
0    0    0

108.921 76200.1 0
76200.1 203.327 0
0    0    0

-19.7005 75263.6 0
75263.6 125.725 0
0    0    0

145.521 76421.6 0
76421.6 168.99 0
0    0    0

225.939 76871.5 0
76871.5 349.251 0
0    0    0

-318.592 76634.4 0
76634.4 -362.966 0
0    0    0

22.6378 75311.3 0
75311.3 210.291 0
0    0    0

-159.145 75672.2 0
75672.2 -103.475 0
0    0    0

245.215 76323 0
76323 327.484 0
0    0    0

-19.5175 78226.9 0
78226.9 137.186 0
0    0    0

127.799 78666.3 0
78666.3 26.1796 0
0    0    0

201.834 76957 0
76957 120.958 0
0    0    0

-63.7405 76997 0
76997 -10.8883 0
0    0    0

-104.704 75598.6 0
75598.6 -193.402 0
0    0    0

-403.845 76066.9 0
76066.9 -293.658 0
0    0    0

182.782 78288.1 0
78288.1 591.721 0
0    0    0

197.203 77993.6 0
77993.6 71.9957 0
0    0    0

-261.731 78252.2 0
78252.2 -26.4376 0
0    0    0

-230.434 77549.6 0
77549.6 -88.589 0
0    0    0

-254.141 77330 0
77330 -363.784 0
0    0    0

-208.908 76835.9 0
76835.9 -91.9862 0
0    0    0

121.85 77515.2 0
77515.2 136.345 0
0    0    0

-89.535 77421.4 0
77421.4 -200.213 0
0    0    0

-23.8275 77386.8 0
77386.8 -153.963 0
0    0    0

191.139 78138.4 0
78138.4 212.619 0
0    0    0

-307.167 69353.4 0
69353.4 -305.657 0
0    0    0

-160.936 69573 0
69573 -42.6003 0
0    0    0

219.983 72348.5 0
72348.5 264.606 0
0    0    0

151.866 71917.5 0
71917.5 136.446 0
0    0    0

-21.6514 72708.1 0
72708.1 184.271 0
0    0    0

-220.285 72127.3 0
72127.3 -245.194 0
0    0    0

112.041 71711 0
71711 283.048 0
0    0    0

116.962 71315.3 0
71315.3 243.703 0
0    0    0

-174.49 71146.6 0
71146.6 -264.006 0
0    0    0

-50.2864 71219.6 0
71219.6 -423.061 0
0    0    0

59.1087 71160.4 0
71160.4 45.5181 0
0    0    0

112.269 70178.5 0
70178.5 -92.7527 0
0    0    0

-15.8019 78727.6 0
78727.6 -75.8118 0
0    0    0

-228.651 79087.3 0
79087.3 -235.272 0
0    0    0

221.535 79265.4 0
79265.4 194.043 0
0    0    0

146.62 78887.6 0
78887.6 -90.597 0
0    0    0

-273.257 79676.5 0
79676.5 -215.737 0
0    0    0

178.31 79689.3 0
79689.3 452.467 0
0    0    0

195.391 79408.2 0
79408.2 353.549 0
0    0    0

-177.512 79876.1 0
79876.1 -154.596 0
0    0    0

-319.68 79188.6 0
79188.6 -225.993 0
0    0    0

-231.697 78520.2 0
78520.2 -161.623 0
0    0    0

-42.2904 79597.9 0
79597.9 14.8605 0
0    0    0

158.498 80465 0
80465 -188.629 0
0    0    0

215.118 78817.7 0
78817.7 130.579 0
0    0    0

19.7543 79551.1 0
79551.1 223.704 0
0    0    0

54.5102 77954 0
77954 -135.987 0
0    0    0

201.791 78940.2 0
78940.2 332.684 0
0    0    0

-89.881 79253.9 0
79253.9 -128.081 0
0    0    0

-89.7724 78428.8 0
78428.8 91.1862 0
0    0    0

194.006 77559.6 0
77559.6 180.908 0
0    0    0

44.6508 78352 0
78352 9.24645 0
0    0    0

-20.0386 78645.5 0
78645.5 -283.869 0
0    0    0

262.301 78558.3 0
78558.3 -134.429 0
0    0    0

255.112 75756.5 0
75756.5 178.369 0
0    0    0

270.83 76414.8 0
76414.8 301.276 0
0    0    0

169.407 74716.1 0
74716.1 131.927 0
0    0    0

195.697 73914.8 0
73914.8 -42.7344 0
0    0    0

139.186 73589.4 0
73589.4 -50.5489 0
0    0    0

-150.849 74040.3 0
74040.3 85.127 0
0    0    0

-236.124 74266.8 0
74266.8 -255.707 0
0    0    0

-215.735 74723.2 0
74723.2 -1.83418 0
0    0    0

-133.634 73464.4 0
73464.4 85.0514 0
0    0    0

85.7925 74303.2 0
74303.2 53.683 0
0    0    0

-86.1226 73159.3 0
73159.3 -147.119 0
0    0    0

-23.2926 73902.7 0
73902.7 29.9688 0
0    0    0

-70.3433 73049.3 0
73049.3 -285.551 0
0    0    0

-192.88 74151.4 0
74151.4 -101.609 0
0    0    0

210.866 73970.1 0
73970.1 189.507 0
0    0    0

-22.6144 74644.4 0
74644.4 -36.1972 0
0    0    0

-120.429 74411.7 0
74411.7 92.0041 0
0    0    0

-56.3501 75452.9 0
75452.9 -193.238 0
0    0    0

263.382 76114.8 0
76114.8 238.955 0
0    0    0

-86.1422 76530 0
76530 -172.218 0
0    0    0

37.4518 72876.4 0
72876.4 -179.949 0
0    0    0

-41.6694 73425.5 0
73425.5 -153.575 0
0    0    0

275.407 74937.7 0
74937.7 41.2735 0
0    0    0

-41.8805 75387.6 0
75387.6 189.935 0
0    0    0

-173.744 76564.7 0
76564.7 -243.228 0
0    0    0

61.964 76547.5 0
76547.5 168.727 0
0    0    0

221.961 75559.8 0
75559.8 -32.2232 0
0    0    0

180.14 75996.3 0
75996.3 63.2054 0
0    0    0

237.556 75296.7 0
75296.7 187.346 0
0    0    0

-67.1336 76248.3 0
76248.3 289.103 0
0    0    0

-141.908 75834.3 0
75834.3 -293.645 0
0    0    0

-152.207 76299.5 0
76299.5 -306.111 0
0    0    0

283.055 76999.8 0
76999.8 109.254 0
0    0    0

-55.8696 77025.1 0
77025.1 -0.930889 0
0    0    0

-103.884 75888 0
75888 -270.799 0
0    0    0

-245.65 76441.9 0
76441.9 -194.84 0
0    0    0

-163.098 75563.5 0
75563.5 -179.683 0
0    0    0

190.105 76398.6 0
76398.6 -78.9047 0
0    0    0

60.0034 76851.7 0
76851.7 -131.476 0
0    0    0

-125.859 76351 0
76351 -297.468 0
0    0    0

-47.2232 76055.2 0
76055.2 53.6853 0
0    0    0

110.441 76026.7 0
76026.7 305.785 0
0    0    0

216.42 76464.1 0
76464.1 326.19 0
0    0    0

135.899 76357.6 0
76357.6 178.171 0
0    0    0

-5.91752 77403.6 0
77403.6 -202.974 0
0    0    0

-288.669 77548.8 0
77548.8 -254.725 0
0    0    0

-251.073 78238.9 0
78238.9 -77.3837 0
0    0    0

23.0973 79734.6 0
79734.6 169.29 0
0    0    0

-177.893 77651 0
77651 -194.98 0
0    0    0

27.7711 76008.3 0
76008.3 -13.2525 0
0    0    0

168.348 78003.4 0
78003.4 -31.5283 0
0    0    0

233.216 77776.1 0
77776.1 288.014 0
0    0    0

278.832 77182.6 0
77182.6 234.23 0
0    0    0

71.2821 76787 0
76787 -136.565 0
0    0    0

196.083 77341.1 0
77341.1 196.068 0
0    0    0

-206.043 76598.1 0
76598.1 -356.915 0
0    0    0

70.1216 75115.6 0
75115.6 206.119 0
0    0    0

-291.609 74950.1 0
74950.1 -220.776 0
0    0    0

107.356 74638.3 0
74638.3 -72.8853 0
0    0    0

111.386 74010.4 0
74010.4 -58.1757 0
0    0    0

266.141 75152.6 0
75152.6 241.833 0
0    0    0

92.8727 74766.2 0
74766.2 57.753 0
0    0    0

-111.391 74849.2 0
74849.2 -26.8202 0
0    0    0

-231.915 75154.4 0
75154.4 -652.639 0
0    0    0

-70.7182 73753.2 0
73753.2 -64.8131 0
0    0    0

147.489 74304.7 0
74304.7 57.481 0
0    0    0

111.592 73687 0
73687 55.9015 0
0    0    0

45.558 73361.9 0
73361.9 67.4346 0
0    0    0

-16.4423 76142.1 0
76142.1 231.718 0
0    0    0

-143.624 75769.6 0
75769.6 -353.26 0
0    0    0

-303.75 77099.4 0
77099.4 -412.715 0
0    0    0

-49.4684 77509.3 0
77509.3 -0.642129 0
0    0    0

-64.2933 77422.7 0
77422.7 -86.0935 0
0    0    0

81.5891 76793.7 0
76793.7 242.885 0
0    0    0

-267.123 77122.9 0
77122.9 -313.665 0
0    0    0

151.227 77969.8 0
77969.8 207.416 0
0    0    0

-25.998 77621.9 0
77621.9 191.651 0
0    0    0

-188.166 78150.8 0
78150.8 -137.565 0
0    0    0

-148.233 77909.7 0
77909.7 93.3643 0
0    0    0

262.64 77343.3 0
77343.3 204.87 0
0    0    0

-0.688876 78744 0
78744 -277.508 0
0    0    0

22.5758 78109.7 0
78109.7 174.531 0
0    0    0

226.055 75405.6 0
75405.6 495.895 0
0    0    0

8.5844 75082.9 0
75082.9 83.3766 0
0    0    0

111.185 76730.2 0
76730.2 175.106 0
0    0    0

242.879 77351.9 0
77351.9 495.667 0
0    0    0

-15.4725 76539.5 0
76539.5 62.9122 0
0    0    0

-184.309 77426.1 0
77426.1 9.91361 0
0    0    0

-99.4555 77841.5 0
77841.5 -125.194 0
0    0    0

174.444 77278.7 0
77278.7 -92.3916 0
0    0    0

93.0705 77599.6 0
77599.6 21.4341 0
0    0    0

210.422 76932.4 0
76932.4 164.348 0
0    0    0

-10.4815 78442.3 0
78442.3 -147.196 0
0    0    0

278.663 78143.8 0
78143.8 205.125 0
0    0    0

-62.3447 77911.8 0
77911.8 164.128 0
0    0    0

198.451 78547.2 0
78547.2 217.753 0
0    0    0

-169.229 76501.9 0
76501.9 -123.723 0
0    0    0

-142.638 76874.2 0
76874.2 -505.251 0
0    0    0

161.626 76959.7 0
76959.7 -83.7067 0
0    0    0

-120.691 75369.9 0
75369.9 -326.297 0
0    0    0

114.059 77128.8 0
77128.8 -211.275 0
0    0    0

203.387 76786.2 0
76786.2 202.812 0
0    0    0

52.2528 77045.3 0
77045.3 -96.7129 0
0    0    0

85.5607 76311.2 0
76311.2 345.77 0
0    0    0

-23.8947 75649.6 0
75649.6 167.974 0
0    0    0

182.224 75010.7 0
75010.7 243.332 0
0    0    0

-79.7128 75472.8 0
75472.8 -206.519 0
0    0    0

55.3913 75897.9 0
75897.9 -103.927 0
0    0    0

75.9765 75341.9 0
75341.9 -191.791 0
0    0    0

-181.693 74820.5 0
74820.5 -269.262 0
0    0    0

-20.2054 74462.3 0
74462.3 174.763 0
0    0    0

0.758355 75789.3 0
75789.3 267.711 0
0    0    0

-195.484 74791.1 0
74791.1 -115.11 0
0    0    0

121.997 74532.9 0
74532.9 241.47 0
0    0    0

-217.853 78845.1 0
78845.1 -154.682 0
0    0    0

-93.4792 79497.6 0
79497.6 -236.252 0
0    0    0

0.388397 76973.1 0
76973.1 280.995 0
0    0    0

-151.847 77119.9 0
77119.9 133.002 0
0    0    0

175.361 77317.6 0
77317.6 341.208 0
0    0    0

7.91705 77063.4 0
77063.4 -121.515 0
0    0    0

-250.126 78514.1 0
78514.1 -438.191 0
0    0    0

68.7234 77690.6 0
77690.6 -84.3241 0
0    0    0

184.139 78804.2 0
78804.2 319.403 0
0    0    0

215.764 77950.9 0
77950.9 160.265 0
0    0    0

309.464 78759.9 0
78759.9 312.603 0
0    0    0

55.4166 78304.4 0
78304.4 -165.36 0
0    0    0

-38.6811 76872.5 0
76872.5 -205.159 0
0    0    0

-179.927 77290.5 0
77290.5 -244.447 0
0    0    0

-295.554 78363.3 0
78363.3 -127.715 0
0    0    0

-123.412 77930.9 0
77930.9 -375.396 0
0    0    0

-183.184 79080.3 0
79080.3 -151.723 0
0    0    0

-286.171 79443.3 0
79443.3 -187.066 0
0    0    0

253.658 80463.4 0
80463.4 382.058 0
0    0    0

87.9383 79081.8 0
79081.8 262.969 0
0    0    0

215.96 79697.2 0
79697.2 135.542 0
0    0    0

-68.1285 79286.3 0
79286.3 -364.936 0
0    0    0

89.8817 79298.5 0
79298.5 -202.918 0
0    0    0

200.233 78386.5 0
78386.5 153.771 0
0    0    0

76.6921 78901.9 0
78901.9 -194.459 0
0    0    0

172.841 78093.4 0
78093.4 -126.06 0
0    0    0

-82.2324 76205.2 0
76205.2 222.271 0
0    0    0

-63.9576 75807.5 0
75807.5 -344.183 0
0    0    0

-138.209 76051.7 0
76051.7 -327.996 0
0    0    0

172.073 76534.2 0
76534.2 114.081 0
0    0    0

-233.097 77353.4 0
77353.4 -199.857 0
0    0    0

49.8629 77671.7 0
77671.7 290.898 0
0    0    0

-74.9099 76619.7 0
76619.7 -335.474 0
0    0    0

-237.889 76715.3 0
76715.3 -88.2034 0
0    0    0

149.998 76340.7 0
76340.7 411.024 0
0    0    0

-199.547 76400.3 0
76400.3 -115.48 0
0    0    0

98.6979 76970.7 0
76970.7 134.207 0
0    0    0

-46.6352 77958.9 0
77958.9 -192.999 0
0    0    0

-81.4486 78874.4 0
78874.4 -126.441 0
0    0    0

87.2752 79215.1 0
79215.1 -28.9739 0
0    0    0

163.737 78520.9 0
78520.9 91.596 0
0    0    0

28.6784 78770.6 0
78770.6 139.604 0
0    0    0

111.851 80160.7 0
80160.7 190.62 0
0    0    0

-129.731 79429.3 0
79429.3 -235.199 0
0    0    0

227.267 79983.3 0
79983.3 -24.0041 0
0    0    0

-316.611 83309 0
83309 -131.36 0
0    0    0

39.067 79586.8 0
79586.8 441.86 0
0    0    0

-161.305 80535.2 0
80535.2 -171.7 0
0    0    0

-165.464 79487.6 0
79487.6 -37.3623 0
0    0    0

89.4995 76696.7 0
76696.7 -256.285 0
0    0    0

-84.8686 78571.1 0
78571.1 116.968 0
0    0    0

-30.3716 78620.5 0
78620.5 211.975 0
0    0    0

57.3849 79143.7 0
79143.7 155.442 0
0    0    0

-28.3142 78472.5 0
78472.5 -140.487 0
0    0    0

-101.137 80782 0
80782 59.5504 0
0    0    0

33.9786 78672.6 0
78672.6 218.973 0
0    0    0

127.082 78255.2 0
78255.2 279.056 0
0    0    0

51.0649 77843.3 0
77843.3 -158.761 0
0    0    0

153.094 80352.6 0
80352.6 -39.6872 0
0    0    0

-141.767 78946.2 0
78946.2 -344.524 0
0    0    0

-175.618 78542.8 0
78542.8 -204.021 0
0    0    0

137.852 78479.4 0
78479.4 89.5662 0
0    0    0

-274.389 80068.5 0
80068.5 -461.651 0
0    0    0

151.951 79574.5 0
79574.5 78.1764 0
0    0    0

133.125 77526.8 0
77526.8 25.7667 0
0    0    0

-106.817 77317.2 0
77317.2 -293.798 0
0    0    0

81.8725 78732.2 0
78732.2 311.886 0
0    0    0

-155.33 77958.7 0
77958.7 -33.7665 0
0    0    0

49.5029 79842.7 0
79842.7 348.457 0
0    0    0

-127.182 80740.1 0
80740.1 -354.571 0
0    0    0

88.0563 79940.1 0
79940.1 114.63 0
0    0    0

189.89 78140.4 0
78140.4 56.4464 0
0    0    0

-48.0723 78993.4 0
78993.4 -48.4739 0
0    0    0

-137.048 78602.8 0
78602.8 -54.2898 0
0    0    0

-147.579 77635.1 0
77635.1 -97.591 0
0    0    0

-46.6193 76875.1 0
76875.1 -114.564 0
0    0    0

116.027 79234.4 0
79234.4 265.445 0
0    0    0

12.2931 78938.5 0
78938.5 -217.041 0
0    0    0

-85.29 79838.3 0
79838.3 -287.023 0
0    0    0

41.3421 79298.6 0
79298.6 327.514 0
0    0    0

-6.47501 79579.4 0
79579.4 273.952 0
0    0    0

200.469 78869 0
78869 -29.6968 0
0    0    0

-147.461 79144.8 0
79144.8 -166.534 0
0    0    0

-185.184 77405.8 0
77405.8 52.5166 0
0    0    0

145.275 78397 0
78397 -54.0583 0
0    0    0

-172.133 78273.8 0
78273.8 -47.7563 0
0    0    0

139.104 78067.1 0
78067.1 50.9861 0
0    0    0

175.242 77606.2 0
77606.2 -122.744 0
0    0    0

233.579 77863.4 0
77863.4 -32.7676 0
0    0    0

-188.594 77967.6 0
77967.6 14.7345 0
0    0    0

-51.0394 77424.3 0
77424.3 239.311 0
0    0    0

-186.759 76612.6 0
76612.6 -355.92 0
0    0    0

283.707 78370.6 0
78370.6 40.6891 0
0    0    0

-64.855 79108.8 0
79108.8 -323.223 0
0    0    0

18.8769 79602.9 0
79602.9 -88.5482 0
0    0    0

90.4355 79211.4 0
79211.4 -48.0916 0
0    0    0

-174.64 77699.6 0
77699.6 -16.4517 0
0    0    0

-80.7306 78146.4 0
78146.4 130.49 0
0    0    0

141.57 78786.6 0
78786.6 273.772 0
0    0    0

-298.942 79003.6 0
79003.6 -109.596 0
0    0    0

20.8213 79763.4 0
79763.4 144.705 0
0    0    0

-1.24841 79587.7 0
79587.7 -193.942 0
0    0    0

173.805 79656.7 0
79656.7 241.216 0
0    0    0

-145.462 79689.7 0
79689.7 175.105 0
0    0    0

46.9765 81145.1 0
81145.1 -55.8563 0
0    0    0

139.756 80658.7 0
80658.7 -19.2587 0
0    0    0

256.801 80328.7 0
80328.7 396.502 0
0    0    0

110.006 80011.1 0
80011.1 61.2039 0
0    0    0

146.943 80979.1 0
80979.1 280.468 0
0    0    0

104.968 80766.3 0
80766.3 -86.2408 0
0    0    0

77.3089 77141.5 0
77141.5 255.299 0
0    0    0

-141.193 77083.2 0
77083.2 171.405 0
0    0    0

-374.228 77721.1 0
77721.1 -616.604 0
0    0    0

340.443 78052.9 0
78052.9 159.329 0
0    0    0

-220.037 76065.7 0
76065.7 -370.988 0
0    0    0

-92.6225 76110.7 0
76110.7 -247.835 0
0    0    0

-192.909 80676.6 0
80676.6 -241.398 0
0    0    0

74.9724 80007.3 0
80007.3 252.094 0
0    0    0

-160.544 80279.8 0
80279.8 -210.432 0
0    0    0

-12.9722 80490.9 0
80490.9 221.253 0
0    0    0

-207.407 81520.4 0
81520.4 129.48 0
0    0    0

25.5069 81416.3 0
81416.3 188.988 0
0    0    0

27.8689 80995.1 0
80995.1 255.509 0
0    0    0

-51.6648 80492 0
80492 211.571 0
0    0    0

-12.1803 81520.4 0
81520.4 66.2311 0
0    0    0

247.34 82296.9 0
82296.9 136.999 0
0    0    0

-67.3241 78173.5 0
78173.5 -117.648 0
0    0    0

-117.905 77267.9 0
77267.9 -171.644 0
0    0    0

-65.1775 77166.6 0
77166.6 -259.617 0
0    0    0

215.012 76339.8 0
76339.8 325.97 0
0    0    0

-217.229 76674.8 0
76674.8 -255.333 0
0    0    0

131.511 76861.6 0
76861.6 250.683 0
0    0    0

195.603 75778.9 0
75778.9 354.724 0
0    0    0

110.773 76063.8 0
76063.8 169.659 0
0    0    0

-102.956 79289.3 0
79289.3 54.3212 0
0    0    0

174.284 80196.1 0
80196.1 -24.19 0
0    0    0

122.963 81346 0
81346 195.949 0
0    0    0

-233.217 81365.7 0
81365.7 -390.307 0
0    0    0

165.992 81066.3 0
81066.3 135.6 0
0    0    0

271.259 79948.7 0
79948.7 190.073 0
0    0    0

104.991 81729.6 0
81729.6 249.987 0
0    0    0

-175.336 80857 0
80857 -220.902 0
0    0    0

-72.0168 79319.5 0
79319.5 9.70892 0
0    0    0

84.5399 79051.7 0
79051.7 -158.861 0
0    0    0

-109.508 79504.7 0
79504.7 -47.6504 0
0    0    0

36.1969 79391.8 0
79391.8 290.223 0
0    0    0

-40.5635 81066.7 0
81066.7 103.357 0
0    0    0

-208.128 81914.5 0
81914.5 68.8482 0
0    0    0

-140.512 78471.3 0
78471.3 -290.078 0
0    0    0

253.27 77766.7 0
77766.7 118.769 0
0    0    0

-137.848 75001.3 0
75001.3 -212.858 0
0    0    0

-106.391 75153.2 0
75153.2 -41.5989 0
0    0    0

132.508 74954.5 0
74954.5 47.6533 0
0    0    0

52.3472 75180.3 0
75180.3 279.385 0
0    0    0

-66.2384 75995 0
75995 80.2784 0
0    0    0

95.82 75298.6 0
75298.6 -214.695 0
0    0    0

56.2586 79215.4 0
79215.4 173.821 0
0    0    0

-76.3729 80003.9 0
80003.9 218.434 0
0    0    0

-5.83252 81056.4 0
81056.4 -108.718 0
0    0    0

-62.7138 80782.9 0
80782.9 57.3715 0
0    0    0

-272.87 82700.3 0
82700.3 -106.126 0
0    0    0

-78.0036 81658.9 0
81658.9 -225.413 0
0    0    0

280.019 78030.9 0
78030.9 474.663 0
0    0    0

66.6243 77605.8 0
77605.8 19.7082 0
0    0    0

-234.362 79041.7 0
79041.7 -177.384 0
0    0    0

247.708 78653.8 0
78653.8 176.17 0
0    0    0

187.633 76279 0
76279 235.92 0
0    0    0

45.0676 75297 0
75297 -163.595 0
0    0    0

164.351 76220.4 0
76220.4 296.784 0
0    0    0

7.85659 75724.2 0
75724.2 146.417 0
0    0    0

55.1296 74997.9 0
74997.9 -98.2663 0
0    0    0

183.742 75638.5 0
75638.5 229.962 0
0    0    0

169.851 75843.1 0
75843.1 94.488 0
0    0    0

136.436 75569 0
75569 -43.0049 0
0    0    0

-183.782 80049.4 0
80049.4 -413.287 0
0    0    0

248.093 80464.7 0
80464.7 212.469 0
0    0    0

75.2998 79546.7 0
79546.7 -117.976 0
0    0    0

-43.6657 79923.8 0
79923.8 356.61 0
0    0    0

37.9407 79982.5 0
79982.5 -74.9636 0
0    0    0

408.093 81217.8 0
81217.8 1.82708 0
0    0    0

-213.236 80748.6 0
80748.6 -287.55 0
0    0    0

-80.0618 80575.2 0
80575.2 50.3227 0
0    0    0

9.09697 79791 0
79791 -236.564 0
0    0    0

-267.6 80454 0
80454 -199.119 0
0    0    0

110.246 81228.5 0
81228.5 216.309 0
0    0    0

92.1382 80352.7 0
80352.7 -80.7088 0
0    0    0

-152.579 81254.4 0
81254.4 43.148 0
0    0    0

-115.63 81327.5 0
81327.5 -83.194 0
0    0    0

-247.006 83466.1 0
83466.1 -168.795 0
0    0    0

94.8439 81723.2 0
81723.2 6.17383 0
0    0    0

24.1303 81804 0
81804 176.46 0
0    0    0

317.488 82314.1 0
82314.1 184.337 0
0    0    0

84.9185 82168.3 0
82168.3 -146.326 0
0    0    0

-121.804 82692.6 0
82692.6 -45.4558 0
0    0    0

310.226 82860.2 0
82860.2 99.9006 0
0    0    0

40.963 82705.5 0
82705.5 95.5804 0
0    0    0

35.3323 80960.4 0
80960.4 114.69 0
0    0    0

-182.855 81547.6 0
81547.6 67.2964 0
0    0    0

-54.6095 81825.4 0
81825.4 -170.367 0
0    0    0

268.156 82163.1 0
82163.1 -14.7375 0
0    0    0

24.2856 80311.3 0
80311.3 -98.2784 0
0    0    0

-39.3671 79689.9 0
79689.9 -331.72 0
0    0    0

-342.205 79555.6 0
79555.6 42.1866 0
0    0    0

-177.656 79005.6 0
79005.6 -275.53 0
0    0    0

-196.311 77674.7 0
77674.7 -117.639 0
0    0    0

184.274 76592.2 0
76592.2 223.265 0
0    0    0

-119.349 76393.6 0
76393.6 -273.08 0
0    0    0

-33.1913 76591.3 0
76591.3 -71.2106 0
0    0    0

66.5076 76287 0
76287 177.476 0
0    0    0

-119.181 76729.6 0
76729.6 242.04 0
0    0    0

-73.4816 76992.6 0
76992.6 -58.3867 0
0    0    0

-200.353 77413.3 0
77413.3 -193.296 0
0    0    0

198.75 77872.4 0
77872.4 115.997 0
0    0    0

57.3376 77400.2 0
77400.2 -111.671 0
0    0    0

-232.933 79228.8 0
79228.8 -84.36 0
0    0    0

-40.7582 77801.5 0
77801.5 137.444 0
0    0    0

120.848 78207.2 0
78207.2 37.7499 0
0    0    0

140.736 77997.2 0
77997.2 -97.3936 0
0    0    0

202.768 78339.7 0
78339.7 198.837 0
0    0    0

128.213 79358.3 0
79358.3 253.947 0
0    0    0

52.0461 81777 0
81777 141.817 0
0    0    0

99.6308 78987.1 0
78987.1 169.864 0
0    0    0

-63.6459 78502.3 0
78502.3 45.4721 0
0    0    0

-243.213 79454.7 0
79454.7 -232.324 0
0    0    0

5.3662 78754.6 0
78754.6 86.23 0
0    0    0

-252.739 79198.4 0
79198.4 -87.7315 0
0    0    0

80.9702 77794 0
77794 -66.2943 0
0    0    0

-340.556 78149.1 0
78149.1 -104.326 0
0    0    0

-361.332 78684.7 0
78684.7 -283.24 0
0    0    0

382.356 78959.8 0
78959.8 335.777 0
0    0    0

-271.229 78475.3 0
78475.3 -538.525 0
0    0    0

236.984 79586.8 0
79586.8 107.142 0
0    0    0

285.282 78349.7 0
78349.7 40.0097 0
0    0    0

93.2508 79107.1 0
79107.1 51.7899 0
0    0    0

49.3193 78957.9 0
78957.9 291.401 0
0    0    0

175.992 78702 0
78702 357.854 0
0    0    0

45.8978 68823 0
68823 -49.9629 0
0    0    0

-59.3807 70885.8 0
70885.8 131.206 0
0    0    0

167.433 69716.8 0
69716.8 119.76 0
0    0    0

282.904 70270.4 0
70270.4 610.577 0
0    0    0

-73.3402 70950.2 0
70950.2 311.042 0
0    0    0

-119.805 70702.3 0
70702.3 -175.02 0
0    0    0

-68.1487 69581.8 0
69581.8 -82.4503 0
0    0    0

386.535 70869.4 0
70869.4 830.495 0
0    0    0

90.6932 69472.6 0
69472.6 420.091 0
0    0    0

-245.561 69779.5 0
69779.5 -210.305 0
0    0    0

-250.708 69916.6 0
69916.6 -536.49 0
0    0    0

-52.6225 70324.4 0
70324.4 -176.456 0
0    0    0

164.24 69979.6 0
69979.6 318.745 0
0    0    0

148.425 71801.9 0
71801.9 61.9201 0
0    0    0

-300.563 70525.4 0
70525.4 -744.203 0
0    0    0

11.1464 71006.6 0
71006.6 68.1473 0
0    0    0

85.496 71613.6 0
71613.6 114.221 0
0    0    0

-71.5268 72347.8 0
72347.8 -110.333 0
0    0    0

182.005 72467.7 0
72467.7 -183.393 0
0    0    0

17.7626 73471 0
73471 84.8248 0
0    0    0

-285.921 71802 0
71802 -226.504 0
0    0    0

92.3398 73158 0
73158 299.496 0
0    0    0

-62.6569 73835 0
73835 59.1382 0
0    0    0

66.755 73810.7 0
73810.7 295.298 0
0    0    0

70.9761 72873.2 0
72873.2 -28.7204 0
0    0    0

-96.9288 72635.2 0
72635.2 17.746 0
0    0    0

133.978 51128.7 0
51128.7 267.277 0
0    0    0

116.264 51239.7 0
51239.7 235.345 0
0    0    0

-200.498 51611.3 0
51611.3 -149.267 0
0    0    0

163.927 52126.8 0
52126.8 302.306 0
0    0    0

-261.545 51577.7 0
51577.7 -380.402 0
0    0    0

126.851 51244.9 0
51244.9 265.607 0
0    0    0

116.427 53530.5 0
53530.5 389.038 0
0    0    0

-264.584 55282.7 0
55282.7 -221.988 0
0    0    0

222.076 52078.9 0
52078.9 248.12 0
0    0    0

-110.088 51494.6 0
51494.6 -66.6378 0
0    0    0

173.944 50716.1 0
50716.1 239.228 0
0    0    0

65.7269 51446.4 0
51446.4 -112.599 0
0    0    0

110.846 50108.9 0
50108.9 112.949 0
0    0    0

4.79397 50576.8 0
50576.8 61.851 0
0    0    0

-105.595 49993.5 0
49993.5 -99.8664 0
0    0    0

-253.782 50418.3 0
50418.3 -217.598 0
0    0    0

-172.291 56922.1 0
56922.1 -120.689 0
0    0    0

196.756 57358.1 0
57358.1 2.6335 0
0    0    0

257.353 57763.6 0
57763.6 278.796 0
0    0    0

-32.669 57254.2 0
57254.2 -232.931 0
0    0    0

114.309 57234.2 0
57234.2 386.007 0
0    0    0

-279.098 57013 0
57013 -359.217 0
0    0    0

165.694 56147.4 0
56147.4 192.845 0
0    0    0

-165.482 53980.4 0
53980.4 -143.754 0
0    0    0

-285.679 57495.8 0
57495.8 -100.255 0
0    0    0

-225.127 56982.8 0
56982.8 -106.474 0
0    0    0

203.954 56076.8 0
56076.8 357.522 0
0    0    0

-139.928 56209.4 0
56209.4 99.9699 0
0    0    0

162.458 56658.5 0
56658.5 137.44 0
0    0    0

-5.49936 57188.1 0
57188.1 -112.652 0
0    0    0

80.6013 55840.1 0
55840.1 -103.702 0
0    0    0

245.698 56781.1 0
56781.1 57.1063 0
0    0    0

-205.492 55042.6 0
55042.6 -41.7991 0
0    0    0

36.8836 56138.7 0
56138.7 197.338 0
0    0    0

-195.058 56367.8 0
56367.8 -470.583 0
0    0    0

-97.2859 56494.5 0
56494.5 -253.616 0
0    0    0

-196.112 55876.8 0
55876.8 -399.068 0
0    0    0

235.539 56095.8 0
56095.8 219.771 0
0    0    0

-147.191 55443.8 0
55443.8 -188.209 0
0    0    0

189.91 55525.3 0
55525.3 98.2498 0
0    0    0

158.349 56667.9 0
56667.9 242.68 0
0    0    0

82.6251 56442.5 0
56442.5 102.989 0
0    0    0

51.1445 55347.9 0
55347.9 -180.139 0
0    0    0

-237.581 55345.5 0
55345.5 -162.028 0
0    0    0

101.26 54428 0
54428 63.3384 0
0    0    0

252.014 54868.6 0
54868.6 167.293 0
0    0    0

-188.256 55402.6 0
55402.6 -282.548 0
0    0    0

-185.716 55965.9 0
55965.9 -493.802 0
0    0    0

-115.598 55809.1 0
55809.1 -308.353 0
0    0    0

21.1842 56122.6 0
56122.6 -59.68 0
0    0    0

174.615 55056.1 0
55056.1 208.84 0
0    0    0

245.64 54657.6 0
54657.6 203.947 0
0    0    0

162.227 53998.1 0
53998.1 221.938 0
0    0    0

-142.054 54496.8 0
54496.8 -177.423 0
0    0    0

-54.0705 53391.5 0
53391.5 -209.084 0
0    0    0

-58.5058 54170.7 0
54170.7 -355.484 0
0    0    0

208.842 53083.4 0
53083.4 115.503 0
0    0    0

-187.068 53448.9 0
53448.9 -71.85 0
0    0    0

-58.3762 54840.8 0
54840.8 48.4576 0
0    0    0

97.721 54977.2 0
54977.2 -81.7565 0
0    0    0

11.5787 58428.6 0
58428.6 46.4872 0
0    0    0

-97.5335 57592.4 0
57592.4 -340.084 0
0    0    0

136.187 54514.7 0
54514.7 -202.099 0
0    0    0

0.905544 55186.3 0
55186.3 187.508 0
0    0    0

80.6746 55832.2 0
55832.2 476.451 0
0    0    0

-31.569 56497.8 0
56497.8 -286.195 0
0    0    0

217.211 55116.5 0
55116.5 374.877 0
0    0    0

104.7 55480 0
55480 -412.951 0
0    0    0

-344.794 58698.5 0
58698.5 -320.581 0
0    0    0

30.7431 58981.5 0
58981.5 -148.812 0
0    0    0

276.024 57828.9 0
57828.9 303.862 0
0    0    0

205.93 60086.1 0
60086.1 175.37 0
0    0    0

-5.16539 58471 0
58471 118.867 0
0    0    0

-117.614 58162.5 0
58162.5 -271.876 0
0    0    0

-201.99 58123.7 0
58123.7 -305.076 0
0    0    0

-112.103 59280.5 0
59280.5 -319.028 0
0    0    0

59.4441 59537.9 0
59537.9 155.627 0
0    0    0

17.0325 58934.7 0
58934.7 66.0003 0
0    0    0

65.3044 58241.6 0
58241.6 -65.9678 0
0    0    0

-68.7639 58165.9 0
58165.9 41.876 0
0    0    0

147.814 58362.9 0
58362.9 174.78 0
0    0    0

245.76 58955.4 0
58955.4 384.606 0
0    0    0

-99.9236 57668.8 0
57668.8 13.3969 0
0    0    0

149.999 58431.6 0
58431.6 115.619 0
0    0    0

-198.051 57033.8 0
57033.8 -393.579 0
0    0    0

81.8421 57395.1 0
57395.1 329.846 0
0    0    0

-232.768 56496.3 0
56496.3 -24.9428 0
0    0    0

210.62 56687.3 0
56687.3 115.475 0
0    0    0

-185.574 58283.7 0
58283.7 -398.063 0
0    0    0

162.758 57868.7 0
57868.7 388.367 0
0    0    0

123.942 57418.7 0
57418.7 16.4758 0
0    0    0

162.994 58026.5 0
58026.5 171.877 0
0    0    0

-49.2847 57978.7 0
57978.7 183.807 0
0    0    0

62.906 58645.4 0
58645.4 442.257 0
0    0    0

118.813 56262.7 0
56262.7 428.388 0
0    0    0

48.5588 56981.8 0
56981.8 160.515 0
0    0    0

-351.349 59322.7 0
59322.7 -342.16 0
0    0    0

-340.38 60455.3 0
60455.3 -353.457 0
0    0    0

50.6656 57682.8 0
57682.8 -175.507 0
0    0    0

-43.361 56933.1 0
56933.1 -17.6848 0
0    0    0

-293.211 58354.6 0
58354.6 -392.133 0
0    0    0

-177.929 59305.4 0
59305.4 6.93901 0
0    0    0

-117.318 58157.7 0
58157.7 -191.792 0
0    0    0

-27.5556 58544.1 0
58544.1 6.5831 0
0    0    0

-41.6952 58861.8 0
58861.8 -319.569 0
0    0    0

-13.8823 60471.1 0
60471.1 -71.6476 0
0    0    0

-143.787 57201.8 0
57201.8 -42.6978 0
0    0    0

0.310759 57508.3 0
57508.3 73.5324 0
0    0    0

-254.719 57114.1 0
57114.1 -208.684 0
0    0    0

30.5854 58068.1 0
58068.1 -293.457 0
0    0    0

-158.612 57567 0
57567 -183.215 0
0    0    0

57.6467 57785 0
57785 101.372 0
0    0    0

366.422 59022.2 0
59022.2 69.9749 0
0    0    0

136.778 59630.1 0
59630.1 244.89 0
0    0    0

-109.485 62030.5 0
62030.5 -138.451 0
0    0    0

-249.254 61415.2 0
61415.2 -234.274 0
0    0    0

-92.3929 60999.1 0
60999.1 -113.587 0
0    0    0

19.4992 62436.5 0
62436.5 -183.601 0
0    0    0

249.773 61107.9 0
61107.9 49.3684 0
0    0    0

252.463 60754.9 0
60754.9 290.85 0
0    0    0

-214.308 60554.1 0
60554.1 -275.412 0
0    0    0

7.48082 61611.5 0
61611.5 -105.911 0
0    0    0

60.8526 61818.9 0
61818.9 -207.971 0
0    0    0

-249.088 61109.7 0
61109.7 -308.204 0
0    0    0

137.122 60056.7 0
60056.7 101.397 0
0    0    0

-139.213 61120.8 0
61120.8 -264.908 0
0    0    0

-67.4945 59846.2 0
59846.2 278.355 0
0    0    0

-135.398 59850.6 0
59850.6 -326.495 0
0    0    0

-4.37065 59682.9 0
59682.9 190.205 0
0    0    0

58.6688 60141.2 0
60141.2 393.678 0
0    0    0

-98.3477 61991.2 0
61991.2 -102.734 0
0    0    0

-41.0392 63713.3 0
63713.3 45.3106 0
0    0    0

169.324 41022 0
41022 146.452 0
0    0    0

-221.654 42001.5 0
42001.5 56.6681 0
0    0    0

-483.007 41691 0
41691 -297.454 0
0    0    0

88.8816 42633.9 0
42633.9 120.772 0
0    0    0

-87.9369 42253.4 0
42253.4 -4.42294 0
0    0    0

128.617 44096.8 0
44096.8 -88.3164 0
0    0    0

-229.673 43114.4 0
43114.4 -299.006 0
0    0    0

-78.0021 43771.8 0
43771.8 -63.5814 0
0    0    0

319.732 41717.6 0
41717.6 -34.9736 0
0    0    0

171.828 42512.2 0
42512.2 195.349 0
0    0    0

58.8779 39547.1 0
39547.1 87.7343 0
0    0    0

-175.863 39256.4 0
39256.4 -158.448 0
0    0    0

155.114 38096.9 0
38096.9 123.995 0
0    0    0

-90.6621 39636.9 0
39636.9 -286.874 0
0    0    0

87.9502 39337 0
39337 -122.966 0
0    0    0

105.919 40015.7 0
40015.7 245.303 0
0    0    0

-70.9755 40239.1 0
40239.1 -165.61 0
0    0    0

33.7261 40636.9 0
40636.9 167.162 0
0    0    0

20.8213 39967.3 0
39967.3 342.522 0
0    0    0

-76.9816 40403.2 0
40403.2 186.061 0
0    0    0

-191.77 41499.7 0
41499.7 -198.114 0
0    0    0

-196.693 40748.6 0
40748.6 24.2466 0
0    0    0

-71.3559 41212.3 0
41212.3 -166.497 0
0    0    0

22.4371 40501.9 0
40501.9 -157.095 0
0    0    0

188.059 40478.6 0
40478.6 -65.7559 0
0    0    0

-79.6833 40227.5 0
40227.5 -84.8017 0
0    0    0

19.848 40707.9 0
40707.9 46.3119 0
0    0    0

68.2859 42268.9 0
42268.9 122.17 0
0    0    0

259.363 41287.9 0
41287.9 136.944 0
0    0    0

-156.458 47160.9 0
47160.9 -29.9769 0
0    0    0

-93.5164 41022.6 0
41022.6 111.446 0
0    0    0

-194.872 46572.7 0
46572.7 -209.707 0
0    0    0

210.901 48525.7 0
48525.7 343.15 0
0    0    0

57.1512 49012.1 0
49012.1 116.795 0
0    0    0

-109.858 47907.6 0
47907.6 -105.662 0
0    0    0

-134.841 48434.8 0
48434.8 96.1207 0
0    0    0

-128.615 48666.2 0
48666.2 -58.53 0
0    0    0

-83.6755 49019.1 0
49019.1 189.466 0
0    0    0

202.156 49683.8 0
49683.8 259.306 0
0    0    0

-204.091 49722.5 0
49722.5 -117.087 0
0    0    0

-9.79917 49793.3 0
49793.3 49.3698 0
0    0    0

-242.136 49621 0
49621 -409.703 0
0    0    0

110.36 25732.3 0
25732.3 -88.54 0
0    0    0

113.824 25565.2 0
25565.2 -104.744 0
0    0    0

164.316 24942.9 0
24942.9 -10.7076 0
0    0    0

-171.449 25384.5 0
25384.5 -1.74802 0
0    0    0

-118.654 24453.4 0
24453.4 -116.762 0
0    0    0

103.596 26047.4 0
26047.4 253.449 0
0    0    0

-214.995 26260.4 0
26260.4 -409.522 0
0    0    0

57.831 25595.9 0
25595.9 208.483 0
0    0    0

-121.216 25933.4 0
25933.4 -12.845 0
0    0    0

157.404 26055.3 0
26055.3 221.525 0
0    0    0

-245.733 25187.6 0
25187.6 -460.429 0
0    0    0

-43.505 25060.3 0
25060.3 52.021 0
0    0    0

-335.569 26544.1 0
26544.1 -150.597 0
0    0    0

128.627 25676.4 0
25676.4 220.722 0
0    0    0

23.4903 25832.5 0
25832.5 -216.413 0
0    0    0

-300.451 26009.6 0
26009.6 -183.015 0
0    0    0

193.584 25382.6 0
25382.6 131.246 0
0    0    0

-250.168 25594.4 0
25594.4 -298.594 0
0    0    0

207.365 24471.7 0
24471.7 287.517 0
0    0    0

-69.5981 22877.1 0
22877.1 -98.6841 0
0    0    0

153.529 22037.5 0
22037.5 62.9676 0
0    0    0

30.9951 24958.8 0
24958.8 -76.4238 0
0    0    0

-260.258 24930.4 0
24930.4 -265.241 0
0    0    0

-228.231 23762.7 0
23762.7 -37.132 0
0    0    0

-164.16 6543.63 0
6543.63 -125.366 0
0    0    0

-9.86632 6591.3 0
6591.3 -280.778 0
0    0    0

164.827 8079.3 0
8079.3 190.825 0
0    0    0

113.588 7785.67 0
7785.67 78.7539 0
0    0    0

-38.6013 8998.09 0
8998.09 -398.986 0
0    0    0

70.5642 9465.68 0
9465.68 33.2684 0
0    0    0

-123.291 11760 0
11760 71.3059 0
0    0    0

173.893 12309.9 0
12309.9 46.3509 0
0    0    0

143.135 10258.4 0
10258.4 180.829 0
0    0    0

77.7761 11322.1 0
11322.1 268.587 0
0    0    0

44.0191 10650.3 0
10650.3 -258.968 0
0    0    0

-273.12 10566.4 0
10566.4 -431.731 0
0    0    0

103.749 11010.7 0
11010.7 -163.15 0
0    0    0

-76.8942 11053.5 0
11053.5 -357.221 0
0    0    0

6.19037 12185.1 0
12185.1 355.055 0
0    0    0

-58.5212 11738 0
11738 -291.271 0
0    0    0

121.264 10736 0
10736 46.8536 0
0    0    0

-130.682 9714.33 0
9714.33 -81.479 0
0    0    0

86.4851 11883.1 0
11883.1 191.933 0
0    0    0

-384.823 10548.7 0
10548.7 -545.654 0
0    0    0

-94.8943 11177.3 0
11177.3 -271.175 0
0    0    0

160.195 9484.55 0
9484.55 439.028 0
0    0    0

-223.37 10095.7 0
10095.7 -182.087 0
0    0    0

254.744 9077.89 0
9077.89 241.089 0
0    0    0

227.617 9865.23 0
9865.23 46.6775 0
0    0    0

-52.2336 8874.13 0
8874.13 -332.694 0
0    0    0

-106.494 9323.2 0
9323.2 -248.487 0
0    0    0

188.607 8612.06 0
8612.06 405 0
0    0    0

-60.1319 10345.1 0
10345.1 130.814 0
0    0    0

-122.93 9258.61 0
9258.61 129.367 0
0    0    0

206.77 9628.42 0
9628.42 312.102 0
0    0    0

-28.7282 10799.6 0
10799.6 247.672 0
0    0    0

-154.593 10566.5 0
10566.5 -356.59 0
0    0    0

-285.806 8385.28 0
8385.28 -304.474 0
0    0    0

-22.8964 7459.89 0
7459.89 -53.425 0
0    0    0

-35.2276 9483.19 0
9483.19 -158.831 0
0    0    0

227.267 9495.49 0
9495.49 338.159 0
0    0    0

147.954 9235.32 0
9235.32 331.813 0
0    0    0

36.439 9675.61 0
9675.61 225.175 0
0    0    0

-150.78 10496.6 0
10496.6 -326.457 0
0    0    0

295.253 10201 0
10201 579.957 0
0    0    0

-31.9636 9975.42 0
9975.42 -53.351 0
0    0    0

46.7611 11513.5 0
11513.5 227.615 0
0    0    0

-174.531 8894.03 0
8894.03 -268.936 0
0    0    0

205.469 8050.93 0
8050.93 242 0
0    0    0

120.362 9738.55 0
9738.55 349.396 0
0    0    0

7.59026 8070.11 0
8070.11 180.692 0
0    0    0

121.068 8894.15 0
8894.15 -93.7925 0
0    0    0

-208.735 9904.15 0
9904.15 -543.615 0
0    0    0

-175.792 10049.2 0
10049.2 -313.487 0
0    0    0

267.501 10236.7 0
10236.7 204.813 0
0    0    0

265.307 10833.9 0
10833.9 545.642 0
0    0    0

66.1666 8660.97 0
8660.97 350.025 0
0    0    0

182.252 8048.28 0
8048.28 202 0
0    0    0

-137.055 7212.8 0
7212.8 -116.021 0
0    0    0

22.0567 8561.15 0
8561.15 133.241 0
0    0    0

-40.837 10242.3 0
10242.3 -95.2863 0
0    0    0

-78.9281 11018.4 0
11018.4 -157.156 0
0    0    0

164.696 8995.87 0
8995.87 223.211 0
0    0    0

88.5091 9034.34 0
9034.34 168.531 0
0    0    0

-199.773 8303.12 0
8303.12 -467.127 0
0    0    0

-90.1815 8392.24 0
8392.24 -210.423 0
0    0    0

-36.8555 7947.92 0
7947.92 -85.9961 0
0    0    0

40.1149 8637.16 0
8637.16 176.335 0
0    0    0

-178.463 10004 0
10004 -594.817 0
0    0    0

240.735 10278.6 0
10278.6 510.375 0
0    0    0

84.1781 10158.4 0
10158.4 149.869 0
0    0    0

-20.5009 9766.6 0
9766.6 -47.8353 0
0    0    0

42.5483 10661.1 0
10661.1 20.3588 0
0    0    0

-80.1328 7447.7 0
7447.7 -76.2641 0
0    0    0

102.419 7049.26 0
7049.26 -110.466 0
0    0    0

-217.558 9352.49 0
9352.49 -212.025 0
0    0    0

-160.37 8272.73 0
8272.73 -121.199 0
0    0    0

180.702 9890.22 0
9890.22 228.774 0
0    0    0

98.1554 9943.74 0
9943.74 88.0293 0
0    0    0

95.7657 8179.31 0
8179.31 23.8509 0
0    0    0

-64.1734 7790.54 0
7790.54 -213.886 0
0    0    0

-22.4054 8914.04 0
8914.04 -14.8422 0
0    0    0

-271.996 9035.72 0
9035.72 -263.23 0
0    0    0

251.077 9319.12 0
9319.12 455.032 0
0    0    0

160.45 8935.78 0
8935.78 59.7031 0
0    0    0

138.033 9521.66 0
9521.66 64.4085 0
0    0    0

-126.237 9267.22 0
9267.22 -607.31 0
0    0    0

-50.5724 10241.2 0
10241.2 -264.029 0
0    0    0

-208.501 9707.97 0
9707.97 -362.043 0
0    0    0

20.8377 6977.42 0
6977.42 -66.9775 0
0    0    0

-95.2677 7650.99 0
7650.99 148.051 0
0    0    0

36.1841 7441.39 0
7441.39 198.71 0
0    0    0

240.142 7882.11 0
7882.11 266.341 0
0    0    0

-95.0732 9572.62 0
9572.62 -514.563 0
0    0    0

142.091 9270.79 0
9270.79 180.123 0
0    0    0

173.299 9442.26 0
9442.26 182.001 0
0    0    0

-104.685 9794.02 0
9794.02 -292.496 0
0    0    0

-54.3802 8441.49 0
8441.49 -201.953 0
0    0    0

79.7739 8541.74 0
8541.74 107.477 0
0    0    0

-81.1452 8849.01 0
8849.01 -189.339 0
0    0    0

-74.5462 9396.24 0
9396.24 -267.727 0
0    0    0

-214.9 9025.67 0
9025.67 -267.358 0
0    0    0

-139.286 9284.41 0
9284.41 111.524 0
0    0    0

-32.152 11670.5 0
11670.5 321.175 0
0    0    0

41.4644 12128.6 0
12128.6 -47.4683 0
0    0    0

88.8508 11212.7 0
11212.7 -118.504 0
0    0    0

45.1851 10913.4 0
10913.4 125.95 0
0    0    0

11.2668 11433.9 0
11433.9 250.874 0
0    0    0

-59.1982 12097.6 0
12097.6 15.8933 0
0    0    0

-149.791 11605 0
11605 -435.103 0
0    0    0

119.396 11859.9 0
11859.9 348.572 0
0    0    0

-173.473 12612.2 0
12612.2 -42.6068 0
0    0    0

-198.261 12903.6 0
12903.6 23.361 0
0    0    0

22.99 11662 0
11662 -153.169 0
0    0    0

-60.7691 11638.5 0
11638.5 -232.237 0
0    0    0

204.632 12487.6 0
12487.6 34.7515 0
0    0    0

257.914 13094.8 0
13094.8 287.823 0
0    0    0

12.7855 12590.4 0
12590.4 241.002 0
0    0    0

81.0721 11889.9 0
11889.9 154.517 0
0    0    0

95.4049 7941.59 0
7941.59 255.641 0
0    0    0

-120.476 7124.02 0
7124.02 -99.0331 0
0    0    0

-18.3512 21740.5 0
21740.5 20.3503 0
0    0    0

222.338 20143.8 0
20143.8 133.487 0
0    0    0

159.189 22816.7 0
22816.7 -120.623 0
0    0    0

139.724 22711.6 0
22711.6 221.867 0
0    0    0

197.792 21568.7 0
21568.7 181.254 0
0    0    0

-222.297 21392.5 0
21392.5 -283.717 0
0    0    0

44.7517 22024.1 0
22024.1 -242.852 0
0    0    0

-183.896 20969 0
20969 -165.816 0
0    0    0

-172.447 20365.2 0
20365.2 -243.438 0
0    0    0

-19.5626 22485.7 0
22485.7 219.011 0
0    0    0

71.705 22519.9 0
22519.9 -78.1631 0
0    0    0

31.1967 20462 0
20462 -91.0252 0
0    0    0

86.6238 20130 0
20130 321.749 0
0    0    0

104.564 20655.6 0
20655.6 223.891 0
0    0    0

-51.0418 20427.8 0
20427.8 -303.716 0
0    0    0

-144.767 21048.4 0
21048.4 -285.13 0
0    0    0

127.017 21134.1 0
21134.1 205.489 0
0    0    0

0.160219 21804.2 0
21804.2 240.177 0
0    0    0

-287.59 22941.4 0
22941.4 -344.539 0
0    0    0

40.4794 21853.9 0
21853.9 -158.345 0
0    0    0

-133.363 22275.6 0
22275.6 -8.98852 0
0    0    0

74.605 21322.4 0
21322.4 -162.662 0
0    0    0

176.854 22122.3 0
22122.3 316.56 0
0    0    0

-119.248 22638.8 0
22638.8 -267.004 0
0    0    0

41.0083 23184.9 0
23184.9 15.8245 0
0    0    0

-301.169 23374.2 0
23374.2 184.056 0
0    0    0

240.045 22751.3 0
22751.3 100.534 0
0    0    0

-28.867 22883.4 0
22883.4 332.019 0
0    0    0

-217.689 25080.3 0
25080.3 -352.971 0
0    0    0

-339.199 23810.8 0
23810.8 -144.787 0
0    0    0

267.311 24075.4 0
24075.4 299.462 0
0    0    0

35.7305 22621.7 0
22621.7 130.635 0
0    0    0

-118.547 23068.3 0
23068.3 -345.209 0
0    0    0

122.901 23667.9 0
23667.9 -349.853 0
0    0    0

323.43 22266.6 0
22266.6 164.355 0
0    0    0

101.013 22877.6 0
22877.6 207.795 0
0    0    0

-285.871 22082 0
22082 -187.06 0
0    0    0

127.764 21983.1 0
21983.1 -162.202 0
0    0    0

-179.629 22518.9 0
22518.9 -263.796 0
0    0    0

-34.662 22231.3 0
22231.3 -48.9067 0
0    0    0

230.911 23354.9 0
23354.9 66.9364 0
0    0    0

192.6 22869.7 0
22869.7 374.722 0
0    0    0

-166.382 23585.9 0
23585.9 -123.495 0
0    0    0

75.0604 23060.1 0
23060.1 156.024 0
0    0    0

121.477 24046.8 0
24046.8 188.371 0
0    0    0

-145.935 24251.6 0
24251.6 -135.64 0
0    0    0

195.105 23222.2 0
23222.2 441.657 0
0    0    0

-68.3786 23370.8 0
23370.8 185.995 0
0    0    0

-106.534 23007.8 0
23007.8 -105.449 0
0    0    0

48.3935 24074.6 0
24074.6 -182.412 0
0    0    0

322.525 23631.8 0
23631.8 81.7147 0
0    0    0

-49.1376 23628.2 0
23628.2 -265.375 0
0    0    0

-115.936 24022.2 0
24022.2 -40.3515 0
0    0    0

-80.8555 23265.8 0
23265.8 -185.142 0
0    0    0

-98.4061 22138.9 0
22138.9 6.46183 0
0    0    0

37.4328 21651.1 0
21651.1 -25.6614 0
0    0    0

-78.929 21766.8 0
21766.8 -53.2928 0
0    0    0

347.155 23535.8 0
23535.8 265.558 0
0    0    0

251.391 24168.2 0
24168.2 186.906 0
0    0    0

18.8419 23105.4 0
23105.4 -203.438 0
0    0    0

-70.5393 23447.8 0
23447.8 -82.9238 0
0    0    0

273.732 23762.8 0
23762.8 167.444 0
0    0    0

161.846 22815.8 0
22815.8 116.26 0
0    0    0

1.10865 22615.1 0
22615.1 -125.83 0
0    0    0

-287.854 23294.2 0
23294.2 -104.363 0
0    0    0

119.33 22399.7 0
22399.7 -183.52 0
0    0    0

-78.997 22739 0
22739 62.7442 0
0    0    0

-10.5386 22683 0
22683 -265.01 0
0    0    0

-209.419 23238.4 0
23238.4 -83.5629 0
0    0    0

-337.022 23255.1 0
23255.1 -457.301 0
0    0    0

117.861 24859.7 0
24859.7 280.662 0
0    0    0

128.866 23524.9 0
23524.9 -41.0923 0
0    0    0

-191.869 23941.2 0
23941.2 -37.7276 0
0    0    0

-4.647 24553.6 0
24553.6 -39.3082 0
0    0    0

125.006 24224.2 0
24224.2 -19.3525 0
0    0    0

232.211 23016.1 0
23016.1 250.318 0
0    0    0

188.086 23458.6 0
23458.6 48.7099 0
0    0    0

-83.6399 24102.9 0
24102.9 111.003 0
0    0    0

237.346 22142.6 0
22142.6 43.7468 0
0    0    0

-39.8245 23581.8 0
23581.8 -134.604 0
0    0    0

-73.9795 23877.1 0
23877.1 -116.391 0
0    0    0

-64.803 23166.8 0
23166.8 78.4125 0
0    0    0

-175.619 24256.4 0
24256.4 80.9869 0
0    0    0

-145.665 23855.7 0
23855.7 -247.482 0
0    0    0

-42.2751 26508.5 0
26508.5 -365.085 0
0    0    0

175.885 23851.7 0
23851.7 -65.0158 0
0    0    0

-177.457 24583.6 0
24583.6 -117.414 0
0    0    0

111.961 24725.2 0
24725.2 46.6951 0
0    0    0

-174.793 24381.2 0
24381.2 -334.019 0
0    0    0

-192.308 25273.6 0
25273.6 -216.624 0
0    0    0

103.536 27992.7 0
27992.7 174.971 0
0    0    0

112.031 23693.4 0
23693.4 17.4203 0
0    0    0

-221.635 24032.2 0
24032.2 -190.384 0
0    0    0

-56.7919 24198.3 0
24198.3 331.149 0
0    0    0

143.938 23921.6 0
23921.6 94.1383 0
0    0    0

-303.213 24587.7 0
24587.7 -124.976 0
0    0    0

-10.5621 25527 0
25527 -94.2985 0
0    0    0

-64.8602 24506.7 0
24506.7 3.06533 0
0    0    0

80.7809 24714.3 0
24714.3 -181.2 0
0    0    0

112.905 22769.1 0
22769.1 302.007 0
0    0    0

-157.797 22659.2 0
22659.2 240.84 0
0    0    0

-99.9379 23467.5 0
23467.5 122.319 0
0    0    0

-133.131 23003.9 0
23003.9 -258.005 0
0    0    0

173.546 23457.5 0
23457.5 207.179 0
0    0    0

-42.6937 22356.7 0
22356.7 -246.131 0
0    0    0

-185.334 24596.3 0
24596.3 -8.41275 0
0    0    0

-109.557 25967.9 0
25967.9 284.753 0
0    0    0

112.861 26080.5 0
26080.5 78.5516 0
0    0    0

226.889 24305.4 0
24305.4 315.186 0
0    0    0

243.554 24709.9 0
24709.9 235.56 0
0    0    0

234.464 24712.9 0
24712.9 531.655 0
0    0    0

23.5997 25225.8 0
25225.8 61.0561 0
0    0    0

87.0489 25580.9 0
25580.9 151.156 0
0    0    0

1.41665 24430.7 0
24430.7 -28.5009 0
0    0    0

-172.659 25368.2 0
25368.2 -74.9786 0
0    0    0

145.27 23715.4 0
23715.4 138.802 0
0    0    0

23.3228 24440.6 0
24440.6 -157.628 0
0    0    0

-111.747 25072 0
25072 -324.204 0
0    0    0

-275.662 24520.5 0
24520.5 -181.095 0
0    0    0

87.1647 24814.5 0
24814.5 359.63 0
0    0    0

-77.7241 24900.9 0
24900.9 -25.3441 0
0    0    0

-131.326 26406.2 0
26406.2 -138.846 0
0    0    0

-7.90978 24443 0
24443 -32.9203 0
0    0    0

-148.175 24526 0
24526 41.74 0
0    0    0

63.7712 24246.5 0
24246.5 279.235 0
0    0    0

-187.222 25729.1 0
25729.1 -1.32945 0
0    0    0

-57.6906 25285.2 0
25285.2 44.5075 0
0    0    0

99.6062 22073.2 0
22073.2 -111.546 0
0    0    0

-308.801 22416.1 0
22416.1 -52.2567 0
0    0    0

180.299 26158.4 0
26158.4 236.485 0
0    0    0

18.9186 26055.1 0
26055.1 -13.1181 0
0    0    0

154.847 27090.7 0
27090.7 367.456 0
0    0    0

-139.742 26256 0
26256 130.219 0
0    0    0

8.0321 27124.2 0
27124.2 -68.332 0
0    0    0

-64.4715 25677 0
25677 -125.446 0
0    0    0

-51.9222 27359.4 0
27359.4 -238.139 0
0    0    0

-204.876 26590.4 0
26590.4 -197.601 0
0    0    0

-72.5865 27159.3 0
27159.3 -145.567 0
0    0    0

-90.6739 27338.7 0
27338.7 27.0115 0
0    0    0

151.415 25626.9 0
25626.9 5.3246 0
0    0    0

145.957 26169.2 0
26169.2 -73.715 0
0    0    0

-83.808 25088.4 0
25088.4 -233.789 0
0    0    0

56.1659 25733.5 0
25733.5 220.06 0
0    0    0

-305.145 7885.72 0
7885.72 -136.023 0
0    0    0

-190.867 7904.7 0
7904.7 -348.171 0
0    0    0

5.63388 7347.59 0
7347.59 -58.7704 0
0    0    0

258.554 6757.73 0
6757.73 548.975 0
0    0    0

72.1653 7739.2 0
7739.2 -196.861 0
0    0    0

113.211 8478.07 0
8478.07 -176.084 0
0    0    0

220.46 6897.43 0
6897.43 -22.6903 0
0    0    0

-90.8785 6984.01 0
6984.01 -336.406 0
0    0    0

-152.76 7398.66 0
7398.66 -308.006 0
0    0    0

191.607 7113.55 0
7113.55 156.263 0
0    0    0

-102.352 8905.52 0
8905.52 209.666 0
0    0    0

167.392 9475.36 0
9475.36 334.44 0
0    0    0

156.387 8685.07 0
8685.07 172.956 0
0    0    0

-136.094 9230.53 0
9230.53 -156.58 0
0    0    0

97.9204 7583.81 0
7583.81 259.022 0
0    0    0

-117.772 7247.43 0
7247.43 53.9859 0
0    0    0

85.6141 6970.63 0
6970.63 8.47999 0
0    0    0

-91.609 7517.5 0
7517.5 145.727 0
0    0    0

-205.786 6317.83 0
6317.83 -82.3862 0
0    0    0

104.895 7072.32 0
7072.32 189.466 0
0    0    0

-286.468 7218.66 0
7218.66 -573.465 0
0    0    0

38.5041 6900.43 0
6900.43 -280.976 0
0    0    0

-175.774 6542.65 0
6542.65 -298.428 0
0    0    0

-99.5753 6875.22 0
6875.22 169.01 0
0    0    0

-3.73936 7509.47 0
7509.47 -64.0959 0
0    0    0

86.6817 8209.89 0
8209.89 -134.199 0
0    0    0

-137.767 8490.27 0
8490.27 -146.877 0
0    0    0

-263.185 7559.29 0
7559.29 -107.12 0
0    0    0

5.70674 8187.12 0
8187.12 -81.1136 0
0    0    0

320.488 8562.54 0
8562.54 102.836 0
0    0    0

267.094 7459.27 0
7459.27 363.151 0
0    0    0

-144.879 6983.06 0
6983.06 -199.739 0
0    0    0

-44.0419 5499.47 0
5499.47 345.36 0
0    0    0

174.069 6517.5 0
6517.5 -71.0913 0
0    0    0

170.573 6781.18 0
6781.18 -253.445 0
0    0    0

-149.213 6515.85 0
6515.85 30.7778 0
0    0    0

-60.4518 4927.5 0
4927.5 -68.2657 0
0    0    0

182.815 6111.86 0
6111.86 263.791 0
0    0    0

139.669 5399.56 0
5399.56 -35.3717 0
0    0    0

-217.172 7679.12 0
7679.12 -217.776 0
0    0    0

-16.8042 4984.57 0
4984.57 95.7221 0
0    0    0

-149.612 6109.92 0
6109.92 13.9457 0
0    0    0

291.123 9155.77 0
9155.77 341.087 0
0    0    0

-237.432 9482.65 0
9482.65 -79.399 0
0    0    0

-73.377 6651.64 0
6651.64 -199.77 0
0    0    0

174.308 7395.46 0
7395.46 157.499 0
0    0    0

128.717 7213.14 0
7213.14 85.0155 0
0    0    0

-171.925 7225.43 0
7225.43 -295.205 0
0    0    0

86.058 6915.2 0
6915.2 250.566 0
0    0    0

228.257 7449.51 0
7449.51 338.323 0
0    0    0

-188.798 7929.26 0
7929.26 -145.812 0
0    0    0

192.839 8009.52 0
8009.52 377.886 0
0    0    0

133.513 7701.46 0
7701.46 389.57 0
0    0    0

-41.0189 8023.77 0
8023.77 -287.687 0
0    0    0

-7.00229 6162.24 0
6162.24 -156.31 0
0    0    0

-219.619 6669.2 0
6669.2 -294.509 0
0    0    0

114.987 6872.27 0
6872.27 266.415 0
0    0    0

126.804 6656.18 0
6656.18 130.063 0
0    0    0

-84.9777 8838.52 0
8838.52 -71.0544 0
0    0    0

-228.851 8357.06 0
8357.06 -562.825 0
0    0    0

215.355 6277.36 0
6277.36 219.839 0
0    0    0

36.7778 7764.86 0
7764.86 284.678 0
0    0    0

-93.4206 7445.02 0
7445.02 -57.2232 0
0    0    0

-153.549 8720.22 0
8720.22 -159.63 0
0    0    0

-22.3853 8567.52 0
8567.52 -149.27 0
0    0    0

23.8238 8226.48 0
8226.48 221.106 0
0    0    0

-87.3318 7965.08 0
7965.08 78.874 0
0    0    0

88.6366 7742.23 0
7742.23 343.67 0
0    0    0

-74.2657 6164.04 0
6164.04 -61.1843 0
0    0    0

151.085 5298.44 0
5298.44 158.004 0
0    0    0

134.817 5200.35 0
5200.35 230.771 0
0    0    0

65.5429 5118.01 0
5118.01 -116.162 0
0    0    0

-234.704 5581.3 0
5581.3 -302.987 0
0    0    0

-285.251 5677.59 0
5677.59 -363.169 0
0    0    0

113.418 4748.2 0
4748.2 291.22 0
0    0    0

-216.146 5098.71 0
5098.71 -21.0874 0
0    0    0

-119.929 4202.61 0
4202.61 -51.3983 0
0    0    0

14.3952 3908.18 0
3908.18 35.3086 0
0    0    0

-191.333 38745.3 0
38745.3 -222.675 0
0    0    0

-267.088 4516.97 0
4516.97 -114.466 0
0    0    0

-64.8526 37932.1 0
37932.1 -27.794 0
0    0    0

148.883 38417.4 0
38417.4 232.69 0
0    0    0

6.53603 39487.6 0
39487.6 164.774 0
0    0    0

201.999 39903.9 0
39903.9 225.759 0
0    0    0

-284.993 38738.6 0
38738.6 -643.71 0
0    0    0

-19.2281 39259.1 0
39259.1 -172.09 0
0    0    0

-117.896 40123.1 0
40123.1 -289.772 0
0    0    0

-3.5694 39252.7 0
39252.7 70.7782 0
0    0    0

231.193 39040.6 0
39040.6 489.172 0
0    0    0

-17.395 38598.3 0
38598.3 -60.381 0
0    0    0

-50.3716 39213 0
39213 -379.693 0
0    0    0

-117.284 39782.8 0
39782.8 36.4879 0
0    0    0

147.218 41463.9 0
41463.9 343.508 0
0    0    0

356.238 40856.9 0
40856.9 285.168 0
0    0    0

-240.999 41169.8 0
41169.8 -279.042 0
0    0    0

195.411 40034.4 0
40034.4 23.0635 0
0    0    0

-124.252 40458.5 0
40458.5 -47.735 0
0    0    0

1.55083e-06 40078.1 0
40078.1 6.64642e-07 0
0    0    0

174.611 39579.6 0
39579.6 62.048 0
0    0    0

-93.9603 40511.7 0
40511.7 -224.453 0
0    0    0

-85.0593 39259.6 0
39259.6 -36.454 0
0    0    0

-99.5988 39944.4 0
39944.4 -121.486 0
0    0    0

96.5004 40586.6 0
40586.6 -41.3043 0
0    0    0

-39.2564 39489.3 0
39489.3 -16.8242 0
0    0    0

24.1191 40505 0
40505 56.2779 0
0    0    0

-98.7193 76705.6 0
76705.6 -157.35 0
0    0    0

-150.06 77058 0
77058 33.1007 0
0    0    0

170.332 78745.4 0
78745.4 123.749 0
0    0    0

-67.7323 78515 0
78515 -72.7514 0
0    0    0

-66.2146 78255.6 0
78255.6 125.938 0
0    0    0

-174.447 78887.3 0
78887.3 -207.148 0
0    0    0

30.0155 80108.9 0
80108.9 134.597 0
0    0    0

233.308 82927.4 0
82927.4 40.5977 0
0    0    0

-59.4577 79123.2 0
79123.2 -171.997 0
0    0    0

-110.163 78870.7 0
78870.7 -111.161 0
0    0    0

-196.223 80122.8 0
80122.8 -127.597 0
0    0    0

55.2132 79094.1 0
79094.1 -105.073 0
0    0    0

256.944 78723.7 0
78723.7 375.957 0
0    0    0

60.5263 78421.7 0
78421.7 15.5242 0
0    0    0

-7.25652 79282.1 0
79282.1 171.033 0
0    0    0

55.2131 79333.5 0
79333.5 245.917 0
0    0    0

-232.154 80020.5 0
80020.5 -64.1867 0
0    0    0

-149.63 78917.3 0
78917.3 -146.775 0
0    0    0

170.305 77189.4 0
77189.4 -1.55439 0
0    0    0

-306.742 77921.5 0
77921.5 -70.2803 0
0    0    0

135.979 78990 0
78990 81.2135 0
0    0    0

185.037 77559.8 0
77559.8 214.572 0
0    0    0

-277.455 77648.6 0
77648.6 -45.1045 0
0    0    0

163.935 80017.7 0
80017.7 -16.9255 0
0    0    0

-150.03 71567.8 0
71567.8 -86.8138 0
0    0    0

-73.3514 71374.6 0
71374.6 23.067 0
0    0    0

120.264 70675.6 0
70675.6 -134.588 0
0    0    0

43.522 71483.5 0
71483.5 -186.719 0
0    0    0

69.6141 70975 0
70975 -223.766 0
0    0    0

172.151 71416.8 0
71416.8 193.676 0
0    0    0

-54.6436 71779.4 0
71779.4 -108.018 0
0    0    0

-27.3164 72183.5 0
72183.5 -132.52 0
0    0    0

-209.272 71827.4 0
71827.4 -61.8745 0
0    0    0

125.243 71809.2 0
71809.2 11.9693 0
0    0    0

-11.609 70464.5 0
70464.5 -41.9208 0
0    0    0

-34.2496 70606.7 0
70606.7 232.943 0
0    0    0

37.2287 79330.9 0
79330.9 238.845 0
0    0    0

293.75 79977.4 0
79977.4 389.426 0
0    0    0

200.532 79018.3 0
79018.3 -72.7572 0
0    0    0

-190.005 78356.7 0
78356.7 -175.768 0
0    0    0

-71.8308 79208.3 0
79208.3 -119.851 0
0    0    0

291.987 79426.4 0
79426.4 487.482 0
0    0    0

118.467 78638.4 0
78638.4 289.936 0
0    0    0

279.773 77936.2 0
77936.2 364.948 0
0    0    0

-232.491 78867 0
78867 56.137 0
0    0    0

-202.844 78329.9 0
78329.9 -56.7184 0
0    0    0

-401.833 80485.7 0
80485.7 -80.3371 0
0    0    0

-98.6161 80175.7 0
80175.7 -145.468 0
0    0    0

-8.81809 79872.1 0
79872.1 -341.1 0
0    0    0

62.949 80689.3 0
80689.3 251.804 0
0    0    0

-204.491 79836.9 0
79836.9 -140.855 0
0    0    0

-292.806 79925.4 0
79925.4 -319.841 0
0    0    0

18.4695 82262.8 0
82262.8 43.0955 0
0    0    0

-28.8341 81229.2 0
81229.2 -272.42 0
0    0    0

29.2654 78520.1 0
78520.1 68.2858 0
0    0    0

146.729 75685.5 0
75685.5 342.369 0
0    0    0

128.9 77501.3 0
77501.3 523.575 0
0    0    0

-216.905 76638.5 0
76638.5 -201.443 0
0    0    0

28.25 77486.1 0
77486.1 363.527 0
0    0    0

-198.467 77836.9 0
77836.9 -329.432 0
0    0    0

-17.0003 80672.4 0
80672.4 221.969 0
0    0    0

158.411 81782.9 0
81782.9 133.886 0
0    0    0

-204.324 80882.8 0
80882.8 -356.924 0
0    0    0

-192.138 83113.7 0
83113.7 -103.101 0
0    0    0

-18.9599 81319.3 0
81319.3 -185.979 0
0    0    0

216.829 82052.6 0
82052.6 328.515 0
0    0    0

54.0796 82038.1 0
82038.1 21.8249 0
0    0    0

72.1015 81772.4 0
81772.4 258.684 0
0    0    0

-169.042 80268.9 0
80268.9 -347.464 0
0    0    0

-146.672 80307.5 0
80307.5 26.5547 0
0    0    0

-180.963 82320.2 0
82320.2 -141.29 0
0    0    0

166.761 82597.6 0
82597.6 -128.374 0
0    0    0

-262.077 82258.4 0
82258.4 -159.885 0
0    0    0

-104.63 82673.5 0
82673.5 -73.1153 0
0    0    0

206.708 81149.6 0
81149.6 346.057 0
0    0    0

-144.394 83652.9 0
83652.9 -187.099 0
0    0    0

199.291 81931.1 0
81931.1 277.503 0
0    0    0

264.7 82498.2 0
82498.2 339.222 0
0    0    0

-85.094 83792.5 0
83792.5 4.49818 0
0    0    0

46.2633 84076.9 0
84076.9 107.948 0
0    0    0

-48.9407 81158.5 0
81158.5 116.184 0
0    0    0

190.624 80815.9 0
80815.9 -78.4942 0
0    0    0

44.8452 82343.6 0
82343.6 48.3449 0
0    0    0

-22.888 81294 0
81294 -122.52 0
0    0    0

-152.873 80974.1 0
80974.1 28.7116 0
0    0    0

181.018 80058.9 0
80058.9 271.814 0
0    0    0

-126.055 81388.5 0
81388.5 -61.5765 0
0    0    0

-19.8037 81428.8 0
81428.8 243.737 0
0    0    0

147.811 81115.8 0
81115.8 52.4417 0
0    0    0

89.629 80853.8 0
80853.8 76.9625 0
0    0    0

-311.4 80280.8 0
80280.8 -195.959 0
0    0    0

89.5965 80584.9 0
80584.9 1.97229 0
0    0    0

-167.834 81819.1 0
81819.1 -380.78 0
0    0    0

281.256 82143.1 0
82143.1 223.879 0
0    0    0

162.333 83140.2 0
83140.2 252.038 0
0    0    0

297.932 83561.7 0
83561.7 355.197 0
0    0    0

-4.96148 82494.1 0
82494.1 -3.60127 0
0    0    0

110.922 83944.4 0
83944.4 80.0018 0
0    0    0

-4.42573 81972 0
81972 -197.634 0
0    0    0

-241.074 82465.9 0
82465.9 -291.117 0
0    0    0

-237.759 80974.1 0
80974.1 -90.9469 0
0    0    0

-89.9147 81290.3 0
81290.3 -30.8022 0
0    0    0

222.822 80554.4 0
80554.4 147.53 0
0    0    0

222.155 80223.3 0
80223.3 63.7622 0
0    0    0

-24.8678 81937.5 0
81937.5 -415.757 0
0    0    0

87.8086 81472 0
81472 -290.882 0
0    0    0

172.873 81352.9 0
81352.9 -124.241 0
0    0    0

74.1044 81741.2 0
81741.2 213.602 0
0    0    0

-209.85 82478.6 0
82478.6 -143.5 0
0    0    0

91.0197 81997.2 0
81997.2 197.367 0
0    0    0

-19.4626 81693.7 0
81693.7 -290.849 0
0    0    0

-121.399 80319.1 0
80319.1 -329.111 0
0    0    0

189.802 81079.4 0
81079.4 107.861 0
0    0    0

107.301 79961.1 0
79961.1 42.6431 0
0    0    0

-24.7578 68545.2 0
68545.2 -418.868 0
0    0    0

-145.079 69471.7 0
69471.7 65.1313 0
0    0    0

-190.633 66586 0
66586 -435.742 0
0    0    0

195.535 69344.2 0
69344.2 120.21 0
0    0    0

113.349 69027 0
69027 -71.7009 0
0    0    0

134.874 68779.5 0
68779.5 83.5871 0
0    0    0

-237.594 69299.2 0
69299.2 -339.926 0
0    0    0

164.449 68371.7 0
68371.7 72.9016 0
0    0    0

67.7899 66994.7 0
66994.7 303.728 0
0    0    0

-17.888 68421.9 0
68421.9 162.499 0
0    0    0

-48.0323 68870.9 0
68870.9 -112.116 0
0    0    0

75.929 68442.8 0
68442.8 302.385 0
0    0    0

68.123 68373.6 0
68373.6 -123.874 0
0    0    0

-87.5602 68468.3 0
68468.3 91.8419 0
0    0    0

-136.187 67690.4 0
67690.4 -151.881 0
0    0    0

-18.5737 68547.6 0
68547.6 209.453 0
0    0    0

53.8189 69008.2 0
69008.2 337.219 0
0    0    0

-143.179 69040.1 0
69040.1 87.3344 0
0    0    0

-196.18 68321 0
68321 -134.728 0
0    0    0

179.65 67469.2 0
67469.2 75.4367 0
0    0    0

261.663 67935.6 0
67935.6 288.021 0
0    0    0

10.9504 66980.3 0
66980.3 360.318 0
0    0    0

-141.365 67674 0
67674 -35.1079 0
0    0    0

107.431 67375.1 0
67375.1 260.814 0
0    0    0

-115.515 67255.4 0
67255.4 -6.53876 0
0    0    0

94.4794 66970.1 0
66970.1 281.211 0
0    0    0

64.5545 68101.1 0
68101.1 58.2991 0
0    0    0

148.761 67765.5 0
67765.5 48.9636 0
0    0    0

239.44 69591 0
69591 -2.21133 0
0    0    0

138.284 70033.9 0
70033.9 -26.6227 0
0    0    0

-132.876 69387.8 0
69387.8 89.1876 0
0    0    0

-86.3203 70818.5 0
70818.5 -128.752 0
0    0    0

232.576 70292.7 0
70292.7 283.37 0
0    0    0

-278.579 71617.1 0
71617.1 -65.946 0
0    0    0

48.1643 68584.5 0
68584.5 -187.31 0
0    0    0

-44.669 69628.7 0
69628.7 42.5107 0
0    0    0

16.7485 69933.7 0
69933.7 128.373 0
0    0    0

210.781 70586.3 0
70586.3 163.003 0
0    0    0

-159.333 70946.5 0
70946.5 -346.399 0
0    0    0

-90.3962 71909.6 0
71909.6 -163.256 0
0    0    0

-251.232 72022.3 0
72022.3 -85.6486 0
0    0    0

248.546 70756.4 0
70756.4 309.591 0
0    0    0

-253.638 71180.5 0
71180.5 -599.419 0
0    0    0

-92.1641 71535.8 0
71535.8 -101.612 0
0    0    0

24.5738 69388.7 0
69388.7 290.658 0
0    0    0

67.8523 69172.3 0
69172.3 270.942 0
0    0    0

-118.021 70132.5 0
70132.5 -170.916 0
0    0    0

-306.941 70414.3 0
70414.3 -9.16685 0
0    0    0

53.5361 69530.3 0
69530.3 -91.6286 0
0    0    0

304.094 69871.7 0
69871.7 465.845 0
0    0    0

107.221 68878.8 0
68878.8 259.811 0
0    0    0

-84.0184 68992.4 0
68992.4 -180.357 0
0    0    0

-57.0572 67809.1 0
67809.1 78.8899 0
0    0    0

154.851 69318.7 0
69318.7 504.258 0
0    0    0

65.1624 68755.7 0
68755.7 302.939 0
0    0    0

45.142 67230.8 0
67230.8 -196.936 0
0    0    0

-118.25 68526.3 0
68526.3 -290.497 0
0    0    0

162.84 69238.7 0
69238.7 -140.724 0
0    0    0

135.041 71402.2 0
71402.2 162.336 0
0    0    0

-187.839 70559.7 0
70559.7 -299.952 0
0    0    0

139.937 71133.5 0
71133.5 234.609 0
0    0    0

111.859 71122.7 0
71122.7 -267.74 0
0    0    0

-75.089 71046.7 0
71046.7 52.5599 0
0    0    0

-228.493 70890.5 0
70890.5 -104.837 0
0    0    0

-236.684 69673.9 0
69673.9 -603.548 0
0    0    0

-60.2331 70045.3 0
70045.3 216.877 0
0    0    0

345.954 71513.1 0
71513.1 428.431 0
0    0    0

-245.631 72205.5 0
72205.5 -193.225 0
0    0    0

-359.263 71380.4 0
71380.4 -259.542 0
0    0    0

-235.637 72913.6 0
72913.6 -49.0858 0
0    0    0

-278.416 72181.3 0
72181.3 -371.171 0
0    0    0

-14.1209 71617.2 0
71617.2 295.83 0
0    0    0

54.7271 72875 0
72875 -207.98 0
0    0    0

-372.33 72907.6 0
72907.6 -377.124 0
0    0    0

138.928 72588.2 0
72588.2 147.538 0
0    0    0

188.203 73194.6 0
73194.6 73.7047 0
0    0    0

175.006 70699.5 0
70699.5 13.1286 0
0    0    0

-169.046 71957.5 0
71957.5 -134.176 0
0    0    0

-123.057 71939 0
71939 -247.798 0
0    0    0

288.093 72426.1 0
72426.1 332.381 0
0    0    0

74.1924 71280.9 0
71280.9 -31.7762 0
0    0    0

368.354 71718.3 0
71718.3 475.542 0
0    0    0

50.9666 70119.4 0
70119.4 -249.444 0
0    0    0

61.6105 71366.5 0
71366.5 -186.669 0
0    0    0

-60.7457 70302.4 0
70302.4 114.067 0
0    0    0

-87.6836 69646.8 0
69646.8 251.84 0
0    0    0

202.356 70815.5 0
70815.5 -15.1341 0
0    0    0

-80.2982 70239.3 0
70239.3 189.772 0
0    0    0

156.824 70551.9 0
70551.9 -137.946 0
0    0    0

146.938 70521.5 0
70521.5 246.469 0
0    0    0

19.9986 69955.1 0
69955.1 -162.922 0
0    0    0

-96.48 70577.4 0
70577.4 167.863 0
0    0    0

149.112 71103.6 0
71103.6 240.624 0
0    0    0

200.981 71026.8 0
71026.8 -18.3672 0
0    0    0

-156.803 70824.3 0
70824.3 25.9016 0
0    0    0

87.6346 70291.7 0
70291.7 -101.587 0
0    0    0

166.008 55339.4 0
55339.4 51.231 0
0    0    0

224.082 54676.1 0
54676.1 35.585 0
0    0    0

218.251 53800.6 0
53800.6 259.82 0
0    0    0

-209.14 54922.9 0
54922.9 -70.3617 0
0    0    0

-107.112 55331.9 0
55331.9 -399.001 0
0    0    0

-173.178 55254.1 0
55254.1 -310.741 0
0    0    0

-163.896 54485.7 0
54485.7 -37.6406 0
0    0    0

115.298 54988.6 0
54988.6 321.689 0
0    0    0

-99.0613 53585.3 0
53585.3 -61.4227 0
0    0    0

-107.569 53873.1 0
53873.1 -171.559 0
0    0    0

160.859 55693.6 0
55693.6 470.38 0
0    0    0

294.154 55478.8 0
55478.8 365.272 0
0    0    0

-310.165 55790 0
55790 -422.761 0
0    0    0

-153.512 55151.9 0
55151.9 124.158 0
0    0    0

-12.0159 54490 0
54490 143.695 0
0    0    0

126.032 54361.8 0
54361.8 190.562 0
0    0    0

42.6573 54365.2 0
54365.2 349.594 0
0    0    0

-119.616 54051.7 0
54051.7 90.0022 0
0    0    0

-245.303 55575.2 0
55575.2 60.7201 0
0    0    0

-39.2553 55820.2 0
55820.2 190.815 0
0    0    0

119.171 58065.8 0
58065.8 241.617 0
0    0    0

97.233 55644.3 0
55644.3 237.905 0
0    0    0

-70.0848 55063.7 0
55063.7 -46.4492 0
0    0    0

134.36 56057.4 0
56057.4 117.77 0
0    0    0

137.348 57653.9 0
57653.9 167.316 0
0    0    0

166.831 58497.2 0
58497.2 -41.1005 0
0    0    0

35.3081 59943.6 0
59943.6 -157.324 0
0    0    0

102.145 59640 0
59640 299.444 0
0    0    0

-139.055 60177 0
60177 -297.847 0
0    0    0

87.3622 60511 0
60511 -129.139 0
0    0    0

57.348 57796 0
57796 55.1668 0
0    0    0

42.7761 59756.4 0
59756.4 233.747 0
0    0    0

-325.773 59432.7 0
59432.7 -171.409 0
0    0    0

393.24 59151 0
59151 177.897 0
0    0    0

203.639 61879.5 0
61879.5 195.214 0
0    0    0

-84.4638 63103 0
63103 -175.51 0
0    0    0

-265.377 60577.6 0
60577.6 -167.336 0
0    0    0

197.534 61497.3 0
61497.3 320.068 0
0    0    0

330.993 62059.9 0
62059.9 354.524 0
0    0    0

-325.186 61638.9 0
61638.9 -424.825 0
0    0    0

147.21 61361.7 0
61361.7 311.817 0
0    0    0

52.8257 60895.6 0
60895.6 295.303 0
0    0    0

326.375 60823.8 0
60823.8 421.061 0
0    0    0

90.744 61010.1 0
61010.1 214.48 0
0    0    0

-46.2186 60167.1 0
60167.1 -49.6818 0
0    0    0

-143.675 60678.7 0
60678.7 61.1515 0
0    0    0

-253.796 61283.5 0
61283.5 -436.095 0
0    0    0

-44.5921 62292.7 0
62292.7 203.611 0
0    0    0

142.237 60158.4 0
60158.4 64.7498 0
0    0    0

-186.417 60892.2 0
60892.2 -103.403 0
0    0    0

109.472 60103.3 0
60103.3 -6.8144 0
0    0    0

101.1 61248.5 0
61248.5 -255.254 0
0    0    0

125.669 62325.5 0
62325.5 -103.962 0
0    0    0

-213.178 62297.5 0
62297.5 -407.611 0
0    0    0

-77.3001 61672.7 0
61672.7 143.186 0
0    0    0

-68.4475 62514.6 0
62514.6 -265.042 0
0    0    0

188.062 61491.8 0
61491.8 83.8844 0
0    0    0

-60.3699 62048.2 0
62048.2 -60.3549 0
0    0    0

222.291 60913.2 0
60913.2 79.1842 0
0    0    0

-229.537 61338.8 0
61338.8 -9.42766 0
0    0    0

-269.918 62476.1 0
62476.1 1.2597 0
0    0    0

-135.045 63144.6 0
63144.6 -1.60498 0
0    0    0

-171.307 63332.4 0
63332.4 -24.8731 0
0    0    0

-1.57792 64817 0
64817 235.815 0
0    0    0

41.1286 62885.2 0
62885.2 -67.6655 0
0    0    0

61.298 63498.2 0
63498.2 114.033 0
0    0    0

180.569 62440.6 0
62440.6 -77.8259 0
0    0    0

-133.288 62986.8 0
62986.8 -201.139 0
0    0    0

-165.9 62910.1 0
62910.1 -439.525 0
0    0    0

7.51819 63045.2 0
63045.2 -111.467 0
0    0    0

-111.391 60983.2 0
60983.2 26.4156 0
0    0    0

191.093 59257.7 0
59257.7 273.089 0
0    0    0

176.125 60599 0
60599 97.0386 0
0    0    0

-210.963 60707.9 0
60707.9 32.0556 0
0    0    0

-104.242 62540.4 0
62540.4 -148.618 0
0    0    0

-65.8734 62571.9 0
62571.9 68.6006 0
0    0    0

-165.559 62938 0
62938 -326.351 0
0    0    0

129.865 62648.9 0
62648.9 405.095 0
0    0    0

55.1286 62845.8 0
62845.8 499.387 0
0    0    0

268.109 62695.4 0
62695.4 218.804 0
0    0    0

114.227 60927.4 0
60927.4 -4.68536 0
0    0    0

-59.9853 61727.4 0
61727.4 -285.234 0
0    0    0

204.71 60531.3 0
60531.3 8.07027 0
0    0    0

-47.7321 60982.3 0
60982.3 10.5806 0
0    0    0

-164.523 60322.4 0
60322.4 -93.4081 0
0    0    0

64.3095 59578.3 0
59578.3 -121.383 0
0    0    0

-433.069 61338.9 0
61338.9 -136.375 0
0    0    0

-98.516 61659.3 0
61659.3 83.6165 0
0    0    0

57.3475 63135 0
63135 311.566 0
0    0    0

-65.3207 62745.1 0
62745.1 88.0707 0
0    0    0

84.9882 59724.9 0
59724.9 224.702 0
0    0    0

-172.259 60006.6 0
60006.6 124.773 0
0    0    0

-12.9113 59549.8 0
59549.8 -75.7111 0
0    0    0

-268.109 60676.9 0
60676.9 -291.715 0
0    0    0

85.5165 60213.7 0
60213.7 -46.8249 0
0    0    0

-57.3482 61204.6 0
61204.6 -301.397 0
0    0    0

198.418 59210.2 0
59210.2 123.081 0
0    0    0

236.993 59881.7 0
59881.7 14.4782 0
0    0    0

-171.119 58850.6 0
58850.6 -66.1582 0
0    0    0

-6.74592 57544.6 0
57544.6 110.367 0
0    0    0

-54.8721 59272.8 0
59272.8 182.164 0
0    0    0

-299.988 58653.6 0
58653.6 -385.59 0
0    0    0

-54.8894 58920.6 0
58920.6 -212.125 0
0    0    0

-205.101 59025.6 0
59025.6 -322.824 0
0    0    0

-116.614 63052.9 0
63052.9 72.6159 0
0    0    0

5.24244 63612.4 0
63612.4 -440.715 0
0    0    0

-254.469 38299.8 0
38299.8 -295.904 0
0    0    0

10.9147 38573 0
38573 30.8089 0
0    0    0

-224.977 38052.4 0
38052.4 -153.793 0
0    0    0

-58.7871 37327.2 0
37327.2 77.7552 0
0    0    0

200.685 37687.8 0
37687.8 234.581 0
0    0    0

206.268 37445.5 0
37445.5 64.2285 0
0    0    0

213.939 37314.2 0
37314.2 225.782 0
0    0    0

181.753 37854.9 0
37854.9 146.559 0
0    0    0

274.469 38328.9 0
38328.9 607.843 0
0    0    0

5.33554 38422.6 0
38422.6 187.506 0
0    0    0

96.1113 39441.8 0
39441.8 236.598 0
0    0    0

-162.744 39745.2 0
39745.2 70.3033 0
0    0    0

129.425 38952.3 0
38952.3 71.1838 0
0    0    0

23.6935 39499.4 0
39499.4 170.116 0
0    0    0

-23.3771 39783.7 0
39783.7 -54.5465 0
0    0    0

102.184 47161.3 0
47161.3 49.6862 0
0    0    0

30.2614 39821 0
39821 59.6513 0
0    0    0

100.007 48911.5 0
48911.5 -166.298 0
0    0    0

-147.482 47801.2 0
47801.2 70.6851 0
0    0    0

2.99113 47117.6 0
47117.6 90.4545 0
0    0    0

25.3621 49357.4 0
49357.4 287.529 0
0    0    0

230.596 49399.7 0
49399.7 214.464 0
0    0    0

-45.9874 47622.6 0
47622.6 -1.43762 0
0    0    0

37.3291 48422.5 0
48422.5 -171.868 0
0    0    0

16.7425 48181.1 0
48181.1 254.754 0
0    0    0

-71.8949 47767.7 0
47767.7 -204.928 0
0    0    0

-73.4658 48702.5 0
48702.5 113.745 0
0    0    0

77.5697 48485.4 0
48485.4 -37.0209 0
0    0    0

227.853 49167.3 0
49167.3 179.031 0
0    0    0

-115.842 49627.7 0
49627.7 -125.91 0
0    0    0

-110.289 49254.5 0
49254.5 -167.979 0
0    0    0

-58.8511 48955.7 0
48955.7 -49.097 0
0    0    0

-224.445 48477.8 0
48477.8 75.8086 0
0    0    0

-265.359 49498.1 0
49498.1 -198.709 0
0    0    0

76.8909 48228.7 0
48228.7 -147.473 0
0    0    0

-57.4876 48074.5 0
48074.5 -116.298 0
0    0    0

215.768 47776.3 0
47776.3 -116.472 0
0    0    0

23.5223 47612.2 0
47612.2 -360.665 0
0    0    0

194.286 48702.1 0
48702.1 -52.4561 0
0    0    0

43.7743 49124.9 0
49124.9 156.37 0
0    0    0

-143.35 50754 0
50754 -187.662 0
0    0    0

-40.4057 50574.5 0
50574.5 200.036 0
0    0    0

13.6603 47935.6 0
47935.6 286.094 0
0    0    0

-34.1558 49881.5 0
49881.5 -85.4241 0
0    0    0

-121.727 48777.3 0
48777.3 -140.582 0
0    0    0

-137.855 49027.3 0
49027.3 -137.673 0
0    0    0

-52.1189 48097.8 0
48097.8 327.28 0
0    0    0

141.895 48622.6 0
48622.6 19.1738 0
0    0    0

-147.958 48320.5 0
48320.5 -486.975 0
0    0    0

246.075 47288.1 0
47288.1 202.637 0
0    0    0

-212.351 48464.1 0
48464.1 -456.627 0
0    0    0

148.602 49337.1 0
49337.1 298.154 0
0    0    0

-61.0557 48592.3 0
48592.3 170.594 0
0    0    0

10.8731 49545.6 0
49545.6 -32.3339 0
0    0    0

198.369 47530.1 0
47530.1 136.861 0
0    0    0

-166.948 47567.6 0
47567.6 -59.2874 0
0    0    0

65.611 47235.2 0
47235.2 156.557 0
0    0    0

109.974 46784.7 0
46784.7 263.734 0
0    0    0

-285.958 48399.3 0
48399.3 -239.558 0
0    0    0

216.394 48834.2 0
48834.2 455.768 0
0    0    0

143.634 47177.6 0
47177.6 225.364 0
0    0    0

78.7703 48071.9 0
48071.9 554.638 0
0    0    0

143.069 48273.6 0
48273.6 89.0696 0
0    0    0

-102.068 49127.1 0
49127.1 -326.931 0
0    0    0

-56.0879 47216 0
47216 181.03 0
0    0    0

178.382 45924.2 0
45924.2 218.899 0
0    0    0

-180.56 48990.6 0
48990.6 91.7186 0
0    0    0

6.83818 48302.1 0
48302.1 -22.7041 0
0    0    0

200.393 47894.2 0
47894.2 -156.821 0
0    0    0

-388.159 49606.6 0
49606.6 -208.989 0
0    0    0

-136.907 47660.7 0
47660.7 -286.909 0
0    0    0

-217.686 46919.5 0
46919.5 -191.353 0
0    0    0

40.3984 45464.3 0
45464.3 -279.973 0
0    0    0

118.018 45798.8 0
45798.8 225.616 0
0    0    0

-34.879 48023.4 0
48023.4 3.63485 0
0    0    0

321.667 48656.9 0
48656.9 355.055 0
0    0    0

-232.234 47327.8 0
47327.8 -338.512 0
0    0    0

191.795 46824.6 0
46824.6 25.6572 0
0    0    0

118.537 47994.8 0
47994.8 -82.4101 0
0    0    0

-51.9699 48787.7 0
48787.7 -140.339 0
0    0    0

-71.0596 50056 0
50056 -329.772 0
0    0    0

-1.57642 51664.5 0
51664.5 136.254 0
0    0    0

149.916 50132.4 0
50132.4 -140.87 0
0    0    0

-171.97 50055.4 0
50055.4 -121.134 0
0    0    0

111.188 23862 0
23862 -30.8037 0
0    0    0

-74.3146 24457.9 0
24457.9 -163.674 0
0    0    0

141.005 24894.9 0
24894.9 216.525 0
0    0    0

233.781 24714.4 0
24714.4 479.259 0
0    0    0

-76.7762 23708.2 0
23708.2 -278.101 0
0    0    0

95.073 22802.9 0
22802.9 -87.0574 0
0    0    0

386.721 23958.3 0
23958.3 264.22 0
0    0    0

-213.213 23728.5 0
23728.5 -289.361 0
0    0    0

-314.043 24267.7 0
24267.7 -192.077 0
0    0    0

-69.5256 23510.3 0
23510.3 174.403 0
0    0    0

126.669 23193.4 0
23193.4 -21.9736 0
0    0    0

-240.603 23280.5 0
23280.5 -114.456 0
0    0    0

168.482 23164.2 0
23164.2 25.9827 0
0    0    0

-4.7069 23703.8 0
23703.8 -288.489 0
0    0    0

-5.40448 24738 0
24738 154.929 0
0    0    0

-30.8733 25225.2 0
25225.2 260.774 0
0    0    0

-235.626 9092.06 0
9092.06 -154.002 0
0    0    0

-66.5127 10722.4 0
10722.4 -155.196 0
0    0    0

3.40295 9341.66 0
9341.66 191.798 0
0    0    0

-118.201 22852.1 0
22852.1 17.2016 0
0    0    0

-171.504 22105 0
22105 11.178 0
0    0    0

38.2967 21600.9 0
21600.9 341.857 0
0    0    0

33.8322 21668.3 0
21668.3 261.853 0
0    0    0

-282.536 21124.6 0
21124.6 -294.235 0
0    0    0

200.906 22080.5 0
22080.5 184.978 0
0    0    0

185.571 21345.6 0
21345.6 54.9593 0
0    0    0

-494.071 21163.9 0
21163.9 -272.883 0
0    0    0

12.255 21793 0
21793 29.6973 0
0    0    0

-70.4759 22516.3 0
22516.3 198.392 0
0    0    0

26.2633 21348.9 0
21348.9 143.454 0
0    0    0

34.4382 22098.7 0
22098.7 -165.658 0
0    0    0

31.7331 22368 0
22368 -72.4728 0
0    0    0

-159.157 23635.5 0
23635.5 183.419 0
0    0    0

89.826 25103.1 0
25103.1 -244.025 0
0    0    0

185.066 25446.2 0
25446.2 -82.7131 0
0    0    0

157.812 22076 0
22076 12.0173 0
0    0    0

159.642 22560.6 0
22560.6 169.986 0
0    0    0

-112.929 23057.9 0
23057.9 -57.6052 0
0    0    0

272.458 23456.5 0
23456.5 79.4968 0
0    0    0

-129.418 26416.8 0
26416.8 -207.156 0
0    0    0

-174.316 25056.8 0
25056.8 -555.791 0
0    0    0

50.9243 26540 0
26540 239.946 0
0    0    0

-226.035 28121.3 0
28121.3 41.1697 0
0    0    0

-31.9335 25712.9 0
25712.9 110.435 0
0    0    0

-232.9 26878.4 0
26878.4 6.16644 0
0    0    0

129.559 25587.2 0
25587.2 -61.776 0
0    0    0

-128.504 25880.3 0
25880.3 102.238 0
0    0    0

-90.6094 9582.9 0
9582.9 176.19 0
0    0    0

31.2791 9156.98 0
9156.98 -2.18112 0
0    0    0

-23.6594 4817.31 0
4817.31 132.407 0
0    0    0

-16.278 5960.07 0
5960.07 -338.158 0
0    0    0

-128.14 6031.5 0
6031.5 -156.624 0
0    0    0

-156.23 5422.45 0
5422.45 -135.944 0
0    0    0

27.1127 4325.84 0
4325.84 -166.091 0
0    0    0

96.9421 5368.94 0
5368.94 239.258 0
0    0    0

-60.4828 6502.24 0
6502.24 37.2908 0
0    0    0

121.261 6591.3 0
6591.3 274.83 0
0    0    0

-109.6 6749.6 0
6749.6 -126.78 0
0    0    0

110.058 6194.91 0
6194.91 187.649 0
0    0    0

177.576 5887.57 0
5887.57 277.881 0
0    0    0

108.734 5569.79 0
5569.79 51.9902 0
0    0    0

64.743 3487.61 0
3487.61 85.9433 0
0    0    0

103.292 4515.45 0
4515.45 177.103 0
0    0    0

27.883 5891.53 0
5891.53 -80.5748 0
0    0    0

-164.264 6429.89 0
6429.89 145.222 0
0    0    0

-59.5856 4336.63 0
4336.63 -26.206 0
0    0    0

-93.8622 4377.74 0
4377.74 -259.313 0
0    0    0

-121.004 4600.01 0
4600.01 87.0131 0
0    0    0

-233.382 5518.6 0
5518.6 -100.69 0
0    0    0

320.432 4091.45 0
4091.45 396.816 0
0    0    0

8.77931 4042.5 0
4042.5 113.377 0
0    0    0

-125.693 4361.57 0
4361.57 -306.647 0
0    0    0

27.9494 5606.24 0
5606.24 165.38 0
0    0    0

-136.987 4727.21 0
4727.21 -47.2298 0
0    0    0

-14.4864 3567.12 0
3567.12 -6.20844 0
0    0    0

-153.259 3294.92 0
3294.92 -65.6823 0
0    0    0

6.59813 5294.55 0
5294.55 -29.7274 0
0    0    0

58.0468 4820.25 0
4820.25 -86.4177 0
0    0    0

20.5972 3725.71 0
3725.71 -51.144 0
0    0    0

-120.091 2338.71 0
2338.71 -51.4676 0
0    0    0

159.179 4587.58 0
4587.58 -158.094 0
0    0    0

-72.0054 5118 0
5118 119.44 0
0    0    0

-63.1347 5881.37 0
5881.37 -289.349 0
0    0    0

117.401 5218.17 0
5218.17 214.948 0
0    0    0

57.8367 4061.17 0
4061.17 461.86 0
0    0    0

-180.081 3692.25 0
3692.25 -465.959 0
0    0    0

-248.394 3842.23 0
3842.23 -374.393 0
0    0    0

-147.505 4143.92 0
4143.92 102.182 0
0    0    0

241.025 3993.03 0
3993.03 178.952 0
0    0    0

-84.2582 4973.34 0
4973.34 -257.867 0
0    0    0

-4.17256 4696.6 0
4696.6 219.416 0
0    0    0

158.132 5155.48 0
5155.48 238.103 0
0    0    0

-32.2222 5388.05 0
5388.05 -158.087 0
0    0    0

249.943 5596.4 0
5596.4 348.963 0
0    0    0

-297.098 8904.92 0
8904.92 -236.603 0
0    0    0

-344.751 8297.54 0
8297.54 -226.657 0
0    0    0

-156.483 8670.04 0
8670.04 -61.0041 0
0    0    0

292.509 8520.93 0
8520.93 423.592 0
0    0    0

-188.082 39300.3 0
39300.3 -403.304 0
0    0    0

-91.7306 38244.6 0
38244.6 -39.3131 0
0    0    0

197.032 39060.3 0
39060.3 379.899 0
0    0    0

-72.8363 39508.6 0
39508.6 -261.106 0
0    0    0

146.732 39027.6 0
39027.6 174.444 0
0    0    0

-48.2471 38846.2 0
38846.2 -258.279 0
0    0    0

177.261 40165.2 0
40165.2 269.49 0
0    0    0

200.959 39663.9 0
39663.9 229.451 0
0    0    0

92.1042 78708.5 0
78708.5 -264.524 0
0    0    0

-107.289 79260.1 0
79260.1 -261.437 0
0    0    0

-192.839 80531.3 0
80531.3 -125.723 0
0    0    0

283.897 79426.6 0
79426.6 63.745 0
0    0    0

-19.7474 79067 0
79067 210.337 0
0    0    0

-216.679 79930.3 0
79930.3 -164.476 0
0    0    0

92.218 79648.8 0
79648.8 -28.4761 0
0    0    0

257.434 79548.6 0
79548.6 303.202 0
0    0    0

-61.249 80065.4 0
80065.4 161.595 0
0    0    0

158.174 80709.5 0
80709.5 161.259 0
0    0    0

-307.797 79954.5 0
79954.5 -347.357 0
0    0    0

211.361 79562.4 0
79562.4 164.825 0
0    0    0

-183.498 79003.2 0
79003.2 78.7897 0
0    0    0

54.2617 80160.8 0
80160.8 373.281 0
0    0    0

-15.8634 77910.8 0
77910.8 -105.297 0
0    0    0

-108.815 77932.7 0
77932.7 -44.1383 0
0    0    0

127.403 80494.1 0
80494.1 207.492 0
0    0    0

197.488 81034.2 0
81034.2 264.531 0
0    0    0

-148.033 81915.7 0
81915.7 112.65 0
0    0    0

-213.36 81289.6 0
81289.6 -210.008 0
0    0    0

86.9933 79440.7 0
79440.7 202.984 0
0    0    0

141.847 81467.9 0
81467.9 65.5878 0
0    0    0

-40.5225 80801.6 0
80801.6 -185.491 0
0    0    0

326.447 80306.8 0
80306.8 153.45 0
0    0    0

218.617 81001.7 0
81001.7 -16.8045 0
0    0    0

-322.429 80094.2 0
80094.2 -156.006 0
0    0    0

143.499 80638.6 0
80638.6 330.162 0
0    0    0

-195.442 81409.1 0
81409.1 -201.442 0
0    0    0

-157.852 81821 0
81821 -265.435 0
0    0    0

-93.2773 81113.4 0
81113.4 63.3153 0
0    0    0

-380.926 81407.5 0
81407.5 -216.948 0
0    0    0

100.257 81621.3 0
81621.3 270.519 0
0    0    0

-271.812 82270.1 0
82270.1 -235.944 0
0    0    0

189.77 80679.2 0
80679.2 -62.3481 0
0    0    0

141.45 80983.4 0
80983.4 71.0147 0
0    0    0

-116.011 81519.1 0
81519.1 -297.287 0
0    0    0

-218.789 80921.2 0
80921.2 -406.01 0
0    0    0

-53.0017 81904.8 0
81904.8 -195.764 0
0    0    0

-113.356 81424.9 0
81424.9 -222.108 0
0    0    0

-125.317 82164.5 0
82164.5 156.236 0
0    0    0

191.693 83318.9 0
83318.9 294.574 0
0    0    0

-51.5842 82473.3 0
82473.3 -194.217 0
0    0    0

108.254 82119.6 0
82119.6 -25.3785 0
0    0    0

89.2854 81831.5 0
81831.5 251.365 0
0    0    0

204.37 81615.9 0
81615.9 -3.04958 0
0    0    0

70.5992 81596 0
81596 37.3984 0
0    0    0

0.13493 82235.5 0
82235.5 275.393 0
0    0    0

-301.945 83228.1 0
83228.1 -452.315 0
0    0    0

-24.9264 82738.6 0
82738.6 281.357 0
0    0    0

-93.1772 82031.8 0
82031.8 -255.507 0
0    0    0

60.3536 82342.3 0
82342.3 294.955 0
0    0    0

35.0686 84727.5 0
84727.5 87.4578 0
0    0    0

81.6815 85240.8 0
85240.8 -111.8 0
0    0    0

-394.496 82745.7 0
82745.7 -153.771 0
0    0    0

-108.157 83056.5 0
83056.5 10.2945 0
0    0    0

300.179 83618.2 0
83618.2 327.012 0
0    0    0

227.029 83239.5 0
83239.5 92.5194 0
0    0    0

-113.512 84236.1 0
84236.1 -55.1167 0
0    0    0

81.8316 84649.6 0
84649.6 183.038 0
0    0    0

-47.4364 83238.7 0
83238.7 -83.2932 0
0    0    0

323.963 83081.2 0
83081.2 85.8017 0
0    0    0

-117.804 83170.2 0
83170.2 -355.553 0
0    0    0

12.1039 81699.7 0
81699.7 135.235 0
0    0    0

141.923 81574.8 0
81574.8 124.184 0
0    0    0

-102.481 82276.6 0
82276.6 -143.183 0
0    0    0

228.53 82207.4 0
82207.4 669.014 0
0    0    0

-261.548 79608.5 0
79608.5 -404.562 0
0    0    0

157.054 79612.6 0
79612.6 266.383 0
0    0    0

177.467 78575.8 0
78575.8 242.308 0
0    0    0

303.776 79171.7 0
79171.7 524.332 0
0    0    0

-82.8346 80100.4 0
80100.4 -393.388 0
0    0    0

156.355 79656.2 0
79656.2 338.899 0
0    0    0

-171.193 79876.2 0
79876.2 -532.996 0
0    0    0

98.6989 79633.3 0
79633.3 538.14 0
0    0    0

-326.73 78650.8 0
78650.8 -126.885 0
0    0    0

-205.166 78875.7 0
78875.7 -58.7587 0
0    0    0

-199.059 81633.4 0
81633.4 -286.764 0
0    0    0

-159.477 79765.6 0
79765.6 -433.286 0
0    0    0

89.7969 80622.3 0
80622.3 46.1245 0
0    0    0

-120.023 80553.4 0
80553.4 -29.455 0
0    0    0

64.1046 80282.8 0
80282.8 129.592 0
0    0    0

71.3587 80580.2 0
80580.2 68.5138 0
0    0    0

127.108 80090.9 0
80090.9 230.01 0
0    0    0

-138.068 81134.9 0
81134.9 6.6074 0
0    0    0

-202.234 81581.3 0
81581.3 -220.426 0
0    0    0

40.2788 82356.1 0
82356.1 -77.0179 0
0    0    0

222.111 81366.6 0
81366.6 4.55849 0
0    0    0

294.64 81185.5 0
81185.5 250.391 0
0    0    0

-177.828 80946.5 0
80946.5 -307.781 0
0    0    0

-253.75 81507.1 0
81507.1 -93.9664 0
0    0    0

-25.5554 82136.6 0
82136.6 -16.7023 0
0    0    0

53.1289 81305.4 0
81305.4 90.1363 0
0    0    0

-21.6502 80562.3 0
80562.3 -146.51 0
0    0    0

11.1689 80621.7 0
80621.7 183.437 0
0    0    0

-111.211 81843.5 0
81843.5 81.4787 0
0    0    0

-96.6416 82291.3 0
82291.3 198.304 0
0    0    0

-83.0941 80865.2 0
80865.2 282.895 0
0    0    0

139.996 82603.4 0
82603.4 -48.4625 0
0    0    0

157.056 81797.4 0
81797.4 278.913 0
0    0    0

45.7858 83581.4 0
83581.4 -58.399 0
0    0    0

-35.9922 81577.7 0
81577.7 -34.7146 0
0    0    0

-205.531 83152 0
83152 -366.531 0
0    0    0

66.2823 83273.3 0
83273.3 240.81 0
0    0    0

-217.389 82239.7 0
82239.7 -360.641 0
0    0    0

203.898 84059.3 0
84059.3 268.095 0
0    0    0

68.8169 82620.4 0
82620.4 -16.2407 0
0    0    0

5.9859 82063.2 0
82063.2 -170.633 0
0    0    0

61.9871 82582.5 0
82582.5 265.547 0
0    0    0

-238.113 82691.2 0
82691.2 -191.736 0
0    0    0

221.235 82873.4 0
82873.4 165.704 0
0    0    0

-170.681 82825.7 0
82825.7 87.4 0
0    0    0

273.004 81951.9 0
81951.9 -94.5319 0
0    0    0

57.8885 82828 0
82828 -254.009 0
0    0    0

-133.99 82380.9 0
82380.9 -350.647 0
0    0    0

-85.105 83243.4 0
83243.4 27.5556 0
0    0    0

55.6365 82925.4 0
82925.4 -37.5905 0
0    0    0

347.288 83326.8 0
83326.8 64.244 0
0    0    0

-282.788 85945.4 0
85945.4 -343.74 0
0    0    0

-315.388 83161.9 0
83161.9 -221.731 0
0    0    0

133.705 83859.9 0
83859.9 -72.0708 0
0    0    0

-35.388 81841 0
81841 97.7143 0
0    0    0

-439.485 82029.1 0
82029.1 -211.873 0
0    0    0

130.207 81017.2 0
81017.2 36.565 0
0    0    0

172.093 82424.7 0
82424.7 378.278 0
0    0    0

71.2842 82089.3 0
82089.3 164.692 0
0    0    0

-124.829 82298.7 0
82298.7 208.151 0
0    0    0

-160.253 83299.5 0
83299.5 -240.934 0
0    0    0

-240.444 83858.9 0
83858.9 -68.6684 0
0    0    0

-45.11 81464.7 0
81464.7 46.7371 0
0    0    0

247.085 81927.1 0
81927.1 420.802 0
0    0    0

-275.206 79866.4 0
79866.4 -322.293 0
0    0    0

325.4 81369.6 0
81369.6 163.139 0
0    0    0

-145.809 80489.4 0
80489.4 -60.0453 0
0    0    0

-23.6836 81785.8 0
81785.8 -221.56 0
0    0    0

9.75431 81924.5 0
81924.5 125.735 0
0    0    0

183.755 83099.5 0
83099.5 -71.1934 0
0    0    0

55.8419 83298.3 0
83298.3 115.552 0
0    0    0

97.7703 83006.8 0
83006.8 115.011 0
0    0    0

-207.342 82826.9 0
82826.9 -295.906 0
0    0    0

286.463 84211.4 0
84211.4 201.248 0
0    0    0

-234.663 82856.6 0
82856.6 -347.489 0
0    0    0

-190.453 83598.8 0
83598.8 -239.329 0
0    0    0

113.995 82479.8 0
82479.8 408.186 0
0    0    0

-113.183 83820.4 0
83820.4 -295.171 0
0    0    0

-53.2606 82192.4 0
82192.4 -215.683 0
0    0    0

-354.536 82344.3 0
82344.3 -387.142 0
0    0    0

-242.381 84260.6 0
84260.6 -177.723 0
0    0    0

196.876 82977.9 0
82977.9 62.3856 0
0    0    0

-19.2653 83576 0
83576 218.229 0
0    0    0

-73.5978 83706.7 0
83706.7 -115.008 0
0    0    0

115.22 83558.4 0
83558.4 -72.863 0
0    0    0

-220.473 84431.6 0
84431.6 -275.897 0
0    0    0

152.753 83178.9 0
83178.9 248.955 0
0    0    0

-221.971 83627.5 0
83627.5 -258.314 0
0    0    0

215.06 82628.3 0
82628.3 344.21 0
0    0    0

9.35908 83699.8 0
83699.8 19.2322 0
0    0    0

249.822 82395.5 0
82395.5 379.498 0
0    0    0

84.6279 82626.4 0
82626.4 49.5092 0
0    0    0

149.709 84389.8 0
84389.8 29.144 0
0    0    0

114.15 85166.6 0
85166.6 284.218 0
0    0    0

-169.771 83344.6 0
83344.6 -114.81 0
0    0    0

-156.793 82745.4 0
82745.4 -221.68 0
0    0    0

235.018 81930.2 0
81930.2 232.009 0
0    0    0

238.916 82559.4 0
82559.4 106.44 0
0    0    0

-35.4331 83935.6 0
83935.6 45.2371 0
0    0    0

236.951 84484.4 0
84484.4 348.535 0
0    0    0

92.1367 83759.4 0
83759.4 93.628 0
0    0    0

-248.236 84251.7 0
84251.7 -60.7467 0
0    0    0

-99.9278 82805.5 0
82805.5 -106.035 0
0    0    0

-241.438 83006.7 0
83006.7 -290.897 0
0    0    0

-164.426 82508.9 0
82508.9 41.5606 0
0    0    0

55.6903 81877.4 0
81877.4 472.457 0
0    0    0

154.845 82795.1 0
82795.1 100.886 0
0    0    0

-195.013 83156.5 0
83156.5 -148.465 0
0    0    0

131.436 83742.4 0
83742.4 33.1549 0
0    0    0

137.274 84189.1 0
84189.1 -25.0134 0
0    0    0

-92.8076 83283.9 0
83283.9 -205.398 0
0    0    0

103.728 83826.8 0
83826.8 269.343 0
0    0    0

-60.6598 84939.4 0
84939.4 155.574 0
0    0    0

53.4081 85200.2 0
85200.2 -108.148 0
0    0    0

-135.341 84114.8 0
84114.8 36.0144 0
0    0    0

-82.4335 85065.2 0
85065.2 69.3096 0
0    0    0

173.586 84022 0
84022 207.741 0
0    0    0

-175.264 84597.9 0
84597.9 -33.4379 0
0    0    0

20.3928 84960.9 0
84960.9 -262.048 0
0    0    0

128.526 84505.8 0
84505.8 -43.767 0
0    0    0

68.6904 85316.4 0
85316.4 291.972 0
0    0    0

6.47234 86558.7 0
86558.7 140.304 0
0    0    0

127.436 84703.3 0
84703.3 300.227 0
0    0    0

-57.7203 85622.3 0
85622.3 -278.583 0
0    0    0

-147.825 84675.4 0
84675.4 -98.2077 0
0    0    0

212.97 84693.6 0
84693.6 353.036 0
0    0    0

-30.3469 86858.8 0
86858.8 131.47 0
0    0    0

152.999 85649.7 0
85649.7 150.347 0
0    0    0

-78.5453 86594.5 0
86594.5 24.2887 0
0    0    0

98.8144 84763.5 0
84763.5 -66.5311 0
0    0    0

-42.2521 80346.2 0
80346.2 -255.677 0
0    0    0

263.205 80056.4 0
80056.4 88.5526 0
0    0    0

-127.144 81069.9 0
81069.9 -24.1989 0
0    0    0

38.6255 80762.8 0
80762.8 175.335 0
0    0    0

-198.541 82204.8 0
82204.8 -57.9012 0
0    0    0

88.6978 82128.3 0
82128.3 -105.142 0
0    0    0

-190.608 82763.7 0
82763.7 -63.3457 0
0    0    0

-252.004 83868.7 0
83868.7 -308.062 0
0    0    0

-91.9012 84913.3 0
84913.3 166.608 0
0    0    0

152.243 85543.7 0
85543.7 350.267 0
0    0    0

100.927 83051.7 0
83051.7 -121.962 0
0    0    0

-159.469 82664.3 0
82664.3 -157.315 0
0    0    0

43.6217 81461.8 0
81461.8 287.813 0
0    0    0

108.207 81844.9 0
81844.9 214.481 0
0    0    0

-59.4788 81347.9 0
81347.9 -174.178 0
0    0    0

64.1284 82812.2 0
82812.2 5.08505 0
0    0    0

123.591 82623.3 0
82623.3 -81.5924 0
0    0    0

221.704 83234.6 0
83234.6 75.1302 0
0    0    0

74.5991 84005.4 0
84005.4 55.1077 0
0    0    0

-106.689 84035.2 0
84035.2 -144.258 0
0    0    0

-166.194 84700.9 0
84700.9 -291.9 0
0    0    0

1.82483 85470.7 0
85470.7 -213.604 0
0    0    0

-293.765 84357.5 0
84357.5 -319.418 0
0    0    0

3.17009 84648.5 0
84648.5 249.538 0
0    0    0

158.714 86014.3 0
86014.3 -20.2017 0
0    0    0

36.065 87675.3 0
87675.3 276.067 0
0    0    0

-41.7367 84881.4 0
84881.4 -198.378 0
0    0    0

159.912 84116.3 0
84116.3 -17.7324 0
0    0    0

80.3065 85268.4 0
85268.4 291.793 0
0    0    0

101.995 86042.7 0
86042.7 -80.8382 0
0    0    0

-65.8219 85259.6 0
85259.6 164.257 0
0    0    0

-213.428 85473.2 0
85473.2 -327.458 0
0    0    0

-134.177 84216.8 0
84216.8 17.3921 0
0    0    0

-193.815 84526.2 0
84526.2 -79.5887 0
0    0    0

-47.6213 84815.6 0
84815.6 -197.858 0
0    0    0

-167.676 85010.9 0
85010.9 -399.726 0
0    0    0

-156.673 87093.6 0
87093.6 25.9927 0
0    0    0

-39.6173 85001.7 0
85001.7 -88.2443 0
0    0    0

-167.228 82377.7 0
82377.7 183.394 0
0    0    0

218.216 81826.4 0
81826.4 265.256 0
0    0    0

-165.683 82213.7 0
82213.7 -159.503 0
0    0    0

-96.4021 82063.5 0
82063.5 -259.088 0
0    0    0

-51.6537 81501.9 0
81501.9 -255.478 0
0    0    0

173.689 81154.2 0
81154.2 237.253 0
0    0    0

88.3688 82232.9 0
82232.9 174.2 0
0    0    0

-212.998 82942.7 0
82942.7 -304.745 0
0    0    0

221.01 86169.9 0
86169.9 181.912 0
0    0    0

-25.5266 85808.1 0
85808.1 -255.977 0
0    0    0

142.97 85782.3 0
85782.3 251.3 0
0    0    0

-11.1066 85793.5 0
85793.5 -151.907 0
0    0    0

95.7491 80657.2 0
80657.2 282.205 0
0    0    0

227.104 82512 0
82512 275.128 0
0    0    0

-246.829 82856.3 0
82856.3 98.9856 0
0    0    0

-152.391 83837 0
83837 156.234 0
0    0    0

93.9663 84680.5 0
84680.5 89.2278 0
0    0    0

14.2303 85407.4 0
85407.4 -71.3967 0
0    0    0

221.886 85657.4 0
85657.4 176.099 0
0    0    0

156.797 83982.3 0
83982.3 282.002 0
0    0    0

-59.2144 81193.8 0
81193.8 -45.5775 0
0    0    0

-15.7099 82628.7 0
82628.7 193.605 0
0    0    0

66.9073 81828.9 0
81828.9 -80.6297 0
0    0    0

152.186 82191.4 0
82191.4 -139.443 0
0    0    0

-6.01227 82047.5 0
82047.5 -8.9382 0
0    0    0

-199.458 80509.7 0
80509.7 -49.213 0
0    0    0

-9.22071 82279.2 0
82279.2 -162.706 0
0    0    0

-142.203 82482.3 0
82482.3 143.295 0
0    0    0

-172.533 82301.7 0
82301.7 -65.6484 0
0    0    0

-80.8859 81381 0
81381 175.471 0
0    0    0

-57.1556 82519.2 0
82519.2 -285.388 0
0    0    0

136.634 83475.1 0
83475.1 -113.193 0
0    0    0

263.942 83107.4 0
83107.4 -141.697 0
0    0    0

187.715 83870.6 0
83870.6 301.323 0
0    0    0

-70.6095 86061.6 0
86061.6 -189.319 0
0    0    0

-249.476 85508.4 0
85508.4 -503.79 0
0    0    0

38.7308 81533.4 0
81533.4 -377.996 0
0    0    0

-75.2831 81767.6 0
81767.6 -253.015 0
0    0    0

-235.441 81995.1 0
81995.1 -227.363 0
0    0    0

62.5295 82261.2 0
82261.2 358.666 0
0    0    0

17.8558 82039.2 0
82039.2 -65.1838 0
0    0    0

54.4164 80544.8 0
80544.8 205.604 0
0    0    0

10.1147 82655.9 0
82655.9 52.3426 0
0    0    0

267.054 84925.7 0
84925.7 268.652 0
0    0    0

80.1387 83174.6 0
83174.6 48.3096 0
0    0    0

182.784 84472.5 0
84472.5 65.2885 0
0    0    0

-162.141 83350.6 0
83350.6 -85.8275 0
0    0    0

-219.747 83692.9 0
83692.9 15.9526 0
0    0    0

-247.775 81438.1 0
81438.1 -62.9355 0
0    0    0

168.063 83497.7 0
83497.7 196.693 0
0    0    0

-147.107 83100.5 0
83100.5 -52.7805 0
0    0    0

-180.319 83383.8 0
83383.8 38.385 0
0    0    0

167.655 82273.1 0
82273.1 51.3887 0
0    0    0

115.581 82961.4 0
82961.4 -92.7511 0
0    0    0

94.8252 66219.7 0
66219.7 274.489 0
0    0    0

-118.294 63813.6 0
63813.6 -150.044 0
0    0    0

-204.269 67720.3 0
67720.3 -301.586 0
0    0    0

-101.231 67658.7 0
67658.7 239.538 0
0    0    0

195.82 66843.1 0
66843.1 -111.59 0
0    0    0

37.6253 66092.5 0
66092.5 -147.908 0
0    0    0

-165.047 65168.3 0
65168.3 -46.7674 0
0    0    0

79.7731 63035.2 0
63035.2 89.8443 0
0    0    0

-160.08 66796.5 0
66796.5 59.9472 0
0    0    0

10.2452 65991.6 0
65991.6 195.404 0
0    0    0

68.5631 63621.9 0
63621.9 205.384 0
0    0    0

-11.4853 63013.4 0
63013.4 256.775 0
0    0    0

152.005 64797.2 0
64797.2 351.461 0
0    0    0

-76.5853 65648.5 0
65648.5 -135.338 0
0    0    0

36.2013 66290.8 0
66290.8 204.975 0
0    0    0

-38.3311 66137 0
66137 -346.073 0
0    0    0

243.222 63626.8 0
63626.8 16.5832 0
0    0    0

-74.7755 63511.9 0
63511.9 -115.248 0
0    0    0

162.261 64168.2 0
64168.2 -18.0519 0
0    0    0

-222.629 63958.5 0
63958.5 -363.775 0
0    0    0

-100.279 64476.5 0
64476.5 133.999 0
0    0    0

193.223 65144.5 0
65144.5 177.087 0
0    0    0

82.5727 64663.2 0
64663.2 96.6224 0
0    0    0

-36.0513 64907.3 0
64907.3 -315.704 0
0    0    0

-35.0339 64141.8 0
64141.8 191.742 0
0    0    0

-82.2743 63330.8 0
63330.8 -4.054 0
0    0    0

-26.612 63691.1 0
63691.1 -402.747 0
0    0    0

128.957 65474.1 0
65474.1 -84.9224 0
0    0    0

-7.57207 62902.7 0
62902.7 -269.16 0
0    0    0

-21.2627 63292.2 0
63292.2 350.556 0
0    0    0

-221.079 64490.6 0
64490.6 -88.1136 0
0    0    0

-105.087 63815.5 0
63815.5 -258.236 0
0    0    0

188.48 63578.4 0
63578.4 500.385 0
0    0    0

55.8287 63246.3 0
63246.3 153.465 0
0    0    0

24.6016 67210.8 0
67210.8 327.248 0
0    0    0

230.386 66998 0
66998 -54.9391 0
0    0    0

-122.683 68957.9 0
68957.9 -179.518 0
0    0    0

-54.8011 69273.2 0
69273.2 236.141 0
0    0    0

-4.20007 71492.1 0
71492.1 -92.6769 0
0    0    0

281.513 71743.6 0
71743.6 348.867 0
0    0    0

-27.6171 71952 0
71952 -192.277 0
0    0    0

1.53217 75723.9 0
75723.9 -301.846 0
0    0    0

218.624 71311.4 0
71311.4 181.743 0
0    0    0

-63.5761 71808.9 0
71808.9 113.316 0
0    0    0

228.141 71998.2 0
71998.2 263.651 0
0    0    0

-289.965 71471.8 0
71471.8 -39.1617 0
0    0    0

-193.929 70443.8 0
70443.8 142.833 0
0    0    0

21.8731 69809.5 0
69809.5 153.683 0
0    0    0

-38.5193 69468.5 0
69468.5 -202.171 0
0    0    0

133.618 69254.9 0
69254.9 -191.561 0
0    0    0

-197.261 68455.5 0
68455.5 -249.186 0
0    0    0

100.444 66789.9 0
66789.9 -211.024 0
0    0    0

243.839 55174.9 0
55174.9 200.578 0
0    0    0

-92.9521 54687.7 0
54687.7 -297.996 0
0    0    0

-129.071 54707.3 0
54707.3 -174.261 0
0    0    0

110.617 53754.4 0
53754.4 -36.6132 0
0    0    0

-138.597 53062.2 0
53062.2 -59.3801 0
0    0    0

-123.072 53632 0
53632 88.9064 0
0    0    0

-115.353 54391.2 0
54391.2 -68.3731 0
0    0    0

140.371 54248.1 0
54248.1 -67.8425 0
0    0    0

114.311 53858.1 0
53858.1 79.2043 0
0    0    0

-81.6669 53689.8 0
53689.8 180.449 0
0    0    0

102.602 53922.4 0
53922.4 31.3115 0
0    0    0

66.9048 54673.3 0
54673.3 -39.8051 0
0    0    0

-54.3891 52962.7 0
52962.7 -88.884 0
0    0    0

-164.371 53486.5 0
53486.5 -44.591 0
0    0    0

-224.607 54572.4 0
54572.4 -251.137 0
0    0    0

36.909 54848.5 0
54848.5 90.7433 0
0    0    0

153.726 55156.4 0
55156.4 76.6079 0
0    0    0

-219.541 55201.5 0
55201.5 -228.576 0
0    0    0

152.205 54691.2 0
54691.2 -148.567 0
0    0    0

305.031 55573.6 0
55573.6 285.529 0
0    0    0

157.191 53443.6 0
53443.6 -14.5515 0
0    0    0

-214.946 55170.2 0
55170.2 -263.58 0
0    0    0

99.8756 53166.2 0
53166.2 293.826 0
0    0    0

-42.5336 54060.9 0
54060.9 213.055 0
0    0    0

-20.7662 54401.2 0
54401.2 111.761 0
0    0    0

250.451 54823.7 0
54823.7 442.308 0
0    0    0

-39.2762 57556.1 0
57556.1 -266.938 0
0    0    0

-96.2122 60493.6 0
60493.6 -154.241 0
0    0    0

98.2474 56823.1 0
56823.1 121.43 0
0    0    0

68.1798 58172.1 0
58172.1 -94.4552 0
0    0    0

-220.121 56347.3 0
56347.3 -258.311 0
0    0    0

-110.787 56951.9 0
56951.9 -246.613 0
0    0    0

-118.577 58629.5 0
58629.5 108.023 0
0    0    0

221.342 58714 0
58714 540.88 0
0    0    0

-81.6452 57610.3 0
57610.3 -347.435 0
0    0    0

83.6023 58116.1 0
58116.1 401.241 0
0    0    0

198.133 57307.4 0
57307.4 266.638 0
0    0    0

-77.0484 57706.2 0
57706.2 105.702 0
0    0    0

-199.179 57147.2 0
57147.2 -136.787 0
0    0    0

202.995 57236.1 0
57236.1 297.715 0
0    0    0

47.8366 56666.8 0
56666.8 240.277 0
0    0    0

4.55315 56390.1 0
56390.1 -233.38 0
0    0    0

-267.838 58341.4 0
58341.4 -216.922 0
0    0    0

-102.798 59556.1 0
59556.1 -157.107 0
0    0    0

-223.562 58885.3 0
58885.3 -547.258 0
0    0    0

-42.9792 58881.2 0
58881.2 -360.34 0
0    0    0

27.8207 58619.5 0
58619.5 344.99 0
0    0    0

-102.608 58248.2 0
58248.2 -1.06741 0
0    0    0

124.974 57893.1 0
57893.1 125.269 0
0    0    0

235.798 59234.8 0
59234.8 110.816 0
0    0    0

110.208 57536.7 0
57536.7 6.04555 0
0    0    0

-166.527 58495.3 0
58495.3 -239.873 0
0    0    0

16.2099 57411.1 0
57411.1 -103.567 0
0    0    0

42.9071 58259 0
58259 -158.764 0
0    0    0

270.689 58791.3 0
58791.3 98.0792 0
0    0    0

181.364 58551.6 0
58551.6 74.7596 0
0    0    0

-272.643 59050.8 0
59050.8 -200.976 0
0    0    0

47.2511 59369.4 0
59369.4 -333.979 0
0    0    0

-90.6152 59284.8 0
59284.8 -133.43 0
0    0    0

225.247 59231.3 0
59231.3 183.089 0
0    0    0

290.041 59069.7 0
59069.7 210.361 0
0    0    0

120.365 60205.6 0
60205.6 147.781 0
0    0    0

151.604 60449.5 0
60449.5 19.434 0
0    0    0

-40.7961 60051.6 0
60051.6 -179.645 0
0    0    0

-12.821 59596.9 0
59596.9 -222.254 0
0    0    0

-96.9647 60070.8 0
60070.8 -275.724 0
0    0    0

-296.809 58144.2 0
58144.2 -274.349 0
0    0    0

-168.236 59563.3 0
59563.3 -19.952 0
0    0    0

247.637 57798.2 0
57798.2 187.356 0
0    0    0

257.15 58172.4 0
58172.4 81.4385 0
0    0    0

-134.018 59098.9 0
59098.9 -199.63 0
0    0    0

177.166 58088.7 0
58088.7 130.468 0
0    0    0

37.7954 59821.5 0
59821.5 -50.7408 0
0    0    0

-322.944 59507.6 0
59507.6 -307.496 0
0    0    0

311.301 58375.2 0
58375.2 271.587 0
0    0    0

-197.874 58336.8 0
58336.8 -212.128 0
0    0    0

-31.278 59915.8 0
59915.8 291.667 0
0    0    0

-16.3168 59884.1 0
59884.1 237.541 0
0    0    0

-190.694 57339.2 0
57339.2 22.6725 0
0    0    0

-54.276 58014.7 0
58014.7 79.5349 0
0    0    0

-217.366 58559.8 0
58559.8 -55.1167 0
0    0    0

12.1864 57967.4 0
57967.4 110.61 0
0    0    0

-99.1774 57824.4 0
57824.4 -274.775 0
0    0    0

-168.464 57001.3 0
57001.3 -386.873 0
0    0    0

77.7476 58807.7 0
58807.7 257.204 0
0    0    0

159.258 58709.1 0
58709.1 255.548 0
0    0    0

-79.6445 58659.5 0
58659.5 49.5997 0
0    0    0

163.638 58724.5 0
58724.5 374.524 0
0    0    0

-7.35087 54839.7 0
54839.7 318.185 0
0    0    0

94.9952 58164.3 0
58164.3 222.873 0
0    0    0

-143.007 57015.5 0
57015.5 -152.572 0
0    0    0

324.825 56081.9 0
56081.9 144.136 0
0    0    0

94.0877 57142.9 0
57142.9 94.3424 0
0    0    0

-147.812 57273.7 0
57273.7 15.0494 0
0    0    0

39.5586 57091.6 0
57091.6 44.8504 0
0    0    0

-6.82357 57567.3 0
57567.3 55.4675 0
0    0    0

337.316 56595.6 0
56595.6 363.298 0
0    0    0

99.9522 56698.6 0
56698.6 277.554 0
0    0    0

-48.6551 56382.3 0
56382.3 -204.216 0
0    0    0

-157.319 57012.1 0
57012.1 -261.032 0
0    0    0

41.4472 57480.2 0
57480.2 -88.1633 0
0    0    0

101.077 57439.2 0
57439.2 -218.857 0
0    0    0

-255.014 56971.4 0
56971.4 -179.794 0
0    0    0

-170.768 56259 0
56259 47.646 0
0    0    0

24.7816 55841.4 0
55841.4 -86.3803 0
0    0    0

-6.09821 55810.4 0
55810.4 -185.935 0
0    0    0

215.093 56736.9 0
56736.9 252.417 0
0    0    0

60.8096 56682.3 0
56682.3 341.803 0
0    0    0

67.9182 57263.3 0
57263.3 389.727 0
0    0    0

-164.741 57633 0
57633 -118.917 0
0    0    0

-211.855 55806.2 0
55806.2 -218.673 0
0    0    0

-61.517 55912.6 0
55912.6 -249.938 0
0    0    0

-179.185 56576.5 0
56576.5 -154.28 0
0    0    0

138.844 56469.5 0
56469.5 -72.8642 0
0    0    0

-51.8519 56188.8 0
56188.8 139.488 0
0    0    0

152.141 56683 0
56683 282.939 0
0    0    0

246.926 55361.6 0
55361.6 236.089 0
0    0    0

74.7739 56076.7 0
56076.7 259.171 0
0    0    0

-29.7478 61935.9 0
61935.9 -380.666 0
0    0    0

-164.348 62025.8 0
62025.8 -148.008 0
0    0    0

298.004 61561.7 0
61561.7 197.133 0
0    0    0

-37.8255 62955.4 0
62955.4 -158.962 0
0    0    0

-59.2691 61073.5 0
61073.5 141.048 0
0    0    0

-28.7948 62809.2 0
62809.2 174.146 0
0    0    0

209.783 61268.5 0
61268.5 -47.3461 0
0    0    0

-109.852 61813.8 0
61813.8 -148.76 0
0    0    0

15.4817 65271.3 0
65271.3 -43.2702 0
0    0    0

-91.2499 63020.2 0
63020.2 -144.636 0
0    0    0

199.711 62646.9 0
62646.9 148.238 0
0    0    0

172.679 63428.4 0
63428.4 -19.1625 0
0    0    0

168.812 63252.9 0
63252.9 -93.657 0
0    0    0

-20.6603 64163.5 0
64163.5 55.4578 0
0    0    0

218.495 63674.3 0
63674.3 310.034 0
0    0    0

-77.4115 63348.2 0
63348.2 -141.228 0
0    0    0

132.889 63178.1 0
63178.1 281.527 0
0    0    0

-313.065 63431.9 0
63431.9 -61.2861 0
0    0    0

75.2382 63863.4 0
63863.4 -109.165 0
0    0    0

-101.59 63479 0
63479 -112.578 0
0    0    0

-151.502 60513.1 0
60513.1 -201.518 0
0    0    0

-138.51 59227.6 0
59227.6 -161.306 0
0    0    0

-237.189 38760.1 0
38760.1 -618.704 0
0    0    0

106.748 37909.8 0
37909.8 249.078 0
0    0    0

-133.56 39207.4 0
39207.4 -41.9213 0
0    0    0

-242.203 50919.6 0
50919.6 -184.173 0
0    0    0

2.08917 52255.7 0
52255.7 420.177 0
0    0    0

-212.139 47450.4 0
47450.4 -95.2582 0
0    0    0

63.2421 48021.4 0
48021.4 94.0037 0
0    0    0

8.35337 49411.8 0
49411.8 -62.0331 0
0    0    0

109.863 49132.6 0
49132.6 29.448 0
0    0    0

-168.93 46538.7 0
46538.7 -34.6661 0
0    0    0

7.04442 46412.3 0
46412.3 295.279 0
0    0    0

-137.011 47051.7 0
47051.7 -234.874 0
0    0    0

249.58 48603.2 0
48603.2 347.22 0
0    0    0

-147.95 47682 0
47682 -425.527 0
0    0    0

246.005 47349.6 0
47349.6 -4.8042 0
0    0    0

15.5375 47004.6 0
47004.6 -117.377 0
0    0    0

153.338 46646 0
46646 -49.3187 0
0    0    0

-16.2 48276.3 0
48276.3 83.0716 0
0    0    0

-123.723 47814.3 0
47814.3 -232.812 0
0    0    0

19.4625 46871.3 0
46871.3 -162.207 0
0    0    0

121.158 46098.4 0
46098.4 59.6809 0
0    0    0

214.952 46691.4 0
46691.4 143.387 0
0    0    0

-120.177 46264.8 0
46264.8 103.332 0
0    0    0

-213.947 45766.3 0
45766.3 19.9797 0
0    0    0

143.407 46396.4 0
46396.4 -52.641 0
0    0    0

108.798 46397.9 0
46397.9 58.8798 0
0    0    0

-122.677 46506.4 0
46506.4 -10.4349 0
0    0    0

-135.417 46306.4 0
46306.4 -6.82806 0
0    0    0

-195.536 47127.7 0
47127.7 -118.444 0
0    0    0

-204.118 47676.7 0
47676.7 -248.658 0
0    0    0

-110.702 47565.1 0
47565.1 130.415 0
0    0    0

269.863 46312.4 0
46312.4 357.768 0
0    0    0

-50.7821 47683.3 0
47683.3 -222.632 0
0    0    0

163.662 47980.6 0
47980.6 183.011 0
0    0    0

141.431 47306 0
47306 216.666 0
0    0    0

109.612 48073.4 0
48073.4 148.563 0
0    0    0

14.1603 48109.8 0
48109.8 -182.673 0
0    0    0

-30.3621 47014.7 0
47014.7 -393.505 0
0    0    0

127.352 47815 0
47815 112.742 0
0    0    0

-201.099 47049.8 0
47049.8 -98.4037 0
0    0    0

63.9367 47535.7 0
47535.7 376.735 0
0    0    0

244.246 45101.6 0
45101.6 -34.102 0
0    0    0

240.044 47593.7 0
47593.7 301.845 0
0    0    0

-209.571 47931.6 0
47931.6 -318.027 0
0    0    0

231.718 49268.5 0
49268.5 225.37 0
0    0    0

-164.688 47465.3 0
47465.3 134.404 0
0    0    0

28.9604 46740.9 0
46740.9 -63.3438 0
0    0    0

-137.442 48268.6 0
48268.6 45.4528 0
0    0    0

75.3126 48493.1 0
48493.1 -112.752 0
0    0    0

-87.3024 47956 0
47956 73.5227 0
0    0    0

120.292 48373.4 0
48373.4 231.527 0
0    0    0

-14.5944 46304.7 0
46304.7 107.365 0
0    0    0

-81.5321 47023.7 0
47023.7 -267.364 0
0    0    0

-193.011 43594 0
43594 -368.07 0
0    0    0

163.371 47970.9 0
47970.9 430.177 0
0    0    0

-238.755 47206.1 0
47206.1 -207.945 0
0    0    0

-279.543 47367.8 0
47367.8 -265.025 0
0    0    0

189.158 47310.2 0
47310.2 359.536 0
0    0    0

84.3634 47758.8 0
47758.8 -138.921 0
0    0    0

-288.642 48167.5 0
48167.5 -158.318 0
0    0    0

39.5961 48478.2 0
48478.2 -194.402 0
0    0    0

42.5872 46416.3 0
46416.3 183.548 0
0    0    0

254.704 46904 0
46904 296.699 0
0    0    0

275.406 48354.3 0
48354.3 158.277 0
0    0    0

210.687 49462.8 0
49462.8 342.091 0
0    0    0

-85.5436 49201.5 0
49201.5 145.442 0
0    0    0

98.3844 50984.2 0
50984.2 -38.2729 0
0    0    0

10.7768 48920.9 0
48920.9 161.132 0
0    0    0

1.96397 50223.3 0
50223.3 205.032 0
0    0    0

-141.182 48687.4 0
48687.4 -137.814 0
0    0    0

17.2155 49611.1 0
49611.1 -192.624 0
0    0    0

-161.822 48584.2 0
48584.2 -43.1505 0
0    0    0

-278.556 50973.4 0
50973.4 -329.748 0
0    0    0

108.149 48156.4 0
48156.4 -146.158 0
0    0    0

-215.951 48651.5 0
48651.5 -297.277 0
0    0    0

35.1732 49007.4 0
49007.4 -65.1942 0
0    0    0

-35.9672 49224.2 0
49224.2 237.435 0
0    0    0

315.91 49513.7 0
49513.7 277.395 0
0    0    0

-197.861 49442.4 0
49442.4 90.4624 0
0    0    0

250.09 48755.4 0
48755.4 75.1865 0
0    0    0

-155.406 49277.8 0
49277.8 -375.189 0
0    0    0

-47.3394 50320.7 0
50320.7 -136.236 0
0    0    0

-77.3988 50687 0
50687 27.6391 0
0    0    0

-235.063 50098.8 0
50098.8 -330.715 0
0    0    0

78.2097 50911 0
50911 164.41 0
0    0    0

179.071 49774.2 0
49774.2 227.331 0
0    0    0

163.771 50025.9 0
50025.9 51.7662 0
0    0    0

-117.086 49942.1 0
49942.1 -20.37 0
0    0    0

-206.08 49884.6 0
49884.6 -268.384 0
0    0    0

28.3886 49177.4 0
49177.4 62.6036 0
0    0    0

-128.154 50051.8 0
50051.8 -184.404 0
0    0    0

-74.5812 50025.6 0
50025.6 -125.402 0
0    0    0

-85.0144 50688.6 0
50688.6 -54.3711 0
0    0    0

185.633 50865.7 0
50865.7 70.7485 0
0    0    0

129.058 51138.3 0
51138.3 169.77 0
0    0    0

296.936 50400.8 0
50400.8 128.132 0
0    0    0

11.984 51226.7 0
51226.7 -77.435 0
0    0    0

-185.098 53040.9 0
53040.9 -57.4662 0
0    0    0

-20.3409 51759.6 0
51759.6 -72.9394 0
0    0    0

-123.352 51350.1 0
51350.1 -17.8354 0
0    0    0

-23.2432 51890.4 0
51890.4 167.367 0
0    0    0

22.7184 51574.8 0
51574.8 -335.909 0
0    0    0

-208.617 51728 0
51728 61.1965 0
0    0    0

223.517 49503.4 0
49503.4 342.995 0
0    0    0

103.361 49210.3 0
49210.3 163.891 0
0    0    0

-148.348 49045.1 0
49045.1 -357.426 0
0    0    0

-29.2175 50137.9 0
50137.9 239.752 0
0    0    0

64.637 50136.1 0
50136.1 170.813 0
0    0    0

183.891 49303.3 0
49303.3 334.079 0
0    0    0

-46.6466 48881 0
48881 -19.8632 0
0    0    0

-141.228 49661.1 0
49661.1 -421.816 0
0    0    0

-103.991 48955.9 0
48955.9 -317.229 0
0    0    0

163.134 49261.9 0
49261.9 297.249 0
0    0    0

226.964 49805.6 0
49805.6 45.4188 0
0    0    0

-143.164 49602 0
49602 -164.757 0
0    0    0

-9.64908 48719.3 0
48719.3 46.4602 0
0    0    0

208.792 48765.3 0
48765.3 332.092 0
0    0    0

-245.349 50392.2 0
50392.2 -246.304 0
0    0    0

-162.197 49591.7 0
49591.7 -195.365 0
0    0    0

-273.465 50890.7 0
50890.7 -133.067 0
0    0    0

298.69 50487.9 0
50487.9 378.225 0
0    0    0

305.468 50579.8 0
50579.8 165.677 0
0    0    0

-183.154 50820 0
50820 -293.841 0
0    0    0

11.8902 50011.4 0
50011.4 233.175 0
0    0    0

-27.3695 51268.7 0
51268.7 -298.27 0
0    0    0

-127.353 50246.2 0
50246.2 -283.114 0
0    0    0

-68.0679 49769.9 0
49769.9 107.773 0
0    0    0

-21.743 51158.6 0
51158.6 357.522 0
0    0    0

115.529 50387.3 0
50387.3 10.2056 0
0    0    0

-108.742 50478.6 0
50478.6 -136.724 0
0    0    0

20.5336 50017.6 0
50017.6 61.5779 0
0    0    0

-193.043 48996.8 0
48996.8 -594.363 0
0    0    0

296.067 49454.2 0
49454.2 245.419 0
0    0    0

-196.923 48583.6 0
48583.6 -70.1353 0
0    0    0

-47.7768 48747.4 0
48747.4 203.579 0
0    0    0

196.856 48652.3 0
48652.3 128.198 0
0    0    0

-123.249 49704.9 0
49704.9 -413.437 0
0    0    0

-224.85 50560.5 0
50560.5 -352.49 0
0    0    0

-268.736 49819.9 0
49819.9 -334.261 0
0    0    0

123.306 49715.1 0
49715.1 45.6119 0
0    0    0

-308.178 51062.8 0
51062.8 -272.167 0
0    0    0

199.131 49847.5 0
49847.5 348.594 0
0    0    0

178.404 49614.4 0
49614.4 -10.069 0
0    0    0

-189.987 49799.3 0
49799.3 -57.4818 0
0    0    0

46.0276 49001.4 0
49001.4 164.385 0
0    0    0

83.657 50450.1 0
50450.1 188.999 0
0    0    0

-273.869 49503.4 0
49503.4 -286.856 0
0    0    0

29.8535 21032.5 0
21032.5 69.6581 0
0    0    0

-189.807 21274.4 0
21274.4 -28.478 0
0    0    0

-30.9862 21329 0
21329 115.343 0
0    0    0

80.3436 21519.2 0
21519.2 -115.615 0
0    0    0

320.082 20824.8 0
20824.8 232.687 0
0    0    0

-60.8563 20605.5 0
20605.5 -312.839 0
0    0    0

378.599 20779.3 0
20779.3 174.913 0
0    0    0

-179.161 22281.8 0
22281.8 43.1699 0
0    0    0

178.063 23116.2 0
23116.2 -39.7638 0
0    0    0

-141.276 23244.2 0
23244.2 141.09 0
0    0    0

-79.0954 23691.1 0
23691.1 19.026 0
0    0    0

232.062 22962.1 0
22962.1 217.453 0
0    0    0

211.835 23506 0
23506 371.864 0
0    0    0

116.787 22804.1 0
22804.1 -89.6546 0
0    0    0

-126.903 25207.2 0
25207.2 -338.99 0
0    0    0

-77.1544 23581.8 0
23581.8 83.3859 0
0    0    0

-155.195 24657.4 0
24657.4 -386.592 0
0    0    0

147.348 24081.4 0
24081.4 103.771 0
0    0    0

305.036 24904.1 0
24904.1 211.743 0
0    0    0

-159.497 24583.4 0
24583.4 -509.863 0
0    0    0

202.232 24789.3 0
24789.3 639.494 0
0    0    0

29.1776 25540.3 0
25540.3 315.539 0
0    0    0

177.16 25991 0
25991 70.0122 0
0    0    0

-93.4805 25261.6 0
25261.6 -386.906 0
0    0    0

-189.228 26072.2 0
26072.2 -148.482 0
0    0    0

45.0098 25244.3 0
25244.3 -50.7059 0
0    0    0

-189.221 25284.5 0
25284.5 -313.155 0
0    0    0

-151.184 24915.7 0
24915.7 -85.8413 0
0    0    0

-119.353 25720.4 0
25720.4 -211.415 0
0    0    0

65.89 25048.8 0
25048.8 -347.412 0
0    0    0

32.379 25563.8 0
25563.8 -104.65 0
0    0    0

-31.2052 26047.6 0
26047.6 220.474 0
0    0    0

119.76 25975.5 0
25975.5 -9.97961 0
0    0    0

45.5485 25700 0
25700 -180.894 0
0    0    0

-41.4444 25362.7 0
25362.7 108.253 0
0    0    0

-237.663 26268.3 0
26268.3 -217.009 0
0    0    0

-46.0073 26195.1 0
26195.1 -195.085 0
0    0    0

75.342 27476.7 0
27476.7 -155.345 0
0    0    0

-59.3076 27517.1 0
27517.1 114.344 0
0    0    0

133.267 26797.6 0
26797.6 205.586 0
0    0    0

-52.6732 26619.9 0
26619.9 189.995 0
0    0    0

129.703 25973 0
25973 238.725 0
0    0    0

200.913 26482 0
26482 385.894 0
0    0    0

158.969 25861 0
25861 134.182 0
0    0    0

-176.388 27845.2 0
27845.2 85.0053 0
0    0    0

-49.4681 26302.1 0
26302.1 -131.949 0
0    0    0

-47.9832 26967 0
26967 -331.149 0
0    0    0

270.121 3519.24 0
3519.24 31.1093 0
0    0    0

297.91 3554.38 0
3554.38 342.217 0
0    0    0

91.51 4678.61 0
4678.61 -57.5349 0
0    0    0

210.048 4318.34 0
4318.34 93.5566 0
0    0    0

-222.501 3782.17 0
3782.17 -361.738 0
0    0    0

-62.4156 3879.62 0
3879.62 -26.7496 0
0    0    0

-144.022 2596.11 0
2596.11 -136.088 0
0    0    0

38.3768 2026.91 0
2026.91 -188.673 0
0    0    0

-47.013 4116.64 0
4116.64 -144.228 0
0    0    0

121.236 5075.14 0
5075.14 19.8007 0
0    0    0

115.57 4708.93 0
4708.93 -61.3677 0
0    0    0

115.657 79461.2 0
79461.2 -176.576 0
0    0    0

-271.357 79944.2 0
79944.2 -289.26 0
0    0    0

138.86 80231.7 0
80231.7 256.169 0
0    0    0

135.177 80734.2 0
80734.2 273.509 0
0    0    0

-206.785 80804.1 0
80804.1 -141.418 0
0    0    0

147.44 81258.3 0
81258.3 181.774 0
0    0    0

-53.8438 79540.1 0
79540.1 -259.654 0
0    0    0

120.801 80872.1 0
80872.1 53.9162 0
0    0    0

-233.175 79326.9 0
79326.9 -256.854 0
0    0    0

43.4378 80368.8 0
80368.8 -251.479 0
0    0    0

-11.3355 82156.8 0
82156.8 135.49 0
0    0    0

-128.531 81636 0
81636 -220.496 0
0    0    0

-63.3713 81513.9 0
81513.9 91.7876 0
0    0    0

197.568 80367.3 0
80367.3 180.122 0
0    0    0

-167.393 81900 0
81900 -394.924 0
0    0    0

141.452 80976 0
80976 200.066 0
0    0    0

309.909 82132.3 0
82132.3 579.753 0
0    0    0

193.523 81307 0
81307 451.553 0
0    0    0

79.7091 80379.4 0
80379.4 185.988 0
0    0    0

122.967 81794 0
81794 286.923 0
0    0    0

-74.6259 81350.8 0
81350.8 -108.065 0
0    0    0

-136.148 83029.7 0
83029.7 -375.415 0
0    0    0

36.3721 83474.3 0
83474.3 -146.469 0
0    0    0

209.794 83132.4 0
83132.4 52.7233 0
0    0    0

-41.83 83011.6 0
83011.6 -52.8469 0
0    0    0

28.4923 84137.5 0
84137.5 -46.3892 0
0    0    0

136.774 84493.7 0
84493.7 -215.625 0
0    0    0

-119.596 84014.1 0
84014.1 -178.63 0
0    0    0

50.3509 83166.9 0
83166.9 28.9568 0
0    0    0

165.673 82310.6 0
82310.6 285.401 0
0    0    0

-215.824 84203.2 0
84203.2 -219.238 0
0    0    0

-210.634 82569.6 0
82569.6 -136.106 0
0    0    0

-211.711 82953.4 0
82953.4 -100.196 0
0    0    0

255.003 82712.2 0
82712.2 312.043 0
0    0    0

119.225 83778.2 0
83778.2 244.113 0
0    0    0

-207.616 82513.7 0
82513.7 -411.431 0
0    0    0

118.171 82770.3 0
82770.3 5.71361 0
0    0    0

96.8256 79631.6 0
79631.6 401.229 0
0    0    0

-128.122 79232.2 0
79232.2 -224.064 0
0    0    0

81.6417 81019.6 0
81019.6 -53.4656 0
0    0    0

-193.118 81440.7 0
81440.7 -225.968 0
0    0    0

-281.051 83286.7 0
83286.7 -211.16 0
0    0    0

-147.107 82618.6 0
82618.6 -213.814 0
0    0    0

-90.8842 83115.6 0
83115.6 -163.474 0
0    0    0

208.319 82795.2 0
82795.2 252.148 0
0    0    0

78.8656 83260.4 0
83260.4 231.082 0
0    0    0

180.19 84217.7 0
84217.7 -114.48 0
0    0    0

184.901 82729.2 0
82729.2 235.53 0
0    0    0

-254.986 82568.5 0
82568.5 -139.1 0
0    0    0

201.393 82754.9 0
82754.9 365.597 0
0    0    0

210.176 81604.7 0
81604.7 262.566 0
0    0    0

-163.092 82406 0
82406 -471.961 0
0    0    0

-25.8408 81774.2 0
81774.2 -163.243 0
0    0    0

-191.7 81733.2 0
81733.2 -119.591 0
0    0    0

376.597 82240.6 0
82240.6 278.631 0
0    0    0

-89.3151 82942.6 0
82942.6 30.4157 0
0    0    0

-203.27 82617.7 0
82617.7 -237.633 0
0    0    0

57.2587 83724.3 0
83724.3 -102.926 0
0    0    0

-182.694 83739.5 0
83739.5 -230.615 0
0    0    0

-184.782 81941.2 0
81941.2 -281.701 0
0    0    0

196.664 82152.6 0
82152.6 419.616 0
0    0    0

-146.276 83081.8 0
83081.8 -287.487 0
0    0    0

-211.773 82504.9 0
82504.9 90.8915 0
0    0    0

254.667 83404.8 0
83404.8 304.603 0
0    0    0

198.869 83336.4 0
83336.4 360.813 0
0    0    0

217.937 84646.2 0
84646.2 204.382 0
0    0    0

-158.665 83951.9 0
83951.9 -251.752 0
0    0    0

-245.266 83735.4 0
83735.4 -315.785 0
0    0    0

218.47 85543.6 0
85543.6 278.361 0
0    0    0

176.566 82146.2 0
82146.2 226.931 0
0    0    0

96.9015 82826.5 0
82826.5 -88.5286 0
0    0    0

-55.6917 85357.2 0
85357.2 -270.392 0
0    0    0

-184.467 84929 0
84929 -326.71 0
0    0    0

-203.192 83739.7 0
83739.7 -398.045 0
0    0    0

-63.3965 83646.3 0
83646.3 -174.561 0
0    0    0

-265.48 83717.1 0
83717.1 -199.544 0
0    0    0

-278.457 83992 0
83992 -8.37577 0
0    0    0

142.748 83083 0
83083 2.06311 0
0    0    0

125.564 83162.4 0
83162.4 133.194 0
0    0    0

-105.141 83641.4 0
83641.4 17.7916 0
0    0    0

305.877 83498.8 0
83498.8 280.073 0
0    0    0

-134.717 84313.7 0
84313.7 -177.069 0
0    0    0

-167.66 84534 0
84534 -211.923 0
0    0    0

-167.614 83850.7 0
83850.7 -138.246 0
0    0    0

98.9586 82930.8 0
82930.8 142.979 0
0    0    0

249.179 84130.2 0
84130.2 240.586 0
0    0    0

-77.8453 84221.7 0
84221.7 210.51 0
0    0    0

-227.593 84458.5 0
84458.5 -285.796 0
0    0    0

-12.918 84514.2 0
84514.2 185.779 0
0    0    0

-63.7262 84939.5 0
84939.5 -0.788621 0
0    0    0

-18.765 85163.6 0
85163.6 -152.56 0
0    0    0

32.9651 85275.9 0
85275.9 180.239 0
0    0    0

142.562 83986.6 0
83986.6 200.952 0
0    0    0

104.457 85131.6 0
85131.6 10.1768 0
0    0    0

-117.911 84365.8 0
84365.8 -217.928 0
0    0    0

14.6831 85598.2 0
85598.2 150.101 0
0    0    0

-0.0309337 84808.4 0
84808.4 -164.438 0
0    0    0

170.958 84360.5 0
84360.5 180.637 0
0    0    0

185.32 83890.7 0
83890.7 159.386 0
0    0    0

-158.687 82934.8 0
82934.8 -30.7873 0
0    0    0

-113.6 83317.7 0
83317.7 -7.45518 0
0    0    0

172.094 84444.8 0
84444.8 -105.216 0
0    0    0

83.3088 84318.5 0
84318.5 76.994 0
0    0    0

281.332 86654.1 0
86654.1 -27.6063 0
0    0    0

86.5485 84634.8 0
84634.8 24.3974 0
0    0    0

-70.8184 84033.7 0
84033.7 241.419 0
0    0    0

13.4744 83901.7 0
83901.7 131.891 0
0    0    0

-255.677 84782.7 0
84782.7 -230.896 0
0    0    0

88.6654 85516.6 0
85516.6 285.75 0
0    0    0

-85.0784 84826.3 0
84826.3 -10.4488 0
0    0    0

168.452 84267.9 0
84267.9 127.961 0
0    0    0

-100.446 84734.4 0
84734.4 115.689 0
0    0    0

-200.172 85479.8 0
85479.8 -298.411 0
0    0    0

212.966 86016.5 0
86016.5 375.668 0
0    0    0

-215.841 85962 0
85962 53.7818 0
0    0    0

-159.676 85457.3 0
85457.3 71.8175 0
0    0    0

-57.8936 84669.6 0
84669.6 -75.7187 0
0    0    0

166.389 85620.1 0
85620.1 -123.924 0
0    0    0

-118.981 84689.7 0
84689.7 -117.345 0
0    0    0

21.6898 84962.8 0
84962.8 20.8212 0
0    0    0

-249.37 83324.1 0
83324.1 -478.39 0
0    0    0

-197.024 85368 0
85368 -130.097 0
0    0    0

9.99332 84987.1 0
84987.1 -136.645 0
0    0    0

-37.1438 83568.1 0
83568.1 -338.863 0
0    0    0

-251.795 84099.2 0
84099.2 -272.589 0
0    0    0

-174.418 82688.3 0
82688.3 162.38 0
0    0    0

240.304 82687 0
82687 175.806 0
0    0    0

108.913 84594.8 0
84594.8 -16.2682 0
0    0    0

-94.052 83052 0
83052 235.446 0
0    0    0

103.853 84494.7 0
84494.7 84.5953 0
0    0    0

368.459 85028.5 0
85028.5 374.494 0
0    0    0

-171.57 85372.5 0
85372.5 -195.16 0
0    0    0

184.405 84822.2 0
84822.2 166.06 0
0    0    0

-179.931 85614.2 0
85614.2 80.1161 0
0    0    0

120.536 86256 0
86256 -161.456 0
0    0    0

-157.772 85784.1 0
85784.1 -228.668 0
0    0    0

185.923 85625.9 0
85625.9 268.566 0
0    0    0

-155.263 86483.5 0
86483.5 -230.379 0
0    0    0

-229.667 85879.1 0
85879.1 -233.791 0
0    0    0

-96.1899 85872 0
85872 -255.498 0
0    0    0

-19.3807 84938.8 0
84938.8 -129.98 0
0    0    0

-135.703 86367.7 0
86367.7 100.481 0
0    0    0

-101.696 86402.2 0
86402.2 -169.401 0
0    0    0

-106.903 86378.8 0
86378.8 -310.443 0
0    0    0

-83.9678 86979.1 0
86979.1 -333.226 0
0    0    0

111.697 86201.9 0
86201.9 453.572 0
0    0    0

-268.438 86852.5 0
86852.5 -192.185 0
0    0    0

100.143 86667.1 0
86667.1 93.36 0
0    0    0

-170.793 87625 0
87625 135.055 0
0    0    0

169.118 85127.1 0
85127.1 376.866 0
0    0    0

56.0974 85765.3 0
85765.3 214.4 0
0    0    0

162.259 86682.8 0
86682.8 320.498 0
0    0    0

271.694 85836 0
85836 396.504 0
0    0    0

0.913261 87959.4 0
87959.4 70.8849 0
0    0    0

-375.63 88048.7 0
88048.7 -235.023 0
0    0    0

-44.5352 86079.4 0
86079.4 231.048 0
0    0    0

135.623 86971.2 0
86971.2 -211.744 0
0    0    0

180.975 86036.8 0
86036.8 112.048 0
0    0    0

65.5122 86566.9 0
86566.9 109.846 0
0    0    0

83.9063 87219.1 0
87219.1 -113.823 0
0    0    0

169.69 87082.3 0
87082.3 264.023 0
0    0    0

165.837 87939 0
87939 25.3432 0
0    0    0

-22.6471 87442.1 0
87442.1 -162.361 0
0    0    0

158.798 88531.7 0
88531.7 -75.0772 0
0    0    0

-106.637 88932.6 0
88932.6 -47.6255 0
0    0    0

-38.0556 87914.4 0
87914.4 174.174 0
0    0    0

22.8382 88592.4 0
88592.4 242.678 0
0    0    0

36.0335 85530.4 0
85530.4 -206.948 0
0    0    0

-291.063 86168.8 0
86168.8 -427.569 0
0    0    0

6.54062 86951.1 0
86951.1 -68.0867 0
0    0    0

-110.416 86049.5 0
86049.5 -46.1393 0
0    0    0

115.74 86539.9 0
86539.9 -10.946 0
0    0    0

150.667 87629.4 0
87629.4 195.841 0
0    0    0

-189.374 86741.3 0
86741.3 -217.625 0
0    0    0

252.298 87304.2 0
87304.2 14.3386 0
0    0    0

158.74 86462.4 0
86462.4 421.09 0
0    0    0

-137.301 87068.8 0
87068.8 -237.303 0
0    0    0

154.007 87297.6 0
87297.6 242.577 0
0    0    0

-12.5534 87197.5 0
87197.5 308.517 0
0    0    0

180.5 86298.6 0
86298.6 282.566 0
0    0    0

140.222 85270.2 0
85270.2 -69.9838 0
0    0    0

181.146 85089.3 0
85089.3 107.074 0
0    0    0

51.828 85500.5 0
85500.5 244.394 0
0    0    0

-94.9359 85959.8 0
85959.8 21.5476 0
0    0    0

-169.95 86169.4 0
86169.4 82.6026 0
0    0    0

10.929 85119.6 0
85119.6 149.995 0
0    0    0

5.12114 85122.3 0
85122.3 190.49 0
0    0    0

-114.633 86589.6 0
86589.6 -150.517 0
0    0    0

189.897 84950.2 0
84950.2 4.37539 0
0    0    0

227.248 85983.3 0
85983.3 -9.46844 0
0    0    0

-111.861 85794.1 0
85794.1 -48.0365 0
0    0    0

188.737 86313 0
86313 195.034 0
0    0    0

-50.4735 85717 0
85717 -327.264 0
0    0    0

107.986 85851.7 0
85851.7 193.193 0
0    0    0

-10.3589 85675.9 0
85675.9 -136.754 0
0    0    0

212.227 85871.6 0
85871.6 243.403 0
0    0    0

-22.5816 85955.6 0
85955.6 101.403 0
0    0    0

-56.4274 86168.9 0
86168.9 36.4874 0
0    0    0

-175.03 85016.1 0
85016.1 39.8052 0
0    0    0

219.589 86626.1 0
86626.1 14.0735 0
0    0    0

-136.327 86414.1 0
86414.1 -37.8638 0
0    0    0

130.418 85419.6 0
85419.6 231.307 0
0    0    0

14.3435 84692 0
84692 -102.985 0
0    0    0

-140.861 84427.1 0
84427.1 -75.4315 0
0    0    0

-39.4606 84456.6 0
84456.6 195.434 0
0    0    0

-300.546 85592.1 0
85592.1 24.3625 0
0    0    0

169.265 84920.4 0
84920.4 80.3955 0
0    0    0

-147.392 85280.8 0
85280.8 -107.166 0
0    0    0

-188.661 84789.3 0
84789.3 -135.917 0
0    0    0

-119.566 85205.1 0
85205.1 144.721 0
0    0    0

46.4978 84615.9 0
84615.9 151.813 0
0    0    0

231.633 79848 0
79848 438.011 0
0    0    0

-7.93443 80512.4 0
80512.4 -90.7542 0
0    0    0

-0.572741 80349.7 0
80349.7 -80.8286 0
0    0    0

-240.761 81067.1 0
81067.1 -421.607 0
0    0    0

-49.6067 81008.2 0
81008.2 -208.568 0
0    0    0

-61.9809 80510.4 0
80510.4 -246.229 0
0    0    0

-68.5865 81084.7 0
81084.7 -109.364 0
0    0    0

238.468 80754.1 0
80754.1 302.584 0
0    0    0

-105.53 81285.9 0
81285.9 59.8516 0
0    0    0

107.843 81412.2 0
81412.2 314.322 0
0    0    0

176.631 83477.2 0
83477.2 272.172 0
0    0    0

-27.5401 83476.3 0
83476.3 163.979 0
0    0    0

23.5866 86308.9 0
86308.9 206.895 0
0    0    0

63.4813 86030.6 0
86030.6 -130.997 0
0    0    0

-39.876 86457.5 0
86457.5 -292.339 0
0    0    0

-80.2657 87764.6 0
87764.6 -213.076 0
0    0    0

27.7128 86247.9 0
86247.9 151.127 0
0    0    0

-150.422 87185.9 0
87185.9 -189.34 0
0    0    0

-274.022 86611.5 0
86611.5 -209.055 0
0    0    0

-95.4099 86779.8 0
86779.8 208.716 0
0    0    0

-48.8086 87671.9 0
87671.9 -309.756 0
0    0    0

-205.662 91112.6 0
91112.6 -58.8328 0
0    0    0

-246.489 86187.9 0
86187.9 -200.602 0
0    0    0

-119.284 87512.8 0
87512.8 60.6285 0
0    0    0

135.683 85915 0
85915 186.331 0
0    0    0

-107.932 85673.8 0
85673.8 -1.96975 0
0    0    0

-180.142 86400.7 0
86400.7 -120.286 0
0    0    0

21.6655 86951 0
86951 -192.354 0
0    0    0

237.565 85647.1 0
85647.1 44.2306 0
0    0    0

-27.189 86492.6 0
86492.6 -41.8043 0
0    0    0

155.871 86383.6 0
86383.6 -36.819 0
0    0    0

6.08413 87177.8 0
87177.8 -109.951 0
0    0    0

112.408 87467.5 0
87467.5 -181.9 0
0    0    0

-231.697 88440.6 0
88440.6 -198.468 0
0    0    0

151.646 86935.1 0
86935.1 83.1823 0
0    0    0

-77.551 87390.8 0
87390.8 -177.169 0
0    0    0

264.984 87419.3 0
87419.3 150.682 0
0    0    0

-20.9881 87577.2 0
87577.2 -203.59 0
0    0    0

108.511 88013.6 0
88013.6 250.624 0
0    0    0

-3.42254 87262.7 0
87262.7 118.04 0
0    0    0

-77.9778 87013.8 0
87013.8 -85.7552 0
0    0    0

80.7296 87611.1 0
87611.1 265.965 0
0    0    0

-280.284 88464.7 0
88464.7 -314.108 0
0    0    0

-205.468 88675.1 0
88675.1 -157.736 0
0    0    0

-96.5159 87927.2 0
87927.2 34.1354 0
0    0    0

-60.3009 88333 0
88333 -221.464 0
0    0    0

-24.0785 80868.6 0
80868.6 124.825 0
0    0    0

216.243 80789.7 0
80789.7 125.501 0
0    0    0

109.529 81471 0
81471 -29.2082 0
0    0    0

83.9069 81439.3 0
81439.3 -134.51 0
0    0    0

-31.3359 82467.8 0
82467.8 101.655 0
0    0    0

-213.06 82119.4 0
82119.4 -329.477 0
0    0    0

-209.582 84928.6 0
84928.6 -112.754 0
0    0    0

203.847 84132.8 0
84132.8 132.897 0
0    0    0

71.0471 84196.7 0
84196.7 -42.6777 0
0    0    0

-117.146 84009.9 0
84009.9 -192.784 0
0    0    0

59.4926 82829.8 0
82829.8 272.367 0
0    0    0

-165.933 83356.3 0
83356.3 53.485 0
0    0    0

-86.1035 67303.5 0
67303.5 -8.10609 0
0    0    0

188.006 66630.8 0
66630.8 108.382 0
0    0    0

-142.582 66281.1 0
66281.1 -236.573 0
0    0    0

164.22 67031.9 0
67031.9 316.37 0
0    0    0

88.1608 67157.4 0
67157.4 -118.656 0
0    0    0

138.847 67792.8 0
67792.8 -125.484 0
0    0    0

2.55322 65559.1 0
65559.1 17.3905 0
0    0    0

299.897 65199.2 0
65199.2 172.628 0
0    0    0

20.6684 64200.1 0
64200.1 -242.832 0
0    0    0

-185.454 65247.8 0
65247.8 -144.243 0
0    0    0

152.477 64652.3 0
64652.3 355.857 0
0    0    0

177.547 64385.3 0
64385.3 230.453 0
0    0    0

267.322 64588.6 0
64588.6 426.635 0
0    0    0

-53.2795 68218.6 0
68218.6 -200.225 0
0    0    0

149.396 65439.8 0
65439.8 -161.153 0
0    0    0

-192.94 64986.9 0
64986.9 -431.511 0
0    0    0

-219.676 66445.8 0
66445.8 -280.072 0
0    0    0

-64.9131 64790.5 0
64790.5 -340.88 0
0    0    0

117.435 65206.5 0
65206.5 258.882 0
0    0    0

-117.944 67186.3 0
67186.3 -256.42 0
0    0    0

234.502 65198 0
65198 194.272 0
0    0    0

-87.7461 66126.3 0
66126.3 -12.7778 0
0    0    0

-129.234 65601.1 0
65601.1 -60.3062 0
0    0    0

106.95 66247.6 0
66247.6 -144.686 0
0    0    0

-117.695 66933.9 0
66933.9 -392.039 0
0    0    0

85.5386 65949.2 0
65949.2 160.924 0
0    0    0

77.1253 66337.4 0
66337.4 250.065 0
0    0    0

-186.683 65511.7 0
65511.7 -263.223 0
0    0    0

67.2682 66439.8 0
66439.8 320.761 0
0    0    0

91.7669 65812.5 0
65812.5 367.174 0
0    0    0

50.0204 65976.1 0
65976.1 29.6666 0
0    0    0

97.8053 65809.6 0
65809.6 371.539 0
0    0    0

107.237 67767.7 0
67767.7 -214.481 0
0    0    0

-159.761 66483 0
66483 -148.395 0
0    0    0

-30.5041 66711.4 0
66711.4 107.384 0
0    0    0

12.4163 66607.6 0
66607.6 206.082 0
0    0    0

119.447 66654.9 0
66654.9 73.8517 0
0    0    0

-148.026 67104.1 0
67104.1 -28.018 0
0    0    0

-43.7494 67499.8 0
67499.8 -195.575 0
0    0    0

-215.209 66194.1 0
66194.1 -353.981 0
0    0    0

-212.47 65768.8 0
65768.8 -277.612 0
0    0    0

63.4148 65832.6 0
65832.6 68.8773 0
0    0    0

184.888 66883.2 0
66883.2 274.159 0
0    0    0

-1.69729 68355.9 0
68355.9 349.75 0
0    0    0

308.974 65943.9 0
65943.9 325.058 0
0    0    0

258.402 66827.2 0
66827.2 377.697 0
0    0    0

-268.612 65085.6 0
65085.6 -3.80763 0
0    0    0

-328.183 66522.3 0
66522.3 -355.469 0
0    0    0

-213.134 67766.7 0
67766.7 -210.08 0
0    0    0

-161.666 67197.8 0
67197.8 -388.662 0
0    0    0

-10.7675 68120.6 0
68120.6 153.533 0
0    0    0

239.076 67394.8 0
67394.8 244.434 0
0    0    0

-24.253 67182.9 0
67182.9 -193.476 0
0    0    0

192.295 67511.9 0
67511.9 242.957 0
0    0    0

-214.05 67186.1 0
67186.1 -416.248 0
0    0    0

-49.9087 67498.6 0
67498.6 -242.102 0
0    0    0

-68.0145 66599.8 0
66599.8 -302.001 0
0    0    0

172.321 66362.8 0
66362.8 215.621 0
0    0    0

-30.4872 66905.9 0
66905.9 -131.057 0
0    0    0

200.102 66939.7 0
66939.7 611.331 0
0    0    0

-307.267 67721.7 0
67721.7 -286.423 0
0    0    0

62.0386 67780.6 0
67780.6 42.6058 0
0    0    0

49.0348 67438 0
67438 316.885 0
0    0    0

-76.2888 69050.2 0
69050.2 -205.058 0
0    0    0

-11.544 65676.2 0
65676.2 -52.0493 0
0    0    0

332.972 66167.5 0
66167.5 471.739 0
0    0    0

167.817 66191.7 0
66191.7 289.466 0
0    0    0

72.0555 65339 0
65339 217.631 0
0    0    0

-258.759 64835.9 0
64835.9 -276.727 0
0    0    0

8.24902 66378.4 0
66378.4 153.491 0
0    0    0

-270.635 66668.2 0
66668.2 -378.827 0
0    0    0

7.10035 65915.8 0
65915.8 -33.9496 0
0    0    0

108.037 66662.3 0
66662.3 -38.0799 0
0    0    0

47.3692 68879.4 0
68879.4 -70.344 0
0    0    0

52.7982 68846.9 0
68846.9 110.857 0
0    0    0

19.7782 68017.7 0
68017.7 -365.781 0
0    0    0

-321.365 67834.6 0
67834.6 -163.507 0
0    0    0

54.2978 68785.5 0
68785.5 -139.25 0
0    0    0

94.3598 67466 0
67466 164.469 0
0    0    0

359.463 67989.5 0
67989.5 242.801 0
0    0    0

-137.97 68540.8 0
68540.8 -200.149 0
0    0    0

192.795 68488.3 0
68488.3 265.25 0
0    0    0

-174.406 68180.8 0
68180.8 -84.884 0
0    0    0

233.647 67980.4 0
67980.4 90.9807 0
0    0    0

43.7482 68277.7 0
68277.7 -21.8252 0
0    0    0

-105.265 68738.1 0
68738.1 -127.396 0
0    0    0

-248.454 65103.7 0
65103.7 -229.637 0
0    0    0

55.3749 64339 0
64339 -142.194 0
0    0    0

92.625 64091.4 0
64091.4 -6.57222 0
0    0    0

-74.8044 64508.8 0
64508.8 -31.6198 0
0    0    0

58.9579 64351.9 0
64351.9 269.561 0
0    0    0

-65.913 64651.8 0
64651.8 -138.845 0
0    0    0

240.639 63242.8 0
63242.8 203.268 0
0    0    0

-185.932 64124.9 0
64124.9 -441.592 0
0    0    0

305.709 64365.3 0
64365.3 233.314 0
0    0    0

103.16 64032.5 0
64032.5 -321.107 0
0    0    0

-302.118 64679.9 0
64679.9 -299.937 0
0    0    0

-103.257 64987.6 0
64987.6 151.645 0
0    0    0

80.6114 72359.7 0
72359.7 -221.901 0
0    0    0

78.0427 72028.2 0
72028.2 54.4594 0
0    0    0

108.807 69727.9 0
69727.9 -151.344 0
0    0    0

35.6189 69474.5 0
69474.5 223.742 0
0    0    0

-33.0662 53956.4 0
53956.4 17.3251 0
0    0    0

-178.18 54129.3 0
54129.3 109.209 0
0    0    0

202.691 54327.5 0
54327.5 136.575 0
0    0    0

43.9322 54231.4 0
54231.4 -28.6906 0
0    0    0

184.451 53385 0
53385 73.2336 0
0    0    0

127.829 54221.5 0
54221.5 -26.3574 0
0    0    0

-205.053 52294 0
52294 -101.4 0
0    0    0

37.8904 52686.1 0
52686.1 292.055 0
0    0    0

-181.366 52412 0
52412 -296.595 0
0    0    0

-125.317 52825.9 0
52825.9 158.258 0
0    0    0

78.1873 52282.7 0
52282.7 -43.8153 0
0    0    0

-24.0591 53784.2 0
53784.2 -40.5457 0
0    0    0

-118.284 53234.1 0
53234.1 -28.4374 0
0    0    0

74.7258 53789 0
53789 -255.324 0
0    0    0

83.0264 52055.4 0
52055.4 205.194 0
0    0    0

139.322 52768.1 0
52768.1 -130.859 0
0    0    0

18.0003 51821.2 0
51821.2 -162.091 0
0    0    0

168.378 51502.6 0
51502.6 98.8023 0
0    0    0

104.73 53006.7 0
53006.7 134.698 0
0    0    0

-24.9555 54095.7 0
54095.7 -156.987 0
0    0    0

-119.088 52904.8 0
52904.8 -213.383 0
0    0    0

-100.857 51987.4 0
51987.4 13.1846 0
0    0    0

70.942 54865.6 0
54865.6 493.952 0
0    0    0

-121.127 54399.7 0
54399.7 123.757 0
0    0    0

4.03139 53066.6 0
53066.6 182.21 0
0    0    0

-99.9822 53614.9 0
53614.9 -105.549 0
0    0    0

-39.1914 57076.6 0
57076.6 102.903 0
0    0    0

-188.722 56516.9 0
56516.9 -417.256 0
0    0    0

8.96745 57637.2 0
57637.2 106.963 0
0    0    0

44.8729 56811.2 0
56811.2 -110.946 0
0    0    0

-74.6588 56485.8 0
56485.8 176.566 0
0    0    0

98.4037 57107.5 0
57107.5 16.1554 0
0    0    0

144.477 62603.7 0
62603.7 191.05 0
0    0    0

-223.816 63585.4 0
63585.4 6.90194 0
0    0    0

119.992 60623.4 0
60623.4 -67.3016 0
0    0    0

97.9099 59695.9 0
59695.9 449.001 0
0    0    0

-227.078 60316 0
60316 -85.9962 0
0    0    0

-286.905 59937.2 0
59937.2 -305.337 0
0    0    0

295.672 61450.9 0
61450.9 332.003 0
0    0    0

84.5078 61387.2 0
61387.2 66.624 0
0    0    0

-200.941 61771.7 0
61771.7 -228.119 0
0    0    0

-14.8624 61948.9 0
61948.9 228.206 0
0    0    0

248.884 60787.9 0
60787.9 269.709 0
0    0    0

115.278 61954.7 0
61954.7 223.07 0
0    0    0

210.195 64057.8 0
64057.8 221.264 0
0    0    0

100.991 64303.7 0
64303.7 249.569 0
0    0    0

-253.54 63953.1 0
63953.1 -338.122 0
0    0    0

0.325803 64115.8 0
64115.8 -38.2014 0
0    0    0

-55.3097 66158.3 0
66158.3 199.242 0
0    0    0

-151.615 63820.7 0
63820.7 -213.469 0
0    0    0

-225.838 64170.7 0
64170.7 -313.741 0
0    0    0

-152.571 64660.9 0
64660.9 -215.576 0
0    0    0

294.085 63371.2 0
63371.2 340.861 0
0    0    0

88.7374 64097.4 0
64097.4 36.2297 0
0    0    0

57.4591 64798.7 0
64798.7 286.675 0
0    0    0

97.7844 65091.3 0
65091.3 311.357 0
0    0    0

-22.6505 64590.4 0
64590.4 -211.721 0
0    0    0

-95.2486 65862.3 0
65862.3 133.608 0
0    0    0

-38.6375 64318.6 0
64318.6 209.577 0
0    0    0

210.164 64861.2 0
64861.2 2.26114 0
0    0    0

40 58316.9 0
58316.9 97.7409 0
0    0    0

325.069 58938.3 0
58938.3 392.636 0
0    0    0

187.268 57850 0
57850 150.326 0
0    0    0

-105.385 57549.7 0
57549.7 102.995 0
0    0    0

-53.3655 57610.1 0
57610.1 -75.5485 0
0    0    0

257.812 58034.2 0
58034.2 -27.2283 0
0    0    0

-151.18 60071.1 0
60071.1 -104.749 0
0    0    0

180.123 61462.5 0
61462.5 517.822 0
0    0    0

-180.718 59197.5 0
59197.5 -224.326 0
0    0    0

218.693 60916.4 0
60916.4 390.721 0
0    0    0

-100.21 59691.8 0
59691.8 127.342 0
0    0    0

-49.235 59388.7 0
59388.7 -436.244 0
0    0    0

100.35 58949.7 0
58949.7 154.243 0
0    0    0

200.127 59140.1 0
59140.1 -26.9 0
0    0    0

-103.724 59638.5 0
59638.5 27.6846 0
0    0    0

-278.246 60031.1 0
60031.1 -267.002 0
0    0    0

-24.4242 58840.1 0
58840.1 -194.795 0
0    0    0

98.2164 59534.7 0
59534.7 114.875 0
0    0    0

-211.011 58746.1 0
58746.1 -77.2657 0
0    0    0

-257.369 59385.2 0
59385.2 -178.984 0
0    0    0

227.691 59740.7 0
59740.7 253.874 0
0    0    0

70.2488 60198 0
60198 294.221 0
0    0    0

181.749 58898 0
58898 245.57 0
0    0    0

201.806 59377.4 0
59377.4 134.322 0
0    0    0

164.877 60206.4 0
60206.4 249.645 0
0    0    0

194.023 60236 0
60236 320.513 0
0    0    0

61.4538 58628 0
58628 -189.327 0
0    0    0

-143.399 59694.3 0
59694.3 -94.31 0
0    0    0

-150.71 60740 0
60740 -189.183 0
0    0    0

248.445 61417.1 0
61417.1 78.1871 0
0    0    0

-220.961 60238.9 0
60238.9 -251.554 0
0    0    0

64.7391 60895.6 0
60895.6 238.442 0
0    0    0

229.612 61120.7 0
61120.7 -75.3769 0
0    0    0

-301.181 60527.7 0
60527.7 -289.301 0
0    0    0

-195.772 61418.6 0
61418.6 -86.0978 0
0    0    0

-56.9507 61788.4 0
61788.4 -292.251 0
0    0    0

-262.72 61169.8 0
61169.8 -431.764 0
0    0    0

67.5034 61519.5 0
61519.5 193.737 0
0    0    0

190.411 60142.3 0
60142.3 274.008 0
0    0    0

-118.561 60944.6 0
60944.6 -73.2432 0
0    0    0

95.4852 59862.7 0
59862.7 -136.414 0
0    0    0

138.913 60511.1 0
60511.1 67.4163 0
0    0    0

-101.95 58302.6 0
58302.6 -93.506 0
0    0    0

-265.073 59239.7 0
59239.7 -228.898 0
0    0    0

93.9789 58708.5 0
58708.5 184.814 0
0    0    0

216.953 60462.4 0
60462.4 431.648 0
0    0    0

-262.949 59551.6 0
59551.6 -107.528 0
0    0    0

312.793 59409.5 0
59409.5 148.895 0
0    0    0

72.2542 58855.6 0
58855.6 185.668 0
0    0    0

184.368 58418.6 0
58418.6 265.706 0
0    0    0

-60.4084 59056.8 0
59056.8 -31.4249 0
0    0    0

40.6926 58373.4 0
58373.4 86.9731 0
0    0    0

47.6253 57983.6 0
57983.6 206.133 0
0    0    0

14.8963 57962.9 0
57962.9 -139.594 0
0    0    0

44.186 57982 0
57982 196.129 0
0    0    0

17.1562 57404.7 0
57404.7 391.283 0
0    0    0

-254.796 59222.3 0
59222.3 -218.405 0
0    0    0

-245.691 59227.7 0
59227.7 -152.985 0
0    0    0

-6.75788 58114.1 0
58114.1 244.022 0
0    0    0

177.971 59503 0
59503 73.268 0
0    0    0

248.872 59980.1 0
59980.1 287.702 0
0    0    0

-165.603 62034.7 0
62034.7 -266.794 0
0    0    0

216.588 61442.6 0
61442.6 22.4147 0
0    0    0

-301.932 61017.6 0
61017.6 29.0217 0
0    0    0

-47.9246 58315.4 0
58315.4 -122.805 0
0    0    0

61.7822 57511.7 0
57511.7 -78.4836 0
0    0    0

107.392 57658.5 0
57658.5 296.595 0
0    0    0

-21.9243 56518.5 0
56518.5 -202.701 0
0    0    0

265.227 56739.2 0
56739.2 408.271 0
0    0    0

258.302 57886.7 0
57886.7 271.6 0
0    0    0

-164.778 58164.6 0
58164.6 -248.9 0
0    0    0

-124.202 58466.9 0
58466.9 -303.037 0
0    0    0

184.068 58594.4 0
58594.4 -44.6934 0
0    0    0

4.97317 60503.6 0
60503.6 -86.3595 0
0    0    0

-193.04 59779.2 0
59779.2 -244.655 0
0    0    0

-12.6944 60801.5 0
60801.5 -226.217 0
0    0    0

-4.80067 57856.7 0
57856.7 -283.808 0
0    0    0

105.265 57721 0
57721 -188.321 0
0    0    0

-261.037 57906.8 0
57906.8 -15.2381 0
0    0    0

33.681 57158.8 0
57158.8 222.705 0
0    0    0

-177.636 55911.8 0
55911.8 -241.581 0
0    0    0

3.73527 57172.4 0
57172.4 -28.5018 0
0    0    0

70.8704 58925.5 0
58925.5 154.099 0
0    0    0

297.196 59458.7 0
59458.7 300.412 0
0    0    0

-118.479 59527.5 0
59527.5 -19.7177 0
0    0    0

-61.3952 60355.5 0
60355.5 -178.094 0
0    0    0

-46.3236 57028.6 0
57028.6 -267.108 0
0    0    0

2.30516 57117.2 0
57117.2 -203.584 0
0    0    0

-73.41 56896.2 0
56896.2 111.477 0
0    0    0

123.568 57532.8 0
57532.8 5.6869 0
0    0    0

32.8054 56476.3 0
56476.3 -179.165 0
0    0    0

112.1 56338.1 0
56338.1 -28.3399 0
0    0    0

107.216 56674.3 0
56674.3 209.768 0
0    0    0

-54.2778 57408.2 0
57408.2 117.346 0
0    0    0

212.744 56297.2 0
56297.2 294.055 0
0    0    0

-369.306 56406 0
56406 -307.817 0
0    0    0

27.0965 56602.1 0
56602.1 -141.953 0
0    0    0

-65.6494 58680.3 0
58680.3 -254.928 0
0    0    0

-4.06403 55070.8 0
55070.8 -134.613 0
0    0    0

-225.014 56260.8 0
56260.8 -63.5593 0
0    0    0

-221.562 56707.9 0
56707.9 -282.798 0
0    0    0

14.9944 57684 0
57684 252.795 0
0    0    0

-49.8966 56948.9 0
56948.9 -243.338 0
0    0    0

-90.3982 57181.4 0
57181.4 -133.959 0
0    0    0

303.578 56100.2 0
56100.2 134.346 0
0    0    0

61.3423 56730.5 0
56730.5 -98.0907 0
0    0    0

191.64 56915.9 0
56915.9 396.344 0
0    0    0

225.282 57192.6 0
57192.6 478.738 0
0    0    0

-111.044 56458.4 0
56458.4 68.9627 0
0    0    0

-3.06202 57048.2 0
57048.2 253.466 0
0    0    0

-48.8219 55989.5 0
55989.5 -118.506 0
0    0    0

-257.715 56676.1 0
56676.1 -149.085 0
0    0    0

-6.99386 57797.8 0
57797.8 -143.252 0
0    0    0

68.5947 57538.1 0
57538.1 -51.2134 0
0    0    0

-10.6386 57548.1 0
57548.1 282.064 0
0    0    0

-110.672 58351.9 0
58351.9 -247.804 0
0    0    0

-168.562 57187.6 0
57187.6 -358.601 0
0    0    0

172.751 57035.5 0
57035.5 -46.3594 0
0    0    0

86.4989 58429.8 0
58429.8 57.2377 0
0    0    0

-49.6413 58482.9 0
58482.9 -67.677 0
0    0    0

124.633 58076.3 0
58076.3 115.27 0
0    0    0

-308.883 59467.9 0
59467.9 -197.049 0
0    0    0

89.098 58657.6 0
58657.6 242.867 0
0    0    0

82.7482 58559.1 0
58559.1 221.957 0
0    0    0

63.9088 59247.6 0
59247.6 47.1015 0
0    0    0

-95.1934 59424.7 0
59424.7 -187.595 0
0    0    0

1.33826 59516.1 0
59516.1 -148.522 0
0    0    0

116.402 58786.7 0
58786.7 211.949 0
0    0    0

-285.577 38079.9 0
38079.9 -239.715 0
0    0    0

2.3684 38378.6 0
38378.6 5.52627 0
0    0    0

-165.289 46207.4 0
46207.4 -339.119 0
0    0    0

-72.0795 45281.6 0
45281.6 61.2761 0
0    0    0

142.155 46339.7 0
46339.7 100.1 0
0    0    0

-239.757 46199.7 0
46199.7 -169.282 0
0    0    0

-75.0065 46715.9 0
46715.9 -247.605 0
0    0    0

249.541 45884.6 0
45884.6 300.185 0
0    0    0

-124.197 46090.1 0
46090.1 -211.397 0
0    0    0

74.0388 46296.2 0
46296.2 299.407 0
0    0    0

182.781 45336 0
45336 71.4702 0
0    0    0

-325.209 45730.6 0
45730.6 -230.415 0
0    0    0

109.114 44357.5 0
44357.5 305.953 0
0    0    0

30.5812 43497.7 0
43497.7 -161.968 0
0    0    0

219.372 45409.5 0
45409.5 19.0896 0
0    0    0

59.2287 46123.4 0
46123.4 -173.578 0
0    0    0

-78.5688 44799.4 0
44799.4 -10.295 0
0    0    0

219.184 45223.9 0
45223.9 -4.67899 0
0    0    0

233.308 46392.3 0
46392.3 401.283 0
0    0    0

183.85 43840.3 0
43840.3 272.473 0
0    0    0

47.4619 45814 0
45814 -0.104571 0
0    0    0

290.15 45593.3 0
45593.3 98.0631 0
0    0    0

-125.114 44067.9 0
44067.9 209.26 0
0    0    0

-137.565 44550.6 0
44550.6 107.315 0
0    0    0

174.463 43788.1 0
43788.1 -96.8807 0
0    0    0

111.159 44444.9 0
44444.9 88.6266 0
0    0    0

296.05 46672.6 0
46672.6 189.06 0
0    0    0

-80.7131 45604.9 0
45604.9 87.2996 0
0    0    0

-99.5069 46630.5 0
46630.5 -345.299 0
0    0    0

-150.319 46175.6 0
46175.6 -129.233 0
0    0    0

192.377 46484.8 0
46484.8 206.811 0
0    0    0

180.27 45479.8 0
45479.8 163.759 0
0    0    0

-50.9594 46888.5 0
46888.5 198.415 0
0    0    0

272.886 46688.9 0
46688.9 74.0752 0
0    0    0

-56.8141 43229.5 0
43229.5 156.438 0
0    0    0

96.3699 43456.1 0
43456.1 66.6313 0
0    0    0

142.388 45891.3 0
45891.3 305.022 0
0    0    0

-240.389 45984.2 0
45984.2 68.5382 0
0    0    0

197.172 44896.2 0
44896.2 19.2188 0
0    0    0

-134.525 44811.8 0
44811.8 -244.809 0
0    0    0

17.6452 42987.1 0
42987.1 -59.1781 0
0    0    0

-279.117 44711.9 0
44711.9 -255.207 0
0    0    0

-260.616 45280.3 0
45280.3 -149.97 0
0    0    0

-38.3818 43639.1 0
43639.1 -174.021 0
0    0    0

-27.2164 43412.2 0
43412.2 -26.5577 0
0    0    0

267.24 45381.8 0
45381.8 261.026 0
0    0    0

-268.005 45671.2 0
45671.2 -210.276 0
0    0    0

183.307 44507.9 0
44507.9 256.189 0
0    0    0

-103.917 43138 0
43138 -41.3673 0
0    0    0

29.1099 43238.9 0
43238.9 -3.20267 0
0    0    0

98.6068 43956.7 0
43956.7 -14.5289 0
0    0    0

240.444 43857.7 0
43857.7 175.089 0
0    0    0

-175.315 45072.8 0
45072.8 9.65764 0
0    0    0

-87.9692 44141.2 0
44141.2 104.306 0
0    0    0

-42.2899 44402.4 0
44402.4 39.9685 0
0    0    0

114.441 44238 0
44238 -64.9015 0
0    0    0

-201.047 44407.6 0
44407.6 -100.375 0
0    0    0

115.135 44622.7 0
44622.7 -60.3893 0
0    0    0

295.184 44021.5 0
44021.5 249.74 0
0    0    0

-209.259 44293.7 0
44293.7 -317.234 0
0    0    0

-198.349 44907.8 0
44907.8 62.156 0
0    0    0

196.427 44369.3 0
44369.3 285.439 0
0    0    0

-257.117 44150.4 0
44150.4 -277.792 0
0    0    0

208.464 43885.4 0
43885.4 276.052 0
0    0    0

273.072 44400.1 0
44400.1 360.732 0
0    0    0

-187.916 44156.4 0
44156.4 -188.797 0
0    0    0

-231.493 44223.9 0
44223.9 -114.697 0
0    0    0

145.315 43246.1 0
43246.1 8.94288 0
0    0    0

-95.1415 45677.8 0
45677.8 -151.938 0
0    0    0

42.2951 44935.6 0
44935.6 120.682 0
0    0    0

27.6968 43533.2 0
43533.2 -75.6595 0
0    0    0

-143.015 43852.4 0
43852.4 -3.21768 0
0    0    0

-291.701 44832.5 0
44832.5 -197.668 0
0    0    0

-118.599 45339.5 0
45339.5 -63.8341 0
0    0    0

126.9 43777.3 0
43777.3 -130.227 0
0    0    0

2.77105 43929.5 0
43929.5 72.9438 0
0    0    0

-132.709 45993 0
45993 -31.115 0
0    0    0

-194.163 45929.3 0
45929.3 -53.4041 0
0    0    0

-152.075 44948.4 0
44948.4 -147.314 0
0    0    0

-117.417 45583.5 0
45583.5 0.94475 0
0    0    0

123.008 45330.9 0
45330.9 -169.849 0
0    0    0

-8.03579 46736.9 0
46736.9 33.5149 0
0    0    0

279.746 46756.4 0
46756.4 393.837 0
0    0    0

-181.929 46557.7 0
46557.7 -332.346 0
0    0    0

216.824 46797.5 0
46797.5 318.5 0
0    0    0

-128.457 46541.4 0
46541.4 -166.945 0
0    0    0

17.9978 46015.6 0
46015.6 164.174 0
0    0    0

192.303 45665.5 0
45665.5 115.273 0
0    0    0

217.404 47060.3 0
47060.3 210.258 0
0    0    0

-75.3508 47915.4 0
47915.4 -391.348 0
0    0    0

298.828 49738.4 0
49738.4 273.067 0
0    0    0

-1.4847 50216.8 0
50216.8 267.885 0
0    0    0

-90.4631 52522.2 0
52522.2 241.18 0
0    0    0

229.678 53100.3 0
53100.3 375.716 0
0    0    0

203.316 52272 0
52272 167.737 0
0    0    0

-107.659 50820.6 0
50820.6 -263.735 0
0    0    0

-43.8791 51423.2 0
51423.2 -67.1128 0
0    0    0

-215.02 51276.3 0
51276.3 -112.62 0
0    0    0

56.0857 50498.9 0
50498.9 -208.241 0
0    0    0

-58.3881 51279.2 0
51279.2 -201.811 0
0    0    0

87.1303 51443.6 0
51443.6 281.131 0
0    0    0

-177.486 51701.7 0
51701.7 -295.603 0
0    0    0

-215.217 52296.7 0
52296.7 -309.33 0
0    0    0

203.347 50777.9 0
50777.9 39.4707 0
0    0    0

365.545 49991.7 0
49991.7 436.334 0
0    0    0

34.0006 51224.8 0
51224.8 -65.0347 0
0    0    0

-156.32 49761 0
49761 -163.822 0
0    0    0

214.36 50270.4 0
50270.4 459.88 0
0    0    0

-280.548 50490.5 0
50490.5 -396.755 0
0    0    0

195.218 50258.3 0
50258.3 274.351 0
0    0    0

97.3762 50734.2 0
50734.2 -31.6958 0
0    0    0

142.079 50910.3 0
50910.3 329.443 0
0    0    0

131.495 51415.1 0
51415.1 224.184 0
0    0    0

-59.3071 51098.6 0
51098.6 -154.666 0
0    0    0

130.276 52725.1 0
52725.1 -20.8087 0
0    0    0

-167.811 52823.2 0
52823.2 -155.629 0
0    0    0

167.941 50579.7 0
50579.7 97.6586 0
0    0    0

-73.3998 51510.3 0
51510.3 54.7132 0
0    0    0

-49.2098 50832.1 0
50832.1 156.254 0
0    0    0

-37.2651 50256.5 0
50256.5 131.586 0
0    0    0

197.641 49580.5 0
49580.5 -110.829 0
0    0    0

1.94916 50154.4 0
50154.4 338.261 0
0    0    0

-80.2393 50204.3 0
50204.3 8.78735 0
0    0    0

-161.44 50481.9 0
50481.9 -35.8438 0
0    0    0

111.183 51954.4 0
51954.4 -103.886 0
0    0    0

-258.384 50884.6 0
50884.6 -280.541 0
0    0    0

113.765 21000.9 0
21000.9 117.974 0
0    0    0

-6.42258 22478.9 0
22478.9 -14.986 0
0    0    0

-123.2 21985.9 0
21985.9 -287.466 0
0    0    0

-208.395 22576.7 0
22576.7 -260.058 0
0    0    0

-62.1516 23387.4 0
23387.4 -145.02 0
0    0    0

41.6981 23538.9 0
23538.9 -62.3435 0
0    0    0

-281.224 23466.9 0
23466.9 -203.289 0
0    0    0

51.9282 21563.2 0
21563.2 426.77 0
0    0    0

287.886 23150 0
23150 173.267 0
0    0    0

241.828 23944.1 0
23944.1 84.7429 0
0    0    0

-72.8351 21296.9 0
21296.9 -405.011 0
0    0    0

-22.5949 21501.3 0
21501.3 -52.7214 0
0    0    0

-34.3046 24101.1 0
24101.1 -438.067 0
0    0    0

-60.3073 22885.7 0
22885.7 -140.717 0
0    0    0

-9.49676 24200.6 0
24200.6 271.986 0
0    0    0

34.1171 24382.3 0
24382.3 161.895 0
0    0    0

-105.663 24075.5 0
24075.5 -229.731 0
0    0    0

-272.122 22924 0
22924 -165.211 0
0    0    0

221.239 23161.5 0
23161.5 245.024 0
0    0    0

215.263 24454.5 0
24454.5 -209.758 0
0    0    0

41.8882 24167.9 0
24167.9 -135.09 0
0    0    0

-87.0425 23588.1 0
23588.1 36.6841 0
0    0    0

33.4001 23852.5 0
23852.5 -182.225 0
0    0    0

-71.1863 24025.8 0
24025.8 -166.101 0
0    0    0

35.3187 24166.5 0
24166.5 225.253 0
0    0    0

-59.057 25671.1 0
25671.1 113.841 0
0    0    0

253.455 24596.9 0
24596.9 420.373 0
0    0    0

32.562 25170.2 0
25170.2 -103.423 0
0    0    0

46.9738 25010.4 0
25010.4 -136.037 0
0    0    0

244.224 25534.6 0
25534.6 212.141 0
0    0    0

296.833 24796.4 0
24796.4 115.985 0
0    0    0

-145.768 24434.3 0
24434.3 -314.97 0
0    0    0

82.625 25021.5 0
25021.5 -183.752 0
0    0    0

-233.368 24834.2 0
24834.2 -276.922 0
0    0    0

98.4912 24986.1 0
24986.1 352.921 0
0    0    0

316.262 25256.6 0
25256.6 243.711 0
0    0    0

209.225 24015.9 0
24015.9 183.832 0
0    0    0

-263.013 25543.1 0
25543.1 -209.749 0
0    0    0

78.4475 24749.9 0
24749.9 226.559 0
0    0    0

-160.318 25064.1 0
25064.1 -233.937 0
0    0    0

82.1082 24423.5 0
24423.5 -139.131 0
0    0    0

-58.8432 28019.2 0
28019.2 -74.5742 0
0    0    0

159.709 28587.1 0
28587.1 278.806 0
0    0    0

23.309 27097.5 0
27097.5 158.978 0
0    0    0

-185.604 27512.8 0
27512.8 -135.717 0
0    0    0

286.732 27168.3 0
27168.3 235.197 0
0    0    0

92.4901 28070.4 0
28070.4 -59.8609 0
0    0    0

-220.653 26947.3 0
26947.3 -375.621 0
0    0    0

253.195 27087.7 0
27087.7 224.666 0
0    0    0

-157.486 28357.7 0
28357.7 29.4161 0
0    0    0

265.395 28325.2 0
28325.2 434.239 0
0    0    0

52.2921 28313.8 0
28313.8 16.5194 0
0    0    0

246.146 29287.8 0
29287.8 173.07 0
0    0    0

-86.3799 27742.3 0
27742.3 265.763 0
0    0    0

21.0308 29209.6 0
29209.6 185.023 0
0    0    0

129.09 29795.8 0
29795.8 -120.364 0
0    0    0

110.425 28675.3 0
28675.3 157.542 0
0    0    0

-155.419 28013.9 0
28013.9 -203.682 0
0    0    0

-225.111 28856.2 0
28856.2 -278.005 0
0    0    0

120.463 29458.5 0
29458.5 30.1186 0
0    0    0

-163.444 29326 0
29326 -191.818 0
0    0    0

116.244 26122.3 0
26122.3 228.423 0
0    0    0

158.73 26613.9 0
26613.9 344.036 0
0    0    0

24.6367 25900.6 0
25900.6 -184.197 0
0    0    0

-100.279 26063.7 0
26063.7 -20.9679 0
0    0    0

74.8 4643.87 0
4643.87 83.0165 0
0    0    0

-163.263 5149.63 0
5149.63 -92.8268 0
0    0    0

-105.65 4860.89 0
4860.89 115.971 0
0    0    0

-130.952 4383.92 0
4383.92 -20.9733 0
0    0    0

-92.7337 3687.97 0
3687.97 93.8916 0
0    0    0

283.584 4908.05 0
4908.05 363.104 0
0    0    0

-212.146 5356.36 0
5356.36 -338.338 0
0    0    0

41.1337 6854.4 0
6854.4 412.348 0
0    0    0

232.723 5216.95 0
5216.95 -14.2193 0
0    0    0

195.543 6616.89 0
6616.89 56.5267 0
0    0    0

-111.32 7561.9 0
7561.9 -172.697 0
0    0    0

105.359 7086.23 0
7086.23 -53.304 0
0    0    0

-128.744 7255.48 0
7255.48 -259.733 0
0    0    0

-119.133 7131.5 0
7131.5 -365.452 0
0    0    0

156.948 6371.35 0
6371.35 211.875 0
0    0    0

74.3782 6308.65 0
6308.65 304.68 0
0    0    0

-46.0627 5869.29 0
5869.29 120.195 0
0    0    0

159.593 5605.1 0
5605.1 326.518 0
0    0    0

120.598 5043.7 0
5043.7 178.546 0
0    0    0

-5.76532 6405.69 0
6405.69 62.193 0
0    0    0

-80.3808 5976.4 0
5976.4 -182.787 0
0    0    0

103.773 5872.27 0
5872.27 -22.5119 0
0    0    0

45.9136 5959.13 0
5959.13 350.938 0
0    0    0

54.2948 7169.52 0
7169.52 145.2 0
0    0    0

223.72 3577.66 0
3577.66 142.291 0
0    0    0

128.593 5730.2 0
5730.2 173.975 0
0    0    0

252.374 6329.74 0
6329.74 472.464 0
0    0    0

-228.27 6059.63 0
6059.63 -418.621 0
0    0    0

114.045 6940.74 0
6940.74 421.497 0
0    0    0

6.79969 6886.59 0
6886.59 -241.314 0
0    0    0

-153.889 6528.6 0
6528.6 -575.288 0
0    0    0

-61.1197 6806.21 0
6806.21 124.925 0
0    0    0

-66.8947 6676.82 0
6676.82 128.898 0
0    0    0

151.111 7365.29 0
7365.29 -111.989 0
0    0    0

1.72228 6248.61 0
6248.61 -140.175 0
0    0    0

85.9315 4478.42 0
4478.42 180.507 0
0    0    0

-194.463 5965.39 0
5965.39 -239.619 0
0    0    0

176.344 6119.69 0
6119.69 157.455 0
0    0    0

30.3503 6224.51 0
6224.51 84.828 0
0    0    0

-248.734 6422.88 0
6422.88 -192.136 0
0    0    0

-60.6806 5691.36 0
5691.36 196.491 0
0    0    0

253.906 5449.84 0
5449.84 512.899 0
0    0    0

158.988 4436.97 0
4436.97 139.705 0
0    0    0

-174.163 4941.91 0
4941.91 -42.5669 0
0    0    0

-205.44 7867.38 0
7867.38 -263.676 0
0    0    0

-127.947 7677.18 0
7677.18 -226.629 0
0    0    0

-385.235 6545.25 0
6545.25 -356.638 0
0    0    0

-71.2428 6527.81 0
6527.81 -166.233 0
0    0    0

-66.5443 6520.3 0
6520.3 -228.035 0
0    0    0

-169.615 6028.78 0
6028.78 150.758 0
0    0    0

-229.51 5180.1 0
5180.1 -238.937 0
0    0    0

-22.8143 5797.1 0
5797.1 -165.987 0
0    0    0

-20.7723 5358.03 0
5358.03 -274.129 0
0    0    0

-278.171 6541.36 0
6541.36 -117.745 0
0    0    0

-71.0818 5715.97 0
5715.97 -362.526 0
0    0    0

49.0804 5595.68 0
5595.68 187.487 0
0    0    0

293.747 6220.28 0
6220.28 170.138 0
0    0    0

9.3827 6796.85 0
6796.85 218.965 0
0    0    0

111.965 7528.26 0
7528.26 128.437 0
0    0    0

-64.5872 6075.19 0
6075.19 -150.703 0
0    0    0

131.039 6685.18 0
6685.18 27.0366 0
0    0    0

146.085 4244.26 0
4244.26 165.415 0
0    0    0

17.3154 6996.56 0
6996.56 40.4025 0
0    0    0

-26.3242 5158.77 0
5158.77 -61.423 0
0    0    0

197.306 7346.05 0
7346.05 149.882 0
0    0    0

-14.1373 6982.37 0
6982.37 -1.593 0
0    0    0

350.985 4753.35 0
4753.35 260.16 0
0    0    0

9.5778 5434.16 0
5434.16 -143.26 0
0    0    0

267.648 3487.34 0
3487.34 379.206 0
0    0    0

78.3652 3378.86 0
3378.86 286.225 0
0    0    0

129.963 3112.51 0
3112.51 -6.35543 0
0    0    0

275.062 3463.33 0
3463.33 526.491 0
0    0    0

326.173 2997.77 0
2997.77 359.559 0
0    0    0

224.877 80732.3 0
80732.3 56.8622 0
0    0    0

-306.512 3114.06 0
3114.06 -634.54 0
0    0    0

-39.5087 80936.2 0
80936.2 301.222 0
0    0    0

279.852 79710.6 0
79710.6 172.262 0
0    0    0

186.218 80283.9 0
80283.9 148.629 0
0    0    0

97.5175 79234 0
79234 46.7034 0
0    0    0

-28.7798 80431.4 0
80431.4 -81.5367 0
0    0    0

61.6678 78878.8 0
78878.8 -54.1903 0
0    0    0

-74.8252 79745.6 0
79745.6 -195.651 0
0    0    0

-34.7996 79721.3 0
79721.3 -67.2193 0
0    0    0

91.7468 79523.8 0
79523.8 307.997 0
0    0    0

193.974 77832.1 0
77832.1 121.387 0
0    0    0

-103.968 78423.3 0
78423.3 62.0315 0
0    0    0

74.8851 77827 0
77827 215.621 0
0    0    0

229.673 79275 0
79275 86.8477 0
0    0    0

61.1096 79610.5 0
79610.5 -222.74 0
0    0    0

-24.5372 80172.8 0
80172.8 109.404 0
0    0    0

-139.741 79339.3 0
79339.3 -6.16541 0
0    0    0

-0.15042 80082 0
80082 -154.436 0
0    0    0

111.222 78968.9 0
78968.9 142.608 0
0    0    0

-26.8979 79871.2 0
79871.2 166.848 0
0    0    0

-115.066 77808.6 0
77808.6 312.483 0
0    0    0

-184.553 79786.6 0
79786.6 -74.5725 0
0    0    0

-281.748 80324.3 0
80324.3 -80.4725 0
0    0    0

-149.839 81015.9 0
81015.9 -174.002 0
0    0    0

146.873 77595.7 0
77595.7 -70.3211 0
0    0    0

-60.6088 78187 0
78187 -200.34 0
0    0    0

352.764 80885.8 0
80885.8 240.595 0
0    0    0

142.885 80869.9 0
80869.9 176.983 0
0    0    0

240.267 81204.1 0
81204.1 154.587 0
0    0    0

47.8538 80938.2 0
80938.2 -128.989 0
0    0    0

143.757 81809.1 0
81809.1 114.635 0
0    0    0

242.76 81649.4 0
81649.4 300.594 0
0    0    0

96.5348 81154.2 0
81154.2 -231.665 0
0    0    0

-213.75 82336.6 0
82336.6 -250.855 0
0    0    0

-246.287 81672.9 0
81672.9 -29.7997 0
0    0    0

179.486 82418.8 0
82418.8 175.872 0
0    0    0

-235.247 81778.4 0
81778.4 -154.316 0
0    0    0

-150.449 82279.8 0
82279.8 -196.746 0
0    0    0

-188.909 83012.6 0
83012.6 -2.39675 0
0    0    0

-314.09 83424.1 0
83424.1 -351.816 0
0    0    0

162.325 80644 0
80644 147.198 0
0    0    0

-53.8791 82006.4 0
82006.4 165.027 0
0    0    0

162.272 81366.1 0
81366.1 161.986 0
0    0    0

105.855 81538.8 0
81538.8 -6.19552 0
0    0    0

9.92004 79840.8 0
79840.8 11.6664 0
0    0    0

108.04 80539.6 0
80539.6 136.514 0
0    0    0

-136.071 80639.8 0
80639.8 -9.74551 0
0    0    0

-191.13 80915.6 0
80915.6 -32.8167 0
0    0    0

-228.231 80493.3 0
80493.3 -192.227 0
0    0    0

251.479 81590.4 0
81590.4 -39.715 0
0    0    0

-112.72 85821.5 0
85821.5 208.014 0
0    0    0

-314.189 82939.3 0
82939.3 -253.26 0
0    0    0

272.849 80248.1 0
80248.1 163.331 0
0    0    0

38.4113 81338 0
81338 233.359 0
0    0    0

-138.729 82001.1 0
82001.1 116.986 0
0    0    0

180.835 83738.8 0
83738.8 167.438 0
0    0    0

241.663 79733 0
79733 369.237 0
0    0    0

95.1474 79779.7 0
79779.7 98.8255 0
0    0    0

-263.909 81127.4 0
81127.4 -250.003 0
0    0    0

223.348 80614.5 0
80614.5 -7.70738 0
0    0    0

-112.8 80711.6 0
80711.6 -75.8562 0
0    0    0

205.105 81107.4 0
81107.4 301.904 0
0    0    0

147.487 82209 0
82209 -41.273 0
0    0    0

12.4115 82669.9 0
82669.9 -45.5553 0
0    0    0

99.1149 82114 0
82114 -213.505 0
0    0    0

0.387755 82592.7 0
82592.7 -191.61 0
0    0    0

-268.168 79503.4 0
79503.4 -197.02 0
0    0    0

-48.3048 80338.3 0
80338.3 152.432 0
0    0    0

276.666 79927.8 0
79927.8 137.646 0
0    0    0

-98.026 80844.5 0
80844.5 43.9093 0
0    0    0

58.7071 80117.1 0
80117.1 93.3665 0
0    0    0

148.22 80865.2 0
80865.2 -140.611 0
0    0    0

106.426 81035.8 0
81035.8 -13.1848 0
0    0    0

-320.268 80710.8 0
80710.8 -108.019 0
0    0    0

327.806 82889.2 0
82889.2 237.839 0
0    0    0

-356.069 83160.1 0
83160.1 -271.873 0
0    0    0

139.812 81346.7 0
81346.7 17.1724 0
0    0    0

-126.959 82654.4 0
82654.4 106.299 0
0    0    0

-169.826 81982.1 0
81982.1 -313.185 0
0    0    0

-84.3037 82301.9 0
82301.9 -94.8722 0
0    0    0

72.3481 81791.4 0
81791.4 -30.6641 0
0    0    0

-139.764 81076.5 0
81076.5 153.964 0
0    0    0

-16.3435 81846.5 0
81846.5 205.619 0
0    0    0

44.1113 81244.7 0
81244.7 52.9378 0
0    0    0

-70.2315 81417.5 0
81417.5 -55.7327 0
0    0    0

-32.8514 81604.3 0
81604.3 -274.44 0
0    0    0

-158.303 81236.9 0
81236.9 -155.493 0
0    0    0

-42.2798 80412 0
80412 33.6855 0
0    0    0

154.609 82090.6 0
82090.6 140.321 0
0    0    0

182.859 81676 0
81676 36.4023 0
0    0    0

-277.542 82408.1 0
82408.1 -371.44 0
0    0    0

98.2106 82765.8 0
82765.8 -27.8038 0
0    0    0

-258.69 83550.6 0
83550.6 -229.169 0
0    0    0

-339.26 82456.7 0
82456.7 -584.416 0
0    0    0

70.1813 84743.8 0
84743.8 -285.146 0
0    0    0

-157.705 85428 0
85428 -173.918 0
0    0    0

178.903 84579.1 0
84579.1 417.44 0
0    0    0

-195.061 84253.3 0
84253.3 -268.1 0
0    0    0

33.9578 84655.2 0
84655.2 191.296 0
0    0    0

-12.8251 83641.8 0
83641.8 212.258 0
0    0    0

-48.7755 84544.8 0
84544.8 -390.161 0
0    0    0

267.625 84019.7 0
84019.7 155.526 0
0    0    0

19.7206 84922.6 0
84922.6 212.508 0
0    0    0

-64.7474 85492.1 0
85492.1 -177.877 0
0    0    0

73.2148 83483.9 0
83483.9 277.797 0
0    0    0

-116.316 84292.8 0
84292.8 -54.5414 0
0    0    0

-52.677 84270.8 0
84270.8 31.6368 0
0    0    0

264.486 83988.3 0
83988.3 545.335 0
0    0    0

28.7828 85295.7 0
85295.7 268.844 0
0    0    0

38.6797 84534.1 0
84534.1 94.3589 0
0    0    0

63.3323 85247.1 0
85247.1 255.074 0
0    0    0

44.7411 85070.5 0
85070.5 -150.604 0
0    0    0

-59.375 85214.2 0
85214.2 -80.4065 0
0    0    0

276.254 85223.3 0
85223.3 570.401 0
0    0    0

-110.285 84708.9 0
84708.9 -38.2811 0
0    0    0

263.347 84393.5 0
84393.5 -28.3704 0
0    0    0

-185.595 85977.5 0
85977.5 -526.988 0
0    0    0

143.13 85943.8 0
85943.8 -79.4396 0
0    0    0

-187.492 86971.7 0
86971.7 159.477 0
0    0    0

-149.774 86916.7 0
86916.7 -292.262 0
0    0    0

218.152 88013.6 0
88013.6 246.233 0
0    0    0

52.4362 87484.2 0
87484.2 186.694 0
0    0    0

192.175 87337.4 0
87337.4 199.458 0
0    0    0

-275.46 87245.7 0
87245.7 -137.701 0
0    0    0

-143.689 86797.7 0
86797.7 118.263 0
0    0    0

139.948 87476.6 0
87476.6 29.1782 0
0    0    0

188.17 87763.2 0
87763.2 -6.39909 0
0    0    0

-279.467 87938.6 0
87938.6 -255.158 0
0    0    0

27.7411 89262.8 0
89262.8 182.554 0
0    0    0

0.335416 88952.8 0
88952.8 71.0853 0
0    0    0

-196.023 87541.6 0
87541.6 -54.5618 0
0    0    0

-126.693 88383 0
88383 -239.052 0
0    0    0

-230.287 87830.8 0
87830.8 -161.885 0
0    0    0

-25.2212 88105 0
88105 152.601 0
0    0    0

190.98 87565.5 0
87565.5 132.346 0
0    0    0

123.872 87596 0
87596 52.9977 0
0    0    0

-58.6457 89456.2 0
89456.2 -215.26 0
0    0    0

-148.005 88294.6 0
88294.6 -280.458 0
0    0    0

223.287 88187.5 0
88187.5 109.574 0
0    0    0

-174.307 88024.5 0
88024.5 -98.1467 0
0    0    0

44.9786 88023.9 0
88023.9 333.339 0
0    0    0

131.988 87908.6 0
87908.6 125.112 0
0    0    0

33.7676 85324 0
85324 -232.863 0
0    0    0

-53.672 85985 0
85985 40.8097 0
0    0    0

-207.637 88829.6 0
88829.6 -302.849 0
0    0    0

-161.583 87591.5 0
87591.5 -339.239 0
0    0    0

-160.537 87615 0
87615 -139.77 0
0    0    0

-27.2794 88124.6 0
88124.6 47.9385 0
0    0    0

256.44 87239.4 0
87239.4 229.181 0
0    0    0

199.409 88025.9 0
88025.9 161.807 0
0    0    0

-221.774 87040.2 0
87040.2 -285.961 0
0    0    0

-241.156 87605.5 0
87605.5 -272.896 0
0    0    0

155.782 88448 0
88448 10.6197 0
0    0    0

306.906 88537.8 0
88537.8 268.324 0
0    0    0

272.581 87759.4 0
87759.4 183.15 0
0    0    0

149.092 88532.4 0
88532.4 -51.373 0
0    0    0

-22.4618 87460.1 0
87460.1 -354.085 0
0    0    0

-474.039 87682 0
87682 -164.445 0
0    0    0

162.248 85955.8 0
85955.8 188.784 0
0    0    0

-68.516 85548.7 0
85548.7 101.388 0
0    0    0

3.78808 85577.6 0
85577.6 252.807 0
0    0    0

294.557 84339.5 0
84339.5 360.78 0
0    0    0

130.778 85420.7 0
85420.7 -164.226 0
0    0    0

-139.76 83147.2 0
83147.2 -232.344 0
0    0    0

104.447 85918.4 0
85918.4 352.324 0
0    0    0

-33.5526 85487.6 0
85487.6 210.16 0
0    0    0

-16.9474 85287.1 0
85287.1 185.529 0
0    0    0

-250.882 84021.1 0
84021.1 -461.589 0
0    0    0

170.335 83332.3 0
83332.3 384.82 0
0    0    0

-234.75 84610.9 0
84610.9 -158.84 0
0    0    0

-50.6235 85029.2 0
85029.2 -247.993 0
0    0    0

78.751 84767 0
84767 260.396 0
0    0    0

-82.0931 84978.6 0
84978.6 111.455 0
0    0    0

120.354 84239.1 0
84239.1 34.9892 0
0    0    0

219.752 84287.4 0
84287.4 262.607 0
0    0    0

-19.2825 85063.9 0
85063.9 -230.917 0
0    0    0

42.3314 85895.3 0
85895.3 10.9107 0
0    0    0

-8.49281 85470 0
85470 -153.263 0
0    0    0

-127.872 85386.3 0
85386.3 -186.134 0
0    0    0

-164.312 84533.6 0
84533.6 -3.39753 0
0    0    0

76.4483 85909.3 0
85909.3 364.485 0
0    0    0

67.1578 86383.6 0
86383.6 205.039 0
0    0    0

84.4864 84049.8 0
84049.8 -342.386 0
0    0    0

143.907 83740.1 0
83740.1 247.967 0
0    0    0

-86.0567 86104.9 0
86104.9 88.6642 0
0    0    0

214.583 84717.9 0
84717.9 136.025 0
0    0    0

-156.016 86239.4 0
86239.4 -354.5 0
0    0    0

-126.912 86703.4 0
86703.4 -154.962 0
0    0    0

105.091 84085.3 0
84085.3 -311.504 0
0    0    0

-94.6649 84642.4 0
84642.4 -115.244 0
0    0    0

77.0115 85190 0
85190 308.53 0
0    0    0

-167.579 85160.4 0
85160.4 129.052 0
0    0    0

-304.805 85597.5 0
85597.5 30.6214 0
0    0    0

7.66754 85933.5 0
85933.5 118.28 0
0    0    0

67.3059 85682.6 0
85682.6 -139.476 0
0    0    0

-244.214 86285.9 0
86285.9 -310.635 0
0    0    0

90.6529 85487.3 0
85487.3 120.667 0
0    0    0

188.558 85873.5 0
85873.5 185.939 0
0    0    0

102.944 86862 0
86862 145.061 0
0    0    0

12.7792 86202 0
86202 -294.344 0
0    0    0

182.991 86801.5 0
86801.5 176.73 0
0    0    0

67.9129 88575.5 0
88575.5 -99.0366 0
0    0    0

-17.6646 87488.1 0
87488.1 151.491 0
0    0    0

-102.774 86631.9 0
86631.9 -176.315 0
0    0    0

166.356 86406 0
86406 152.398 0
0    0    0

-212.563 86939.6 0
86939.6 96.4971 0
0    0    0

21.5978 87550.8 0
87550.8 -83.9982 0
0    0    0

-10.9193 87576.5 0
87576.5 212.319 0
0    0    0

-225.102 86329.9 0
86329.9 148 0
0    0    0

337.797 87929.9 0
87929.9 256.613 0
0    0    0

-53.3861 84319.1 0
84319.1 -214.382 0
0    0    0

-35.8845 84253 0
84253 -193.861 0
0    0    0

-59.0384 80165.2 0
80165.2 -15.6219 0
0    0    0

33.3938 80049.2 0
80049.2 -302.639 0
0    0    0

-114.398 79781.5 0
79781.5 31.7066 0
0    0    0

36.1681 80312.6 0
80312.6 178.293 0
0    0    0

93.7503 87039 0
87039 -93.1829 0
0    0    0

281.114 86783.8 0
86783.8 101.49 0
0    0    0

65.5376 81746.7 0
81746.7 182.879 0
0    0    0

35.9461 81811 0
81811 248.582 0
0    0    0

-65.6067 80677.8 0
80677.8 -148.78 0
0    0    0

-130.75 81163.9 0
81163.9 -127.601 0
0    0    0

79.236 83696.5 0
83696.5 101.438 0
0    0    0

139.437 84851.1 0
84851.1 175.381 0
0    0    0

-21.7887 84204.4 0
84204.4 174.385 0
0    0    0

84.8892 84346.7 0
84346.7 311.938 0
0    0    0

-198.365 83996 0
83996 -216.739 0
0    0    0

-56.2729 85129 0
85129 -259.057 0
0    0    0

150.271 83818 0
83818 -161.239 0
0    0    0

-232.767 84718.1 0
84718.1 24.8569 0
0    0    0

11.5468 85954.3 0
85954.3 -248.88 0
0    0    0

6.81761 85842.9 0
85842.9 262.792 0
0    0    0

-252.567 87660.7 0
87660.7 -149.924 0
0    0    0

-87.974 86551.6 0
86551.6 209.186 0
0    0    0

-63.8278 85199.6 0
85199.6 -368.604 0
0    0    0

60.2906 86965.9 0
86965.9 -308.12 0
0    0    0

151.386 85525.5 0
85525.5 219.884 0
0    0    0

5.01267 86038 0
86038 -243.652 0
0    0    0

-164.571 84453.8 0
84453.8 -376.968 0
0    0    0

218.063 84701.5 0
84701.5 414.851 0
0    0    0

-124.044 84254.3 0
84254.3 255.167 0
0    0    0

-3.32378 84831.1 0
84831.1 148.37 0
0    0    0

-131.864 84059.4 0
84059.4 -329.044 0
0    0    0

99.1013 84710.1 0
84710.1 -97.0095 0
0    0    0

31.8457 84391.4 0
84391.4 -102.212 0
0    0    0

-63.79 84853.5 0
84853.5 156.362 0
0    0    0

237.649 83168 0
83168 267.136 0
0    0    0

174.105 84257.9 0
84257.9 159.824 0
0    0    0

155.747 82772.1 0
82772.1 160.904 0
0    0    0

-67.4298 83628 0
83628 -110.319 0
0    0    0

247.13 82552.3 0
82552.3 211.483 0
0    0    0

-86.3751 83541.1 0
83541.1 -193.943 0
0    0    0

-113.374 88293.7 0
88293.7 -223.799 0
0    0    0

-4.59216 85348.3 0
85348.3 206.805 0
0    0    0

-110.766 84728.4 0
84728.4 21.2071 0
0    0    0

148.86 85535.9 0
85535.9 -46.2251 0
0    0    0

160.471 86687.2 0
86687.2 -22.2973 0
0    0    0

-186.03 85729.9 0
85729.9 -42.9856 0
0    0    0

15.8389 85991.2 0
85991.2 252.867 0
0    0    0

-11.8207 86325.8 0
86325.8 233.843 0
0    0    0

-122.753 86236.3 0
86236.3 -177.583 0
0    0    0

148.334 87448.2 0
87448.2 315.03 0
0    0    0

110.025 85218 0
85218 -161.339 0
0    0    0

-97.1822 85775.1 0
85775.1 -189.532 0
0    0    0

37.6695 86373.5 0
86373.5 -10.2385 0
0    0    0

117.968 85582.8 0
85582.8 -192.602 0
0    0    0

-228.499 86350.2 0
86350.2 38.7282 0
0    0    0

-138.056 86596.4 0
86596.4 -161.979 0
0    0    0

-107.305 86106.2 0
86106.2 -147.668 0
0    0    0

-123.863 85638.8 0
85638.8 -148.052 0
0    0    0

51.0028 86615.9 0
86615.9 173.366 0
0    0    0

70.9418 85512 0
85512 300.762 0
0    0    0

5.49773 86250.7 0
86250.7 -147.544 0
0    0    0

-100.148 85337.3 0
85337.3 94.8126 0
0    0    0

54.502 86110 0
86110 157.064 0
0    0    0

-171.056 87379.7 0
87379.7 -148.885 0
0    0    0

290.351 87396.5 0
87396.5 151.995 0
0    0    0

144.937 87181.1 0
87181.1 97.32 0
0    0    0

-16.6147 86904.6 0
86904.6 98.4776 0
0    0    0

76.39 87937.7 0
87937.7 179.888 0
0    0    0

-56.5002 86863.6 0
86863.6 -44.3249 0
0    0    0

-173.393 87088.3 0
87088.3 -81.1936 0
0    0    0

167.406 83096.5 0
83096.5 251.84 0
0    0    0

328.517 83701.4 0
83701.4 432.954 0
0    0    0

-256.052 67624.9 0
67624.9 -13.8524 0
0    0    0

16.7192 67026.3 0
67026.3 210.973 0
0    0    0

-98.4142 66854.6 0
66854.6 -293.624 0
0    0    0

-4.7927 66607.1 0
66607.1 -253.649 0
0    0    0

255.181 66017.7 0
66017.7 494.591 0
0    0    0

226.465 64891.5 0
64891.5 175.564 0
0    0    0

146.295 66401.7 0
66401.7 81.4942 0
0    0    0

-232.638 66446.3 0
66446.3 -472.515 0
0    0    0

201.281 64319.3 0
64319.3 92.1373 0
0    0    0

66.3299 64777.3 0
64777.3 40.7429 0
0    0    0

-207.023 64160.2 0
64160.2 -293.544 0
0    0    0

-42.293 65168.7 0
65168.7 -134.567 0
0    0    0

144.726 63923.3 0
63923.3 49.5284 0
0    0    0

-94.769 64725.6 0
64725.6 -77.12 0
0    0    0

190.903 64678.4 0
64678.4 179.18 0
0    0    0

-65.232 64166 0
64166 -219.275 0
0    0    0

136.552 64971 0
64971 -153.531 0
0    0    0

-8.41085 65678.1 0
65678.1 -50.018 0
0    0    0

-33.5618 64780.1 0
64780.1 -170.936 0
0    0    0

-15.1704 65143.9 0
65143.9 -39.4293 0
0    0    0

-182.813 65351.6 0
65351.6 95.7036 0
0    0    0

-45.8257 65824.1 0
65824.1 273.785 0
0    0    0

153.08 65328.3 0
65328.3 252.138 0
0    0    0

-98.7687 65562.5 0
65562.5 -243.446 0
0    0    0

-0.372115 66264.8 0
66264.8 62.3618 0
0    0    0

-215.827 65814 0
65814 19.6507 0
0    0    0

77.6367 65623.3 0
65623.3 119.633 0
0    0    0

-53.3885 65901.2 0
65901.2 -194.686 0
0    0    0

-44.5845 68167.9 0
68167.9 -61.1946 0
0    0    0

16.9258 67924.7 0
67924.7 143.559 0
0    0    0

-254.845 68218.6 0
68218.6 -263.144 0
0    0    0

165.321 67941.3 0
67941.3 314.925 0
0    0    0

36.2353 69065.2 0
69065.2 -191.847 0
0    0    0

-87.7029 68621.2 0
68621.2 -239.002 0
0    0    0

-233.17 64966.9 0
64966.9 -472.7 0
0    0    0

-61.7357 66224.8 0
66224.8 -78.0343 0
0    0    0

52.1478 64736.8 0
64736.8 109.539 0
0    0    0

73.8687 65321.3 0
65321.3 97.0129 0
0    0    0

-2.94161 66111.2 0
66111.2 23.0745 0
0    0    0

312.078 66366.2 0
66366.2 257.544 0
0    0    0

90.0027 65567 0
65567 -110.696 0
0    0    0

-76.6834 65739 0
65739 -207.004 0
0    0    0

-43.8819 65362.4 0
65362.4 13.284 0
0    0    0

-115.293 65888.3 0
65888.3 102.315 0
0    0    0

-75.394 64628.2 0
64628.2 40.7484 0
0    0    0

-262.841 67229.1 0
67229.1 -100.908 0
0    0    0

141.955 63873.6 0
63873.6 343.675 0
0    0    0

219.329 63780.8 0
63780.8 212.568 0
0    0    0

-13.9085 53361.3 0
53361.3 -255.962 0
0    0    0

-41.162 53361.3 0
53361.3 -268.471 0
0    0    0

90.7265 53565.2 0
53565.2 -88.2603 0
0    0    0

245.325 52902.6 0
52902.6 179.096 0
0    0    0

-39.115 52300.4 0
52300.4 -293.268 0
0    0    0

-202.425 52537.7 0
52537.7 172.187 0
0    0    0

24.7517 51544.1 0
51544.1 153.399 0
0    0    0

-74.5157 51110 0
51110 -166.737 0
0    0    0

178.526 51076.3 0
51076.3 147.155 0
0    0    0

-96.7694 51595.7 0
51595.7 183.558 0
0    0    0

-8.86636 51788.3 0
51788.3 -62.9658 0
0    0    0

-205.71 51338.9 0
51338.9 -344.349 0
0    0    0

-54.5475 52480 0
52480 286.672 0
0    0    0

55.0911 51784.6 0
51784.6 198.89 0
0    0    0

215.622 51824.2 0
51824.2 322.885 0
0    0    0

137.426 52917 0
52917 82.3702 0
0    0    0

-206.657 53288.7 0
53288.7 -194.011 0
0    0    0

-85.0531 53755.4 0
53755.4 -78.8898 0
0    0    0

-92.7845 53887.7 0
53887.7 124.989 0
0    0    0

132.399 54250.3 0
54250.3 246.195 0
0    0    0

-148.081 63565.8 0
63565.8 77.4037 0
0    0    0

-180.097 62969 0
62969 -192.303 0
0    0    0

-99.5029 62156.9 0
62156.9 111.553 0
0    0    0

31.5193 62240.2 0
62240.2 -120.719 0
0    0    0

297.89 62663.7 0
62663.7 550.873 0
0    0    0

-202.227 62373.2 0
62373.2 -371.696 0
0    0    0

18.8003 62336.3 0
62336.3 44.5223 0
0    0    0

59.4988 63628.1 0
63628.1 -217.647 0
0    0    0

98.9089 61942.3 0
61942.3 315.428 0
0    0    0

-79.5623 64469.1 0
64469.1 -0.787624 0
0    0    0

-18.5035 62367.3 0
62367.3 -192.194 0
0    0    0

-147.39 62661.9 0
62661.9 13.2676 0
0    0    0

270.774 63629.9 0
63629.9 265.627 0
0    0    0

126.64 63265.6 0
63265.6 227.313 0
0    0    0

178.251 63927.8 0
63927.8 389.257 0
0    0    0

-95.0217 63751.6 0
63751.6 108.877 0
0    0    0

14.9024 66433.6 0
66433.6 141.454 0
0    0    0

-158.049 65364.4 0
65364.4 -174.388 0
0    0    0

-61.2064 64600.2 0
64600.2 -265.219 0
0    0    0

-24.42 64949.8 0
64949.8 86.3045 0
0    0    0

103.748 65592.8 0
65592.8 76.9384 0
0    0    0

24.0053 65353.9 0
65353.9 -223.333 0
0    0    0

100.259 58539.6 0
58539.6 204.949 0
0    0    0

85.7243 58481.1 0
58481.1 242.282 0
0    0    0

-242.766 62260.8 0
62260.8 -53.3524 0
0    0    0

-165.879 61048.7 0
61048.7 -341.465 0
0    0    0

199.345 58176.6 0
58176.6 313.28 0
0    0    0

-127.465 58395 0
58395 -441.156 0
0    0    0

364.687 57229.3 0
57229.3 64.5717 0
0    0    0

-101.078 55833.6 0
55833.6 -312.468 0
0    0    0

231.867 54111.5 0
54111.5 560.145 0
0    0    0

-180.04 55772.1 0
55772.1 84.0599 0
0    0    0

-254.504 57060.8 0
57060.8 -134.87 0
0    0    0

-203.597 54796.5 0
54796.5 -192.438 0
0    0    0

-213.877 55185.2 0
55185.2 -351.274 0
0    0    0

-157.556 56543.3 0
56543.3 -169.556 0
0    0    0

-64.4175 57053.5 0
57053.5 -212.599 0
0    0    0

-57.6927 56765.7 0
56765.7 43.8738 0
0    0    0

226.029 52422.1 0
52422.1 31.5041 0
0    0    0

146.908 55509.2 0
55509.2 190.935 0
0    0    0

61.4729 56553.6 0
56553.6 -122.614 0
0    0    0

148.184 56433 0
56433 -102.884 0
0    0    0

91.0735 56016.5 0
56016.5 -98.1426 0
0    0    0

117.543 56661 0
56661 126.331 0
0    0    0

-20.4357 57139.7 0
57139.7 35.8751 0
0    0    0

183.324 56770.1 0
56770.1 200.024 0
0    0    0

-122.675 57372.9 0
57372.9 -230.468 0
0    0    0

-201.516 56905.3 0
56905.3 -261.188 0
0    0    0

58.0463 55256.9 0
55256.9 -62.2031 0
0    0    0

-126.939 55302 0
55302 -279.476 0
0    0    0

-24.3501 54915.8 0
54915.8 117.339 0
0    0    0

37.7856 54578.3 0
54578.3 -175.676 0
0    0    0

176.915 56320.7 0
56320.7 317.881 0
0    0    0

-190.436 56205.6 0
56205.6 139.088 0
0    0    0

35.6313 53513.4 0
53513.4 269.253 0
0    0    0

-2.57567 52398.9 0
52398.9 -102.167 0
0    0    0

-198.119 54187.2 0
54187.2 -288.969 0
0    0    0

-104.742 54204.2 0
54204.2 6.36046 0
0    0    0

268.581 55619 0
55619 281.406 0
0    0    0

11.2874 55384.4 0
55384.4 -156.478 0
0    0    0

181.432 56049.2 0
56049.2 194.068 0
0    0    0

150.771 54776.7 0
54776.7 170.527 0
0    0    0

177.486 55574.2 0
55574.2 102.564 0
0    0    0

157.637 55532.5 0
55532.5 101.816 0
0    0    0

-246.397 55883 0
55883 -205.788 0
0    0    0

-184.059 55068 0
55068 -234.341 0
0    0    0

235.036 55232.1 0
55232.1 168.345 0
0    0    0

-215.026 55446.9 0
55446.9 -24.6171 0
0    0    0

240.08 55886.2 0
55886.2 246.724 0
0    0    0

-143.031 55651.3 0
55651.3 -148.95 0
0    0    0

-154.265 56059.2 0
56059.2 -299.54 0
0    0    0

326.224 55507.3 0
55507.3 33.3534 0
0    0    0

-200.877 58112.1 0
58112.1 -107.385 0
0    0    0

-215.209 58002.4 0
58002.4 -239.813 0
0    0    0

-12.1066 59026.8 0
59026.8 -48.7533 0
0    0    0

88.5456 58696.3 0
58696.3 -88.0706 0
0    0    0

121.295 58953.3 0
58953.3 24.1451 0
0    0    0

25.5178 58184.9 0
58184.9 -72.6929 0
0    0    0

-2.83207 57553.1 0
57553.1 -191.532 0
0    0    0

181.912 56969.7 0
56969.7 -174.603 0
0    0    0

-145.058 56835.3 0
56835.3 -53.8661 0
0    0    0

41.0999 57299.1 0
57299.1 249.62 0
0    0    0

56.3496 56460.7 0
56460.7 153.889 0
0    0    0

-57.6828 58152.1 0
58152.1 63.332 0
0    0    0

69.0162 57676.2 0
57676.2 150.493 0
0    0    0

251.3 57672.3 0
57672.3 265.921 0
0    0    0

232.044 56252.6 0
56252.6 336.195 0
0    0    0

26.7145 56094 0
56094 -209.422 0
0    0    0

-158.453 57972.6 0
57972.6 -80.1047 0
0    0    0

-127.508 57369.5 0
57369.5 160.033 0
0    0    0

201.001 57796.6 0
57796.6 168.984 0
0    0    0

-39.7021 57837.6 0
57837.6 -198.364 0
0    0    0

-57.2124 57486.8 0
57486.8 -331.584 0
0    0    0

-256.246 56932.4 0
56932.4 -268.785 0
0    0    0

-140.539 56106.4 0
56106.4 -118.91 0
0    0    0

-213.957 57427.4 0
57427.4 -483.139 0
0    0    0

-35.687 55560.2 0
55560.2 210.196 0
0    0    0

-230.208 56199.8 0
56199.8 -203.635 0
0    0    0

107.625 54718.3 0
54718.3 -19.614 0
0    0    0

-99.4826 55597.2 0
55597.2 -54.712 0
0    0    0

12.8524 55809.2 0
55809.2 222.821 0
0    0    0

-362.698 56232.1 0
56232.1 -381.755 0
0    0    0

16.7402 56767.7 0
56767.7 -58.3049 0
0    0    0

8.20893 56411.5 0
56411.5 166.731 0
0    0    0

222.74 56484.3 0
56484.3 218.473 0
0    0    0

-93.9005 57279.2 0
57279.2 7.77973 0
0    0    0

133.91 55918.9 0
55918.9 363.583 0
0    0    0

327.546 55839.3 0
55839.3 416.573 0
0    0    0

-190.714 55286.4 0
55286.4 2.63986 0
0    0    0

89.0193 55197.5 0
55197.5 -122.235 0
0    0    0

68.9544 56008.9 0
56008.9 305.197 0
0    0    0

-29.6084 55882.2 0
55882.2 -53.5693 0
0    0    0

-233.049 53138.7 0
53138.7 -71.5563 0
0    0    0

84.1732 53156.4 0
53156.4 93.2741 0
0    0    0

88.1329 53735.5 0
53735.5 160.257 0
0    0    0

97.2557 54785.9 0
54785.9 71.4048 0
0    0    0

-82.0598 55603.9 0
55603.9 -104.514 0
0    0    0

-20.5572 54915 0
54915 271.882 0
0    0    0

42.3394 55088.3 0
55088.3 262.911 0
0    0    0

180.07 54099.8 0
54099.8 168.891 0
0    0    0

-327.117 55280.3 0
55280.3 -140.605 0
0    0    0

-203.305 56804.4 0
56804.4 -119.204 0
0    0    0

-39.8205 55329 0
55329 46.4293 0
0    0    0

129.953 55019 0
55019 178.304 0
0    0    0

203.649 54421.8 0
54421.8 295.2 0
0    0    0

62.4392 53958.3 0
53958.3 -84.428 0
0    0    0

3.15196 54734.1 0
54734.1 -253.051 0
0    0    0

147.31 54338.3 0
54338.3 160.355 0
0    0    0

-48.9564 54583.1 0
54583.1 -293.549 0
0    0    0

243.678 53630 0
53630 432.729 0
0    0    0

-177.165 54229.6 0
54229.6 -56.9514 0
0    0    0

-61.0873 54222.8 0
54222.8 -120.551 0
0    0    0

143.631 53499.7 0
53499.7 421.951 0
0    0    0

193.233 51823.1 0
51823.1 344.547 0
0    0    0

-29.8861 54437.5 0
54437.5 277.541 0
0    0    0

167.969 54055.1 0
54055.1 101.183 0
0    0    0

-136.552 53954.1 0
53954.1 -322.035 0
0    0    0

-164.725 53907.1 0
53907.1 -300.823 0
0    0    0

-275.092 58949.5 0
58949.5 -242.464 0
0    0    0

3.11184 62275.6 0
62275.6 -204.005 0
0    0    0

-28.8425 59284 0
59284 -451.852 0
0    0    0

218.637 60283.7 0
60283.7 -36.7027 0
0    0    0

215.605 46137.8 0
46137.8 306.732 0
0    0    0

199.52 45894.9 0
45894.9 165.003 0
0    0    0

-212.446 46489.6 0
46489.6 -190.461 0
0    0    0

-106.399 46934.3 0
46934.3 -236.327 0
0    0    0

-315.891 46736.5 0
46736.5 -352.043 0
0    0    0

-117.671 46031.5 0
46031.5 -102.277 0
0    0    0

148.616 47007.8 0
47007.8 161.619 0
0    0    0

-132.705 46522.9 0
46522.9 -220.763 0
0    0    0

-262.259 45285.7 0
45285.7 -438.978 0
0    0    0

-269.296 45187 0
45187 -238.546 0
0    0    0

-275.012 45736.6 0
45736.6 -203.803 0
0    0    0

-385.057 44671 0
44671 -667.25 0
0    0    0

333.223 44875.3 0
44875.3 143.309 0
0    0    0

-167.202 45862.4 0
45862.4 -65.0776 0
0    0    0

-108.422 46328.5 0
46328.5 -209.149 0
0    0    0

-109.244 45597.3 0
45597.3 24.3568 0
0    0    0

254.275 45517.4 0
45517.4 191.879 0
0    0    0

47.8926 43876.8 0
43876.8 -123.757 0
0    0    0

-147.426 46101.4 0
46101.4 -79.799 0
0    0    0

137.852 44940.6 0
44940.6 372.169 0
0    0    0

134.869 43057.2 0
43057.2 93.5261 0
0    0    0

-118.46 44721 0
44721 -198.611 0
0    0    0

-60.897 43010.5 0
43010.5 -211.31 0
0    0    0

-123.832 43635.2 0
43635.2 -98.9922 0
0    0    0

-158.874 44203.5 0
44203.5 76.0507 0
0    0    0

-191.849 43322.1 0
43322.1 -482.873 0
0    0    0

217.983 45392 0
45392 364.832 0
0    0    0

393.405 44729.3 0
44729.3 81.761 0
0    0    0

127.472 44334.9 0
44334.9 98.3719 0
0    0    0

116.836 44141.4 0
44141.4 -56.8591 0
0    0    0

140.268 43531 0
43531 49.4823 0
0    0    0

132.103 43237.1 0
43237.1 168.824 0
0    0    0

32.6957 43470 0
43470 -182.474 0
0    0    0

-184.672 43977.5 0
43977.5 -113.011 0
0    0    0

-42.5783 43277.2 0
43277.2 145.106 0
0    0    0

188.813 43735.5 0
43735.5 331.139 0
0    0    0

-276.735 45167.8 0
45167.8 102.196 0
0    0    0

248.552 45399.3 0
45399.3 271.282 0
0    0    0

157.725 43825.7 0
43825.7 10.6582 0
0    0    0

-147.721 44721.9 0
44721.9 -208.559 0
0    0    0

42.225 45199.1 0
45199.1 -18.6688 0
0    0    0

-97.3433 44546.9 0
44546.9 -145.345 0
0    0    0

156.133 44340.7 0
44340.7 142.129 0
0    0    0

212.455 45205.7 0
45205.7 -91.5269 0
0    0    0

303.141 44959.7 0
44959.7 597.883 0
0    0    0

21.5633 44315.7 0
44315.7 -264.481 0
0    0    0

-133.311 43041.2 0
43041.2 -219.663 0
0    0    0

23.6232 43461.5 0
43461.5 152.759 0
0    0    0

209.454 45886.7 0
45886.7 -55.6077 0
0    0    0

-210.048 45409.4 0
45409.4 -250.163 0
0    0    0

185.436 45020.6 0
45020.6 258.024 0
0    0    0

187.508 44554.9 0
44554.9 249.268 0
0    0    0

42.4934 44290.6 0
44290.6 -274.131 0
0    0    0

-212.499 43925 0
43925 -119.371 0
0    0    0

95.9378 48315.9 0
48315.9 181.633 0
0    0    0

-127.342 48753 0
48753 -204.292 0
0    0    0

-90.1748 49368 0
49368 2.77414 0
0    0    0

-91.7641 48723.9 0
48723.9 -16.479 0
0    0    0

-222.282 47545.6 0
47545.6 -346.197 0
0    0    0

205.432 48366.8 0
48366.8 376.284 0
0    0    0

-20.7643 48370 0
48370 94.3187 0
0    0    0

-72.5737 48968.7 0
48968.7 25.6339 0
0    0    0

-7.85925 49262.9 0
49262.9 -220.294 0
0    0    0

171.884 48941.1 0
48941.1 251.761 0
0    0    0

28.2028 49465.6 0
49465.6 75.0369 0
0    0    0

-21.9538 49234 0
49234 222.734 0
0    0    0

-14.6811 49682.3 0
49682.3 -300.119 0
0    0    0

107.097 51782 0
51782 218.238 0
0    0    0

172.581 49394.9 0
49394.9 270.218 0
0    0    0

139.323 51388.4 0
51388.4 467.451 0
0    0    0

74.9255 51594.7 0
51594.7 78.256 0
0    0    0

115.507 53589.5 0
53589.5 -96.5054 0
0    0    0

210.417 52789.7 0
52789.7 334.683 0
0    0    0

-181.401 51618.6 0
51618.6 -360.813 0
0    0    0

-127.336 51333.8 0
51333.8 54.3703 0
0    0    0

140.304 51888.2 0
51888.2 213.291 0
0    0    0

-265.814 52693.8 0
52693.8 -244.806 0
0    0    0

-282.259 52603.8 0
52603.8 -109.745 0
0    0    0

153.357 51655.4 0
51655.4 -92.5469 0
0    0    0

-139.849 52394.3 0
52394.3 -19.3205 0
0    0    0

263.3 51218 0
51218 296.741 0
0    0    0

145.981 51075.8 0
51075.8 206.318 0
0    0    0

20.2639 50406.2 0
50406.2 31.6613 0
0    0    0

27.8754 50261.2 0
50261.2 33.4111 0
0    0    0

-44.1309 51295.7 0
51295.7 125.444 0
0    0    0

-80.4813 50716.8 0
50716.8 -63.7378 0
0    0    0

169.987 51888.8 0
51888.8 275.03 0
0    0    0

-238.113 51017.8 0
51017.8 -253.419 0
0    0    0

-64.3862 50551.4 0
50551.4 -182.362 0
0    0    0

-174.84 49914.1 0
49914.1 -142.972 0
0    0    0

37.7897 50992.8 0
50992.8 -141.371 0
0    0    0

-47.3177 50656.9 0
50656.9 -245.293 0
0    0    0

61.9374 50377.9 0
50377.9 251.261 0
0    0    0

238.956 50881.2 0
50881.2 252.113 0
0    0    0

276.113 51525.4 0
51525.4 122.216 0
0    0    0

148.917 51133.2 0
51133.2 -94.0173 0
0    0    0

-219.623 51256.5 0
51256.5 -287.377 0
0    0    0

174.632 50369.7 0
50369.7 -11.1167 0
0    0    0

-72.8463 52204.1 0
52204.1 -45.8433 0
0    0    0

206.973 51233.4 0
51233.4 -80.3779 0
0    0    0

117.569 52267.4 0
52267.4 93.2322 0
0    0    0

-247.947 52602.2 0
52602.2 -317.377 0
0    0    0

-62.8441 51189.6 0
51189.6 15.4107 0
0    0    0

214.492 50728 0
50728 254.704 0
0    0    0

-130.52 52054.3 0
52054.3 -138.676 0
0    0    0

-240.543 50978.1 0
50978.1 -152.238 0
0    0    0

33.0906 51436.8 0
51436.8 228.612 0
0    0    0

-178.56 52472.3 0
52472.3 -318.455 0
0    0    0

-244.035 51706.6 0
51706.6 -243.107 0
0    0    0

260.695 52388.1 0
52388.1 59.5699 0
0    0    0

-542.088 51807.8 0
51807.8 -252.488 0
0    0    0

-1.98948 52721.5 0
52721.5 -106.174 0
0    0    0

-75.8195 52701.3 0
52701.3 60.9629 0
0    0    0

-79.6687 52574.2 0
52574.2 -398.397 0
0    0    0

-56.3549 51704.5 0
51704.5 -73.5427 0
0    0    0

-87.0224 51756.9 0
51756.9 -116.463 0
0    0    0

-71.4491 54008.5 0
54008.5 -110.086 0
0    0    0

-177.054 55735.1 0
55735.1 -49.8659 0
0    0    0

-85.2152 51911.2 0
51911.2 216.661 0
0    0    0

-6.6042 51368.4 0
51368.4 82.1731 0
0    0    0

-120.624 51380.8 0
51380.8 -190.513 0
0    0    0

195.123 52522.4 0
52522.4 321.709 0
0    0    0

141.343 52637.1 0
52637.1 80.0977 0
0    0    0

-123.059 52382.5 0
52382.5 -171.761 0
0    0    0

251.466 52761.5 0
52761.5 144.32 0
0    0    0

69.1484 51554.4 0
51554.4 -50.6458 0
0    0    0

-25.2568 52533.1 0
52533.1 -364.569 0
0    0    0

55.0996 51271.7 0
51271.7 159.921 0
0    0    0

-168.109 52169.7 0
52169.7 -192.415 0
0    0    0

11.9018 52998.9 0
52998.9 74.9195 0
0    0    0

225.268 51947.7 0
51947.7 45.6738 0
0    0    0

-198.127 52751.3 0
52751.3 63.3868 0
0    0    0

63.2924 52782.5 0
52782.5 -196.04 0
0    0    0

66.9574 52435.7 0
52435.7 86.4707 0
0    0    0

435.008 51569.9 0
51569.9 220.305 0
0    0    0

-50.2715 52248.3 0
52248.3 -186.784 0
0    0    0

210.121 50626 0
50626 201.944 0
0    0    0

184.504 50651.3 0
50651.3 424.787 0
0    0    0

53.7266 51046.4 0
51046.4 212.455 0
0    0    0

-57.7692 50368.3 0
50368.3 -59.2399 0
0    0    0

-55.6522 50175.4 0
50175.4 40.674 0
0    0    0

4.7718 49928.5 0
49928.5 -114.59 0
0    0    0

204.61 51093.5 0
51093.5 13.4213 0
0    0    0

231.069 49762.4 0
49762.4 299.034 0
0    0    0

-3.20966 50784.4 0
50784.4 -242.745 0
0    0    0

-9.12292 50763.7 0
50763.7 -29.6903 0
0    0    0

96.5507 51798 0
51798 181.346 0
0    0    0

182.954 51576.1 0
51576.1 -0.315024 0
0    0    0

-71.4229 51439.6 0
51439.6 120.214 0
0    0    0

227.326 50850.8 0
50850.8 232.858 0
0    0    0

38.7547 51841.2 0
51841.2 45.2216 0
0    0    0

-64.4159 51330.9 0
51330.9 -125.473 0
0    0    0

76.7582 52480.3 0
52480.3 -204.255 0
0    0    0

73.5134 53288.7 0
53288.7 262.452 0
0    0    0

-88.7278 51520.1 0
51520.1 -385.687 0
0    0    0

-95.3758 52078.6 0
52078.6 -145.019 0
0    0    0

-107.53 51500.9 0
51500.9 -28.3939 0
0    0    0

165.483 51399.3 0
51399.3 36.1972 0
0    0    0

-135.962 53024.4 0
53024.4 164.462 0
0    0    0

-195.358 52122.5 0
52122.5 -335.913 0
0    0    0

-81.9423 50804.6 0
50804.6 -209.474 0
0    0    0

-139.841 51853.4 0
51853.4 -185.629 0
0    0    0

-152.758 53233.5 0
53233.5 -301.642 0
0    0    0

149.14 52312.8 0
52312.8 361.217 0
0    0    0

71.4208 51022.9 0
51022.9 -40.0326 0
0    0    0

130.077 51782.6 0
51782.6 -175.898 0
0    0    0

229.129 50294.7 0
50294.7 252.785 0
0    0    0

130.314 50094.7 0
50094.7 277.567 0
0    0    0

2.30404 51070.9 0
51070.9 -125.556 0
0    0    0

-274.286 50588.8 0
50588.8 -458.836 0
0    0    0

-63.4581 52284.8 0
52284.8 51.4203 0
0    0    0

144.852 52339.7 0
52339.7 309.474 0
0    0    0

175.069 52156.3 0
52156.3 270.192 0
0    0    0

-237.448 53088.9 0
53088.9 -227.884 0
0    0    0

203.14 51354.8 0
51354.8 256.796 0
0    0    0

-70.2612 51063.2 0
51063.2 156.221 0
0    0    0

-186.214 50378.8 0
50378.8 -356.302 0
0    0    0

149.301 50977.3 0
50977.3 133.116 0
0    0    0

205.304 53014.2 0
53014.2 672.048 0
0    0    0

201.889 53041.7 0
53041.7 -33.6516 0
0    0    0

-60.0531 52541 0
52541 -22.0405 0
0    0    0

161.318 52049.9 0
52049.9 206.615 0
0    0    0

186.442 51551.4 0
51551.4 191.157 0
0    0    0

98.4086 52681.8 0
52681.8 52.6686 0
0    0    0

-155.014 51845.4 0
51845.4 65.982 0
0    0    0

68.7448 52301.4 0
52301.4 304.547 0
0    0    0

165.549 50031.4 0
50031.4 380.629 0
0    0    0

-205.844 50830.8 0
50830.8 -233.994 0
0    0    0

-73.8512 51359.7 0
51359.7 -262.718 0
0    0    0

167.021 50546.5 0
50546.5 225.454 0
0    0    0

-249.726 54368.9 0
54368.9 -252.107 0
0    0    0

-108.279 52333.8 0
52333.8 -135.927 0
0    0    0

-95.2209 53766.5 0
53766.5 -182.816 0
0    0    0

-2.09664 53135.4 0
53135.4 108.886 0
0    0    0

132.198 52726.2 0
52726.2 -65.5381 0
0    0    0

-161.539 52603.6 0
52603.6 -442.764 0
0    0    0

-30.0521 52739 0
52739 132.38 0
0    0    0

261.438 52012.2 0
52012.2 204.091 0
0    0    0

-96.8798 53427.4 0
53427.4 41.82 0
0    0    0

-336.861 52447.4 0
52447.4 -241.923 0
0    0    0

190.317 53862.1 0
53862.1 273.163 0
0    0    0

261.506 52688.8 0
52688.8 33.3589 0
0    0    0

96.4673 53345.5 0
53345.5 -239.758 0
0    0    0

189.418 53296.3 0
53296.3 284.394 0
0    0    0

-125.174 54606.8 0
54606.8 -143.413 0
0    0    0

-172.562 53748.4 0
53748.4 -270.261 0
0    0    0

-182.423 53644.1 0
53644.1 -271.066 0
0    0    0

-162.291 52628.2 0
52628.2 -149.991 0
0    0    0

27.9281 53287.5 0
53287.5 193.596 0
0    0    0

-334.399 52075.8 0
52075.8 -175.434 0
0    0    0

82.2281 53678 0
53678 103.165 0
0    0    0

132.41 53525.6 0
53525.6 216.701 0
0    0    0

99.4641 52152.6 0
52152.6 268.487 0
0    0    0

253.402 52073.5 0
52073.5 352.357 0
0    0    0

-38.6521 51245.6 0
51245.6 153.434 0
0    0    0

-41.768 50687.8 0
50687.8 95.4119 0
0    0    0

-213.315 54958.9 0
54958.9 -298.41 0
0    0    0

123.047 54555 0
54555 302.264 0
0    0    0

98.5632 55096.2 0
55096.2 -30.196 0
0    0    0

-182.665 54798.7 0
54798.7 -378.326 0
0    0    0

-212.138 54254.1 0
54254.1 -345.049 0
0    0    0

21.0817 53732.3 0
53732.3 -113.076 0
0    0    0

-273.669 53043.8 0
53043.8 -189.679 0
0    0    0

-416.945 52495.9 0
52495.9 -221.207 0
0    0    0

354.218 51758.2 0
51758.2 200.465 0
0    0    0

29.0469 53813.8 0
53813.8 83.8616 0
0    0    0

45.8669 53926.3 0
53926.3 185.27 0
0    0    0

-268.859 53109.1 0
53109.1 -443.772 0
0    0    0

196.688 53320.9 0
53320.9 231.484 0
0    0    0

-88.0552 52751.5 0
52751.5 -159.142 0
0    0    0

310.328 52742.5 0
52742.5 204.08 0
0    0    0

240.456 52796 0
52796 290.387 0
0    0    0

-195.08 53156.1 0
53156.1 -267.633 0
0    0    0

32.7708 52822.9 0
52822.9 53.9039 0
0    0    0

-72.4137 53731.5 0
53731.5 -115.154 0
0    0    0

153.646 52611.7 0
52611.7 292.54 0
0    0    0

-281.194 53597 0
53597 -236.606 0
0    0    0

78.0351 52838.6 0
52838.6 -149.051 0
0    0    0

214.137 54412.9 0
54412.9 254.792 0
0    0    0

5.94709 53408.8 0
53408.8 251.809 0
0    0    0

135.952 55082.1 0
55082.1 233.808 0
0    0    0

-111.642 54250.3 0
54250.3 -177.492 0
0    0    0

-45.8535 55262.3 0
55262.3 107.146 0
0    0    0

-105.291 54864.1 0
54864.1 -312.012 0
0    0    0

64.0639 54651.4 0
54651.4 294.729 0
0    0    0

-57.0651 54929.3 0
54929.3 -169.414 0
0    0    0

127.95 54744.5 0
54744.5 224.803 0
0    0    0

7.25078 54432.1 0
54432.1 -205.011 0
0    0    0

223.328 53922.1 0
53922.1 203.252 0
0    0    0

185.117 54560.4 0
54560.4 319.186 0
0    0    0

-313.174 28794.8 0
28794.8 -481.142 0
0    0    0

-201.615 29093 0
29093 -391.536 0
0    0    0

-219.731 26904.5 0
26904.5 -201.037 0
0    0    0

20.1432 26624.9 0
26624.9 -32.928 0
0    0    0

152.625 28859 0
28859 63.6261 0
0    0    0

242.858 28510.4 0
28510.4 210.596 0
0    0    0

61.2501 4348.03 0
4348.03 -138.514 0
0    0    0

-199.781 3758.8 0
3758.8 -427.354 0
0    0    0

105.714 2874.72 0
2874.72 341.081 0
0    0    0

142.608 2897.01 0
2897.01 102.891 0
0    0    0

246.319 2113.82 0
2113.82 238.426 0
0    0    0

-167.22 2591.84 0
2591.84 -71.6656 0
0    0    0

181.773 3117.54 0
3117.54 284.276 0
0    0    0

163.18 2738.98 0
2738.98 435.217 0
0    0    0

-16.7674 2454.41 0
2454.41 -207.479 0
0    0    0

-201.048 1634.2 0
1634.2 -86.1636 0
0    0    0

184.423 2439.71 0
2439.71 69.1202 0
0    0    0

156.366 3162.84 0
3162.84 103.129 0
0    0    0

-99.3713 1972.72 0
1972.72 -42.5877 0
0    0    0

-306.065 4654.43 0
4654.43 -350.492 0
0    0    0

-111.132 77320.5 0
77320.5 57.5922 0
0    0    0

123.69 78268.4 0
78268.4 65.3782 0
0    0    0

78.3252 78485.3 0
78485.3 -170.744 0
0    0    0

180.316 78423.5 0
78423.5 -61.1424 0
0    0    0

-69.082 78124 0
78124 -235.877 0
0    0    0

-74.5018 77276.8 0
77276.8 -143.668 0
0    0    0

-150.451 77929.1 0
77929.1 -223.672 0
0    0    0

148.252 79300.9 0
79300.9 117.213 0
0    0    0

-228.163 80017.8 0
80017.8 -295.646 0
0    0    0

-78.3251 78745.4 0
78745.4 79.7716 0
0    0    0

246.042 79607.5 0
79607.5 456.995 0
0    0    0

216.067 78704.3 0
78704.3 113.019 0
0    0    0

78.6103 79345.3 0
79345.3 304.559 0
0    0    0

-19.3583 79732.9 0
79732.9 -19.1037 0
0    0    0

-361.856 79973.1 0
79973.1 -345.739 0
0    0    0

-30.0139 79198.7 0
79198.7 -83.0524 0
0    0    0

-97.4841 79159.1 0
79159.1 149.605 0
0    0    0

85.4053 79384.3 0
79384.3 273.252 0
0    0    0

-211.09 79693.3 0
79693.3 -360.206 0
0    0    0

-266.991 80291.3 0
80291.3 -343.506 0
0    0    0

-215.339 79301.3 0
79301.3 -118.552 0
0    0    0

-7.93278 80635.4 0
80635.4 -41.9339 0
0    0    0

-18.3444 79035.8 0
79035.8 -164.643 0
0    0    0

368.386 80007.6 0
80007.6 277.402 0
0    0    0

-24.5698 78752.6 0
78752.6 -21.3642 0
0    0    0

-240.667 79726.4 0
79726.4 -308.018 0
0    0    0

112.695 80383.8 0
80383.8 10.9038 0
0    0    0

-177.929 80893.9 0
80893.9 -453.147 0
0    0    0

135.228 80559 0
80559 393.443 0
0    0    0

176.545 80524.9 0
80524.9 457.072 0
0    0    0

103.467 78953.9 0
78953.9 150.927 0
0    0    0

115.809 78865.8 0
78865.8 178.777 0
0    0    0

83.2714 77227.7 0
77227.7 77.4596 0
0    0    0

6.93944 76757.2 0
76757.2 -57.1899 0
0    0    0

-185.888 79182.2 0
79182.2 -136.762 0
0    0    0

-24.8007 78496.1 0
78496.1 57.5578 0
0    0    0

31.9651 78667.8 0
78667.8 -193.316 0
0    0    0

-8.99213 78729.1 0
78729.1 -250.607 0
0    0    0

152.386 78451.3 0
78451.3 112.01 0
0    0    0

0.579975 80458.7 0
80458.7 -238.298 0
0    0    0

-165.305 77851.2 0
77851.2 -235.245 0
0    0    0

184.981 79521.7 0
79521.7 254.24 0
0    0    0

100.195 78056.1 0
78056.1 -243.188 0
0    0    0

235.329 79051 0
79051 395.092 0
0    0    0

227.428 79156.8 0
79156.8 358.753 0
0    0    0

-77.5456 79457.6 0
79457.6 -224.305 0
0    0    0

-195.584 79394.4 0
79394.4 -432.495 0
0    0    0

182.213 79661.8 0
79661.8 294.839 0
0    0    0

-251.474 77558.4 0
77558.4 -353.423 0
0    0    0

86.4846 79238.3 0
79238.3 339.82 0
0    0    0

239.536 78833.5 0
78833.5 299.289 0
0    0    0

-120.221 79692.5 0
79692.5 127.066 0
0    0    0

141.152 79286.5 0
79286.5 -172.477 0
0    0    0

49.9134 80209.4 0
80209.4 212.121 0
0    0    0

-70.3119 79796.5 0
79796.5 -170.876 0
0    0    0

242.119 80168.8 0
80168.8 102.462 0
0    0    0

-236.598 82924.5 0
82924.5 -173.162 0
0    0    0

-320.923 83803.7 0
83803.7 33.7405 0
0    0    0

-12.2574 82251.1 0
82251.1 170.187 0
0    0    0

-415.79 82683.8 0
82683.8 -185.791 0
0    0    0

249.102 82396.1 0
82396.1 77.2842 0
0    0    0

65.4349 83135.9 0
83135.9 -56.6139 0
0    0    0

-180.351 81392.4 0
81392.4 -102.296 0
0    0    0

-160.628 81673.4 0
81673.4 -35.3918 0
0    0    0

331.045 82085.5 0
82085.5 226.809 0
0    0    0

-50.1875 83099.5 0
83099.5 35.411 0
0    0    0

-24.4414 83608.3 0
83608.3 26.7234 0
0    0    0

-66.9151 82741.5 0
82741.5 103.165 0
0    0    0

171.349 82682.9 0
82682.9 127.232 0
0    0    0

-95.3476 82333.5 0
82333.5 -331.371 0
0    0    0

-79.9344 83998.4 0
83998.4 -270.979 0
0    0    0

-47.7767 84935.7 0
84935.7 -98.2266 0
0    0    0

50.5897 83674.6 0
83674.6 324.046 0
0    0    0

43.681 84168.8 0
84168.8 198.125 0
0    0    0

-66.68 83246.4 0
83246.4 -30.9045 0
0    0    0

55.9727 83846.9 0
83846.9 217.013 0
0    0    0

-148.477 83341 0
83341 25.1615 0
0    0    0

-24.9005 83616 0
83616 74.1639 0
0    0    0

86.551 85627.7 0
85627.7 -68.2221 0
0    0    0

-303.241 84968.5 0
84968.5 -115.628 0
0    0    0

162.983 85330.6 0
85330.6 -56.5998 0
0    0    0

-138.889 85485.3 0
85485.3 -50.9476 0
0    0    0

-174.256 86398.4 0
86398.4 -11.6687 0
0    0    0

-107.832 85730.3 0
85730.3 -217.635 0
0    0    0

-117.946 86080.3 0
86080.3 -449.753 0
0    0    0

9.56656 85856.7 0
85856.7 -158.107 0
0    0    0

222.913 85150.1 0
85150.1 212.278 0
0    0    0

-173.186 84927.8 0
84927.8 -312.172 0
0    0    0

-159.284 85102.9 0
85102.9 -50.7758 0
0    0    0

-97.3295 84575.4 0
84575.4 -157.542 0
0    0    0

83.8353 85506.4 0
85506.4 195.616 0
0    0    0

-96.1939 83998.2 0
83998.2 -354.624 0
0    0    0

26.7696 82942.2 0
82942.2 143.295 0
0    0    0

13.7757 83337 0
83337 238.349 0
0    0    0

90.2478 85382.1 0
85382.1 -49.7474 0
0    0    0

58.2265 85069.2 0
85069.2 135.862 0
0    0    0

23.3826 85062.3 0
85062.3 9.79129 0
0    0    0

92.3622 84479.2 0
84479.2 -174.834 0
0    0    0

150.784 87050.4 0
87050.4 169.88 0
0    0    0

227.575 86906 0
86906 51.12 0
0    0    0

67.8755 88579.1 0
88579.1 233.958 0
0    0    0

156.818 89860.4 0
89860.4 251.547 0
0    0    0

191.231 88137.4 0
88137.4 257.641 0
0    0    0

-158.662 89058.8 0
89058.8 -263.218 0
0    0    0

-239.874 88931.9 0
88931.9 -309.952 0
0    0    0

-10.9171 88824.5 0
88824.5 212.107 0
0    0    0

97.8574 89207.1 0
89207.1 -50.8995 0
0    0    0

15.1747 89781.3 0
89781.3 214.46 0
0    0    0

124.963 88640.6 0
88640.6 6.72895 0
0    0    0

220.411 88843 0
88843 146.056 0
0    0    0

7.29832 88988.2 0
88988.2 -248.158 0
0    0    0

123.81 89266.5 0
89266.5 134.765 0
0    0    0

116.421 88709.1 0
88709.1 197.804 0
0    0    0

315.108 89224 0
89224 349.063 0
0    0    0

347.983 90557.5 0
90557.5 350.108 0
0    0    0

90.2906 90355 0
90355 209.167 0
0    0    0

60.1681 91600.2 0
91600.2 -76.9706 0
0    0    0

-61.0597 90770.7 0
90770.7 -149.677 0
0    0    0

-181.356 89564.1 0
89564.1 -207.983 0
0    0    0

55.3052 91081.4 0
91081.4 289.01 0
0    0    0

-76.1872 88377.7 0
88377.7 9.23639 0
0    0    0

-190.575 88666.6 0
88666.6 -106.323 0
0    0    0

-376.146 88650.1 0
88650.1 -223.393 0
0    0    0

-18.9817 89106.2 0
89106.2 -271.376 0
0    0    0

303.846 88426.3 0
88426.3 125.48 0
0    0    0

61.8363 89056.2 0
89056.2 -4.25557 0
0    0    0

206.277 88439.6 0
88439.6 27.5759 0
0    0    0

-128.043 89488.7 0
89488.7 98.6852 0
0    0    0

35.1872 89743.8 0
89743.8 91.9533 0
0    0    0

-179.593 89103.6 0
89103.6 -48.6376 0
0    0    0

121.104 90177.6 0
90177.6 100.586 0
0    0    0

200.478 89773.9 0
89773.9 274.228 0
0    0    0

-144.937 90164 0
90164 -289.892 0
0    0    0

270.626 90786.2 0
90786.2 -9.04651 0
0    0    0

266.788 89742.5 0
89742.5 208.7 0
0    0    0

-148.671 90520.8 0
90520.8 -372.445 0
0    0    0

-118.957 89870.5 0
89870.5 -214.05 0
0    0    0

-166.614 90268.1 0
90268.1 -225.351 0
0    0    0

224.084 90889 0
90889 475.836 0
0    0    0

-49.5908 90650.6 0
90650.6 -282.474 0
0    0    0

203.424 91131.7 0
91131.7 291.156 0
0    0    0

41.7548 91589.3 0
91589.3 29.0118 0
0    0    0

-170.921 90225.1 0
90225.1 -128.65 0
0    0    0

64.1144 90606.7 0
90606.7 265.551 0
0    0    0

-14.9206 88273.7 0
88273.7 -218.095 0
0    0    0

128.252 87769.1 0
87769.1 15.2799 0
0    0    0

-24.0713 87778.6 0
87778.6 20.9199 0
0    0    0

29.3999 87421.7 0
87421.7 262.164 0
0    0    0

-48.139 88897 0
88897 -72.9636 0
0    0    0

-91.3965 88203.6 0
88203.6 145.673 0
0    0    0

-94.4749 88885.4 0
88885.4 -78.0472 0
0    0    0

210.23 89163.4 0
89163.4 237.431 0
0    0    0

-244.513 88265 0
88265 -281.939 0
0    0    0

-26.7283 88530.9 0
88530.9 -224.525 0
0    0    0

-46.5107 89846.2 0
89846.2 288.589 0
0    0    0

-144.21 91216.4 0
91216.4 217.823 0
0    0    0

108.919 90186.8 0
90186.8 57.4519 0
0    0    0

-335.238 88208.7 0
88208.7 -29.6145 0
0    0    0

-113.894 89311.9 0
89311.9 164.341 0
0    0    0

-177.204 89623.6 0
89623.6 -211.042 0
0    0    0

81.9947 89262.4 0
89262.4 -8.85774 0
0    0    0

-180.525 89088.3 0
89088.3 308.451 0
0    0    0

264.162 86827.1 0
86827.1 461.669 0
0    0    0

-149.431 87063 0
87063 -117.074 0
0    0    0

25.4104 87587.7 0
87587.7 350.655 0
0    0    0

-224.176 88515.4 0
88515.4 40.1997 0
0    0    0

-106.846 87432.1 0
87432.1 -155.107 0
0    0    0

-395.956 86300.5 0
86300.5 -274.195 0
0    0    0

-238.041 87312.3 0
87312.3 10.2109 0
0    0    0

-246.379 88156.1 0
88156.1 -222.533 0
0    0    0

94.4738 87777.5 0
87777.5 112.047 0
0    0    0

232.791 87992.3 0
87992.3 -95.8068 0
0    0    0

-172.169 88150.3 0
88150.3 -341.365 0
0    0    0

140.43 86812 0
86812 121.319 0
0    0    0

46.264 86681.8 0
86681.8 -81.2106 0
0    0    0

75.7133 86994.9 0
86994.9 114.377 0
0    0    0

-75.0314 87040.3 0
87040.3 -270.187 0
0    0    0

68.171 87068.8 0
87068.8 -201.56 0
0    0    0

-40.449 86748.5 0
86748.5 36.1225 0
0    0    0

208.253 87296.1 0
87296.1 230.924 0
0    0    0

-152.495 87466.7 0
87466.7 -211.171 0
0    0    0

82.2085 87679.4 0
87679.4 196.967 0
0    0    0

264.672 87620.6 0
87620.6 -0.949461 0
0    0    0

-190.748 88221.6 0
88221.6 -219.951 0
0    0    0

-27.8695 88544.7 0
88544.7 -19.2139 0
0    0    0

86.2098 88369.2 0
88369.2 235.704 0
0    0    0

82.8876 90577.3 0
90577.3 65.0772 0
0    0    0

102.489 88835.7 0
88835.7 54.3483 0
0    0    0

10.7183 88478.5 0
88478.5 2.81186 0
0    0    0

-277.903 90142.4 0
90142.4 -380.746 0
0    0    0

428.347 88217 0
88217 95.1098 0
0    0    0

-212.395 88876.4 0
88876.4 25.8613 0
0    0    0

146.746 87639.7 0
87639.7 365.235 0
0    0    0

-389.595 87178.4 0
87178.4 -332.906 0
0    0    0

-252.666 86189.3 0
86189.3 -324.69 0
0    0    0

381.986 86498.2 0
86498.2 117.241 0
0    0    0

-2.75461 88329.2 0
88329.2 -163.755 0
0    0    0

253.15 86824.9 0
86824.9 262.287 0
0    0    0

297.236 83424.3 0
83424.3 391.489 0
0    0    0

70.3571 87846.7 0
87846.7 164.167 0
0    0    0

63.3728 83100.7 0
83100.7 159.424 0
0    0    0

-193.618 83548.3 0
83548.3 -223.322 0
0    0    0

-246.706 83674.6 0
83674.6 -181.241 0
0    0    0

-148.369 84567.8 0
84567.8 -202.384 0
0    0    0

-246.332 84067.9 0
84067.9 -215.369 0
0    0    0

-275.488 84431.6 0
84431.6 -352.235 0
0    0    0

-240.58 84312.6 0
84312.6 -270.135 0
0    0    0

122.659 83275.4 0
83275.4 92.2142 0
0    0    0

304.529 84077.6 0
84077.6 243.507 0
0    0    0

-221.278 84650.8 0
84650.8 -242.877 0
0    0    0

-108.407 85243.6 0
85243.6 74.1334 0
0    0    0

166.929 84054.3 0
84054.3 197.418 0
0    0    0

278.28 84582.8 0
84582.8 133.749 0
0    0    0

-247.448 85805.8 0
85805.8 -397.123 0
0    0    0

-14.0978 85582.2 0
85582.2 167.446 0
0    0    0

-19.4044 84893.6 0
84893.6 -20.4612 0
0    0    0

15.9173 85769.1 0
85769.1 258.022 0
0    0    0

71.3382 86712.6 0
86712.6 -25.2864 0
0    0    0

-78.1447 88302.3 0
88302.3 82.6392 0
0    0    0

92.7717 86042 0
86042 -61.4622 0
0    0    0

-118.759 86626.6 0
86626.6 121.206 0
0    0    0

48.2389 87205.8 0
87205.8 -193.599 0
0    0    0

85.4842 87656.5 0
87656.5 -96.3481 0
0    0    0

90.4777 86872.7 0
86872.7 7.52851 0
0    0    0

-9.02083 86446 0
86446 -203.23 0
0    0    0

34.4897 90763.1 0
90763.1 14.7813 0
0    0    0

256.558 87544.7 0
87544.7 229.812 0
0    0    0

69.7749 86614.5 0
86614.5 -73.3079 0
0    0    0

141.835 89119.2 0
89119.2 294.671 0
0    0    0

-65.3148 87034.3 0
87034.3 60.6741 0
0    0    0

-110.841 87818.3 0
87818.3 -312.159 0
0    0    0

286.323 85842.6 0
85842.6 318.988 0
0    0    0

77.3206 84780.7 0
84780.7 -273.589 0
0    0    0

76.3742 84370.4 0
84370.4 -118.043 0
0    0    0

150.024 85615 0
85615 212.502 0
0    0    0

-90.1396 85011.5 0
85011.5 159.752 0
0    0    0

263.675 84639 0
84639 -61.8202 0
0    0    0

171.26 88500.4 0
88500.4 321.445 0
0    0    0

-278.242 87552.7 0
87552.7 -325.741 0
0    0    0

-163.197 87791.2 0
87791.2 -205.884 0
0    0    0

269.663 87837.8 0
87837.8 219.607 0
0    0    0

242.329 88665.9 0
88665.9 165.374 0
0    0    0

-191.015 88832.4 0
88832.4 -218.699 0
0    0    0

271.673 87794.4 0
87794.4 246.826 0
0    0    0

156.15 87199.8 0
87199.8 269.146 0
0    0    0

-106.019 88738.1 0
88738.1 -197.3 0
0    0    0

-110.789 89591.2 0
89591.2 213.869 0
0    0    0

228.867 87806.7 0
87806.7 271.797 0
0    0    0

130.258 86666.6 0
86666.6 -52.9706 0
0    0    0

164.503 88377.3 0
88377.3 291.043 0
0    0    0

-238.466 88208.7 0
88208.7 -354.52 0
0    0    0

-162.924 88777.1 0
88777.1 -351.606 0
0    0    0

78.7608 90410.7 0
90410.7 -93.3637 0
0    0    0

-106.949 89854.8 0
89854.8 -77.0352 0
0    0    0

30.8882 88526.7 0
88526.7 251.638 0
0    0    0

124.646 88459 0
88459 210.627 0
0    0    0

-223.7 89375.4 0
89375.4 -255.797 0
0    0    0

-193.918 89334.2 0
89334.2 -332.379 0
0    0    0

186.385 89045 0
89045 389.926 0
0    0    0

101.601 87878 0
87878 239.087 0
0    0    0

-73 86756.2 0
86756.2 -181.864 0
0    0    0

-101.543 87523.6 0
87523.6 -395.067 0
0    0    0

245.413 87294.4 0
87294.4 569.072 0
0    0    0

370.526 89023.9 0
89023.9 206.978 0
0    0    0

64.7996 87885.5 0
87885.5 -192.081 0
0    0    0

148.019 86798.7 0
86798.7 462.926 0
0    0    0

-25.5623 87369.6 0
87369.6 253.045 0
0    0    0

-203.296 88154.7 0
88154.7 -260.316 0
0    0    0

81.8801 87996.5 0
87996.5 223.957 0
0    0    0

-223.24 88795.5 0
88795.5 -316.34 0
0    0    0

-200.046 88241.5 0
88241.5 -261.918 0
0    0    0

124.984 88208.2 0
88208.2 235.395 0
0    0    0

-162.462 87502.5 0
87502.5 -93.0007 0
0    0    0

319.511 88917.9 0
88917.9 80.2349 0
0    0    0

162.304 89261.1 0
89261.1 177.724 0
0    0    0

402.198 87171.5 0
87171.5 60.4359 0
0    0    0

-188.063 86650.5 0
86650.5 56.2685 0
0    0    0

-99.1641 88306.3 0
88306.3 -52.1815 0
0    0    0

-130.475 88569.8 0
88569.8 -160.784 0
0    0    0

-225.258 87773.1 0
87773.1 -212.404 0
0    0    0

-159.822 87114.7 0
87114.7 -261.102 0
0    0    0

-345.448 87378.4 0
87378.4 -271.584 0
0    0    0

120.731 86152 0
86152 -59.7781 0
0    0    0

-120.743 85752.9 0
85752.9 49.776 0
0    0    0

168.973 86535.8 0
86535.8 70.7235 0
0    0    0

-49.1189 85419.7 0
85419.7 -283.18 0
0    0    0

43.3948 86988.5 0
86988.5 -73.9715 0
0    0    0

48.8859 85512.4 0
85512.4 -174.673 0
0    0    0

70.8407 86138.7 0
86138.7 218.636 0
0    0    0

164.578 86218 0
86218 95.8118 0
0    0    0

-155.617 86968.4 0
86968.4 146.783 0
0    0    0

8.39752 85123.5 0
85123.5 225.645 0
0    0    0

-247.007 85954.8 0
85954.8 -231.635 0
0    0    0

110.887 85294.5 0
85294.5 -227.927 0
0    0    0

-162.853 86254.8 0
86254.8 -440.503 0
0    0    0

119.539 86500.1 0
86500.1 316.87 0
0    0    0

-205.179 86923 0
86923 -508.58 0
0    0    0

-228.852 85597.8 0
85597.8 18.3972 0
0    0    0

-18.5711 85817.7 0
85817.7 -122.25 0
0    0    0

-117.338 66079.8 0
66079.8 211.222 0
0    0    0

-112.379 65353.6 0
65353.6 37.5375 0
0    0    0

149.348 65684.7 0
65684.7 195.12 0
0    0    0

186.208 66302.8 0
66302.8 159.653 0
0    0    0

162.675 67362.6 0
67362.6 305.874 0
0    0    0

142.418 67732.7 0
67732.7 383.37 0
0    0    0

-251.756 66723.7 0
66723.7 -244.791 0
0    0    0

360.294 66936.5 0
66936.5 231.075 0
0    0    0

98.4404 66496.3 0
66496.3 -258.705 0
0    0    0

27.8633 67004.8 0
67004.8 341.41 0
0    0    0

-244.739 68027.8 0
68027.8 -349.175 0
0    0    0

265.141 67473.4 0
67473.4 311.674 0
0    0    0

79.7516 52425 0
52425 -76.1855 0
0    0    0

8.9968 53112 0
53112 105.792 0
0    0    0

-4.88625 53247.3 0
53247.3 -157.512 0
0    0    0

-85.4444 53450.5 0
53450.5 -92.3912 0
0    0    0

51.1992 53154.5 0
53154.5 170.96 0
0    0    0

258.769 52600.8 0
52600.8 111.825 0
0    0    0

19.2899 53396.2 0
53396.2 -47.0682 0
0    0    0

-185.033 52760.2 0
52760.2 -14.0096 0
0    0    0

173.295 52261.3 0
52261.3 231.766 0
0    0    0

208.981 51771.4 0
51771.4 221.158 0
0    0    0

63.5586 52417.6 0
52417.6 235.345 0
0    0    0

-78.6528 52401.1 0
52401.1 68.2166 0
0    0    0

82.5604 51893.3 0
51893.3 53.5007 0
0    0    0

-259.124 52063.5 0
52063.5 -419.942 0
0    0    0

-105.916 53280.8 0
53280.8 -359.407 0
0    0    0

196.658 53289 0
53289 242.948 0
0    0    0

127.797 52753.5 0
52753.5 118.933 0
0    0    0

5.5564 52810.4 0
52810.4 -251.519 0
0    0    0

230.393 54382.9 0
54382.9 79.4888 0
0    0    0

234.621 53701.5 0
53701.5 303.319 0
0    0    0

-312.183 53034.7 0
53034.7 -159.243 0
0    0    0

-186.964 53677.3 0
53677.3 -337.682 0
0    0    0

138.269 52490.2 0
52490.2 460.707 0
0    0    0

-285.351 52550.2 0
52550.2 -317.629 0
0    0    0

235.748 53374.5 0
53374.5 360.171 0
0    0    0

278.889 52783.5 0
52783.5 254.06 0
0    0    0

29.7673 54262.8 0
54262.8 -49.8012 0
0    0    0

-166.821 53702.6 0
53702.6 -343.402 0
0    0    0

15.08 51902.7 0
51902.7 -117.757 0
0    0    0

-7.68488 52520.1 0
52520.1 -13.6567 0
0    0    0

45.5598 55003.2 0
55003.2 321.263 0
0    0    0

68.6747 53918.2 0
53918.2 152.727 0
0    0    0

139.555 53940.7 0
53940.7 323.154 0
0    0    0

125.724 54679 0
54679 -101.265 0
0    0    0

96.4601 54808.4 0
54808.4 172.478 0
0    0    0

105.616 53807.9 0
53807.9 83.0718 0
0    0    0

-166.804 52002 0
52002 -282.384 0
0    0    0

56.4065 53132.4 0
53132.4 -108.367 0
0    0    0

-132.801 52454.3 0
52454.3 81.1793 0
0    0    0

144.941 52150.8 0
52150.8 239.857 0
0    0    0

-87.0306 54270.5 0
54270.5 -181.407 0
0    0    0

-222.748 54685.6 0
54685.6 -124.024 0
0    0    0

-66.9186 55318.3 0
55318.3 -77.5646 0
0    0    0

276.203 55395.8 0
55395.8 218.442 0
0    0    0

-105.965 63912.2 0
63912.2 8.79387 0
0    0    0

183.751 64437 0
64437 158.338 0
0    0    0

-349.28 65536 0
65536 -195.122 0
0    0    0

139.826 65755.6 0
65755.6 172.26 0
0    0    0

201.503 65285.5 0
65285.5 196.577 0
0    0    0

75.3853 65763.6 0
65763.6 132.963 0
0    0    0

-31.871 67167.8 0
67167.8 228.372 0
0    0    0

127.443 66291.2 0
66291.2 -9.44376 0
0    0    0

-141.032 65064.9 0
65064.9 -332.039 0
0    0    0

-93.4258 66174.1 0
66174.1 -270.367 0
0    0    0

-71.6972 64506.5 0
64506.5 -243.272 0
0    0    0

-117.427 65305.8 0
65305.8 -44.2312 0
0    0    0

4.56041 64520.8 0
64520.8 -227.232 0
0    0    0

104.538 65161.1 0
65161.1 3.05777 0
0    0    0

-32.9731 65259.3 0
65259.3 108.84 0
0    0    0

232.138 64522.6 0
64522.6 58.6542 0
0    0    0

-179.689 66826.5 0
66826.5 -56.0128 0
0    0    0

-97.8349 65048.1 0
65048.1 -5.5707 0
0    0    0

39.8505 65924.3 0
65924.3 -240.894 0
0    0    0

-15.7366 65074.5 0
65074.5 -22.4899 0
0    0    0

148.843 64703.1 0
64703.1 353.747 0
0    0    0

-68.2897 63406.8 0
63406.8 -7.06924 0
0    0    0

-120.411 63548.9 0
63548.9 -202.271 0
0    0    0

-246.538 63576.4 0
63576.4 -155.812 0
0    0    0

56.5167 64186.5 0
64186.5 -41.3029 0
0    0    0

55.1631 63223.5 0
63223.5 111.692 0
0    0    0

-65.8838 64764.8 0
64764.8 -459.668 0
0    0    0

-10.734 64485.7 0
64485.7 -252.072 0
0    0    0

-74.5914 65648.2 0
65648.2 -200.013 0
0    0    0

-239.399 66102.1 0
66102.1 -131.246 0
0    0    0

-196.441 65543.8 0
65543.8 -156.587 0
0    0    0

35.7711 65903.5 0
65903.5 124.673 0
0    0    0

147.495 64589.3 0
64589.3 239.35 0
0    0    0

105.851 64907.1 0
64907.1 -313.588 0
0    0    0

-10.4797 65352 0
65352 142.117 0
0    0    0

-82.1278 65192.9 0
65192.9 330.396 0
0    0    0

404.063 65098.8 0
65098.8 375.086 0
0    0    0

225.132 64411.1 0
64411.1 155.259 0
0    0    0

-146.495 65456 0
65456 -145.251 0
0    0    0

263.909 65089.5 0
65089.5 2.8332 0
0    0    0

-59.6378 65516 0
65516 186.314 0
0    0    0

201.538 65444.2 0
65444.2 506.249 0
0    0    0

-149.253 61313.3 0
61313.3 -82.528 0
0    0    0

-192.941 61694.4 0
61694.4 -131.78 0
0    0    0

-225.261 60746.8 0
60746.8 -529.291 0
0    0    0

164.508 61064.6 0
61064.6 510.939 0
0    0    0

34.7029 60401.2 0
60401.2 295.131 0
0    0    0

-204.91 62838.7 0
62838.7 -150.048 0
0    0    0

-27.5764 60548.5 0
60548.5 193.093 0
0    0    0

-33.0459 61192.9 0
61192.9 72.8577 0
0    0    0

-36.8275 59709.3 0
59709.3 -153.51 0
0    0    0

-70.3768 60018.5 0
60018.5 -271.154 0
0    0    0

-419.867 60719.3 0
60719.3 -216.933 0
0    0    0

-325.75 62164.3 0
62164.3 -447.287 0
0    0    0

97.1739 60580.8 0
60580.8 391.141 0
0    0    0

97.8187 60096.3 0
60096.3 -159.05 0
0    0    0

-98.1014 59897.2 0
59897.2 134.335 0
0    0    0

-36.4548 60017.9 0
60017.9 172.564 0
0    0    0

-118.752 60149.5 0
60149.5 31.7809 0
0    0    0

-99.7768 59329.8 0
59329.8 -27.606 0
0    0    0

16.901 60079.6 0
60079.6 -370.24 0
0    0    0

291.031 61028.9 0
61028.9 443.519 0
0    0    0

127.888 59714.4 0
59714.4 97.6035 0
0    0    0

-127.437 60902.7 0
60902.7 -13.0392 0
0    0    0

112.041 59235 0
59235 168.277 0
0    0    0

-118.36 60256.9 0
60256.9 -248.873 0
0    0    0

7.60405 60540.4 0
60540.4 115.458 0
0    0    0

89.5616 62162.8 0
62162.8 256.165 0
0    0    0

115.728 59131.3 0
59131.3 337.037 0
0    0    0

208.589 59737 0
59737 72.4316 0
0    0    0

218.263 60489.2 0
60489.2 232.015 0
0    0    0

327.444 61128.7 0
61128.7 523.156 0
0    0    0

-199.455 61488.6 0
61488.6 -421.62 0
0    0    0

37.1849 61910.1 0
61910.1 196.423 0
0    0    0

31.7275 58709.6 0
58709.6 -153.67 0
0    0    0

-144.735 59073.3 0
59073.3 52.3761 0
0    0    0

136.896 59848 0
59848 89.7698 0
0    0    0

201.503 59889.9 0
59889.9 288.727 0
0    0    0

166.896 58914.5 0
58914.5 359.212 0
0    0    0

-195.32 59688.5 0
59688.5 29.4903 0
0    0    0

-200.424 60306.3 0
60306.3 -75.7713 0
0    0    0

162.088 60452.4 0
60452.4 87.6896 0
0    0    0

200.139 59424.7 0
59424.7 187.508 0
0    0    0

271.69 60961 0
60961 127.014 0
0    0    0

-136.974 58846.6 0
58846.6 -142.871 0
0    0    0

-186.777 59048.9 0
59048.9 47.663 0
0    0    0

-204.278 59705 0
59705 -352.048 0
0    0    0

-41.0099 59939.5 0
59939.5 -12.3738 0
0    0    0

44.8262 62602.2 0
62602.2 62.8562 0
0    0    0

44.683 62605.4 0
62605.4 71.0945 0
0    0    0

38.6461 62044.4 0
62044.4 -182.978 0
0    0    0

-32.2546 61584.9 0
61584.9 -162.996 0
0    0    0

-182.226 58015.5 0
58015.5 -100.059 0
0    0    0

100.041 58225.8 0
58225.8 304.217 0
0    0    0

16.7627 58366.3 0
58366.3 -257.065 0
0    0    0

-73.9483 58977.6 0
58977.6 -208.281 0
0    0    0

151.103 59267.9 0
59267.9 236.893 0
0    0    0

32.9978 59111.9 0
59111.9 113.845 0
0    0    0

84.4714 55605.7 0
55605.7 39.7567 0
0    0    0

-211.053 56310.2 0
56310.2 -130.8 0
0    0    0

124.419 55298.2 0
55298.2 229.685 0
0    0    0

-292.811 55194 0
55194 -211.864 0
0    0    0

-266 55092.5 0
55092.5 -218.151 0
0    0    0

244.885 55872.8 0
55872.8 290.019 0
0    0    0

-124.822 54006.4 0
54006.4 -165.7 0
0    0    0

-274.186 55651.2 0
55651.2 -282.686 0
0    0    0

-60.7355 53529.2 0
53529.2 -342.633 0
0    0    0

170.606 54708 0
54708 201.869 0
0    0    0

-71.8539 54261.4 0
54261.4 27.0547 0
0    0    0

-275.677 55028.4 0
55028.4 -233.112 0
0    0    0

129.318 56303.5 0
56303.5 -117.322 0
0    0    0

125.149 56786.3 0
56786.3 23.3379 0
0    0    0

-93.7899 53268.4 0
53268.4 84.6511 0
0    0    0

184.641 54120.6 0
54120.6 100.487 0
0    0    0

-220.578 54620.6 0
54620.6 -187.15 0
0    0    0

-71.4682 53940.7 0
53940.7 86.3225 0
0    0    0

107.898 53541.8 0
53541.8 -59.4206 0
0    0    0

35.6701 53574.1 0
53574.1 -148.697 0
0    0    0

-99.9049 53631.1 0
53631.1 -56.629 0
0    0    0

73.6019 52764.4 0
52764.4 209.353 0
0    0    0

44.0721 53780.6 0
53780.6 -123.276 0
0    0    0

-269.707 53335.2 0
53335.2 -636.363 0
0    0    0

164.413 52932.7 0
52932.7 244.401 0
0    0    0

192.771 54404.3 0
54404.3 -46.8663 0
0    0    0

262.488 54764.6 0
54764.6 102.783 0
0    0    0

139.656 54420.2 0
54420.2 -110.683 0
0    0    0

33.3012 53047.1 0
53047.1 -130.265 0
0    0    0

85.9888 53712.8 0
53712.8 209.096 0
0    0    0

-2.13008 53861.4 0
53861.4 -152.28 0
0    0    0

-303.265 54475.5 0
54475.5 -75.5324 0
0    0    0

196.759 45991.4 0
45991.4 204.443 0
0    0    0

119.482 45629.4 0
45629.4 -48.305 0
0    0    0

149.235 46397.7 0
46397.7 10.3552 0
0    0    0

129.815 45030.8 0
45030.8 235.314 0
0    0    0

96.0261 46023.5 0
46023.5 96.2713 0
0    0    0

-296.987 45373 0
45373 -326.651 0
0    0    0

-115.907 44297 0
44297 95.9667 0
0    0    0

11.3204 43915.3 0
43915.3 -261.083 0
0    0    0

-15.8328 43419.3 0
43419.3 -205.618 0
0    0    0

-331.065 43878.5 0
43878.5 -377.66 0
0    0    0

-194.494 43978.6 0
43978.6 -19.3342 0
0    0    0

-76.9812 43625 0
43625 52.5151 0
0    0    0

-447.811 44892.5 0
44892.5 -178.22 0
0    0    0

127.656 44099.2 0
44099.2 44.4236 0
0    0    0

169.018 43208 0
43208 91.61 0
0    0    0

83.5513 44399.3 0
44399.3 -209.71 0
0    0    0

193.563 44567.7 0
44567.7 146.95 0
0    0    0

-210.967 44359.7 0
44359.7 168.244 0
0    0    0

-341.041 44173.2 0
44173.2 -294.19 0
0    0    0

-178.227 44972.2 0
44972.2 -123.412 0
0    0    0

291.345 44148.7 0
44148.7 573.947 0
0    0    0

132.682 43810.6 0
43810.6 -13.0605 0
0    0    0

-77.8353 43134.7 0
43134.7 -51.1372 0
0    0    0

200.342 43822.1 0
43822.1 135.427 0
0    0    0

188.803 43995.2 0
43995.2 -29.6145 0
0    0    0

-23.9316 44579.6 0
44579.6 -85.264 0
0    0    0

-154.345 50517.7 0
50517.7 -178.188 0
0    0    0

-6.82895 49690.1 0
49690.1 -38.4836 0
0    0    0

97.6105 50630.9 0
50630.9 56.2499 0
0    0    0

-277.311 50202.4 0
50202.4 -330.116 0
0    0    0

-140.332 51089.7 0
51089.7 -72.8639 0
0    0    0

108.083 51210.7 0
51210.7 147.1 0
0    0    0

-45.8977 50860.1 0
50860.1 304.774 0
0    0    0

137.069 52099.8 0
52099.8 -248.333 0
0    0    0

341.908 51985.8 0
51985.8 312.237 0
0    0    0

-223.629 52234.1 0
52234.1 -272.187 0
0    0    0

32.8723 50387.3 0
50387.3 -334.688 0
0    0    0

-156.751 51598.4 0
51598.4 -253.058 0
0    0    0

180.117 50044.1 0
50044.1 129.949 0
0    0    0

-20.1294 51363.8 0
51363.8 -69.4818 0
0    0    0

-79.8005 51029.9 0
51029.9 -227.487 0
0    0    0

-72.4791 51048.3 0
51048.3 77.6057 0
0    0    0

63.3892 51803.6 0
51803.6 361.656 0
0    0    0

96.228 51478.5 0
51478.5 -147.433 0
0    0    0

210.583 52884.1 0
52884.1 102.642 0
0    0    0

-116.357 52185.9 0
52185.9 -96.289 0
0    0    0

39.4792 47352.1 0
47352.1 128.258 0
0    0    0

8.48 50443.2 0
50443.2 96.9348 0
0    0    0

83.373 50069.8 0
50069.8 -94.55 0
0    0    0

166.711 50842.4 0
50842.4 162.481 0
0    0    0

-139.029 51416.8 0
51416.8 -164.687 0
0    0    0

-111.954 53885 0
53885 -244.227 0
0    0    0

-125.64 49675.8 0
49675.8 -359.659 0
0    0    0

-55.2623 49612 0
49612 -179.382 0
0    0    0

288.471 53323.9 0
53323.9 111.335 0
0    0    0

-143.119 54099.6 0
54099.6 -240.125 0
0    0    0

87.295 54357.7 0
54357.7 189.14 0
0    0    0

-104.725 54422.1 0
54422.1 144.386 0
0    0    0

-156.983 27285.7 0
27285.7 -245.219 0
0    0    0

252.02 27829.6 0
27829.6 294.372 0
0    0    0

-15.3424 26969.3 0
26969.3 -254.429 0
0    0    0

-431.125 27521.2 0
27521.2 -411.646 0
0    0    0

290.214 27102 0
27102 73.3985 0
0    0    0

96.4117 28327.3 0
28327.3 242.95 0
0    0    0

-208.519 27516.2 0
27516.2 -55.5627 0
0    0    0

86.4215 26666 0
26666 25.3691 0
0    0    0

-101.876 26294.3 0
26294.3 -26.8986 0
0    0    0

397.622 27763.4 0
27763.4 34.2096 0
0    0    0

189.699 27460.7 0
27460.7 -101.352 0
0    0    0

-191.575 27537.5 0
27537.5 -154.933 0
0    0    0

-69.1087 26586.5 0
26586.5 61.7529 0
0    0    0

14.932 26875.5 0
26875.5 292.826 0
0    0    0

-2.60859 26057.5 0
26057.5 14.9577 0
0    0    0

79.8487 25851.8 0
25851.8 -238.313 0
0    0    0

-290.168 27886 0
27886 -132.877 0
0    0    0

261.761 27153.6 0
27153.6 111.465 0
0    0    0

-222.108 3376.1 0
3376.1 -148.133 0
0    0    0

54.9118 2673.33 0
2673.33 49.3624 0
0    0    0

200.728 4189.96 0
4189.96 192.873 0
0    0    0

-61.7551 3983.2 0
3983.2 113.65 0
0    0    0

-288.358 3326.49 0
3326.49 -182.763 0
0    0    0

202.178 3751.36 0
3751.36 325.947 0
0    0    0

-312.937 2698.9 0
2698.9 -414.865 0
0    0    0

15.4985 3536.59 0
3536.59 -275.004 0
0    0    0

-198.736 3815.52 0
3815.52 -63.68 0
0    0    0

-174.212 4415.84 0
4415.84 -150.307 0
0    0    0

74.453 3821.14 0
3821.14 15.2698 0
0    0    0

197.901 2277 0
2277 267.645 0
0    0    0

-237.146 3383.34 0
3383.34 -219.487 0
0    0    0

50.5034 3042.35 0
3042.35 -202.381 0
0    0    0

136.807 4627.14 0
4627.14 -33.1419 0
0    0    0

-132.625 4217.17 0
4217.17 -70.6738 0
0    0    0

-190.253 4298.34 0
4298.34 -277.589 0
0    0    0

234.886 4233 0
4233 253.834 0
0    0    0

70.4566 3814.73 0
3814.73 142.958 0
0    0    0

135.54 1390.04 0
1390.04 -9.73373 0
0    0    0

4.06968 3203.04 0
3203.04 188.982 0
0    0    0

-307.13 3661.18 0
3661.18 -248.001 0
0    0    0

-314.926 4037.99 0
4037.99 -177.254 0
0    0    0

208.488 3347.7 0
3347.7 274.231 0
0    0    0

264.84 4006.5 0
4006.5 127.408 0
0    0    0

125.938 4508.85 0
4508.85 261.02 0
0    0    0

263.728 4077.34 0
4077.34 409.409 0
0    0    0

-206.386 3253.14 0
3253.14 -195.152 0
0    0    0

175.904 2766.09 0
2766.09 1.08239 0
0    0    0

-110.917 2884.91 0
2884.91 13.7492 0
0    0    0

158.956 3066.23 0
3066.23 32.9517 0
0    0    0

-69.4197 2107.5 0
2107.5 -153.452 0
0    0    0

280.529 909.096 0
909.096 -53.4774 0
0    0    0

30.4849 2239.73 0
2239.73 232.617 0
0    0    0

-117.235 2648.52 0
2648.52 114.065 0
0    0    0

116.156 1757.4 0
1757.4 123.262 0
0    0    0

-152.405 969.583 0
969.583 -65.3164 0
0    0    0

-149.324 1896.73 0
1896.73 -203.191 0
0    0    0

-81.5878 1736.93 0
1736.93 111.913 0
0    0    0

-72.0436 1422.17 0
1422.17 -169.586 0
0    0    0

-149.409 1913.44 0
1913.44 -160.288 0
0    0    0

-118.999 3728.41 0
3728.41 -277.663 0
0    0    0

175.896 2972.07 0
2972.07 341.115 0
0    0    0

15.2506 1062.35 0
1062.35 218.587 0
0    0    0

-82.7965 1790.94 0
1790.94 -65.0621 0
0    0    0

311.676 1625.82 0
1625.82 221.619 0
0    0    0

-28.0411 2070.6 0
2070.6 81.6117 0
0    0    0

38.2412 2396.04 0
2396.04 206.687 0
0    0    0

-93.9167 2970.33 0
2970.33 -148.712 0
0    0    0

54.01 2229.42 0
2229.42 -80.1759 0
0    0    0

159.984 2125.8 0
2125.8 -62.6864 0
0    0    0

131.885 76794.9 0
76794.9 41.4405 0
0    0    0

95.8073 77905.1 0
77905.1 114.437 0
0    0    0

-306.147 76208.1 0
76208.1 -301.65 0
0    0    0

-49.7059 77374.6 0
77374.6 -242.626 0
0    0    0

37.8783 76478.8 0
76478.8 17.2397 0
0    0    0

12.4302 76932 0
76932 134.699 0
0    0    0

226.915 75822.6 0
75822.6 10.3396 0
0    0    0

-99.4052 76207.1 0
76207.1 97.5484 0
0    0    0

-85.3143 75387 0
75387 21.8672 0
0    0    0

129.817 75509.3 0
75509.3 17.4934 0
0    0    0

132.251 75259.2 0
75259.2 198.26 0
0    0    0

-152.803 76024.4 0
76024.4 7.0987 0
0    0    0

-175.275 76987.9 0
76987.9 -66.0286 0
0    0    0

-92.9705 76492 0
76492 113.211 0
0    0    0

245.492 75821.6 0
75821.6 225.575 0
0    0    0

-281.698 76209.6 0
76209.6 -262.705 0
0    0    0

88.8433 74240.7 0
74240.7 20.7384 0
0    0    0

160.338 76039.7 0
76039.7 -107.917 0
0    0    0

-124.759 74750.6 0
74750.6 -70.7129 0
0    0    0

-8.40934 75519.1 0
75519.1 -212.759 0
0    0    0

1.78937 76500.2 0
76500.2 271.638 0
0    0    0

-224.769 76823.9 0
76823.9 -168.481 0
0    0    0

263.211 74682.2 0
74682.2 187.736 0
0    0    0

179.258 75268 0
75268 -54.3115 0
0    0    0

141.582 74929.1 0
74929.1 -48.6304 0
0    0    0

-137.549 74144.4 0
74144.4 29.2298 0
0    0    0

132.634 75054.9 0
75054.9 -40.307 0
0    0    0

203.482 74616.2 0
74616.2 288.884 0
0    0    0

101.102 76387.6 0
76387.6 116.912 0
0    0    0

53.3491 78244.4 0
78244.4 -93.1193 0
0    0    0

-188.937 74415.1 0
74415.1 -110.532 0
0    0    0

155.275 74846.6 0
74846.6 69.3417 0
0    0    0

131.383 77898.7 0
77898.7 193.548 0
0    0    0

-464.985 76853.5 0
76853.5 -307.812 0
0    0    0

-21.9524 76305.5 0
76305.5 104.831 0
0    0    0

-190.513 77127.1 0
77127.1 -75.3892 0
0    0    0

-104.254 78311.6 0
78311.6 -196.873 0
0    0    0

214.999 76862.2 0
76862.2 378.395 0
0    0    0

10.4098 75512.8 0
75512.8 175.395 0
0    0    0

27.8622 77120.7 0
77120.7 -82.9816 0
0    0    0

-211.666 76668.4 0
76668.4 -339.776 0
0    0    0

214.114 76730.3 0
76730.3 190.954 0
0    0    0

-332.907 77469.3 0
77469.3 -470.426 0
0    0    0

168.061 78606.8 0
78606.8 10.7572 0
0    0    0

212.178 77180.6 0
77180.6 293.871 0
0    0    0

221.301 78913 0
78913 32.7055 0
0    0    0

-184.925 78378.5 0
78378.5 -150.574 0
0    0    0

62.5411 78598.4 0
78598.4 35.0043 0
0    0    0

81.8268 77755 0
77755 100.451 0
0    0    0

-194.343 77500.2 0
77500.2 -251.521 0
0    0    0

-207.881 78268.3 0
78268.3 -343.799 0
0    0    0

223.631 77682.2 0
77682.2 363.783 0
0    0    0

535.991 76471.5 0
76471.5 312.604 0
0    0    0

313.638 77068.8 0
77068.8 452.952 0
0    0    0

1.47044 78555.8 0
78555.8 -178.937 0
0    0    0

276.978 77958.7 0
77958.7 318.159 0
0    0    0

231.087 76617.8 0
76617.8 -40.7699 0
0    0    0

-204.052 79015.8 0
79015.8 -198.463 0
0    0    0

250.102 77332.3 0
77332.3 360.623 0
0    0    0

-38.785 77615.1 0
77615.1 53.5489 0
0    0    0

-254.844 77120.7 0
77120.7 -201.562 0
0    0    0

-317.248 78617.1 0
78617.1 -228.525 0
0    0    0

-251.14 78959.6 0
78959.6 -70.5554 0
0    0    0

-213.976 78417.5 0
78417.5 -213.183 0
0    0    0

-183.364 79136.6 0
79136.6 46.0022 0
0    0    0

-20.3576 78325.4 0
78325.4 336.885 0
0    0    0

64.2019 77588.4 0
77588.4 208.702 0
0    0    0

254.44 78171.7 0
78171.7 128.819 0
0    0    0

-39.8088 78567.5 0
78567.5 -250.902 0
0    0    0

-137.4 79058.4 0
79058.4 -176.28 0
0    0    0

-245.125 78747.4 0
78747.4 -21.2765 0
0    0    0

5.8315 78178.8 0
78178.8 -74.7869 0
0    0    0

175.464 77708.9 0
77708.9 280.013 0
0    0    0

-89.9152 77330.6 0
77330.6 -152.281 0
0    0    0

163.576 78459 0
78459 253.804 0
0    0    0

-125.566 78738.8 0
78738.8 -27.619 0
0    0    0

295.164 77512.5 0
77512.5 203.848 0
0    0    0

-158.913 78202.1 0
78202.1 -231.2 0
0    0    0

16.1155 77706.9 0
77706.9 -349.688 0
0    0    0

110.708 77712.3 0
77712.3 240.299 0
0    0    0

-47.0076 77821 0
77821 -4.20035 0
0    0    0

-224.835 77313.8 0
77313.8 -228.851 0
0    0    0

318.531 78153.3 0
78153.3 126.472 0
0    0    0

-114.165 78197.5 0
78197.5 -86.7539 0
0    0    0

-96.1348 77917.9 0
77917.9 -295.058 0
0    0    0

-192.653 78113.7 0
78113.7 -402.19 0
0    0    0

141.013 78034.1 0
78034.1 57.0793 0
0    0    0

-34.6333 78631.3 0
78631.3 117.686 0
0    0    0

-218.528 77908.4 0
77908.4 -187.111 0
0    0    0

90.5978 77544.3 0
77544.3 166.478 0
0    0    0

92.0882 76967.6 0
76967.6 267.405 0
0    0    0

-38.3197 77073.6 0
77073.6 203.584 0
0    0    0

120.173 77298.5 0
77298.5 92.0241 0
0    0    0

11.9471 77231.7 0
77231.7 -368.383 0
0    0    0

-163.884 79433.6 0
79433.6 -29.3326 0
0    0    0

23.4052 79680.9 0
79680.9 158.852 0
0    0    0

-76.3039 77509.5 0
77509.5 -282.543 0
0    0    0

46.6773 74708 0
74708 179.284 0
0    0    0

265.411 78414.3 0
78414.3 36.5594 0
0    0    0

-59.7635 78999.3 0
78999.3 -99.325 0
0    0    0

-278.151 77461.2 0
77461.2 -234.121 0
0    0    0

208.59 78737.1 0
78737.1 -46.1616 0
0    0    0

-181.341 76848.9 0
76848.9 -353.586 0
0    0    0

152.016 78103 0
78103 17.5486 0
0    0    0

-251.185 77928.1 0
77928.1 -208.733 0
0    0    0

-235.392 77503.2 0
77503.2 -219.457 0
0    0    0

128.221 76715 0
76715 14.846 0
0    0    0

228.64 77689 0
77689 127.991 0
0    0    0

104.63 76040.7 0
76040.7 45.4114 0
0    0    0

33.8557 75777.9 0
75777.9 -194.855 0
0    0    0

-193.812 76523.2 0
76523.2 -45.9143 0
0    0    0

148.432 77023.9 0
77023.9 406.695 0
0    0    0

68.0416 75367.8 0
75367.8 -146.501 0
0    0    0

76.5526 75248.5 0
75248.5 -259.736 0
0    0    0

-42.7588 75986.9 0
75986.9 -151.386 0
0    0    0

-82.1464 75501.7 0
75501.7 96.7554 0
0    0    0

-155.193 76725.7 0
76725.7 -226.441 0
0    0    0

-10.8083 77052.7 0
77052.7 -101.469 0
0    0    0

128.055 76326.9 0
76326.9 192.217 0
0    0    0

170.904 77187.8 0
77187.8 375.517 0
0    0    0

-74.6152 75758.4 0
75758.4 81.4966 0
0    0    0

5.88436 75288.9 0
75288.9 186.331 0
0    0    0

192.068 76951.2 0
76951.2 16.1896 0
0    0    0

-121.631 76758.1 0
76758.1 -21.7028 0
0    0    0

202.499 77128.8 0
77128.8 86.6886 0
0    0    0

178.824 77743.2 0
77743.2 52.4818 0
0    0    0

6.22374 78128.6 0
78128.6 -142.942 0
0    0    0

-185.787 78546.8 0
78546.8 0.609981 0
0    0    0

22.7167 75535.3 0
75535.3 -101.2 0
0    0    0

-191.953 74806.6 0
74806.6 -180.109 0
0    0    0

41.1186 74622.9 0
74622.9 -88.5467 0
0    0    0

-208.69 75979.6 0
75979.6 52.4276 0
0    0    0

207.48 76365.8 0
76365.8 110.816 0
0    0    0

-13.1661 76020.4 0
76020.4 -188.326 0
0    0    0

-74.8795 75954.7 0
75954.7 119.736 0
0    0    0

-34.7778 75458.7 0
75458.7 231.176 0
0    0    0

-40.8597 75016.9 0
75016.9 -164.743 0
0    0    0

126.482 74904.4 0
74904.4 -170.617 0
0    0    0

195.967 73664 0
73664 94.6135 0
0    0    0

-45.0631 74361.9 0
74361.9 -0.869439 0
0    0    0

-207.942 75285.7 0
75285.7 -305.124 0
0    0    0

188.662 76473.1 0
76473.1 312.997 0
0    0    0

32.8892 73963.4 0
73963.4 -267.421 0
0    0    0

250.104 74962.2 0
74962.2 277.641 0
0    0    0

-182.924 73519.9 0
73519.9 -163.762 0
0    0    0

270.657 74300.4 0
74300.4 38.2544 0
0    0    0

77.047 73616.4 0
73616.4 -1.30832 0
0    0    0

-279.549 74760.6 0
74760.6 -206.997 0
0    0    0

288.897 76001.7 0
76001.7 492.394 0
0    0    0

-238.928 77512.9 0
77512.9 -155.872 0
0    0    0

-81.8928 75263.4 0
75263.4 -162.931 0
0    0    0

1.94324 76342.3 0
76342.3 -260.068 0
0    0    0

-75.35 73353.2 0
73353.2 160.881 0
0    0    0

-52.1815 75009.3 0
75009.3 69.1674 0
0    0    0

-266.048 74129.4 0
74129.4 -122.31 0
0    0    0

242.956 73963.5 0
73963.5 -55.0518 0
0    0    0

-108.807 73687.7 0
73687.7 -163.793 0
0    0    0

168.941 74271.9 0
74271.9 55.6455 0
0    0    0

-130.564 74711.3 0
74711.3 18.2637 0
0    0    0

185.293 74894.6 0
74894.6 166.45 0
0    0    0

-141.579 75805.8 0
75805.8 -279.897 0
0    0    0

-51.1362 76968.8 0
76968.8 83.8663 0
0    0    0

-18.8173 75376.1 0
75376.1 129.924 0
0    0    0

-283.168 75809.8 0
75809.8 -311.626 0
0    0    0

111.376 74613.6 0
74613.6 -137.509 0
0    0    0

-144.96 75263.6 0
75263.6 -172.26 0
0    0    0

-53.6018 76091.3 0
76091.3 98.6651 0
0    0    0

-175.953 76566.2 0
76566.2 -266.278 0
0    0    0

-150.662 75127.5 0
75127.5 82.8465 0
0    0    0

272.685 75505.2 0
75505.2 488.262 0
0    0    0

-282.395 75745.3 0
75745.3 -543.81 0
0    0    0

-49.3375 75908 0
75908 -333.23 0
0    0    0

150.264 75596.7 0
75596.7 298.415 0
0    0    0

115.336 75977.3 0
75977.3 112.579 0
0    0    0

-71.7 76614.4 0
76614.4 172.687 0
0    0    0

-329.758 76814.3 0
76814.3 54.761 0
0    0    0

6.55069 75651.4 0
75651.4 43.0421 0
0    0    0

-167.518 76203.2 0
76203.2 -222.925 0
0    0    0

-258.17 77923.8 0
77923.8 -292.544 0
0    0    0

8.51116 77427 0
77427 30.6463 0
0    0    0

164.295 75997.2 0
75997.2 253.75 0
0    0    0

-247.989 75823 0
75823 -204.792 0
0    0    0

65.6649 76020 0
76020 245.033 0
0    0    0

158.81 77650.1 0
77650.1 1.64789 0
0    0    0

-17.7052 76551.8 0
76551.8 102.418 0
0    0    0

-74.3971 77317.6 0
77317.6 -108.181 0
0    0    0

-54.2644 75226.6 0
75226.6 -403.014 0
0    0    0

61.2468 75599.5 0
75599.5 386.16 0
0    0    0

231.038 76449.2 0
76449.2 32.1906 0
0    0    0

255.598 77099.2 0
77099.2 162.142 0
0    0    0

-203.669 80641.3 0
80641.3 -86.4585 0
0    0    0

-129.224 77940.6 0
77940.6 -58.7027 0
0    0    0

88.9975 77111.3 0
77111.3 112.342 0
0    0    0

-194.037 77619.8 0
77619.8 27.8905 0
0    0    0

176.419 77407.4 0
77407.4 93.6191 0
0    0    0

-168.006 78316.6 0
78316.6 -130.04 0
0    0    0

88.283 78419.4 0
78419.4 -17.226 0
0    0    0

208.591 78397.4 0
78397.4 18.2992 0
0    0    0

-118.764 78501 0
78501 -284.978 0
0    0    0

-187.556 79966.7 0
79966.7 -274.991 0
0    0    0

-108.607 78166.6 0
78166.6 -41.2676 0
0    0    0

-65.1659 78579.5 0
78579.5 109.502 0
0    0    0

84.9667 78591.2 0
78591.2 5.48391 0
0    0    0

-17.5733 79109.8 0
79109.8 222.742 0
0    0    0

-286.734 80526.7 0
80526.7 -74.5639 0
0    0    0

-160.059 78813.6 0
78813.6 -44.0289 0
0    0    0

328.324 74863.7 0
74863.7 320.826 0
0    0    0

34.7561 76342.5 0
76342.5 -251.503 0
0    0    0

97.7711 74878.7 0
74878.7 214.465 0
0    0    0

210.339 75421.8 0
75421.8 195.661 0
0    0    0

190.524 75487.6 0
75487.6 246.006 0
0    0    0

189.052 75471.1 0
75471.1 218.704 0
0    0    0

-212.407 73761.4 0
73761.4 -104.761 0
0    0    0

154.907 72881.6 0
72881.6 -142.123 0
0    0    0

-91.7024 77073.3 0
77073.3 -313.364 0
0    0    0

138.151 75961.3 0
75961.3 300.797 0
0    0    0

-197.115 75716 0
75716 -150.752 0
0    0    0

-330.692 75240.2 0
75240.2 -232.221 0
0    0    0

61.2007 76904.9 0
76904.9 298.955 0
0    0    0

-249.6 77311.9 0
77311.9 -305.129 0
0    0    0

244.472 77033.2 0
77033.2 310.05 0
0    0    0

37.7026 76133.5 0
76133.5 200.44 0
0    0    0

-181.92 76798.9 0
76798.9 -259.862 0
0    0    0

-239.498 78103.1 0
78103.1 -56.5233 0
0    0    0

244.158 78287.1 0
78287.1 401.744 0
0    0    0

276.663 78065.5 0
78065.5 198.099 0
0    0    0

-131.258 77833.3 0
77833.3 -64.8072 0
0    0    0

-21.9009 78506.1 0
78506.1 -233.822 0
0    0    0

153.649 78852.2 0
78852.2 169.99 0
0    0    0

-99.2339 78873.2 0
78873.2 -149.854 0
0    0    0

-255.286 79142.6 0
79142.6 -334.038 0
0    0    0

157.922 79661.8 0
79661.8 156.487 0
0    0    0

190.301 76750.8 0
76750.8 247.847 0
0    0    0

55.7025 76847.4 0
76847.4 -148.135 0
0    0    0

192.071 76391.8 0
76391.8 -29.4157 0
0    0    0

2.0776 76852.1 0
76852.1 -114.835 0
0    0    0

169.918 74287.8 0
74287.8 248.752 0
0    0    0

-100.482 73898.7 0
73898.7 -207.919 0
0    0    0

42.4213 74728.3 0
74728.3 221.59 0
0    0    0

-310.663 75675 0
75675 -357.357 0
0    0    0

-305.148 75260.1 0
75260.1 -343.273 0
0    0    0

276.925 75362.5 0
75362.5 350.13 0
0    0    0

-122.379 76673.1 0
76673.1 155.234 0
0    0    0

-28.8909 78212.8 0
78212.8 -140.629 0
0    0    0

-22.6386 77361.2 0
77361.2 -216.282 0
0    0    0

23.0858 78186.2 0
78186.2 111.022 0
0    0    0

76.7379 78740.3 0
78740.3 183.915 0
0    0    0

274.98 79193.5 0
79193.5 94.8457 0
0    0    0

-156.96 78152.9 0
78152.9 -173.123 0
0    0    0

99.1988 78457.2 0
78457.2 217.4 0
0    0    0

-207.131 78947 0
78947 91.3684 0
0    0    0

156.465 80080.6 0
80080.6 274.98 0
0    0    0

-27.498 79088.2 0
79088.2 -228.584 0
0    0    0

-135.507 79394.5 0
79394.5 -18.7456 0
0    0    0

-147.36 79856.2 0
79856.2 -91.3121 0
0    0    0

-157.139 79673.4 0
79673.4 -53.5313 0
0    0    0

204.748 79868.4 0
79868.4 -33.8169 0
0    0    0

115.573 78812.6 0
78812.6 252.65 0
0    0    0

110.678 78581.2 0
78581.2 -51.3624 0
0    0    0

-2.9683 79599.1 0
79599.1 -247.044 0
0    0    0

266.846 77968.1 0
77968.1 110.27 0
0    0    0

-245.864 78409.1 0
78409.1 -142.255 0
0    0    0

36.4651 80012.8 0
80012.8 254.561 0
0    0    0

-53.434 80599.8 0
80599.8 168.489 0
0    0    0

-183.235 77060.1 0
77060.1 -49.9984 0
0    0    0

-259.191 79440.1 0
79440.1 -303.671 0
0    0    0

110.128 78224.7 0
78224.7 -61.3288 0
0    0    0

-70.2828 77470.2 0
77470.2 -238.393 0
0    0    0

9.82381 79393.8 0
79393.8 264.402 0
0    0    0

-2.28114 80259 0
80259 -204.954 0
0    0    0

205.152 77513.2 0
77513.2 208.965 0
0    0    0

388.427 78403.2 0
78403.2 -83.3434 0
0    0    0

-14.169 79172.2 0
79172.2 179.353 0
0    0    0

73.6809 79398.8 0
79398.8 -15.1881 0
0    0    0

-183.936 80276.5 0
80276.5 66.4145 0
0    0    0

202.718 80414 0
80414 89.6234 0
0    0    0

78.6192 79450.9 0
79450.9 -110.009 0
0    0    0

219.993 81701.1 0
81701.1 142.003 0
0    0    0

78.5502 81384.2 0
81384.2 18.9072 0
0    0    0

44.1213 80853.8 0
80853.8 92.7466 0
0    0    0

275.371 81638.8 0
81638.8 249.818 0
0    0    0

-166.62 79913.6 0
79913.6 70.1426 0
0    0    0

-83.8633 78897.4 0
78897.4 -113.18 0
0    0    0

92.6029 79858.4 0
79858.4 -157.078 0
0    0    0

86.5361 78566.5 0
78566.5 29.6548 0
0    0    0

-215.263 79024.8 0
79024.8 -63.5302 0
0    0    0

-156.007 80403.8 0
80403.8 186.37 0
0    0    0

-82.024 81322.7 0
81322.7 -121.223 0
0    0    0

-199.325 80513.3 0
80513.3 -461.233 0
0    0    0

-196.13 79772 0
79772 -265.067 0
0    0    0

-97.9192 81907.3 0
81907.3 -24.7423 0
0    0    0

-18.4733 80989.6 0
80989.6 -187.795 0
0    0    0

-62.2978 81323.1 0
81323.1 -234.752 0
0    0    0

-94.6879 80488.8 0
80488.8 -258.115 0
0    0    0

147.138 82336 0
82336 355.935 0
0    0    0

-41.5015 82491.7 0
82491.7 224.198 0
0    0    0

-221.903 81075.4 0
81075.4 -462.234 0
0    0    0

-4.7951 81601 0
81601 -179.776 0
0    0    0

-316.645 82155.4 0
82155.4 -76.3743 0
0    0    0

21.8293 82612.4 0
82612.4 9.35539 0
0    0    0

98.2397 82143.6 0
82143.6 -273.5 0
0    0    0

-61.8421 79046.1 0
79046.1 138.832 0
0    0    0

101.019 82370.8 0
82370.8 43.294 0
0    0    0

44.9838 79031.8 0
79031.8 350.75 0
0    0    0

-228.211 75929.1 0
75929.1 -309.267 0
0    0    0

76.6198 77188 0
77188 175.141 0
0    0    0

-8.2356 78745.8 0
78745.8 155.999 0
0    0    0

221.153 78902.2 0
78902.2 30.9138 0
0    0    0

42.0047 80307.3 0
80307.3 234.307 0
0    0    0

-20.5237 79137.9 0
79137.9 -333.398 0
0    0    0

-267.043 81952.4 0
81952.4 -185.603 0
0    0    0

37.8702 81850.9 0
81850.9 -175.087 0
0    0    0

-72.0107 81832.2 0
81832.2 -84.8508 0
0    0    0

242.284 81499.3 0
81499.3 188.62 0
0    0    0

-113.379 77378.4 0
77378.4 -51.4282 0
0    0    0

-169.849 76938.1 0
76938.1 -282.342 0
0    0    0

214.654 76480.4 0
76480.4 350.31 0
0    0    0

277.152 77147.3 0
77147.3 442.654 0
0    0    0

-173.793 76224.5 0
76224.5 -340.465 0
0    0    0

-31.4236 76404.2 0
76404.2 -255.346 0
0    0    0

303.161 76693.4 0
76693.4 452.2 0
0    0    0

-190.395 76485.2 0
76485.2 -352.881 0
0    0    0

201.303 79543.8 0
79543.8 57.4285 0
0    0    0

33.6736 80151.6 0
80151.6 30.5905 0
0    0    0

-59.6618 81355.5 0
81355.5 104.61 0
0    0    0

-134.735 79853 0
79853 -166.46 0
0    0    0

207.536 79410.6 0
79410.6 268.082 0
0    0    0

87.7978 79857.9 0
79857.9 -277.027 0
0    0    0

-261.741 82793.9 0
82793.9 -346.337 0
0    0    0

26.045 82742.2 0
82742.2 -296.433 0
0    0    0

-199.43 81781 0
81781 -48.733 0
0    0    0

116.056 80780.8 0
80780.8 260.975 0
0    0    0

-205.315 82087.5 0
82087.5 -286.358 0
0    0    0

70.9942 79476.3 0
79476.3 245.138 0
0    0    0

96.1496 79953.8 0
79953.8 133.894 0
0    0    0

141.742 80309 0
80309 23.8019 0
0    0    0

-13.3189 80449.8 0
80449.8 168.314 0
0    0    0

-144.233 80791.9 0
80791.9 34.2177 0
0    0    0

-10.2648 82376.7 0
82376.7 -114.866 0
0    0    0

-256.551 80600.7 0
80600.7 -162.818 0
0    0    0

-39.7901 81231.1 0
81231.1 -27.6334 0
0    0    0

139.841 80775 0
80775 -68.5106 0
0    0    0

282.561 79642.7 0
79642.7 208.401 0
0    0    0

-224.442 79057.2 0
79057.2 13.2507 0
0    0    0

-11.1741 79821.1 0
79821.1 -188.51 0
0    0    0

131.43 79547 0
79547 231.69 0
0    0    0

60.6731 79724.5 0
79724.5 136.197 0
0    0    0

-97.591 80245.7 0
80245.7 71.21 0
0    0    0

-129.856 79431.2 0
79431.2 157.612 0
0    0    0

-151.332 79701 0
79701 -14.1782 0
0    0    0

142.767 83335.8 0
83335.8 61.186 0
0    0    0

-13.415 83102.6 0
83102.6 72.3577 0
0    0    0

155.307 82340.1 0
82340.1 -86.9002 0
0    0    0

-141.95 81686 0
81686 -135.306 0
0    0    0

206.897 80801.4 0
80801.4 -64.3167 0
0    0    0

-48.5303 81384.5 0
81384.5 -30.2862 0
0    0    0

294.698 80783.4 0
80783.4 593.407 0
0    0    0

182.617 80541.2 0
80541.2 79.4591 0
0    0    0

105.005 83440.2 0
83440.2 48.9904 0
0    0    0

239.126 83005.9 0
83005.9 102.483 0
0    0    0

-107.806 83372.9 0
83372.9 21.0581 0
0    0    0

22.1789 81261.4 0
81261.4 56.9844 0
0    0    0

-58.0455 80937.6 0
80937.6 -122.78 0
0    0    0

-78.1121 82018 0
82018 -147.033 0
0    0    0

74.1083 81788.4 0
81788.4 138.897 0
0    0    0

198.374 81274.9 0
81274.9 254.679 0
0    0    0

-48.9473 80940.7 0
80940.7 -183.457 0
0    0    0

41.2325 82311.8 0
82311.8 207.802 0
0    0    0

-197.082 82304.9 0
82304.9 99.2117 0
0    0    0

-11.8985 82888.7 0
82888.7 90.0192 0
0    0    0

82.4021 83183.3 0
83183.3 -110.623 0
0    0    0

-64.8523 82942.2 0
82942.2 110.073 0
0    0    0

-208.396 83770.9 0
83770.9 -343.05 0
0    0    0

89.1582 83366.5 0
83366.5 281.527 0
0    0    0

-3.36005 81239.1 0
81239.1 -266.266 0
0    0    0

249.95 82858.3 0
82858.3 59.0237 0
0    0    0

340.036 82142.3 0
82142.3 288.662 0
0    0    0

-202.087 82678.8 0
82678.8 -83.6019 0
0    0    0

92.7411 81933.4 0
81933.4 -89.6918 0
0    0    0

-22.8273 82596.9 0
82596.9 226.094 0
0    0    0

-109.76 82691 0
82691 244.834 0
0    0    0

-196.181 78931.8 0
78931.8 41.1599 0
0    0    0

56.2886 79445.3 0
79445.3 171.848 0
0    0    0

-124.512 82448.6 0
82448.6 -105.516 0
0    0    0

209.591 82955.7 0
82955.7 143.824 0
0    0    0

248.07 81914.3 0
81914.3 344.782 0
0    0    0

-72.7105 85825.9 0
85825.9 -366.302 0
0    0    0

10.4396 82066.8 0
82066.8 -129.588 0
0    0    0

-110.139 82684.4 0
82684.4 -126.57 0
0    0    0

-129.124 81614.1 0
81614.1 -125.248 0
0    0    0

156.737 81768.9 0
81768.9 201.603 0
0    0    0

278.583 83199.3 0
83199.3 166.057 0
0    0    0

46.9069 85194.9 0
85194.9 -26.7855 0
0    0    0

-173.397 83117.9 0
83117.9 -172.281 0
0    0    0

-300.407 84069.5 0
84069.5 -93.2758 0
0    0    0

-244.471 83023.4 0
83023.4 -86.0917 0
0    0    0

-154.433 83478.6 0
83478.6 -184.991 0
0    0    0

-256.751 90585.1 0
90585.1 -37.8232 0
0    0    0

115.535 88765.3 0
88765.3 -127.66 0
0    0    0

-75.7649 90256.7 0
90256.7 75.0508 0
0    0    0

-79.4569 90088.6 0
90088.6 186.188 0
0    0    0

30.4947 90244 0
90244 -134.047 0
0    0    0

-344.766 90682.2 0
90682.2 -63.9673 0
0    0    0

128.231 89652.1 0
89652.1 -22.4891 0
0    0    0

109.146 90356.7 0
90356.7 -3.59647 0
0    0    0

88.0742 89311.3 0
89311.3 31.8491 0
0    0    0

82.7654 90006.8 0
90006.8 -203.328 0
0    0    0

-243.523 91641.4 0
91641.4 -273.304 0
0    0    0

-172.266 90945.3 0
90945.3 -349.4 0
0    0    0

-62.1085 92120.7 0
92120.7 179.72 0
0    0    0

44.9545 93953.5 0
93953.5 252.411 0
0    0    0

308.825 91315.8 0
91315.8 309.98 0
0    0    0

193.821 92133 0
92133 -23.5431 0
0    0    0

-162.985 91196.4 0
91196.4 -182.399 0
0    0    0

-268.516 91333.1 0
91333.1 -478.448 0
0    0    0

248.486 93148.3 0
93148.3 279.114 0
0    0    0

-32.4891 92561.4 0
92561.4 -65.0261 0
0    0    0

-37.0748 92065.8 0
92065.8 -9.45452 0
0    0    0

-244.514 92247.2 0
92247.2 -39.8756 0
0    0    0

164.244 90156.2 0
90156.2 353.559 0
0    0    0

182.697 90122.8 0
90122.8 404.023 0
0    0    0

22.8291 91694.4 0
91694.4 -338.202 0
0    0    0

-283.524 91323.3 0
91323.3 -461.564 0
0    0    0

-249.857 90976.4 0
90976.4 -130.85 0
0    0    0

63.2571 90067.6 0
90067.6 -260.838 0
0    0    0

118.752 91363 0
91363 177.68 0
0    0    0

-118.715 90374 0
90374 50.8326 0
0    0    0

15.2373 90898.9 0
90898.9 -70.5825 0
0    0    0

243.86 89338.9 0
89338.9 322.493 0
0    0    0

-34.4938 92324.1 0
92324.1 -212.54 0
0    0    0

23.6653 90819.6 0
90819.6 -78.3421 0
0    0    0

70.6787 90646.4 0
90646.4 101.939 0
0    0    0

153.815 90264.3 0
90264.3 130.891 0
0    0    0

165.569 90533.1 0
90533.1 160.62 0
0    0    0

-115.533 90541.7 0
90541.7 -178.808 0
0    0    0

-158.921 90761.4 0
90761.4 -180.075 0
0    0    0

-13.7699 89601.9 0
89601.9 -236.309 0
0    0    0

-15.5101 91528.8 0
91528.8 57.5026 0
0    0    0

-164.188 91663.3 0
91663.3 220.678 0
0    0    0

192.634 91240.2 0
91240.2 10.867 0
0    0    0

-224.146 91013.2 0
91013.2 77.7309 0
0    0    0

-241.306 90038.9 0
90038.9 -284.888 0
0    0    0

152.708 90247.3 0
90247.3 268.635 0
0    0    0

87.1868 89184.9 0
89184.9 176.81 0
0    0    0

2.01857 89638.6 0
89638.6 -30.5642 0
0    0    0

12.1132 89963.7 0
89963.7 -206.143 0
0    0    0

-40.1908 89615 0
89615 13.6026 0
0    0    0

-74.5532 92252 0
92252 -144.693 0
0    0    0

-190.272 91712 0
91712 -217.127 0
0    0    0

163.619 90929.5 0
90929.5 -18.7527 0
0    0    0

63.4291 89201.8 0
89201.8 -8.74553 0
0    0    0

9.28758 91228.4 0
91228.4 158.627 0
0    0    0

-173.198 91288.1 0
91288.1 101.622 0
0    0    0

199.254 91085.5 0
91085.5 29.2743 0
0    0    0

311.166 90548.5 0
90548.5 253.427 0
0    0    0

-208.794 91750.9 0
91750.9 -8.00072 0
0    0    0

-143.321 90328.1 0
90328.1 -195.174 0
0    0    0

206.452 91540 0
91540 26.3438 0
0    0    0

173.793 91305.3 0
91305.3 147.623 0
0    0    0

79.1708 91990.7 0
91990.7 -71.7397 0
0    0    0

-144.16 92169.5 0
92169.5 -247.99 0
0    0    0

92.7488 91680.7 0
91680.7 -27.9876 0
0    0    0

140.976 91901.9 0
91901.9 231.281 0
0    0    0

-75.3498 91743.9 0
91743.9 -80.2271 0
0    0    0

-245.382 93086.5 0
93086.5 -177.578 0
0    0    0

162.719 92877.4 0
92877.4 189.758 0
0    0    0

-187.602 91448.7 0
91448.7 -184.503 0
0    0    0

44.6816 91955 0
91955 44.1622 0
0    0    0

-193.385 92798.2 0
92798.2 10.6181 0
0    0    0

36.4264 92552.6 0
92552.6 194.317 0
0    0    0

43.2692 92012.8 0
92012.8 205.346 0
0    0    0

20.0196 88920.2 0
88920.2 74.879 0
0    0    0

-35.3501 89424.8 0
89424.8 26.6343 0
0    0    0

-136.226 90772.3 0
90772.3 -340.08 0
0    0    0

-132.059 89796.6 0
89796.6 -158.142 0
0    0    0

-113.654 89462.1 0
89462.1 -50.1754 0
0    0    0

161.633 89601.8 0
89601.8 213.229 0
0    0    0

92.5013 89273 0
89273 -118.189 0
0    0    0

-205.322 89697.4 0
89697.4 25.6559 0
0    0    0

92.0338 91032.8 0
91032.8 136.282 0
0    0    0

196.185 89918.4 0
89918.4 240.274 0
0    0    0

182.116 90358 0
90358 241.426 0
0    0    0

123.871 89929.9 0
89929.9 89.6475 0
0    0    0

88.0046 89660 0
89660 49.1786 0
0    0    0

-187.364 90349.9 0
90349.9 -200.779 0
0    0    0

-90.0029 90043.7 0
90043.7 225.111 0
0    0    0

-248.091 89428.9 0
89428.9 -252.772 0
0    0    0

159.54 88652.1 0
88652.1 -17.5571 0
0    0    0

370.498 87472.3 0
87472.3 373.014 0
0    0    0

-144.09 88734.1 0
88734.1 -162.268 0
0    0    0

-312.219 89001.9 0
89001.9 -219.976 0
0    0    0

-63.4263 89915.4 0
89915.4 234.085 0
0    0    0

34.4839 89784.6 0
89784.6 80.4624 0
0    0    0

280.468 88132.9 0
88132.9 258.537 0
0    0    0

-75.4025 87364.3 0
87364.3 210.73 0
0    0    0

-71.2333 89427.4 0
89427.4 -323.358 0
0    0    0

178.057 89481.6 0
89481.6 474.57 0
0    0    0

-120.502 88368.6 0
88368.6 -210.089 0
0    0    0

-350.58 87855 0
87855 -390.84 0
0    0    0

233.903 89235.4 0
89235.4 409.956 0
0    0    0

226.535 88875.5 0
88875.5 139.241 0
0    0    0

-157.462 90509.3 0
90509.3 -55.9243 0
0    0    0

86.5352 90516.8 0
90516.8 166.508 0
0    0    0

-159.323 90149.4 0
90149.4 -238.625 0
0    0    0

149.145 89937 0
89937 296.905 0
0    0    0

201.105 90312.4 0
90312.4 61.3153 0
0    0    0

79.4224 90189.2 0
90189.2 -158.082 0
0    0    0

-178.199 91347.5 0
91347.5 -374.63 0
0    0    0

-59.7342 89701.7 0
89701.7 -364.114 0
0    0    0

374.307 86632.1 0
86632.1 45.8206 0
0    0    0

-144.494 87196.2 0
87196.2 -128.023 0
0    0    0

-167.845 87726.1 0
87726.1 -129.901 0
0    0    0

61.6925 87678.3 0
87678.3 15.5492 0
0    0    0

80.9293 88248.7 0
88248.7 -139.915 0
0    0    0

-51.5403 87730.4 0
87730.4 71.8553 0
0    0    0

-88.1248 87899.1 0
87899.1 72.4852 0
0    0    0

-37.4154 87265.8 0
87265.8 31.7459 0
0    0    0

-4.98042 88462.9 0
88462.9 264.628 0
0    0    0

-37.0098 87706.2 0
87706.2 -192.291 0
0    0    0

-161.128 88027.9 0
88027.9 -235.943 0
0    0    0

171.877 87086.8 0
87086.8 -32.038 0
0    0    0

14.3894 86886.6 0
86886.6 33.5752 0
0    0    0

-78.9333 87374.3 0
87374.3 -196.669 0
0    0    0

41.5742 88786.6 0
88786.6 97.0064 0
0    0    0

153.897 87820.7 0
87820.7 -16.5136 0
0    0    0

185.93 88341.3 0
88341.3 433.837 0
0    0    0

-39.3891 88007.8 0
88007.8 145.744 0
0    0    0

12.9916 88665.7 0
88665.7 -310.412 0
0    0    0

-166.452 88904.9 0
88904.9 -75.826 0
0    0    0

92.1461 88067.6 0
88067.6 -100.281 0
0    0    0

-37.5134 88397 0
88397 87.0134 0
0    0    0

145.256 86734.7 0
86734.7 -107.385 0
0    0    0

79.5535 87395.9 0
87395.9 185.625 0
0    0    0

163.187 86361.1 0
86361.1 118.38 0
0    0    0

33.8214 85947.1 0
85947.1 78.9165 0
0    0    0

228.48 86251.6 0
86251.6 10.5183 0
0    0    0

80.5002 86347.9 0
86347.9 324.757 0
0    0    0

55.274 86466 0
86466 128.973 0
0    0    0

-193.413 86543.7 0
86543.7 11.956 0
0    0    0

287.893 87005.1 0
87005.1 136.441 0
0    0    0

-319.287 87257.1 0
87257.1 -97.4646 0
0    0    0

77.48 87447.1 0
87447.1 41.4035 0
0    0    0

-272.225 87086.9 0
87086.9 -288.786 0
0    0    0

280.151 83100.6 0
83100.6 232.873 0
0    0    0

222.308 83760.8 0
83760.8 214.565 0
0    0    0

115 83999.7 0
83999.7 102.283 0
0    0    0

-97.4162 85914.8 0
85914.8 -316.38 0
0    0    0

-55.6806 85072.5 0
85072.5 -104.592 0
0    0    0

-40.6457 85374.6 0
85374.6 -218.943 0
0    0    0

-134.551 86674.9 0
86674.9 -396.722 0
0    0    0

-131.826 86057.6 0
86057.6 -235.474 0
0    0    0

98.3432 85579.6 0
85579.6 377.283 0
0    0    0

-161.26 86342.5 0
86342.5 -285.178 0
0    0    0

-272.57 87151.9 0
87151.9 -268.737 0
0    0    0

151.376 87578.8 0
87578.8 349.955 0
0    0    0

59.5367 87302.3 0
87302.3 -119.163 0
0    0    0

-101.534 87527.3 0
87527.3 -142.115 0
0    0    0

-46.9446 87696 0
87696 -395.519 0
0    0    0

-114.344 88317.5 0
88317.5 -200.471 0
0    0    0

-66.2037 86403.5 0
86403.5 -61.3404 0
0    0    0

110.489 86957.3 0
86957.3 121.915 0
0    0    0

195.315 85159.5 0
85159.5 47.5238 0
0    0    0

271.213 86154.5 0
86154.5 361.201 0
0    0    0

20.4044 84720.8 0
84720.8 186.701 0
0    0    0

-233.131 85240.4 0
85240.4 66.5169 0
0    0    0

177.633 86896.5 0
86896.5 320.226 0
0    0    0

-109.38 86793.6 0
86793.6 -58.2802 0
0    0    0

-114.526 87935.8 0
87935.8 -29.9278 0
0    0    0

222.47 87368 0
87368 442.722 0
0    0    0

31.2453 87302.9 0
87302.9 190.695 0
0    0    0

-181.879 88135 0
88135 -127.807 0
0    0    0

13.9363 89603.7 0
89603.7 28.7309 0
0    0    0

-49.985 87203.8 0
87203.8 -136.405 0
0    0    0

-113.396 88599.1 0
88599.1 -322.756 0
0    0    0

52.9089 86136.7 0
86136.7 -15.1042 0
0    0    0

-14.1754 86588.3 0
86588.3 156.65 0
0    0    0

-33.4702 85471.6 0
85471.6 -209.693 0
0    0    0

265.957 85439.5 0
85439.5 466.949 0
0    0    0

68.2081 85187.2 0
85187.2 323.812 0
0    0    0

67.8663 87693.7 0
87693.7 213.508 0
0    0    0

133.937 86329.1 0
86329.1 364.039 0
0    0    0

75.9247 85607.5 0
85607.5 123.952 0
0    0    0

-225.528 89627.9 0
89627.9 43.871 0
0    0    0

39.1855 87989.9 0
87989.9 209.927 0
0    0    0

56.7574 87505 0
87505 -224.098 0
0    0    0

1.56187 86906.4 0
86906.4 -298.657 0
0    0    0

73.7299 87435.7 0
87435.7 358.745 0
0    0    0

265.33 86836.2 0
86836.2 451.126 0
0    0    0

-16.149 89282.2 0
89282.2 -6.92101 0
0    0    0

50.4644 88566.5 0
88566.5 257.248 0
0    0    0

-34.8226 89177.9 0
89177.9 113.465 0
0    0    0

70.8862 88355.4 0
88355.4 -149.789 0
0    0    0

16.4778 85622 0
85622 -99.4035 0
0    0    0

-130.413 85161 0
85161 -336.924 0
0    0    0

18.6277 85953.1 0
85953.1 183.611 0
0    0    0

76.1163 85970.4 0
85970.4 337.847 0
0    0    0

-69.6932 84483.3 0
84483.3 112.185 0
0    0    0

-232.139 84058.2 0
84058.2 -269.714 0
0    0    0

169.336 89705.5 0
89705.5 383.264 0
0    0    0

344.162 89009.9 0
89009.9 170.363 0
0    0    0

102.771 90018.1 0
90018.1 -208.924 0
0    0    0

-306.905 89198.2 0
89198.2 -142.447 0
0    0    0

-176.939 88799.4 0
88799.4 -301.483 0
0    0    0

-241.932 89327.2 0
89327.2 -165.161 0
0    0    0

69.6028 88475.6 0
88475.6 347.863 0
0    0    0

-106.384 89443.4 0
89443.4 -82.2197 0
0    0    0

-170.817 89855.7 0
89855.7 139.071 0
0    0    0

-180.37 89093.8 0
89093.8 -312.231 0
0    0    0

160.154 89037.4 0
89037.4 200.804 0
0    0    0

194.385 89568.7 0
89568.7 267.04 0
0    0    0

242.644 89506.2 0
89506.2 88.9328 0
0    0    0

-153.235 90619.5 0
90619.5 -75.171 0
0    0    0

-104.17 89752.3 0
89752.3 -292.154 0
0    0    0

192.718 90579.2 0
90579.2 242.552 0
0    0    0

-54.7302 91026.6 0
91026.6 -207.231 0
0    0    0

-2.80582 90679.2 0
90679.2 182.585 0
0    0    0

-276.302 90470.4 0
90470.4 -308.514 0
0    0    0

-93.9707 90274.6 0
90274.6 137.274 0
0    0    0

-68.8135 91238.1 0
91238.1 -298.145 0
0    0    0

-19.909 89539.3 0
89539.3 201.991 0
0    0    0

161.519 90035.9 0
90035.9 170.407 0
0    0    0

52.5642 89262.2 0
89262.2 -179.675 0
0    0    0

57.4781 89021.9 0
89021.9 303.555 0
0    0    0

-99.0994 91192.5 0
91192.5 -15.821 0
0    0    0

15.6858 90943.8 0
90943.8 177.282 0
0    0    0

-76.1477 89365 0
89365 -273.119 0
0    0    0

174.462 90708.3 0
90708.3 331.061 0
0    0    0

-251.142 90878.9 0
90878.9 -300.242 0
0    0    0

61.8859 89539.4 0
89539.4 239.692 0
0    0    0

-18.6449 90876.3 0
90876.3 -235.77 0
0    0    0

230.863 91076 0
91076 195.759 0
0    0    0

44.7329 91505 0
91505 -119.284 0
0    0    0

108.414 92069 0
92069 46.4631 0
0    0    0

-99.6592 91971.1 0
91971.1 33.9507 0
0    0    0

28.4006 92379.8 0
92379.8 450.77 0
0    0    0

187.861 91785.8 0
91785.8 80.5118 0
0    0    0

150.802 90051.8 0
90051.8 -165.909 0
0    0    0

18.9277 90548 0
90548 -12.8287 0
0    0    0

-261.712 89988.3 0
89988.3 -442.718 0
0    0    0

-148.893 86491.9 0
86491.9 -396.902 0
0    0    0

-26.1185 86745.6 0
86745.6 82.5505 0
0    0    0

-177.364 52241.4 0
52241.4 -454.142 0
0    0    0

-63.9793 52463.7 0
52463.7 -214.202 0
0    0    0

-244.764 53880.2 0
53880.2 -634.355 0
0    0    0

-69.9651 54144.4 0
54144.4 -214.239 0
0    0    0

169.031 55557.5 0
55557.5 -237.197 0
0    0    0

-111.211 55956.3 0
55956.3 179.09 0
0    0    0

63.4115 55972 0
55972 253.057 0
0    0    0

117.861 56250.8 0
56250.8 -112.132 0
0    0    0

-34.2834 56295.1 0
56295.1 -272.716 0
0    0    0

-107.564 55750.9 0
55750.9 -262.626 0
0    0    0

-45.6301 55716.5 0
55716.5 -128.834 0
0    0    0

46.2804 54996 0
54996 1.49538 0
0    0    0

28.0246 55574 0
55574 176.187 0
0    0    0

-104.455 55766.5 0
55766.5 -268.016 0
0    0    0

31.7514 55191 0
55191 -59.0603 0
0    0    0

78.0956 54302.2 0
54302.2 -12.4478 0
0    0    0

-208.274 54644.3 0
54644.3 -94.4907 0
0    0    0

60.7182 54533.5 0
54533.5 -331.397 0
0    0    0

-36.5841 54576.8 0
54576.8 -365.568 0
0    0    0

171.13 54762.6 0
54762.6 174.641 0
0    0    0

-123.344 54137.4 0
54137.4 -319.457 0
0    0    0

-73.9168 54410.5 0
54410.5 -53.4389 0
0    0    0

173.97 63121.5 0
63121.5 207.059 0
0    0    0

186.153 63829.5 0
63829.5 149.227 0
0    0    0

189.377 62563.5 0
62563.5 210.194 0
0    0    0

131.747 63250.7 0
63250.7 27.7346 0
0    0    0

-166.967 62386.8 0
62386.8 -67.8343 0
0    0    0

158.37 62746.9 0
62746.9 -145.479 0
0    0    0

100.752 63532.7 0
63532.7 23.6801 0
0    0    0

-199.766 63173.1 0
63173.1 -51.2061 0
0    0    0

-76.3111 66673.7 0
66673.7 -275.387 0
0    0    0

-164.148 67489.6 0
67489.6 -178.763 0
0    0    0

-292.04 68045 0
68045 -108.446 0
0    0    0

-209.129 69163.9 0
69163.9 -277.782 0
0    0    0

-56.2649 66843.8 0
66843.8 116.047 0
0    0    0

45.3591 66238.2 0
66238.2 -8.58812 0
0    0    0

-121.004 67208.8 0
67208.8 -464.448 0
0    0    0

347.86 66996.6 0
66996.6 329.649 0
0    0    0

-202.802 67781.1 0
67781.1 -431.465 0
0    0    0

233.769 68071.5 0
68071.5 258.894 0
0    0    0

81.8238 66916 0
66916 -104.888 0
0    0    0

-246.782 65809.1 0
65809.1 -599.05 0
0    0    0

-296.217 67326.1 0
67326.1 -93.6313 0
0    0    0

-59.9997 66521.1 0
66521.1 165.437 0
0    0    0

211.66 67537.8 0
67537.8 373.768 0
0    0    0

151.939 67272.2 0
67272.2 342.304 0
0    0    0

31.4248 65037 0
65037 -209.787 0
0    0    0

39.1523 65563.2 0
65563.2 -100.64 0
0    0    0

-141.284 63908.8 0
63908.8 -134.118 0
0    0    0

-261.661 66265.2 0
66265.2 -63.1475 0
0    0    0

-11.397 64256.9 0
64256.9 33.9135 0
0    0    0

0.755918 64844.8 0
64844.8 -260.249 0
0    0    0

-127.427 65724.9 0
65724.9 -329.87 0
0    0    0

-14.9735 65173 0
65173 150.919 0
0    0    0

17.7364 68213.8 0
68213.8 113.045 0
0    0    0

-204.738 66026.6 0
66026.6 -251.836 0
0    0    0

104.305 65493.4 0
65493.4 234.786 0
0    0    0

209.929 65882.6 0
65882.6 104.14 0
0    0    0

187.363 63093 0
63093 272.037 0
0    0    0

322.361 63773.6 0
63773.6 633.394 0
0    0    0

-42.9801 63831.8 0
63831.8 102.966 0
0    0    0

-36.0427 64020.2 0
64020.2 -199.536 0
0    0    0

-74.343 66413.7 0
66413.7 138.285 0
0    0    0

16.1594 65690.8 0
65690.8 -188.584 0
0    0    0

-43.4965 64510.7 0
64510.7 53.8116 0
0    0    0

-350.424 64881.1 0
64881.1 -153.565 0
0    0    0

141.942 64097.3 0
64097.3 -7.48612 0
0    0    0

299.423 63807.7 0
63807.7 68.6719 0
0    0    0

209.128 63974.8 0
63974.8 371.793 0
0    0    0

206.639 62980 0
62980 1.43107 0
0    0    0

-273.32 62744.5 0
62744.5 -20.9148 0
0    0    0

-62.4479 62868.6 0
62868.6 -32.1956 0
0    0    0

-25.9297 61874.2 0
61874.2 117.072 0
0    0    0

244.074 62188.7 0
62188.7 100.084 0
0    0    0

263.925 64456.4 0
64456.4 238.731 0
0    0    0

-132.17 64365.2 0
64365.2 -89.1651 0
0    0    0

-214.04 63867.4 0
63867.4 -317.068 0
0    0    0

-38.0056 62128.6 0
62128.6 121.953 0
0    0    0

-230.177 62518.6 0
62518.6 -59.4071 0
0    0    0

250.426 63356.6 0
63356.6 471.273 0
0    0    0

205.299 62273.4 0
62273.4 37.6119 0
0    0    0

-186.114 63148.8 0
63148.8 -233.95 0
0    0    0

-157.113 62110.4 0
62110.4 -457.608 0
0    0    0

-375.236 61490.3 0
61490.3 -485.631 0
0    0    0

99.659 62491.6 0
62491.6 31.4588 0
0    0    0

-17.952 62310.1 0
62310.1 112.778 0
0    0    0

-130.233 63195.5 0
63195.5 -274.996 0
0    0    0

-211.234 62654.9 0
62654.9 -140.293 0
0    0    0

-49.0262 63065.9 0
63065.9 -298.692 0
0    0    0

180.976 62918.8 0
62918.8 204.287 0
0    0    0

251.69 61346.8 0
61346.8 348.771 0
0    0    0

-200.907 63208 0
63208 -312.05 0
0    0    0

265.365 61765.4 0
61765.4 266.106 0
0    0    0

-22.1914 62534.2 0
62534.2 -195.642 0
0    0    0

283.076 61356.8 0
61356.8 -30.8909 0
0    0    0

-317.05 61761 0
61761 -155.773 0
0    0    0

278.345 61241.7 0
61241.7 213.649 0
0    0    0

59.9011 62116.5 0
62116.5 -293.576 0
0    0    0

-155.754 62994.4 0
62994.4 -142.11 0
0    0    0

-19.3867 62380.7 0
62380.7 -49.2001 0
0    0    0

129.166 62582.9 0
62582.9 79.2619 0
0    0    0

-26.9705 62120 0
62120 -96.0293 0
0    0    0

7.17278 64035.3 0
64035.3 -141.429 0
0    0    0

49.4168 63442.9 0
63442.9 207.076 0
0    0    0

218.143 62836.9 0
62836.9 154.344 0
0    0    0

-121.027 63266 0
63266 123.911 0
0    0    0

115.414 63487.8 0
63487.8 238.655 0
0    0    0

101.187 63234.1 0
63234.1 -36.6111 0
0    0    0

-146.588 63651.8 0
63651.8 -261.132 0
0    0    0

-173.424 63617.7 0
63617.7 -105.242 0
0    0    0

17.6659 63418.3 0
63418.3 -183.523 0
0    0    0

-263.258 63082.4 0
63082.4 -291.156 0
0    0    0

53.5306 63843.4 0
63843.4 248.26 0
0    0    0

-159.914 64120.4 0
64120.4 173.863 0
0    0    0

-270.152 64363.9 0
64363.9 -30.2645 0
0    0    0

119.267 63672.7 0
63672.7 226.119 0
0    0    0

229.861 64704.3 0
64704.3 236.222 0
0    0    0

57.5309 65092.5 0
65092.5 311.353 0
0    0    0

-114.59 63622 0
63622 49.9077 0
0    0    0

130.823 62872.9 0
62872.9 122.653 0
0    0    0

144.902 62597.3 0
62597.3 -129.762 0
0    0    0

251.085 62757 0
62757 225.879 0
0    0    0

102.955 63334.5 0
63334.5 274.789 0
0    0    0

235.356 63820.7 0
63820.7 238.265 0
0    0    0

335.238 63821.3 0
63821.3 237.235 0
0    0    0

-359.145 64180 0
64180 -212.887 0
0    0    0

92.2566 56770.2 0
56770.2 129.785 0
0    0    0

25.0575 57878 0
57878 -162.556 0
0    0    0

-213.757 56196.3 0
56196.3 -316.098 0
0    0    0

341.765 56499.3 0
56499.3 288.435 0
0    0    0

228.271 55791.2 0
55791.2 265.786 0
0    0    0

108.606 56386.3 0
56386.3 247.313 0
0    0    0

328.666 57018.8 0
57018.8 233.181 0
0    0    0

-444.927 56850.8 0
56850.8 -227.45 0
0    0    0

139.402 53824.6 0
53824.6 416.618 0
0    0    0

270.541 54818.1 0
54818.1 257.08 0
0    0    0

-368.353 54476.2 0
54476.2 -92.2983 0
0    0    0

-251.324 55895.8 0
55895.8 -157.802 0
0    0    0

-100.607 53204.4 0
53204.4 9.47443 0
0    0    0

-225.883 53547.9 0
53547.9 -138.859 0
0    0    0

-148.108 53582 0
53582 -113.844 0
0    0    0

-177.867 54216.3 0
54216.3 50.6032 0
0    0    0

-21.9613 53276.9 0
53276.9 117.755 0
0    0    0

108.659 54093.4 0
54093.4 -59.3866 0
0    0    0

-122.152 53641.2 0
53641.2 206.402 0
0    0    0

243.362 53730 0
53730 159.515 0
0    0    0

-266.2 54129.9 0
54129.9 -360.766 0
0    0    0

14.866 54644.3 0
54644.3 83.5701 0
0    0    0

-370.48 53421.4 0
53421.4 -284.172 0
0    0    0

-237.862 53355.3 0
53355.3 -325.187 0
0    0    0

-413.761 55162 0
55162 -243.535 0
0    0    0

-253.07 55623.1 0
55623.1 -219.92 0
0    0    0

-221.072 52886.6 0
52886.6 100.456 0
0    0    0

201.539 54057.3 0
54057.3 334.041 0
0    0    0

71.7197 53029.1 0
53029.1 126.447 0
0    0    0

373.232 53729.6 0
53729.6 352.037 0
0    0    0

83.6928 54713.5 0
54713.5 -43.338 0
0    0    0

107.318 55723.6 0
55723.6 117.674 0
0    0    0

251.767 54315.3 0
54315.3 65.9012 0
0    0    0

143.543 55117 0
55117 152.475 0
0    0    0

170.993 46016.3 0
46016.3 403.552 0
0    0    0

392.842 45596 0
45596 89.9189 0
0    0    0

-287.982 46233.4 0
46233.4 -587.745 0
0    0    0

-200.33 45891 0
45891 99.922 0
0    0    0

98.509 43490.9 0
43490.9 -33.0968 0
0    0    0

20.7653 44229.9 0
44229.9 210.72 0
0    0    0

-290.413 45620 0
45620 -538.068 0
0    0    0

-96.6363 45656.7 0
45656.7 -16.64 0
0    0    0

-134.687 49900.4 0
49900.4 -286.254 0
0    0    0

165.061 50725.5 0
50725.5 47.6965 0
0    0    0

-275.13 51873.8 0
51873.8 -219.459 0
0    0    0

84.515 50267.7 0
50267.7 328.084 0
0    0    0

215.49 53044.6 0
53044.6 80.4488 0
0    0    0

66.4709 48498.7 0
48498.7 -211.632 0
0    0    0

-155.076 50530.9 0
50530.9 -53.7196 0
0    0    0

-141.436 49424 0
49424 216.858 0
0    0    0

16.5861 49604.8 0
49604.8 -196.421 0
0    0    0

-126.589 50507.8 0
50507.8 -309.499 0
0    0    0

214.957 49658.2 0
49658.2 269.157 0
0    0    0

74.726 49824.5 0
49824.5 -401.218 0
0    0    0

-242.83 50328.5 0
50328.5 -182.382 0
0    0    0

-82.0141 49676.1 0
49676.1 -42.2827 0
0    0    0

-10.2225 49805.9 0
49805.9 -303.017 0
0    0    0

60.0575 50754.3 0
50754.3 248.296 0
0    0    0

-6.69044 50510.4 0
50510.4 -244.644 0
0    0    0

-64.7728 50652.4 0
50652.4 108.003 0
0    0    0

-199.259 51638.2 0
51638.2 -344.008 0
0    0    0

162.021 51845.6 0
51845.6 111.856 0
0    0    0

79.3598 50127.4 0
50127.4 257.292 0
0    0    0

-63.455 51347.3 0
51347.3 -256.658 0
0    0    0

149.542 49477.6 0
49477.6 327.92 0
0    0    0

-47.1293 50623.7 0
50623.7 -109.968 0
0    0    0

51.2193 48792.8 0
48792.8 189.038 0
0    0    0

25.0477 49169.8 0
49169.8 58.4446 0
0    0    0

51.6202 52280.9 0
52280.9 -247.456 0
0    0    0

221.433 49499.4 0
49499.4 444.053 0
0    0    0

-74.1888 50162.3 0
50162.3 -173.107 0
0    0    0

38.3736 50950.9 0
50950.9 -99.6399 0
0    0    0

-196.408 49269.4 0
49269.4 -249.651 0
0    0    0

38.2089 49638.6 0
49638.6 89.1542 0
0    0    0

148.393 49952.1 0
49952.1 131.746 0
0    0    0

-60.2526 50747.5 0
50747.5 -238.667 0
0    0    0

91.112 51267.2 0
51267.2 292.321 0
0    0    0

163.142 52368.1 0
52368.1 -95.9904 0
0    0    0

29.8274 51086.6 0
51086.6 171.539 0
0    0    0

-140.337 51304.5 0
51304.5 68.2787 0
0    0    0

-18.7477 52752.9 0
52752.9 44.4909 0
0    0    0

-345.086 54517.9 0
54517.9 -174.985 0
0    0    0

115.954 50993.8 0
50993.8 -58.0647 0
0    0    0

217.041 52853.1 0
52853.1 317.931 0
0    0    0

63.433 51539.6 0
51539.6 223.764 0
0    0    0

-125.972 52302.6 0
52302.6 -266.761 0
0    0    0

1.53667 52767.6 0
52767.6 124.076 0
0    0    0

13.4477 51196.4 0
51196.4 -274.653 0
0    0    0

69.1158 52031 0
52031 249.555 0
0    0    0

60.454 51787.3 0
51787.3 -146.091 0
0    0    0

5.63128 52010.3 0
52010.3 38.1775 0
0    0    0

-101.931 51789.3 0
51789.3 148.462 0
0    0    0

87.1684 51967.3 0
51967.3 11.4704 0
0    0    0

-138.8 50858.9 0
50858.9 106.462 0
0    0    0

106.881 51576.6 0
51576.6 -129.579 0
0    0    0

130.786 51648.4 0
51648.4 179.037 0
0    0    0

-41.0903 51397.1 0
51397.1 38.8601 0
0    0    0

147.06 53097.4 0
53097.4 146.43 0
0    0    0

-86.9743 51034.5 0
51034.5 -202.94 0
0    0    0

-63.5971 52394.4 0
52394.4 105.158 0
0    0    0

-134.963 53230.6 0
53230.6 81.2877 0
0    0    0

230.462 53416.1 0
53416.1 252.812 0
0    0    0

358.298 52521.9 0
52521.9 -19.764 0
0    0    0

-77.7752 52014.3 0
52014.3 7.51133 0
0    0    0

-33.8745 51427.7 0
51427.7 -188.615 0
0    0    0

-98.391 51487.9 0
51487.9 -229.579 0
0    0    0

213.731 53776.9 0
53776.9 236.651 0
0    0    0

-40.9023 51974.8 0
51974.8 -95.4387 0
0    0    0

156.262 53761.5 0
53761.5 193.891 0
0    0    0

79.4271 52463 0
52463 53.1345 0
0    0    0

261.481 53088.8 0
53088.8 230.964 0
0    0    0

-32.4676 52421.2 0
52421.2 -75.7578 0
0    0    0

-383.471 52718.8 0
52718.8 -246.385 0
0    0    0

-70.6242 51054.6 0
51054.6 269.394 0
0    0    0

184.447 51806.3 0
51806.3 124.537 0
0    0    0

63.8376 28891.7 0
28891.7 -159.302 0
0    0    0

-146.869 28511.4 0
28511.4 -216.664 0
0    0    0

-189.711 28383.7 0
28383.7 -10.913 0
0    0    0

84.8168 27560.2 0
27560.2 43.19 0
0    0    0

-19.2172 26747.6 0
26747.6 207.205 0
0    0    0

-3.97593 26720.8 0
26720.8 316.321 0
0    0    0

-142.593 2590.24 0
2590.24 -247.696 0
0    0    0

82.5217 2357.14 0
2357.14 344.404 0
0    0    0

-23.2468 1354.21 0
1354.21 -9.9629 0
0    0    0

-15.2879 4043.05 0
4043.05 125.228 0
0    0    0

-68.4043 369.559 0
369.559 -159.61 0
0    0    0

-205.174 1478.16 0
1478.16 -170.258 0
0    0    0

212.792 1715.19 0
1715.19 237.269 0
0    0    0

-76.1066 1804.05 0
1804.05 -177.582 0
0    0    0

-182.329 2698.76 0
2698.76 -425.434 0
0    0    0

-48.3897 2350.04 0
2350.04 220.022 0
0    0    0

-71.1205 3202.73 0
3202.73 -165.948 0
0    0    0

-45.8958 2272.8 0
2272.8 -107.09 0
0    0    0

125.83 2713.51 0
2713.51 279.01 0
0    0    0

195.341 2565.88 0
2565.88 136.775 0
0    0    0

-171.617 2743.34 0
2743.34 -267.446 0
0    0    0

134.782 1592.56 0
1592.56 215.979 0
0    0    0

-18.4954 1107.15 0
1107.15 129.95 0
0    0    0

31.4767 76469.3 0
76469.3 184.636 0
0    0    0

76.7645 1354.64 0
1354.64 179.117 0
0    0    0

172.684 76427.2 0
76427.2 346.557 0
0    0    0

-130.079 74522.1 0
74522.1 -220.279 0
0    0    0

-85.2086 74778.1 0
74778.1 30.3521 0
0    0    0

43.7784 75750.8 0
75750.8 -152.061 0
0    0    0

-148.961 75069.2 0
75069.2 -243.295 0
0    0    0

-137.289 76023.1 0
76023.1 161.637 0
0    0    0

75.7036 75897.5 0
75897.5 -239.884 0
0    0    0

-18.6728 75768.8 0
75768.8 146.106 0
0    0    0

-60.5092 75290.5 0
75290.5 68.7607 0
0    0    0

-154.872 74040.2 0
74040.2 -85.6325 0
0    0    0

-15.0011 74508.4 0
74508.4 32.2434 0
0    0    0

-259.843 76265.8 0
76265.8 19.9939 0
0    0    0

-213.246 76851.2 0
76851.2 -21.2682 0
0    0    0

107.327 71644.7 0
71644.7 213.012 0
0    0    0

-62.6147 74985.3 0
74985.3 -261.226 0
0    0    0

-164.484 78475.2 0
78475.2 -151.033 0
0    0    0

177.497 77961.4 0
77961.4 97.1935 0
0    0    0

-274.74 77734 0
77734 -96.0793 0
0    0    0

-299.973 78149.6 0
78149.6 -226.649 0
0    0    0

-187.797 77964.7 0
77964.7 -226.161 0
0    0    0

-185.311 75672.4 0
75672.4 -310.876 0
0    0    0

19.0129 77409.3 0
77409.3 28.0161 0
0    0    0

257.302 77770.3 0
77770.3 379.527 0
0    0    0

61.7187 76827.7 0
76827.7 -14.5834 0
0    0    0

-31.4359 76245.6 0
76245.6 -131.087 0
0    0    0

240.622 75879.1 0
75879.1 115.451 0
0    0    0

165.289 76541.8 0
76541.8 -26.3567 0
0    0    0

-34.4385 75903.3 0
75903.3 222.906 0
0    0    0

138.327 75103.6 0
75103.6 25.285 0
0    0    0

-198.636 75538 0
75538 -393.422 0
0    0    0

276.011 75219.6 0
75219.6 369.077 0
0    0    0

-220.759 77744 0
77744 -13.4135 0
0    0    0

223.774 79392.1 0
79392.1 238.608 0
0    0    0

-215.841 78206.4 0
78206.4 -310.662 0
0    0    0

-345.952 77523.3 0
77523.3 -505.41 0
0    0    0

227.058 77775 0
77775 281.637 0
0    0    0

-86.4403 81897.2 0
81897.2 172.982 0
0    0    0

-24.2708 80800.7 0
80800.7 25.2827 0
0    0    0

-257.487 80232.7 0
80232.7 -184.494 0
0    0    0

191.246 80138.1 0
80138.1 238.623 0
0    0    0

224.251 79072.1 0
79072.1 -36.8712 0
0    0    0

142.323 79984.6 0
79984.6 194.744 0
0    0    0

-182.586 80393.6 0
80393.6 -187.731 0
0    0    0

-164.22 80847.9 0
80847.9 -245.045 0
0    0    0

179.496 80538.1 0
80538.1 172.853 0
0    0    0

108.369 81063.9 0
81063.9 390.203 0
0    0    0

116.58 79822.7 0
79822.7 -19.6263 0
0    0    0

-108.679 79826.6 0
79826.6 -292.929 0
0    0    0

-22.1994 83269.9 0
83269.9 -58.6103 0
0    0    0

16.5387 83973.9 0
83973.9 7.08801 0
0    0    0

-113.87 83573.9 0
83573.9 13.8549 0
0    0    0

-110.079 83370.4 0
83370.4 -64.1538 0
0    0    0

-20.0399 83941.7 0
83941.7 -121.208 0
0    0    0

-35.8378 82997.8 0
82997.8 -62.2011 0
0    0    0

116.843 82753.1 0
82753.1 -90.2734 0
0    0    0

-212.299 84133.1 0
84133.1 41.2137 0
0    0    0

222.592 83976.8 0
83976.8 213.946 0
0    0    0

-152.933 85112.3 0
85112.3 -213.156 0
0    0    0

65.0024 84286.4 0
84286.4 27.8582 0
0    0    0

-358.955 82696.9 0
82696.9 -151 0
0    0    0

-176.274 84362 0
84362 -65.3714 0
0    0    0

32.3677 83587.8 0
83587.8 -112.726 0
0    0    0

181.759 84594.2 0
84594.2 77.8967 0
0    0    0

-212.053 84771.5 0
84771.5 -84.5425 0
0    0    0

-174.89 83688.4 0
83688.4 -326.256 0
0    0    0

162.965 82250.2 0
82250.2 179.285 0
0    0    0

-113.899 82330.4 0
82330.4 -152.722 0
0    0    0

-93.9862 81016.7 0
81016.7 168.132 0
0    0    0

-0.648592 81621.9 0
81621.9 -84.4411 0
0    0    0

125.951 81467.2 0
81467.2 186.4 0
0    0    0

-511.845 81868.3 0
81868.3 -324.694 0
0    0    0

184.507 81474.8 0
81474.8 125.391 0
0    0    0

-65.5641 89040.1 0
89040.1 -258.708 0
0    0    0

-212.786 89617.2 0
89617.2 -237.268 0
0    0    0

197.088 88518.8 0
88518.8 11.747 0
0    0    0

124.407 89290.1 0
89290.1 -8.6722 0
0    0    0

-209.583 88308.9 0
88308.9 -100.417 0
0    0    0

120.031 88803.5 0
88803.5 284.71 0
0    0    0

105.649 88694.6 0
88694.6 69.8257 0
0    0    0

22.6103 89699.5 0
89699.5 -117.975 0
0    0    0

-124.651 89233.7 0
89233.7 -41.1171 0
0    0    0

-226.109 89598.8 0
89598.8 -208.784 0
0    0    0

98.3926 88793.7 0
88793.7 127.683 0
0    0    0

-174.4 88218 0
88218 -306.477 0
0    0    0

224.447 88064.7 0
88064.7 199.402 0
0    0    0

-158.889 88968.4 0
88968.4 15.4329 0
0    0    0

135.554 88683.5 0
88683.5 95.9956 0
0    0    0

171.17 88690.3 0
88690.3 275.036 0
0    0    0

74.2023 91849.2 0
91849.2 -251.429 0
0    0    0

274.566 92481.9 0
92481.9 546.817 0
0    0    0

130.896 93227.5 0
93227.5 50.4853 0
0    0    0

-136.807 93636.4 0
93636.4 12.2005 0
0    0    0

-98.2463 92824.3 0
92824.3 -475.709 0
0    0    0

-198.981 93077.3 0
93077.3 -133.855 0
0    0    0

313.584 89831.9 0
89831.9 217.003 0
0    0    0

-326.465 90022.4 0
90022.4 -84.4552 0
0    0    0

125.163 92000.6 0
92000.6 -83.49 0
0    0    0

-132.833 92305.9 0
92305.9 -51.9056 0
0    0    0

197.397 91997.8 0
91997.8 188.124 0
0    0    0

199.716 93305.4 0
93305.4 203.382 0
0    0    0

76.1696 92600.4 0
92600.4 150.687 0
0    0    0

-68.201 92944.1 0
92944.1 -275.393 0
0    0    0

128.404 91934.5 0
91934.5 173.082 0
0    0    0

-349.618 91531.9 0
91531.9 -142.091 0
0    0    0

-100.943 94161.6 0
94161.6 202.763 0
0    0    0

-273.695 91472.3 0
91472.3 -261.443 0
0    0    0

26.7476 92867.6 0
92867.6 -193.149 0
0    0    0

-291.295 92161.9 0
92161.9 -180.398 0
0    0    0

-194.696 90889.9 0
90889.9 -218.261 0
0    0    0

-12.2045 91079.2 0
91079.2 229.084 0
0    0    0

-114.994 92462.2 0
92462.2 51.607 0
0    0    0

-120.061 90494.9 0
90494.9 -11.4193 0
0    0    0

-97.1346 90841 0
90841 -90.6006 0
0    0    0

-190.41 91059.8 0
91059.8 30.6563 0
0    0    0

379.153 91717.9 0
91717.9 247.367 0
0    0    0

111.491 91448.8 0
91448.8 -170.926 0
0    0    0

121.688 92058.8 0
92058.8 -95.481 0
0    0    0

141.115 91210.4 0
91210.4 255.243 0
0    0    0

243.41 91794.5 0
91794.5 -21.7208 0
0    0    0

-31.0345 92297.5 0
92297.5 -255.843 0
0    0    0

-40.8333 89513.7 0
89513.7 -319.78 0
0    0    0

-103.794 88067.1 0
88067.1 -133.545 0
0    0    0

-34.681 88716.4 0
88716.4 131.36 0
0    0    0

-187.578 89143.2 0
89143.2 -265.144 0
0    0    0

147.484 86737 0
86737 -88.2811 0
0    0    0

-133.732 87241.9 0
87241.9 -4.82976 0
0    0    0

-4.76111 90031 0
90031 -239.049 0
0    0    0

-173.824 89245.6 0
89245.6 4.69302 0
0    0    0

56.0136 89315.9 0
89315.9 130.698 0
0    0    0

13.8318 88405.7 0
88405.7 -66.4168 0
0    0    0

-227.602 89349.5 0
89349.5 -289.059 0
0    0    0

9.56182 88185.3 0
88185.3 180.917 0
0    0    0

133.44 88780.9 0
88780.9 8.70696 0
0    0    0

-42.8513 87913.1 0
87913.1 -218.263 0
0    0    0

72.1464 87993.5 0
87993.5 -53.5044 0
0    0    0

-78.4145 89169.9 0
89169.9 -69.3575 0
0    0    0

234.78 89143.8 0
89143.8 300.292 0
0    0    0

253.882 84143.6 0
84143.6 334.551 0
0    0    0

29.4682 84833 0
84833 -134.79 0
0    0    0

-124.336 83986 0
83986 6.06219 0
0    0    0

-227.361 83866.7 0
83866.7 -70.6078 0
0    0    0

130.137 88326.6 0
88326.6 5.1209 0
0    0    0

-145.531 87880.1 0
87880.1 -273.284 0
0    0    0

-188.081 84232 0
84232 -172.162 0
0    0    0

156.552 85222.4 0
85222.4 -66.4618 0
0    0    0

301.398 84653.3 0
84653.3 260.703 0
0    0    0

215.092 84402.1 0
84402.1 181.567 0
0    0    0

204.876 83621.3 0
83621.3 126.863 0
0    0    0

-156.443 84465 0
84465 -112.301 0
0    0    0

122.534 88302.4 0
88302.4 52.5145 0
0    0    0

114.408 86669.7 0
86669.7 256.98 0
0    0    0

123.781 89773.8 0
89773.8 161.591 0
0    0    0

-356.787 89369.7 0
89369.7 -358.212 0
0    0    0

-145.005 88585.3 0
88585.3 -265.847 0
0    0    0

-59.6419 88801.2 0
88801.2 -143.895 0
0    0    0

-216.264 89969.8 0
89969.8 -329.722 0
0    0    0

243.748 91106.2 0
91106.2 138.049 0
0    0    0

-100.641 89918.9 0
89918.9 -29.6895 0
0    0    0

-179.909 89914.6 0
89914.6 -70.7132 0
0    0    0

59.9152 89229 0
89229 -187.252 0
0    0    0

-179.109 89104 0
89104 -141.744 0
0    0    0

162.785 90227.5 0
90227.5 162.307 0
0    0    0

-194.231 90349.7 0
90349.7 -25.8997 0
0    0    0

192.391 88510.5 0
88510.5 226.37 0
0    0    0

124.949 89836 0
89836 -38.919 0
0    0    0

-44.2418 90006.8 0
90006.8 182.15 0
0    0    0

-186.134 91589.4 0
91589.4 -32.5629 0
0    0    0

66.8623 90272.6 0
90272.6 64.9654 0
0    0    0

47.8219 89867.8 0
89867.8 -108.861 0
0    0    0

167.385 88019.9 0
88019.9 122.144 0
0    0    0

-99.458 89683 0
89683 65.559 0
0    0    0

-149.072 88508.5 0
88508.5 -29.0456 0
0    0    0

162.933 88646.4 0
88646.4 40.317 0
0    0    0

-212.927 88336.7 0
88336.7 -233.978 0
0    0    0

240.721 88035.3 0
88035.3 267.144 0
0    0    0

-189.276 87849.4 0
87849.4 -248.546 0
0    0    0

-83.3957 88143.6 0
88143.6 67.451 0
0    0    0

-57.7687 91098.1 0
91098.1 -345.042 0
0    0    0

-40.839 91184 0
91184 -17.5024 0
0    0    0

105.316 91496.5 0
91496.5 45.1354 0
0    0    0

-178.05 88914 0
88914 -312.813 0
0    0    0

-156.358 89091.2 0
89091.2 -47.9588 0
0    0    0

-100.902 88814.1 0
88814.1 3.95899 0
0    0    0

105.304 88917.2 0
88917.2 28.9467 0
0    0    0

97.1917 90232 0
90232 115.92 0
0    0    0

183.68 89259.3 0
89259.3 179.532 0
0    0    0

28.3783 88866.9 0
88866.9 -160.224 0
0    0    0

-115.16 89450.9 0
89450.9 -48.0272 0
0    0    0

58.6287 89462.5 0
89462.5 -129.111 0
0    0    0

-68.9411 88809 0
88809 211.114 0
0    0    0

-110.691 89534.3 0
89534.3 -305.219 0
0    0    0

94.2686 89250.2 0
89250.2 225.465 0
0    0    0

58.5493 88987.6 0
88987.6 -146.178 0
0    0    0

-19.9048 89845.8 0
89845.8 120.02 0
0    0    0

37.4878 89616.5 0
89616.5 -213.711 0
0    0    0

-11.5493 89227.5 0
89227.5 -199.476 0
0    0    0

-49.8318 90208.6 0
90208.6 51.8537 0
0    0    0

163.979 89890.4 0
89890.4 1.82658 0
0    0    0

-16.2524 90785.6 0
90785.6 5.3869 0
0    0    0

-3.61475 90109.2 0
90109.2 -189.518 0
0    0    0

59.2125 89927.7 0
89927.7 25.3768 0
0    0    0

38.0904 90516.3 0
90516.3 16.3244 0
0    0    0

61.541 90483.8 0
90483.8 227.882 0
0    0    0

20.8179 89898.3 0
89898.3 -75.4561 0
0    0    0

-79.933 90240.2 0
90240.2 -34.257 0
0    0    0

-18.9141 55977.7 0
55977.7 171.276 0
0    0    0

15.8128 91841.3 0
91841.3 -418.304 0
0    0    0

-41.7235 55510.7 0
55510.7 85.5435 0
0    0    0

4.46313 66833.9 0
66833.9 -5.84169 0
0    0    0

-171.79 69409.4 0
69409.4 -425.406 0
0    0    0

150.874 67624.7 0
67624.7 -30.4839 0
0    0    0

29.8273 68353.5 0
68353.5 413.744 0
0    0    0

236.44 68791.4 0
68791.4 384.382 0
0    0    0

249.186 68251.4 0
68251.4 275.872 0
0    0    0

198.775 67977.5 0
67977.5 -91.5131 0
0    0    0

-6.93417 68574.1 0
68574.1 -226.188 0
0    0    0

-170.053 67891.3 0
67891.3 -237.084 0
0    0    0

87.0473 67977.7 0
67977.7 295.291 0
0    0    0

-139.176 69005.8 0
69005.8 34.0167 0
0    0    0

146.757 67453.2 0
67453.2 162.014 0
0    0    0

93.5159 68894.6 0
68894.6 278.782 0
0    0    0

-58.9279 67833.8 0
67833.8 -91.1368 0
0    0    0

137.578 69060.7 0
69060.7 -162.157 0
0    0    0

55.0235 68273.7 0
68273.7 -174.641 0
0    0    0

-73.0593 68327.7 0
68327.7 -294.585 0
0    0    0

-146.164 67133 0
67133 -304.721 0
0    0    0

-103.992 69009.8 0
69009.8 -64.1439 0
0    0    0

-254.479 67812.5 0
67812.5 -268.507 0
0    0    0

-171.627 67556.7 0
67556.7 206.988 0
0    0    0

71.8267 67138.2 0
67138.2 -343.908 0
0    0    0

45.64 68587.4 0
68587.4 -33.7679 0
0    0    0

-216.964 68007.8 0
68007.8 -412.84 0
0    0    0

209.045 66010.2 0
66010.2 161.778 0
0    0    0

208.365 66710.8 0
66710.8 220.404 0
0    0    0

-41.2802 66220.2 0
66220.2 -199.848 0
0    0    0

-266.131 66517.4 0
66517.4 -130.374 0
0    0    0

-175.778 65316.2 0
65316.2 -150.79 0
0    0    0

-171.182 65350.1 0
65350.1 -24.7189 0
0    0    0

160.394 65433.1 0
65433.1 335.381 0
0    0    0

93.1165 65070.1 0
65070.1 295.622 0
0    0    0

58.7653 64760.4 0
64760.4 268.927 0
0    0    0

-18.3043 63914 0
63914 168.97 0
0    0    0

159.633 63687.7 0
63687.7 63.2335 0
0    0    0

1.47456 64605.6 0
64605.6 207.574 0
0    0    0

-75.2801 64323.8 0
64323.8 -201.574 0
0    0    0

-15.4464 64461 0
64461 -267.499 0
0    0    0

179.266 65009.8 0
65009.8 27.9571 0
0    0    0

-138.549 69745.7 0
69745.7 190.603 0
0    0    0

-73.8506 64794 0
64794 -303.403 0
0    0    0

-45.6404 64856.5 0
64856.5 -201.688 0
0    0    0

62.6324 65044.5 0
65044.5 250.754 0
0    0    0

-15.5658 64601.7 0
64601.7 186.995 0
0    0    0

-28.8932 64196.2 0
64196.2 -130.676 0
0    0    0

144.312 64100.6 0
64100.6 -50.1158 0
0    0    0

63.7588 65568.9 0
65568.9 -100.238 0
0    0    0

258.35 66153.1 0
66153.1 138.901 0
0    0    0

-186.838 65688 0
65688 -158.79 0
0    0    0

-214.614 65940.6 0
65940.6 -98.2399 0
0    0    0

-370.845 64159.5 0
64159.5 -174.182 0
0    0    0

31.347 64403.6 0
64403.6 236.606 0
0    0    0

237.37 63755.2 0
63755.2 185.16 0
0    0    0

197.847 63855.5 0
63855.5 254.566 0
0    0    0

31.5679 65003.2 0
65003.2 167.762 0
0    0    0

-206.548 64268.9 0
64268.9 -263.517 0
0    0    0

-49.8086 64739 0
64739 -144.458 0
0    0    0

-45.8086 64678.2 0
64678.2 -292.827 0
0    0    0

151.432 65255.5 0
65255.5 64.1232 0
0    0    0

219.043 64385.9 0
64385.9 53.1407 0
0    0    0

205.497 66538.9 0
66538.9 105.272 0
0    0    0

-52.5085 66829.6 0
66829.6 97.3129 0
0    0    0

221.886 62969 0
62969 176.059 0
0    0    0

226.455 63746.3 0
63746.3 59.0058 0
0    0    0

-44.3276 64237.1 0
64237.1 -88.5715 0
0    0    0

-44.4753 64390.7 0
64390.7 147.862 0
0    0    0

194.017 64609.1 0
64609.1 275.08 0
0    0    0

-132.658 64167.9 0
64167.9 -41.4477 0
0    0    0

-56.5791 63886.1 0
63886.1 217.447 0
0    0    0

-52.3748 64148.4 0
64148.4 -20.7598 0
0    0    0

-339.781 61619.6 0
61619.6 -543.754 0
0    0    0

206.079 61925.9 0
61925.9 278.661 0
0    0    0

169.808 60685.9 0
60685.9 105.895 0
0    0    0

-9.24661 61442.5 0
61442.5 196.972 0
0    0    0

-119.799 60818.9 0
60818.9 -204.971 0
0    0    0

-215.921 61124 0
61124 -42.7065 0
0    0    0

11.4402 61473.4 0
61473.4 22.5686 0
0    0    0

-230.936 60994.7 0
60994.7 -275.643 0
0    0    0

173.18 62611 0
62611 -45.347 0
0    0    0

-222.161 61949.2 0
61949.2 -275.21 0
0    0    0

-27.7525 63363.5 0
63363.5 127.518 0
0    0    0

81.016 63643.2 0
63643.2 -185.335 0
0    0    0

1.515 63061 0
63061 280.247 0
0    0    0

-251.268 64259.3 0
64259.3 -169.861 0
0    0    0

200.834 63388.6 0
63388.6 320.491 0
0    0    0

269.595 64711.5 0
64711.5 317.431 0
0    0    0

51.1406 65502.8 0
65502.8 133.876 0
0    0    0

-251.985 64766.5 0
64766.5 -295.723 0
0    0    0

-153.53 63815.7 0
63815.7 -117.692 0
0    0    0

52.6953 64115.4 0
64115.4 265.567 0
0    0    0

53.7791 63252.6 0
63252.6 -98.8877 0
0    0    0

-43.3808 62991.8 0
62991.8 256.464 0
0    0    0

25.178 63562.3 0
63562.3 -194.828 0
0    0    0

2.62271 63503.8 0
63503.8 -351.475 0
0    0    0

-78.6228 65772.3 0
65772.3 -19.5726 0
0    0    0

-248.627 65700.7 0
65700.7 -274.878 0
0    0    0

100.034 62910.7 0
62910.7 70.417 0
0    0    0

-64.6316 63531 0
63531 19.3256 0
0    0    0

137.171 63294.5 0
63294.5 -156.075 0
0    0    0

37.4321 63899 0
63899 94.8252 0
0    0    0

45.1001 63171.5 0
63171.5 282.633 0
0    0    0

181.628 64897.3 0
64897.3 -86.8105 0
0    0    0

163.399 62685.2 0
62685.2 269.603 0
0    0    0

-144.138 65249.6 0
65249.6 -12.0686 0
0    0    0

-135.149 64943.7 0
64943.7 -179.78 0
0    0    0

246.855 64978.7 0
64978.7 160.189 0
0    0    0

-140.884 64698.6 0
64698.6 -127.24 0
0    0    0

242.767 65375.4 0
65375.4 344.245 0
0    0    0

-104.885 64419.1 0
64419.1 -198.861 0
0    0    0

-62.2145 65621.4 0
65621.4 -210.446 0
0    0    0

-236.413 63910.3 0
63910.3 -87.3709 0
0    0    0

-46.7681 64506.5 0
64506.5 223.192 0
0    0    0

266.505 64265.5 0
64265.5 244.382 0
0    0    0

189.977 65277.7 0
65277.7 338.437 0
0    0    0

-197.389 64029.8 0
64029.8 -170.881 0
0    0    0

93.3337 64242.2 0
64242.2 229.498 0
0    0    0

-15.9799 65271.7 0
65271.7 142.568 0
0    0    0

85.8417 64576.6 0
64576.6 -128.412 0
0    0    0

105.171 65540 0
65540 -163.075 0
0    0    0

-227.12 65156.7 0
65156.7 -130.606 0
0    0    0

15.5998 66509.1 0
66509.1 136.854 0
0    0    0

11.5912 64972 0
64972 -167.899 0
0    0    0

112.38 66244.7 0
66244.7 -40.9629 0
0    0    0

380.817 66100.3 0
66100.3 477.006 0
0    0    0

110.946 66054.7 0
66054.7 385.494 0
0    0    0

166.215 65860.3 0
65860.3 129.586 0
0    0    0

-174.264 65056.9 0
65056.9 -481.736 0
0    0    0

-178.393 64134 0
64134 -280.178 0
0    0    0

117.588 65407.1 0
65407.1 264.084 0
0    0    0

-182.839 65574.8 0
65574.8 -134.031 0
0    0    0

-94.2687 65711.5 0
65711.5 -490.648 0
0    0    0

174.497 66065.1 0
66065.1 256.726 0
0    0    0

-205.55 64462 0
64462 -367.071 0
0    0    0

102.11 64847.5 0
64847.5 346.636 0
0    0    0

-307.577 66332.3 0
66332.3 -116.918 0
0    0    0

98.321 64706.2 0
64706.2 -28.9204 0
0    0    0

144.207 65455.5 0
65455.5 285.942 0
0    0    0

228.346 64827.5 0
64827.5 6.59437 0
0    0    0

78.5525 65910.1 0
65910.1 29.1395 0
0    0    0

-135.629 66119 0
66119 -239.359 0
0    0    0

-75.0532 64712.6 0
64712.6 -203.234 0
0    0    0

35.1065 66021.8 0
66021.8 -15.3047 0
0    0    0

341.995 66042.1 0
66042.1 42.9485 0
0    0    0

161.002 65860.5 0
65860.5 159.129 0
0    0    0

103.205 64487.1 0
64487.1 87.0641 0
0    0    0

-190.064 65058.8 0
65058.8 -123.496 0
0    0    0

-127.182 65007 0
65007 -229.007 0
0    0    0

-21.1317 64916.8 0
64916.8 34.1014 0
0    0    0

49.6951 65326.9 0
65326.9 -72.1091 0
0    0    0

171.8 65059.5 0
65059.5 48.7996 0
0    0    0

-82.3235 66208.3 0
66208.3 115.095 0
0    0    0

-207.978 69752.1 0
69752.1 -35.2715 0
0    0    0

223.462 64070.8 0
64070.8 167.499 0
0    0    0

234.202 65065.1 0
65065.1 223.015 0
0    0    0

-219.529 64890.1 0
64890.1 -195.228 0
0    0    0

-60.3492 64645.8 0
64645.8 133.146 0
0    0    0

56.4774 63679.3 0
63679.3 -149.603 0
0    0    0

-67.9986 64332.8 0
64332.8 -163.204 0
0    0    0

46.8408 66098.9 0
66098.9 -99.2521 0
0    0    0

137.428 69298.3 0
69298.3 -182.012 0
0    0    0

-378.996 66444.6 0
66444.6 -96.0128 0
0    0    0

-199.492 65676.8 0
65676.8 -200.618 0
0    0    0

-215.6 67059.6 0
67059.6 182.772 0
0    0    0

146.643 67553 0
67553 128.627 0
0    0    0

162.983 65728.3 0
65728.3 40.7221 0
0    0    0

-215.757 66984.2 0
66984.2 -289.35 0
0    0    0

297.985 63885.9 0
63885.9 347.253 0
0    0    0

-63.9167 64733.3 0
64733.3 -208.461 0
0    0    0

-26.5226 65208.4 0
65208.4 -160.618 0
0    0    0

-136.857 66278.5 0
66278.5 -407.821 0
0    0    0

-152.856 66130.6 0
66130.6 -44.9604 0
0    0    0

40.532 67411 0
67411 -141.123 0
0    0    0

223.351 67176.8 0
67176.8 223.763 0
0    0    0

22.5473 66804.1 0
66804.1 -130.115 0
0    0    0

166.429 65111 0
65111 165.749 0
0    0    0

69.6035 66038 0
66038 297.473 0
0    0    0

97.2146 68493.6 0
68493.6 369.476 0
0    0    0

359.538 66686.3 0
66686.3 419.932 0
0    0    0

-84.8833 66395 0
66395 -196.772 0
0    0    0

-102.398 66792.2 0
66792.2 123.378 0
0    0    0

208.536 68841.1 0
68841.1 303.583 0
0    0    0

25.6954 68175.4 0
68175.4 -0.662777 0
0    0    0

-168.693 65201.2 0
65201.2 12.5237 0
0    0    0

87.2511 65498.8 0
65498.8 167.999 0
0    0    0

162.15 65494.9 0
65494.9 -23.5178 0
0    0    0

-33.0875 65631 0
65631 -19.5829 0
0    0    0

86.6914 64952.8 0
64952.8 295.992 0
0    0    0

-7.81173 65447.2 0
65447.2 -84.9925 0
0    0    0

176.361 64320.6 0
64320.6 54.2789 0
0    0    0

-160.243 64944.2 0
64944.2 -30.9123 0
0    0    0

-185.727 67694 0
67694 -121.929 0
0    0    0

177.441 67665.6 0
67665.6 -150.724 0
0    0    0

-129.888 65297.5 0
65297.5 -151.753 0
0    0    0

-168.157 64789.4 0
64789.4 -63.5423 0
0    0    0

-52.7401 65897.3 0
65897.3 120.2 0
0    0    0

-192.733 66836 0
66836 -14.8364 0
0    0    0

-119.727 66279.2 0
66279.2 89.1601 0
0    0    0

7.67525 65937.5 0
65937.5 -72.391 0
0    0    0

151.893 66581.6 0
66581.6 383.097 0
0    0    0

230.079 66341.8 0
66341.8 136.336 0
0    0    0

-160.76 66588.1 0
66588.1 -267.667 0
0    0    0

-116.273 65903.5 0
65903.5 75.2538 0
0    0    0

-305.902 67207.9 0
67207.9 -195.427 0
0    0    0

-305.63 66366.3 0
66366.3 -495.54 0
0    0    0

-41.0426 66377.7 0
66377.7 -213.115 0
0    0    0

69.8296 66481.5 0
66481.5 153.279 0
0    0    0

247.536 68122.4 0
68122.4 264.984 0
0    0    0

62.6834 66566.7 0
66566.7 137.027 0
0    0    0

-149.835 67343 0
67343 -142.924 0
0    0    0

41.5433 67713.6 0
67713.6 118.122 0
0    0    0

-142.393 68448.2 0
68448.2 -50.3597 0
0    0    0

-327.29 67861.8 0
67861.8 -242.737 0
0    0    0

-67.9145 68620.4 0
68620.4 381.504 0
0    0    0

-175.431 68381.2 0
68381.2 -45.66 0
0    0    0

67.5594 67032.1 0
67032.1 22.3353 0
0    0    0

-115.181 67238.5 0
67238.5 135.037 0
0    0    0

-186.58 56117.1 0
56117.1 -307.348 0
0    0    0

115.215 55309.7 0
55309.7 55.5086 0
0    0    0

429.712 55332.3 0
55332.3 135.43 0
0    0    0

-276.201 55569.6 0
55569.6 -195.439 0
0    0    0

-151.443 56658.4 0
56658.4 43.6016 0
0    0    0

175.306 56066.3 0
56066.3 143.216 0
0    0    0

-204.086 52328.4 0
52328.4 -255.413 0
0    0    0

46.109 53284.8 0
53284.8 -2.50742 0
0    0    0

161.632 55082.7 0
55082.7 251.899 0
0    0    0

99.073 55944.4 0
55944.4 294.778 0
0    0    0

-187.216 45359.3 0
45359.3 -334.141 0
0    0    0

108.575 45488.6 0
45488.6 369.549 0
0    0    0

226.167 46486.9 0
46486.9 375.221 0
0    0    0

189.43 46329.8 0
46329.8 267.873 0
0    0    0

-52.6377 46653.9 0
46653.9 -110.626 0
0    0    0

174.46 46115.6 0
46115.6 434.565 0
0    0    0

-172.896 45441.6 0
45441.6 41.2209 0
0    0    0

287.984 45897.8 0
45897.8 484.918 0
0    0    0

51.5255 45591.7 0
45591.7 -137.668 0
0    0    0

126.091 46185.6 0
46185.6 105.926 0
0    0    0

218.713 45167.3 0
45167.3 491.966 0
0    0    0

-180.089 45255.3 0
45255.3 236.494 0
0    0    0

-171.099 45155 0
45155 -27.9007 0
0    0    0

28.414 44686 0
44686 61.755 0
0    0    0

100.575 44664.6 0
44664.6 56.4414 0
0    0    0

390.754 44360.3 0
44360.3 150.939 0
0    0    0

242.302 52053.1 0
52053.1 183.428 0
0    0    0

91.0228 52743.2 0
52743.2 93.3081 0
0    0    0

-202.046 52638 0
52638 -19.6407 0
0    0    0

-282.645 53159.7 0
53159.7 -232.055 0
0    0    0

146.833 52393.5 0
52393.5 389.843 0
0    0    0

-237.995 52278 0
52278 -177.449 0
0    0    0

86.6874 52673.5 0
52673.5 -79.4045 0
0    0    0

-113.182 53004.2 0
53004.2 166.875 0
0    0    0

-176.555 54130.4 0
54130.4 -149.276 0
0    0    0

-96.3528 52892.5 0
52892.5 196.403 0
0    0    0

-152.448 53918 0
53918 -195.288 0
0    0    0

76.0471 53529.7 0
53529.7 -119.378 0
0    0    0

-51.2757 54089.5 0
54089.5 -72.8065 0
0    0    0

-241.848 52894.5 0
52894.5 -268.676 0
0    0    0

-151.31 53209.9 0
53209.9 85.9462 0
0    0    0

-114.732 53989.5 0
53989.5 -91.3578 0
0    0    0

-9.20165 54655.8 0
54655.8 188.334 0
0    0    0

-134.407 54054.5 0
54054.5 90.383 0
0    0    0

54.2572 53626.8 0
53626.8 109.52 0
0    0    0

-121.717 54118.3 0
54118.3 -6.22733 0
0    0    0

61.0802 54104.6 0
54104.6 258.567 0
0    0    0

-15.8216 54656.6 0
54656.6 267.346 0
0    0    0

-187.074 52219.7 0
52219.7 -376.796 0
0    0    0

190.557 52434.1 0
52434.1 147.989 0
0    0    0

-11.5055 53420.6 0
53420.6 -177.051 0
0    0    0

4.90743 53325.9 0
53325.9 -281.588 0
0    0    0

-176.103 54440.4 0
54440.4 -83.9572 0
0    0    0

5.2021 54799.1 0
54799.1 -93.8688 0
0    0    0

-272.383 54953.3 0
54953.3 -469.659 0
0    0    0

-273.172 54682.7 0
54682.7 -479.154 0
0    0    0

113.829 53824.8 0
53824.8 285.321 0
0    0    0

-75.7785 54350.4 0
54350.4 -238.297 0
0    0    0

191.391 54534.1 0
54534.1 425.938 0
0    0    0

-195.851 54314 0
54314 26.4602 0
0    0    0

200.211 4267.71 0
4267.71 208.824 0
0    0    0

-369.043 53552.5 0
53552.5 -224.558 0
0    0    0

192.348 3001.51 0
3001.51 259.02 0
0    0    0

-296.371 3785.45 0
3785.45 -189.848 0
0    0    0

-95.2091 4643.52 0
4643.52 -222.155 0
0    0    0

-122.117 4767.12 0
4767.12 -218.882 0
0    0    0

-181.269 4538.3 0
4538.3 -19.2753 0
0    0    0

-203.377 3865.2 0
3865.2 -220.842 0
0    0    0

-221.772 3289.16 0
3289.16 -468.248 0
0    0    0

280.498 3404.09 0
3404.09 224.738 0
0    0    0

-163.285 5336.95 0
5336.95 42.552 0
0    0    0

-75.9349 4171.68 0
4171.68 -177.182 0
0    0    0

209.358 4622.37 0
4622.37 210.105 0
0    0    0

142.797 5039.74 0
5039.74 -27.2894 0
0    0    0

276.936 4901.99 0
4901.99 331.138 0
0    0    0

-326.615 4503.69 0
4503.69 -309.52 0
0    0    0

207.735 5480.7 0
5480.7 -36.5425 0
0    0    0

-75.0415 5588.25 0
5588.25 -175.097 0
0    0    0

-10.4404 5584.34 0
5584.34 312.053 0
0    0    0

-193.449 5104.26 0
5104.26 -174.965 0
0    0    0

-30.884 1912.91 0
1912.91 -183.339 0
0    0    0

-126.198 1439.99 0
1439.99 -256.641 0
0    0    0

14.6486 657.083 0
657.083 6.27798 0
0    0    0

209.52 1167.62 0
1167.62 254.764 0
0    0    0

36.4061 76205.2 0
76205.2 -68.5757 0
0    0    0

137.488 631.323 0
631.323 58.1189 0
0    0    0

-285.249 998.749 0
998.749 -132.27 0
0    0    0

214.72 75960.2 0
75960.2 65.2133 0
0    0    0

-159.617 75849.1 0
75849.1 -129.748 0
0    0    0

-214.543 76939.7 0
76939.7 -301.479 0
0    0    0

-1.10679 75713.8 0
75713.8 77.1695 0
0    0    0

47.588 75549.2 0
75549.2 29.2511 0
0    0    0

95.9239 75464.2 0
75464.2 191.607 0
0    0    0

-157.46 74772.9 0
74772.9 -204.408 0
0    0    0

-172.446 76415.8 0
76415.8 -182.479 0
0    0    0

-92.0997 77188 0
77188 -18.0208 0
0    0    0

169.234 76645.8 0
76645.8 144.707 0
0    0    0

124.475 76337 0
76337 -47.2039 0
0    0    0

171.527 76091.8 0
76091.8 130.73 0
0    0    0

-119.477 76526.9 0
76526.9 -155.493 0
0    0    0

119.937 74011.8 0
74011.8 -89.8027 0
0    0    0

168.572 73376.5 0
73376.5 -182.387 0
0    0    0

-169.794 74065 0
74065 -32.0519 0
0    0    0

-137.091 72964.8 0
72964.8 -142.1 0
0    0    0

-300.656 72249.6 0
72249.6 -439.965 0
0    0    0

62.3307 73225.8 0
73225.8 -238.205 0
0    0    0

306.439 72213.3 0
72213.3 306.882 0
0    0    0

-178.761 73098.3 0
73098.3 -288.642 0
0    0    0

171.633 73571.7 0
73571.7 455.254 0
0    0    0

184.621 73325.4 0
73325.4 62.1663 0
0    0    0

281.977 75230.9 0
75230.9 424.495 0
0    0    0

377.947 72016 0
72016 401.213 0
0    0    0

302.324 74868.4 0
74868.4 300.474 0
0    0    0

116.879 74351 0
74351 -137.906 0
0    0    0

-272.469 74008.8 0
74008.8 43.564 0
0    0    0

203.289 74286.9 0
74286.9 173.452 0
0    0    0

-345.639 75241 0
75241 -215.52 0
0    0    0

-120.192 74591.7 0
74591.7 -374.457 0
0    0    0

71.5538 74041.6 0
74041.6 380.132 0
0    0    0

-20.1334 74645.2 0
74645.2 370.057 0
0    0    0

274.834 74995.1 0
74995.1 542.453 0
0    0    0

-30.9668 74818.7 0
74818.7 145.319 0
0    0    0

-45.6258 74318.3 0
74318.3 23.8481 0
0    0    0

-131.751 74569.9 0
74569.9 -219.061 0
0    0    0

-150.697 74053.2 0
74053.2 104.567 0
0    0    0

43.0265 74352.1 0
74352.1 87.4602 0
0    0    0

173.067 76297.6 0
76297.6 123.123 0
0    0    0

-70.9327 77348.9 0
77348.9 -32.1709 0
0    0    0

-41.6491 77628.5 0
77628.5 52.2689 0
0    0    0

-206.199 77713.5 0
77713.5 -177.789 0
0    0    0

238.162 77313.4 0
77313.4 -138.434 0
0    0    0

160.788 76206.9 0
76206.9 146.48 0
0    0    0

-45.0387 77230.1 0
77230.1 90.1163 0
0    0    0

220.195 78185.4 0
78185.4 141.038 0
0    0    0

14.3849 77132.5 0
77132.5 106.117 0
0    0    0

124.385 76768.2 0
76768.2 84.1789 0
0    0    0

-51.6544 77104.3 0
77104.3 -166.794 0
0    0    0

-185.995 77080.2 0
77080.2 -79.2069 0
0    0    0

96.391 77385.4 0
77385.4 300.342 0
0    0    0

88.1206 78025.5 0
78025.5 -10.5975 0
0    0    0

-2.51729 76370.3 0
76370.3 69.1407 0
0    0    0

-92.1153 76669.6 0
76669.6 -135.305 0
0    0    0

54.1477 75801.5 0
75801.5 136.611 0
0    0    0

240.955 75386.1 0
75386.1 223.86 0
0    0    0

85.4029 74752.4 0
74752.4 -111.832 0
0    0    0

-184.358 74852.4 0
74852.4 -261.391 0
0    0    0

-59.6836 74525.9 0
74525.9 404.205 0
0    0    0

158.111 74745.1 0
74745.1 449.962 0
0    0    0

98.3548 75060.4 0
75060.4 -161.361 0
0    0    0

-181.025 75873.9 0
75873.9 -200.662 0
0    0    0

-44.5019 75234.6 0
75234.6 147.362 0
0    0    0

-247.734 74937.3 0
74937.3 -565.229 0
0    0    0

-195.118 73294.4 0
73294.4 -11.358 0
0    0    0

-225.954 74494.4 0
74494.4 -444.171 0
0    0    0

-6.69408 74725.9 0
74725.9 -81.6566 0
0    0    0

-92.9231 74984.4 0
74984.4 -275.941 0
0    0    0

40.7066 75228.8 0
75228.8 -28.2526 0
0    0    0

230.887 76795.3 0
76795.3 548.659 0
0    0    0

-158.247 73705.5 0
73705.5 173.783 0
0    0    0

-120.385 74042 0
74042 157.793 0
0    0    0

156.741 73397.9 0
73397.9 -125.25 0
0    0    0

-81.7106 74643.3 0
74643.3 -106.399 0
0    0    0

53.1162 74321.4 0
74321.4 -267.42 0
0    0    0

80.3545 73743.4 0
73743.4 -223.245 0
0    0    0

83.648 73925.2 0
73925.2 115.448 0
0    0    0

-45.2887 73579.2 0
73579.2 227.105 0
0    0    0

67.6127 73021 0
73021 41.2235 0
0    0    0

26.6384 73411.6 0
73411.6 -24.7912 0
0    0    0

222.557 74213.9 0
74213.9 142.097 0
0    0    0

116.617 74287.1 0
74287.1 -77.9458 0
0    0    0

350.869 74719.7 0
74719.7 137.088 0
0    0    0

78.0913 75578.8 0
75578.8 -112.289 0
0    0    0

175.95 75648.4 0
75648.4 268.584 0
0    0    0

209.997 76510.6 0
76510.6 192.078 0
0    0    0

-127.797 75912.4 0
75912.4 59.1826 0
0    0    0

7.18556 76122.8 0
76122.8 277.943 0
0    0    0

-31.5172 72538.6 0
72538.6 118.194 0
0    0    0

-40.7984 72536.9 0
72536.9 139.196 0
0    0    0

29.2606 70834.7 0
70834.7 -131.925 0
0    0    0

-117.744 73567 0
73567 -69.1906 0
0    0    0

-2.36841 72271.1 0
72271.1 -141.938 0
0    0    0

-239.461 72496.1 0
72496.1 -145.524 0
0    0    0

-5.69522 74291.4 0
74291.4 -285.561 0
0    0    0

-270.264 72937.7 0
72937.7 -434.348 0
0    0    0

-206.344 73697.4 0
73697.4 -343.848 0
0    0    0

-2.11387 73827.2 0
73827.2 -245.314 0
0    0    0

-180.726 76511.2 0
76511.2 -479.526 0
0    0    0

-36.7488 76893.3 0
76893.3 -12.2776 0
0    0    0

254.743 70643.9 0
70643.9 355.373 0
0    0    0

142.269 71750.9 0
71750.9 107.948 0
0    0    0

157.262 71615.6 0
71615.6 205.316 0
0    0    0

-31.2863 73067.5 0
73067.5 -72.0333 0
0    0    0

289.495 72626.8 0
72626.8 8.20964 0
0    0    0

-237.252 72620.3 0
72620.3 -182.757 0
0    0    0

174.148 73503 0
73503 103.476 0
0    0    0

9.02845 73152 0
73152 -27.632 0
0    0    0

-92.7932 74046.4 0
74046.4 -29.0622 0
0    0    0

-44.2282 74069.7 0
74069.7 253.116 0
0    0    0

6.44679 72895.5 0
72895.5 142.044 0
0    0    0

-189.213 71974.7 0
71974.7 -143.201 0
0    0    0

-137.631 72777.7 0
72777.7 -193.063 0
0    0    0

-16.1417 72285.1 0
72285.1 200.736 0
0    0    0

120.712 71596.8 0
71596.8 292.17 0
0    0    0

174.766 72256.1 0
72256.1 21.7925 0
0    0    0

13.1463 72771.3 0
72771.3 136.517 0
0    0    0

33.2492 73154.8 0
73154.8 167.701 0
0    0    0

-35.141 72680.3 0
72680.3 183.393 0
0    0    0

-100.515 72063.9 0
72063.9 6.61393 0
0    0    0

177.048 73384.5 0
73384.5 251.585 0
0    0    0

-293.489 71107.3 0
71107.3 -315.951 0
0    0    0

-75.9884 73799.6 0
73799.6 -284.391 0
0    0    0

-242.617 72557.2 0
72557.2 -439.092 0
0    0    0

-220.871 70773 0
70773 29.2508 0
0    0    0

-108.88 70945.9 0
70945.9 107.243 0
0    0    0

183.623 72765.8 0
72765.8 153.087 0
0    0    0

132.47 73334.5 0
73334.5 267.92 0
0    0    0

175.95 72566.1 0
72566.1 -127.571 0
0    0    0

-172.137 73016.2 0
73016.2 -340.761 0
0    0    0

110.052 72151.6 0
72151.6 228.699 0
0    0    0

84.1192 72804.7 0
72804.7 415.434 0
0    0    0

-147.946 72478.8 0
72478.8 -505.305 0
0    0    0

121.206 71768.3 0
71768.3 12.417 0
0    0    0

-192.456 71502.2 0
71502.2 -99.494 0
0    0    0

61.1154 72838.3 0
72838.3 542.763 0
0    0    0

53.5367 73583.3 0
73583.3 203.905 0
0    0    0

-216.711 72439.2 0
72439.2 -213.438 0
0    0    0

-76.2748 73084.5 0
73084.5 -43.0928 0
0    0    0

-58.4283 72770 0
72770 181.552 0
0    0    0

65.0291 72815.4 0
72815.4 74.7389 0
0    0    0

29.5447 72347.8 0
72347.8 -300.897 0
0    0    0

-90.9652 73067.6 0
73067.6 -400.298 0
0    0    0

84.6219 73440.6 0
73440.6 41.8702 0
0    0    0

-80.1716 72129.5 0
72129.5 -253.497 0
0    0    0

89.2549 71302.9 0
71302.9 165.354 0
0    0    0

-208.521 71442.8 0
71442.8 -378.88 0
0    0    0

-139.863 71618.8 0
71618.8 -276.456 0
0    0    0

-203.501 72379.2 0
72379.2 -490.582 0
0    0    0

263.751 72198.1 0
72198.1 407.767 0
0    0    0

47.3585 73073 0
73073 -227.314 0
0    0    0

82.0651 73459.1 0
73459.1 272.239 0
0    0    0

56.0064 72930.6 0
72930.6 37.3731 0
0    0    0

141.83 72616.7 0
72616.7 242.434 0
0    0    0

-115.454 78067.7 0
78067.7 -122.736 0
0    0    0

-55.0078 80785.5 0
80785.5 -54.6331 0
0    0    0

-29.4325 86070.4 0
86070.4 131.783 0
0    0    0

53.7842 83622.1 0
83622.1 23.0504 0
0    0    0

225.53 83472.5 0
83472.5 404.961 0
0    0    0

102.386 82674.5 0
82674.5 -104.736 0
0    0    0

215.222 83196.1 0
83196.1 501.629 0
0    0    0

168.099 82564.6 0
82564.6 16.189 0
0    0    0

-68.0056 83275.5 0
83275.5 -15.6393 0
0    0    0

-226.17 82993.7 0
82993.7 -3.18155 0
0    0    0

-107.622 82352 0
82352 -30.3791 0
0    0    0

149.757 83281.2 0
83281.2 185.236 0
0    0    0

-120.83 83664.3 0
83664.3 -163.396 0
0    0    0

130.059 89346.3 0
89346.3 198.557 0
0    0    0

239.69 89761.5 0
89761.5 143.068 0
0    0    0

55.4004 89596.7 0
89596.7 -97.1073 0
0    0    0

-12.2919 89931.1 0
89931.1 263.675 0
0    0    0

-66.1719 89715.5 0
89715.5 -248.907 0
0    0    0

-16.1076 90247.2 0
90247.2 -266.074 0
0    0    0

-166.784 89823.4 0
89823.4 75.3398 0
0    0    0

-39.0014 89448 0
89448 157.741 0
0    0    0

-30.6777 90237.4 0
90237.4 69.878 0
0    0    0

19.1821 90815.6 0
90815.6 25.9249 0
0    0    0

-81.6869 93600.9 0
93600.9 -7.31483 0
0    0    0

-57.1567 92523.3 0
92523.3 -168.761 0
0    0    0

-105.838 90837.9 0
90837.9 72.6987 0
0    0    0

48.6928 91339.6 0
91339.6 185.149 0
0    0    0

-154.265 90561.7 0
90561.7 -367.58 0
0    0    0

-222.112 91337.3 0
91337.3 -82.9415 0
0    0    0

-199.918 90713.4 0
90713.4 -165.652 0
0    0    0

-115.02 91713.3 0
91713.3 -128.625 0
0    0    0

-62.154 91851.1 0
91851.1 239.878 0
0    0    0

-73.9677 90982.7 0
90982.7 254.724 0
0    0    0

116.54 90788.3 0
90788.3 -140.989 0
0    0    0

227.233 91531.8 0
91531.8 448.371 0
0    0    0

-54.4145 91467.6 0
91467.6 -71.6165 0
0    0    0

-164.437 92923.8 0
92923.8 -81.7523 0
0    0    0

10.8771 90810.3 0
90810.3 87.6459 0
0    0    0

59.0233 91164.5 0
91164.5 -275.271 0
0    0    0

8.53194 91994.8 0
91994.8 -213.84 0
0    0    0

-38.6977 91117.9 0
91117.9 -247.029 0
0    0    0

-70.3657 92695.3 0
92695.3 213.177 0
0    0    0

-60.4328 92959.3 0
92959.3 -181.768 0
0    0    0

129.438 91545.5 0
91545.5 -98.3252 0
0    0    0

71.6775 92165.6 0
92165.6 115.439 0
0    0    0

16.042 93429.6 0
93429.6 -130.378 0
0    0    0

-163.089 93528.6 0
93528.6 -270.526 0
0    0    0

-102.24 92160.6 0
92160.6 107.782 0
0    0    0

94.3789 92535.7 0
92535.7 -91.3882 0
0    0    0

-92.6489 94215.7 0
94215.7 -313.346 0
0    0    0

124.119 92706.3 0
92706.3 338.417 0
0    0    0

-16.8067 94604.3 0
94604.3 -166.08 0
0    0    0

62.7528 92364.2 0
92364.2 170.119 0
0    0    0

-156.317 93730.2 0
93730.2 -166.547 0
0    0    0

-163.37 93517.7 0
93517.7 -115.3 0
0    0    0

181.662 92234.6 0
92234.6 -26.0249 0
0    0    0

248.693 92877.3 0
92877.3 229.683 0
0    0    0

3.89779 92688.4 0
92688.4 -159.287 0
0    0    0

101.095 92445.7 0
92445.7 241.304 0
0    0    0

144.115 92485.6 0
92485.6 -77.0539 0
0    0    0

-93.4477 93232.7 0
93232.7 -127.379 0
0    0    0

32.2686 93874.7 0
93874.7 -22.2127 0
0    0    0

-115.171 93317 0
93317 74.7193 0
0    0    0

-174.484 92711.7 0
92711.7 -214.082 0
0    0    0

-134.447 93040.6 0
93040.6 113.669 0
0    0    0

-102.273 92056.9 0
92056.9 -37.2888 0
0    0    0

-61.1769 92295.4 0
92295.4 19.5871 0
0    0    0

-5.70747 93205.6 0
93205.6 237.178 0
0    0    0

140.883 92928.4 0
92928.4 27.2445 0
0    0    0

-224.298 95183.9 0
95183.9 -227.008 0
0    0    0

-166.633 93498 0
93498 -184.082 0
0    0    0

-74.295 93820.2 0
93820.2 -74.1114 0
0    0    0

-45.1451 94083.6 0
94083.6 53.8722 0
0    0    0

150.291 89334.9 0
89334.9 429.379 0
0    0    0

32.2894 88869.4 0
88869.4 189.424 0
0    0    0

75.7917 88908.4 0
88908.4 165.758 0
0    0    0

-95.8802 89877.7 0
89877.7 -279.017 0
0    0    0

-123.74 88451.6 0
88451.6 -11.5046 0
0    0    0

230.174 89562.3 0
89562.3 390.715 0
0    0    0

-84.8499 88615.5 0
88615.5 45.002 0
0    0    0

-230.403 84929.9 0
84929.9 -466.141 0
0    0    0

-212.377 85082.7 0
85082.7 -128.693 0
0    0    0

-145.538 85290.4 0
85290.4 -308.215 0
0    0    0

153.142 84366.6 0
84366.6 42.8105 0
0    0    0

278.614 85405.5 0
85405.5 451.315 0
0    0    0

5.60749 85889.8 0
85889.8 5.96005 0
0    0    0

174.227 84791.1 0
84791.1 216.219 0
0    0    0

-154.554 85464.8 0
85464.8 58.489 0
0    0    0

68.4579 86259.9 0
86259.9 269.093 0
0    0    0

-109.873 86553.4 0
86553.4 -64.819 0
0    0    0

-88.6316 86527.8 0
86527.8 -256.075 0
0    0    0

144.91 87268.9 0
87268.9 397.056 0
0    0    0

140.16 87783.3 0
87783.3 231.499 0
0    0    0

-130.335 87479.2 0
87479.2 -257.927 0
0    0    0

-174.834 88046.7 0
88046.7 -305.206 0
0    0    0

108.284 86612.8 0
86612.8 -11.4761 0
0    0    0

-56.3578 87478.4 0
87478.4 -344.353 0
0    0    0

-155.709 86988.5 0
86988.5 -298.061 0
0    0    0

-155.932 85805.3 0
85805.3 -434.792 0
0    0    0

30.628 86269.4 0
86269.4 345.535 0
0    0    0

80.5187 85938.7 0
85938.7 231.994 0
0    0    0

4.57418 87091.3 0
87091.3 -74.2434 0
0    0    0

-256.787 86487.1 0
86487.1 -386.897 0
0    0    0

-152.884 89236.6 0
89236.6 -0.646398 0
0    0    0

119.013 89774.1 0
89774.1 373.348 0
0    0    0

193.973 90150.9 0
90150.9 227.197 0
0    0    0

-29.9498 89934.1 0
89934.1 -290.191 0
0    0    0

335.215 90387.7 0
90387.7 362.525 0
0    0    0

108.235 90739.6 0
90739.6 139.245 0
0    0    0

-94.9199 91176.1 0
91176.1 53.8408 0
0    0    0

72.0653 90819.5 0
90819.5 -10.5498 0
0    0    0

-95.5839 91095.5 0
91095.5 -419.852 0
0    0    0

-85.1358 90477 0
90477 71.1298 0
0    0    0

168.979 91530.2 0
91530.2 298.916 0
0    0    0

43.366 93229.6 0
93229.6 -102.534 0
0    0    0

24.9613 90987 0
90987 0.149187 0
0    0    0

-6.70672 90477 0
90477 -266.88 0
0    0    0

211.032 90762.7 0
90762.7 33.1831 0
0    0    0

210.402 91677.6 0
91677.6 146.469 0
0    0    0

-82.3402 91774.2 0
91774.2 -223.056 0
0    0    0

162.163 91270.1 0
91270.1 146.277 0
0    0    0

-24.77 67746.4 0
67746.4 104.559 0
0    0    0

-283.743 68564.3 0
68564.3 -340.66 0
0    0    0

-10.3871 68942 0
68942 108.031 0
0    0    0

-8.61857 68374.2 0
68374.2 -352.921 0
0    0    0

129.923 69296.1 0
69296.1 222.37 0
0    0    0

109.594 68838.8 0
68838.8 292.946 0
0    0    0

137.475 70272.5 0
70272.5 -119.309 0
0    0    0

-134.115 70343.4 0
70343.4 -281.053 0
0    0    0

118.037 70065.8 0
70065.8 244.69 0
0    0    0

-58.5157 69304.6 0
69304.6 -164.812 0
0    0    0

274.234 68577.6 0
68577.6 23.0873 0
0    0    0

-52.572 69360.7 0
69360.7 -151.468 0
0    0    0

-151.933 70924.6 0
70924.6 -259.645 0
0    0    0

-16.209 69988.8 0
69988.8 232.606 0
0    0    0

-24.6271 69804.7 0
69804.7 -141.201 0
0    0    0

36.5631 69507.9 0
69507.9 179.007 0
0    0    0

-119.8 69845.6 0
69845.6 -256.131 0
0    0    0

-251.727 69837.8 0
69837.8 -327.15 0
0    0    0

161.477 69625.2 0
69625.2 3.32831 0
0    0    0

248.357 69320.4 0
69320.4 75.7752 0
0    0    0

-112.652 69164.4 0
69164.4 45.281 0
0    0    0

206.534 68391.4 0
68391.4 538.236 0
0    0    0

190.921 68684.7 0
68684.7 -135.501 0
0    0    0

-356.33 68673.8 0
68673.8 -404.198 0
0    0    0

0.762309 68638.6 0
68638.6 80.7321 0
0    0    0

98.4362 68204.7 0
68204.7 243.79 0
0    0    0

117.118 69492.2 0
69492.2 226.692 0
0    0    0

118.161 70042.9 0
70042.9 265.017 0
0    0    0

-150.914 69983.4 0
69983.4 214.27 0
0    0    0

-227.116 70399.4 0
70399.4 -330.008 0
0    0    0

-63.3695 70204.4 0
70204.4 -242.954 0
0    0    0

-19.5267 71175 0
71175 -96.8584 0
0    0    0

21.8145 69961.6 0
69961.6 259.86 0
0    0    0

-133.484 70571.2 0
70571.2 -100.227 0
0    0    0

52.0705 70064.5 0
70064.5 -133.734 0
0    0    0

-99.5395 69659.6 0
69659.6 -320.263 0
0    0    0

-215.813 70450.6 0
70450.6 -132.532 0
0    0    0

261.198 70687 0
70687 106.671 0
0    0    0

-153.831 69656.4 0
69656.4 -90.571 0
0    0    0

213.242 68699.3 0
68699.3 280.613 0
0    0    0

-233.696 68503.4 0
68503.4 -282.676 0
0    0    0

110.998 68844.5 0
68844.5 178.702 0
0    0    0

114.878 70234.9 0
70234.9 -100.966 0
0    0    0

-317.402 71726.4 0
71726.4 -282.442 0
0    0    0

133.704 69984.6 0
69984.6 8.54441 0
0    0    0

57.3905 70982.1 0
70982.1 -44.8096 0
0    0    0

259.508 71162.6 0
71162.6 212.088 0
0    0    0

312.018 71062.1 0
71062.1 409.297 0
0    0    0

148.524 70684.7 0
70684.7 179.312 0
0    0    0

-167.1 71274.1 0
71274.1 -374.516 0
0    0    0

82.4323 71661.5 0
71661.5 420.721 0
0    0    0

144.654 71558.1 0
71558.1 43.5938 0
0    0    0

439.415 67451.9 0
67451.9 356.425 0
0    0    0

228.895 68248.5 0
68248.5 279.285 0
0    0    0

-238.783 66790.3 0
66790.3 -456.211 0
0    0    0

57.1064 65826.5 0
65826.5 -201.5 0
0    0    0

282.644 65789.2 0
65789.2 84.6425 0
0    0    0

-12.9922 66425.3 0
66425.3 -103.094 0
0    0    0

-57.9827 65611.8 0
65611.8 44.2304 0
0    0    0

44.1243 65841.9 0
65841.9 345.719 0
0    0    0

-183.674 66970.4 0
66970.4 -57.2786 0
0    0    0

-81.4387 66178.7 0
66178.7 -107.186 0
0    0    0

-44.7283 67307.9 0
67307.9 -211.437 0
0    0    0

270.798 67904.9 0
67904.9 200.513 0
0    0    0

31.2701 68108.3 0
68108.3 -189.606 0
0    0    0

-332.959 68622.8 0
68622.8 -144.856 0
0    0    0

-34.9446 67664.2 0
67664.2 -71.8825 0
0    0    0

50.3669 67340.1 0
67340.1 166.331 0
0    0    0

-216.522 68276.8 0
68276.8 -248.15 0
0    0    0

-13.9111 69052.9 0
69052.9 205.953 0
0    0    0

-61.116 68079.4 0
68079.4 -77.5865 0
0    0    0

194.311 69553.4 0
69553.4 62.898 0
0    0    0

315.476 68187.1 0
68187.1 100.848 0
0    0    0

122.24 68862.7 0
68862.7 324.81 0
0    0    0

-143.597 67664 0
67664 -119.377 0
0    0    0

236.048 68455.5 0
68455.5 192.77 0
0    0    0

78.4373 67361.6 0
67361.6 -19.2788 0
0    0    0

-93.5301 68160.7 0
68160.7 -317.817 0
0    0    0

-96.4268 66638.7 0
66638.7 149.163 0
0    0    0

33.9389 67959.3 0
67959.3 286.46 0
0    0    0

96.4625 66853.5 0
66853.5 46.9047 0
0    0    0

-43.6671 67659.7 0
67659.7 -200.668 0
0    0    0

-27.3095 67952.9 0
67952.9 209.721 0
0    0    0

-29.2683 68863.9 0
68863.9 -148.965 0
0    0    0

146.312 67210.2 0
67210.2 64.5165 0
0    0    0

86.3584 67565.2 0
67565.2 -132.912 0
0    0    0

8.35926 67103.9 0
67103.9 -133.377 0
0    0    0

-109.873 67299.8 0
67299.8 48.7967 0
0    0    0

-102.551 66575.7 0
66575.7 4.15521 0
0    0    0

269.858 67048.1 0
67048.1 566.571 0
0    0    0

-217.887 68309 0
68309 -136.996 0
0    0    0

15.9851 68544.6 0
68544.6 271.069 0
0    0    0

39.7956 68405 0
68405 331.765 0
0    0    0

116.588 69397 0
69397 175.857 0
0    0    0

165.464 67882.5 0
67882.5 226.962 0
0    0    0

-110.758 69070 0
69070 -381.602 0
0    0    0

-29.4645 69407.8 0
69407.8 60.4891 0
0    0    0

-165.343 71377.3 0
71377.3 -231.307 0
0    0    0

-65.9116 69335.6 0
69335.6 -130.907 0
0    0    0

222.002 69818 0
69818 388.46 0
0    0    0

44.6111 66986.8 0
66986.8 240.372 0
0    0    0

147.781 66322.1 0
66322.1 177.053 0
0    0    0

-72.1132 62905.9 0
62905.9 157.859 0
0    0    0

-51.0365 64358 0
64358 -122.768 0
0    0    0

267.549 61757.9 0
61757.9 48.4681 0
0    0    0

-136.855 62158.8 0
62158.8 -50.1458 0
0    0    0

-221.753 61289.4 0
61289.4 -142.35 0
0    0    0

199.007 61977.7 0
61977.7 138.23 0
0    0    0

-246.727 62402.7 0
62402.7 -231.257 0
0    0    0

-194.673 62770.2 0
62770.2 13.9742 0
0    0    0

-3.14932 63461.3 0
63461.3 11.9065 0
0    0    0

-54.6932 62982.8 0
62982.8 -221.655 0
0    0    0

62.1432 66857.1 0
66857.1 -152.762 0
0    0    0

-102.678 66295.1 0
66295.1 69.3344 0
0    0    0

155.947 66603.2 0
66603.2 226.505 0
0    0    0

-89.7099 66933.4 0
66933.4 -157.61 0
0    0    0

-56.3932 65750.7 0
65750.7 282.944 0
0    0    0

6.42077 65221.1 0
65221.1 4.93111 0
0    0    0

-247.415 65645 0
65645 -267.59 0
0    0    0

-182.037 65760.1 0
65760.1 -9.56715 0
0    0    0

86.3963 64682.5 0
64682.5 -49.1768 0
0    0    0

25.582 64408.1 0
64408.1 119.386 0
0    0    0

-18.9399 64348.9 0
64348.9 -9.46339 0
0    0    0

-27.8243 64920 0
64920 152.696 0
0    0    0

228.325 63471.2 0
63471.2 287.823 0
0    0    0

-364.336 63987.9 0
63987.9 -34.2105 0
0    0    0

232.568 70453.1 0
70453.1 286.071 0
0    0    0

-146.415 71525.1 0
71525.1 -84.8571 0
0    0    0

-120.326 67827.7 0
67827.7 -237.536 0
0    0    0

-41.6888 67290 0
67290 -365.765 0
0    0    0

122.334 67017.5 0
67017.5 24.3174 0
0    0    0

-65.7233 66927.1 0
66927.1 -200.099 0
0    0    0

-77.2085 67381.9 0
67381.9 -243.176 0
0    0    0

170.583 66446.5 0
66446.5 87.1126 0
0    0    0

-122.45 68720.7 0
68720.7 -149.124 0
0    0    0

-180.143 66538 0
66538 -80.0304 0
0    0    0

-237.788 55276.4 0
55276.4 -263.263 0
0    0    0

-190.899 55595.6 0
55595.6 -240.774 0
0    0    0

268.718 55209.5 0
55209.5 127.609 0
0    0    0

22.4419 56153.4 0
56153.4 -194.125 0
0    0    0

100.624 54702.7 0
54702.7 14.2388 0
0    0    0

-285.321 55784.9 0
55784.9 -121.622 0
0    0    0

-123.27 55927.3 0
55927.3 96.0945 0
0    0    0

14.4858 58467.3 0
58467.3 -60.4658 0
0    0    0

175.352 55876.8 0
55876.8 213.718 0
0    0    0

265.088 55471.5 0
55471.5 183.564 0
0    0    0

-265.746 52260.7 0
52260.7 -128.244 0
0    0    0

281.895 52949.5 0
52949.5 311.975 0
0    0    0

-405.076 52688.3 0
52688.3 -315.164 0
0    0    0

231.787 52405.2 0
52405.2 201.261 0
0    0    0

7.89549 52396.5 0
52396.5 180.14 0
0    0    0

-87.0198 53303.6 0
53303.6 -346.468 0
0    0    0

-162.431 51539.9 0
51539.9 -232.662 0
0    0    0

-196.718 53125.5 0
53125.5 -436.883 0
0    0    0

-45.4064 52277.4 0
52277.4 -262.56 0
0    0    0

-113.113 51869.4 0
51869.4 -108.335 0
0    0    0

-49.8073 51455.4 0
51455.4 -257.286 0
0    0    0

145.689 52993 0
52993 298.275 0
0    0    0

50.0134 54236.5 0
54236.5 -3.0321 0
0    0    0

273.331 53617.9 0
53617.9 276.902 0
0    0    0

56.228 53001.5 0
53001.5 10.3416 0
0    0    0

176.848 53477.9 0
53477.9 507.727 0
0    0    0

132.076 51895.9 0
51895.9 229.579 0
0    0    0

101.319 51872.2 0
51872.2 150.527 0
0    0    0

52.9926 54547.9 0
54547.9 178.79 0
0    0    0

354.56 54798.5 0
54798.5 150.897 0
0    0    0

21.2878 53869.7 0
53869.7 62.205 0
0    0    0

-42.3128 54306.4 0
54306.4 -2.50851 0
0    0    0

-161.557 53784.8 0
53784.8 29.0994 0
0    0    0

56.8842 54083.9 0
54083.9 263.9 0
0    0    0

-82.5822 54677.4 0
54677.4 0.45792 0
0    0    0

-58.2418 55090.2 0
55090.2 -73.755 0
0    0    0

-352.233 55092.4 0
55092.4 -70.8897 0
0    0    0

1.41724 54342.4 0
54342.4 86.6603 0
0    0    0

-183.928 51758.1 0
51758.1 -331.796 0
0    0    0

-96.9267 51978.6 0
51978.6 70.4817 0
0    0    0

246.03 52897.9 0
52897.9 262.685 0
0    0    0

-5.59544 53418.6 0
53418.6 34.0493 0
0    0    0

311.926 54953.9 0
54953.9 127.794 0
0    0    0

-149.284 57051.7 0
57051.7 -145.652 0
0    0    0

-73.7271 345.021 0
345.021 -31.5973 0
0    0    0

61.105 53374.9 0
53374.9 142.578 0
0    0    0

80.0675 838.31 0
838.31 186.824 0
0    0    0

-96.5724 74973.3 0
74973.3 -176.603 0
0    0    0

-125.983 75363.8 0
75363.8 -52.3519 0
0    0    0

-212.03 78179.5 0
78179.5 -115.183 0
0    0    0

-352.942 78795.4 0
78795.4 -287.238 0
0    0    0

94.4224 78420.6 0
78420.6 300.139 0
0    0    0

-138.712 77993.6 0
77993.6 -412.785 0
0    0    0

214.047 77666.1 0
77666.1 204.721 0
0    0    0

95.6148 78492.5 0
78492.5 19.1382 0
0    0    0

108.579 76633.8 0
76633.8 219.679 0
0    0    0

260.838 77231.1 0
77231.1 466.352 0
0    0    0

273.411 76476.3 0
76476.3 272.571 0
0    0    0

-329.994 78670.2 0
78670.2 -397.486 0
0    0    0

129.949 74360.9 0
74360.9 104.686 0
0    0    0

-238.604 74216.7 0
74216.7 -271.613 0
0    0    0

-138.564 76265.7 0
76265.7 110.845 0
0    0    0

-5.61216 75991.9 0
75991.9 -94.9918 0
0    0    0

-300.392 75913.5 0
75913.5 -152.636 0
0    0    0

206.191 77333.4 0
77333.4 -127.014 0
0    0    0

19.9541 76093.8 0
76093.8 259.35 0
0    0    0

-212.308 76800.6 0
76800.6 -373.086 0
0    0    0

-224.906 72315 0
72315 -10.933 0
0    0    0

-271.353 72419.2 0
72419.2 -226.7 0
0    0    0

-70.2613 71827.4 0
71827.4 -110.351 0
0    0    0

-134.465 70385.3 0
70385.3 45.9549 0
0    0    0

80.0404 71718.5 0
71718.5 -123.52 0
0    0    0

-92.7607 71863.4 0
71863.4 -255.675 0
0    0    0

-60.0316 70736.1 0
70736.1 -138.324 0
0    0    0

135.914 69672.3 0
69672.3 292.368 0
0    0    0

31.0157 69930.6 0
69930.6 -193.231 0
0    0    0

-129.288 73732.9 0
73732.9 159.134 0
0    0    0

114.087 71897.5 0
71897.5 17.1358 0
0    0    0

221.029 70841.3 0
70841.3 225.965 0
0    0    0

-138.669 71383.6 0
71383.6 -302.358 0
0    0    0

155.272 71455.8 0
71455.8 -42.3137 0
0    0    0

224.668 72092.2 0
72092.2 232.24 0
0    0    0

16.2974 72695.8 0
72695.8 159.148 0
0    0    0

214.69 71002.4 0
71002.4 478.133 0
0    0    0

238.163 72172.3 0
72172.3 159.782 0
0    0    0

-159.472 73612.2 0
73612.2 -135.703 0
0    0    0

433.269 74504.4 0
74504.4 7.50987 0
0    0    0

-74.83 74031.6 0
74031.6 -317.304 0
0    0    0

-59.7043 74762 0
74762 155.241 0
0    0    0

-226.603 73976 0
73976 -15.2762 0
0    0    0

199.73 73766.6 0
73766.6 286.638 0
0    0    0

-29.9402 73248.2 0
73248.2 110.01 0
0    0    0

76.4903 74079 0
74079 138.056 0
0    0    0

257.898 75029.7 0
75029.7 318.345 0
0    0    0

-446.318 74581.7 0
74581.7 -134.992 0
0    0    0

207.456 74228.6 0
74228.6 278.18 0
0    0    0

-188.55 74794.3 0
74794.3 -7.83271 0
0    0    0

-246.666 75533.3 0
75533.3 -6.4529 0
0    0    0

212.665 74734.9 0
74734.9 243.478 0
0    0    0

-143.524 72880.7 0
72880.7 -300.417 0
0    0    0

84.8516 75140.1 0
75140.1 -121.812 0
0    0    0

-115.584 74020.2 0
74020.2 -118.497 0
0    0    0

109.935 74600.4 0
74600.4 -124.283 0
0    0    0

202.952 75385.7 0
75385.7 155.297 0
0    0    0

55.1818 75522.3 0
75522.3 42.3901 0
0    0    0

63.556 73851 0
73851 383.727 0
0    0    0

-103.824 74285.7 0
74285.7 54.5817 0
0    0    0

-50.3339 73513.1 0
73513.1 102.04 0
0    0    0

78.3416 73896.5 0
73896.5 -103.911 0
0    0    0

53.0893 73443.2 0
73443.2 -198.153 0
0    0    0

-5.08552 73632.7 0
73632.7 -231.787 0
0    0    0

-171.973 72606.2 0
72606.2 -78.811 0
0    0    0

43.0541 73187.6 0
73187.6 52.5708 0
0    0    0

108.697 73386 0
73386 420.683 0
0    0    0

-95.1311 74748.9 0
74748.9 124.774 0
0    0    0

44.7071 73796 0
73796 267.838 0
0    0    0

-100.774 73198.8 0
73198.8 -256.17 0
0    0    0

-238.311 72782.9 0
72782.9 -338.592 0
0    0    0

-198.833 71307.6 0
71307.6 131.474 0
0    0    0

75.3307 73321.2 0
73321.2 166.485 0
0    0    0

85.2176 73056.5 0
73056.5 -124.194 0
0    0    0

-79.2514 72835.4 0
72835.4 -18.7352 0
0    0    0

29.1021 74094.2 0
74094.2 155.539 0
0    0    0

233.41 75305.8 0
75305.8 57.9175 0
0    0    0

59.6755 77745.1 0
77745.1 25.5752 0
0    0    0

-166.026 74280.7 0
74280.7 -439.154 0
0    0    0

176.928 73893.5 0
73893.5 358.237 0
0    0    0

-101.867 75972.8 0
75972.8 220.293 0
0    0    0

-234.84 75216.8 0
75216.8 -254.104 0
0    0    0

147.385 74609.1 0
74609.1 339.175 0
0    0    0

63.6898 74257.6 0
74257.6 -153.975 0
0    0    0

78.1072 73642 0
73642 -14.616 0
0    0    0

-304.669 73671.3 0
73671.3 -423.035 0
0    0    0

107.578 76270 0
76270 -44.3577 0
0    0    0

-136.252 76960.6 0
76960.6 -144.763 0
0    0    0

-141.524 75001.1 0
75001.1 -10.5397 0
0    0    0

-212.951 75341.5 0
75341.5 -302.61 0
0    0    0

137.155 75595.9 0
75595.9 -56.3883 0
0    0    0

-84.1767 76291 0
76291 131.617 0
0    0    0

-219.166 75481.5 0
75481.5 -220.845 0
0    0    0

-38.2162 76482 0
76482 -16.3784 0
0    0    0

28.0859 74813.6 0
74813.6 -195.265 0
0    0    0

244.805 74918.6 0
74918.6 317.981 0
0    0    0

-239.644 74916.6 0
74916.6 -370.928 0
0    0    0

-93.4898 76472.5 0
76472.5 239.52 0
0    0    0

6.05855 78027.9 0
78027.9 255.65 0
0    0    0

-90.9729 77005.3 0
77005.3 -359.073 0
0    0    0

-332.31 75913.1 0
75913.1 -159.913 0
0    0    0

-58.7567 76328.6 0
76328.6 -97.6139 0
0    0    0

-19.7224 76469.6 0
76469.6 -177.811 0
0    0    0

-167.232 75664.8 0
75664.8 -223.635 0
0    0    0

220.092 75853 0
75853 -24.0967 0
0    0    0

-176.958 74857.8 0
74857.8 -138.16 0
0    0    0

109.074 77827.2 0
77827.2 379.84 0
0    0    0

-89.0729 75707.3 0
75707.3 -271.061 0
0    0    0

-16.2882 75906 0
75906 196.895 0
0    0    0

-150.449 76698.5 0
76698.5 143.085 0
0    0    0

11.1632 76666 0
76666 276.054 0
0    0    0

442.379 75772.9 0
75772.9 83.8863 0
0    0    0

100.389 76093.5 0
76093.5 22.8458 0
0    0    0

224.13 75030.8 0
75030.8 231.751 0
0    0    0

208.418 75666.6 0
75666.6 317.667 0
0    0    0

75.4359 74501.9 0
74501.9 201.072 0
0    0    0

239.011 74678.6 0
74678.6 3.31918 0
0    0    0

102.8 73435.3 0
73435.3 134.329 0
0    0    0

253.545 74094.5 0
74094.5 44.7636 0
0    0    0

298.174 73963.7 0
73963.7 579.276 0
0    0    0

-329.724 74460 0
74460 -86.3877 0
0    0    0

-196.153 72122.8 0
72122.8 71.9064 0
0    0    0

305.398 74035.4 0
74035.4 209.474 0
0    0    0

-133.177 74691.8 0
74691.8 179.246 0
0    0    0

-16.8883 74954 0
74954 63.785 0
0    0    0

-99.0198 74277.7 0
74277.7 -375.757 0
0    0    0

113.329 73675.1 0
73675.1 162.427 0
0    0    0

-213.653 75405.7 0
75405.7 -51.9284 0
0    0    0

-84.6279 75748 0
75748 -294.583 0
0    0    0

81.6054 74431.3 0
74431.3 -210.304 0
0    0    0

35.6848 75009.7 0
75009.7 -32.1544 0
0    0    0

49.2174 76759.4 0
76759.4 -205.236 0
0    0    0

-177.795 77439.6 0
77439.6 -181.797 0
0    0    0

265.662 78291.7 0
78291.7 190.639 0
0    0    0

9.50016 77445.3 0
77445.3 223.605 0
0    0    0

179.969 77600 0
77600 291.128 0
0    0    0

73.0766 77366.1 0
77366.1 -123.958 0
0    0    0

-145.83 76537.2 0
76537.2 -75.342 0
0    0    0

-78.4532 77466.2 0
77466.2 -415.93 0
0    0    0

-236.005 73650.2 0
73650.2 -431.506 0
0    0    0

-109.471 73997.8 0
73997.8 -130.658 0
0    0    0

98.3535 76785.5 0
76785.5 288.498 0
0    0    0

190.003 76680.1 0
76680.1 153.697 0
0    0    0

89.2904 76941.8 0
76941.8 -107.467 0
0    0    0

16.5867 77315.9 0
77315.9 207.467 0
0    0    0

-131.56 78845.2 0
78845.2 -23.1047 0
0    0    0

71.5222 77599.8 0
77599.8 -138.456 0
0    0    0

77.0983 79586.8 0
79586.8 268.379 0
0    0    0

15.9016 78806.4 0
78806.4 0.043854 0
0    0    0

-42.604 78989.9 0
78989.9 172.506 0
0    0    0

25.1742 77928 0
77928 342.864 0
0    0    0

173.029 78883.4 0
78883.4 181.577 0
0    0    0

116.125 79032.4 0
79032.4 -118.912 0
0    0    0

36.9972 78262.8 0
78262.8 62.1778 0
0    0    0

275.435 79092.2 0
79092.2 161.157 0
0    0    0

24.7164 78476.5 0
78476.5 -303.966 0
0    0    0

-192.416 80404 0
80404 -161.298 0
0    0    0

135.944 79420.7 0
79420.7 256.22 0
0    0    0

-109.281 77639.3 0
77639.3 173.166 0
0    0    0

-14.5483 77011.4 0
77011.4 -51.4522 0
0    0    0

74.0289 77685.8 0
77685.8 -43.1189 0
0    0    0

31.5298 76960.7 0
76960.7 -253.433 0
0    0    0

17.173 76610.2 0
76610.2 87.2023 0
0    0    0

-206.3 77421.4 0
77421.4 -212.966 0
0    0    0

61.2547 77115.4 0
77115.4 357.856 0
0    0    0

-37.1822 76825.5 0
76825.5 -400.074 0
0    0    0

179.236 78349 0
78349 184.86 0
0    0    0

-218.093 79493.1 0
79493.1 -99.6616 0
0    0    0

164.594 79303.5 0
79303.5 70.5404 0
0    0    0

12.8204 79618.4 0
79618.4 5.49446 0
0    0    0

-191.53 79310.4 0
79310.4 -370.583 0
0    0    0

-70.0051 77753.2 0
77753.2 79.9516 0
0    0    0

41.1352 77854.8 0
77854.8 -29.9291 0
0    0    0

-360.056 78073.1 0
78073.1 -283.194 0
0    0    0

335.902 78992.8 0
78992.8 143.958 0
0    0    0

151.603 77984.9 0
77984.9 64.9726 0
0    0    0

251.462 78337.5 0
78337.5 107.77 0
0    0    0

-64.5099 79189.5 0
79189.5 -23.0505 0
0    0    0

-246.431 78709.8 0
78709.8 -153.543 0
0    0    0

103.695 77696.5 0
77696.5 152.576 0
0    0    0

-109.182 78411.4 0
78411.4 -50.716 0
0    0    0

-109.531 77065.8 0
77065.8 209.46 0
0    0    0

-163.859 78159.8 0
78159.8 -169.855 0
0    0    0

50.1827 77634.4 0
77634.4 -36.5138 0
0    0    0

-26.6694 76185.5 0
76185.5 -195.062 0
0    0    0

62.1115 76477 0
76477 -8.70993 0
0    0    0

327.915 77315.4 0
77315.4 409.951 0
0    0    0

-267.338 79693.4 0
79693.4 -118.28 0
0    0    0

51.0516 76374.1 0
76374.1 170.233 0
0    0    0

58.1969 77178 0
77178 -23.3079 0
0    0    0

112.521 77195.7 0
77195.7 -131.892 0
0    0    0

-67.9954 75883.8 0
75883.8 -65.6782 0
0    0    0

-38.592 75634.2 0
75634.2 33.1848 0
0    0    0

151.097 76540.4 0
76540.4 114.291 0
0    0    0

-216.106 77069.9 0
77069.9 -339.369 0
0    0    0

-105.244 79967.6 0
79967.6 -59.6821 0
0    0    0

113.807 79861.4 0
79861.4 48.7745 0
0    0    0

190.832 80178.9 0
80178.9 81.7853 0
0    0    0

-114.892 77550.1 0
77550.1 -391.631 0
0    0    0

-73.5802 77695.5 0
77695.5 -89.212 0
0    0    0

204.916 79335.3 0
79335.3 -49.6723 0
0    0    0

-132.103 79234.4 0
79234.4 -275.946 0
0    0    0

-128.4 71997.7 0
71997.7 -122.877 0
0    0    0

151.348 72272.2 0
72272.2 433.904 0
0    0    0

-8.82096 78492.7 0
78492.7 -357.181 0
0    0    0

-96.5481 80211.9 0
80211.9 -236.583 0
0    0    0

269.231 84212.3 0
84212.3 271.012 0
0    0    0

-262.275 83467.2 0
83467.2 -212.81 0
0    0    0

-100.341 81046.1 0
81046.1 -161.651 0
0    0    0

150.58 80403.4 0
80403.4 97.3959 0
0    0    0

-206.985 81407.2 0
81407.2 -281.435 0
0    0    0

259.418 80859.7 0
80859.7 276.015 0
0    0    0

247.87 81605 0
81605 299.618 0
0    0    0

-68.1085 82032 0
82032 -290.837 0
0    0    0

142.79 80687.5 0
80687.5 255.008 0
0    0    0

43.2611 80180.6 0
80180.6 210.153 0
0    0    0

43.4594 82616.5 0
82616.5 -237.057 0
0    0    0

-377.655 82057.2 0
82057.2 -408.142 0
0    0    0

29.3806 91913.3 0
91913.3 -452.904 0
0    0    0

-180.214 92695.9 0
92695.9 -351.354 0
0    0    0

221.705 93327.8 0
93327.8 228.625 0
0    0    0

-251.711 93556.3 0
93556.3 -355.851 0
0    0    0

-151.393 92717.9 0
92717.9 -308.028 0
0    0    0

91.6779 92583.5 0
92583.5 324.1 0
0    0    0

255.839 91526.7 0
91526.7 186.419 0
0    0    0

-38.2775 94026.5 0
94026.5 -5.93166 0
0    0    0

2.15171 93350 0
93350 290.245 0
0    0    0

-145.53 94476 0
94476 -29.2056 0
0    0    0

-101.79 95161.8 0
95161.8 -319.419 0
0    0    0

-82.9623 95119.6 0
95119.6 -68.1925 0
0    0    0

-48.9323 93678 0
93678 8.87459 0
0    0    0

127.752 94623.2 0
94623.2 -82.0249 0
0    0    0

-26.2068 93902.8 0
93902.8 -126.223 0
0    0    0

-137.004 94828.3 0
94828.3 122.772 0
0    0    0

-104.907 95568.8 0
95568.8 -23.6567 0
0    0    0

183.573 94312 0
94312 -13.9084 0
0    0    0

-12.0812 93686.3 0
93686.3 -22.8678 0
0    0    0

151.896 94247 0
94247 110.35 0
0    0    0

277.119 94926.8 0
94926.8 355.73 0
0    0    0

-266.249 95899.2 0
95899.2 -262.823 0
0    0    0

-134.048 94807.7 0
94807.7 -232.644 0
0    0    0

268.67 93777 0
93777 201.556 0
0    0    0

-15.1747 96843 0
96843 253.025 0
0    0    0

-284.002 94657.3 0
94657.3 -417.393 0
0    0    0

-139.224 96444.1 0
96444.1 -184.801 0
0    0    0

154.358 95272.4 0
95272.4 10.0234 0
0    0    0

-87.3044 94767.2 0
94767.2 -241.286 0
0    0    0

193.728 94852.1 0
94852.1 228.537 0
0    0    0

-80.2874 94748.4 0
94748.4 -26.0797 0
0    0    0

128.417 94021.1 0
94021.1 -206.971 0
0    0    0

-58.5108 94141 0
94141 253.669 0
0    0    0

8.62319 94199.7 0
94199.7 -226.529 0
0    0    0

143.619 95226.1 0
95226.1 240.026 0
0    0    0

206.301 94392.6 0
94392.6 429.948 0
0    0    0

188.607 94950.9 0
94950.9 275.129 0
0    0    0

-96.3368 94187 0
94187 -377.04 0
0    0    0

-110.957 94494.9 0
94494.9 60.6311 0
0    0    0

81.6737 97610.2 0
97610.2 57.1064 0
0    0    0

-348.768 95350.2 0
95350.2 -156.49 0
0    0    0

-134.157 94855.2 0
94855.2 227.995 0
0    0    0

110.289 94230.4 0
94230.4 171.028 0
0    0    0

123.167 94919.7 0
94919.7 47.8715 0
0    0    0

-109.212 94498.5 0
94498.5 -395.071 0
0    0    0

1.53709 93589.8 0
93589.8 98.3999 0
0    0    0

149.883 93177 0
93177 93.7737 0
0    0    0

-280.199 95273.9 0
95273.9 -391.108 0
0    0    0

-121.453 95497.7 0
95497.7 -238.636 0
0    0    0

221.931 95519.9 0
95519.9 196.553 0
0    0    0

274.194 96048.1 0
96048.1 246.686 0
0    0    0

136.465 96024.2 0
96024.2 253.87 0
0    0    0

259.918 94297.3 0
94297.3 212.553 0
0    0    0

71.2252 95577.4 0
95577.4 249.014 0
0    0    0

-330.713 95885.5 0
95885.5 -126.434 0
0    0    0

232.029 96208.4 0
96208.4 340.33 0
0    0    0

137.514 96200.4 0
96200.4 541.777 0
0    0    0

-116.134 96107 0
96107 65.5244 0
0    0    0

-35.4925 97546.1 0
97546.1 -230.287 0
0    0    0

-245.512 94764.4 0
94764.4 -58.7897 0
0    0    0

-299.942 94741 0
94741 -109.334 0
0    0    0

274.201 95380.4 0
95380.4 183.201 0
0    0    0

166.727 95206.7 0
95206.7 -64.9092 0
0    0    0

259.229 95026.1 0
95026.1 -24.1745 0
0    0    0

23.2324 93578.7 0
93578.7 30.4611 0
0    0    0

-132.588 94126.1 0
94126.1 -396.452 0
0    0    0

300.81 94397.5 0
94397.5 256.496 0
0    0    0

3.05354 95189.2 0
95189.2 18.5119 0
0    0    0

-312.303 95429.7 0
95429.7 -251.914 0
0    0    0

266.066 96689.7 0
96689.7 194.576 0
0    0    0

61.9119 94868.8 0
94868.8 -141.241 0
0    0    0

158.19 95609.3 0
95609.3 180.425 0
0    0    0

-244.285 92857.9 0
92857.9 -16.7297 0
0    0    0

-31.4415 95342.4 0
95342.4 34.2043 0
0    0    0

29.488 93365.7 0
93365.7 -230.133 0
0    0    0

134.338 92775.2 0
92775.2 -98.3804 0
0    0    0

-57.2626 93764.6 0
93764.6 212.222 0
0    0    0

330.996 93068.4 0
93068.4 220.08 0
0    0    0

21.3925 93627.7 0
93627.7 150.533 0
0    0    0

-74.926 95009.9 0
95009.9 170.234 0
0    0    0

90.2539 95591.2 0
95591.2 199.152 0
0    0    0

-91.7482 94260.4 0
94260.4 229.273 0
0    0    0

50.1022 93467.4 0
93467.4 116.905 0
0    0    0

-123.365 92767.9 0
92767.9 -192.111 0
0    0    0

-2.21799 93217 0
93217 254.853 0
0    0    0

-39.4827 94442.1 0
94442.1 -202.187 0
0    0    0

56.194 93213.9 0
93213.9 -197.134 0
0    0    0

150.901 93662.5 0
93662.5 27.4844 0
0    0    0

-249.731 94455.7 0
94455.7 -144.569 0
0    0    0

38.8183 93858.3 0
93858.3 -133.422 0
0    0    0

40.4018 92112.4 0
92112.4 94.2709 0
0    0    0

-141.507 93384.8 0
93384.8 -202.139 0
0    0    0

-103.696 91590.1 0
91590.1 -258.649 0
0    0    0

-90.9457 91873.9 0
91873.9 123.257 0
0    0    0

-122.315 91880.4 0
91880.4 -102.71 0
0    0    0

-213.207 93353.6 0
93353.6 -90.3016 0
0    0    0

111.539 92392.7 0
92392.7 126.913 0
0    0    0

271.293 92945.8 0
92945.8 238.469 0
0    0    0

-224.1 92260 0
92260 -194.528 0
0    0    0

-226.131 93333.2 0
93333.2 -168.134 0
0    0    0

136.611 92552.9 0
92552.9 318.758 0
0    0    0

-180.823 91402.6 0
91402.6 -180.475 0
0    0    0

62.6981 92958.6 0
92958.6 146.296 0
0    0    0

-118.256 92626.6 0
92626.6 86.3811 0
0    0    0

-144.263 91036.3 0
91036.3 -148.454 0
0    0    0

81.2296 92118.6 0
92118.6 -167.41 0
0    0    0

193.498 91740.9 0
91740.9 215.283 0
0    0    0

-87.08 92224.7 0
92224.7 -324.914 0
0    0    0

157.701 91567.7 0
91567.7 233.028 0
0    0    0

-102.726 91471.8 0
91471.8 162.651 0
0    0    0

-55.3262 90105.1 0
90105.1 53.9601 0
0    0    0

208.272 90867.3 0
90867.3 229.034 0
0    0    0

236.129 91003.4 0
91003.4 338.38 0
0    0    0

-71.1869 90561.7 0
90561.7 196.617 0
0    0    0

-22.0928 90854.7 0
90854.7 -59.8662 0
0    0    0

74.8047 81871.1 0
81871.1 206.332 0
0    0    0

122.237 84142.9 0
84142.9 85.0928 0
0    0    0

-163.422 84650.9 0
84650.9 -149.278 0
0    0    0

-126.964 84803.4 0
84803.4 -152.918 0
0    0    0

178.161 84254.2 0
84254.2 137.083 0
0    0    0

309.908 83820.2 0
83820.2 184.354 0
0    0    0

-114.76 84461.1 0
84461.1 211.212 0
0    0    0

-250.037 87422.5 0
87422.5 -370.824 0
0    0    0

-51.2918 86193.9 0
86193.9 304.241 0
0    0    0

-225.124 87514.8 0
87514.8 -138.554 0
0    0    0

-81.1471 86866.4 0
86866.4 -508.735 0
0    0    0

-77.8617 87280.6 0
87280.6 87.5003 0
0    0    0

62.5116 67130.2 0
67130.2 -1.4154 0
0    0    0

225.72 67858.6 0
67858.6 179.556 0
0    0    0

-234.267 69508.7 0
69508.7 -231.025 0
0    0    0

-74.0117 69469.8 0
69469.8 -320.222 0
0    0    0

42.4234 69084.6 0
69084.6 309.915 0
0    0    0

-285.893 70660.2 0
70660.2 -192.415 0
0    0    0

-0.554765 63463.7 0
63463.7 97.8179 0
0    0    0

103.221 62997.1 0
62997.1 62.2281 0
0    0    0

185.852 62578.9 0
62578.9 204.605 0
0    0    0

-103.988 63626.7 0
63626.7 -70.7071 0
0    0    0

-205.027 62470.7 0
62470.7 -234.481 0
0    0    0

-58.3715 62981.9 0
62981.9 -95.7306 0
0    0    0

-178.93 61875.4 0
61875.4 -257.273 0
0    0    0

279.901 61619.5 0
61619.5 182.079 0
0    0    0

305.574 62083.1 0
62083.1 288.054 0
0    0    0

-228.126 62485.6 0
62485.6 -278.271 0
0    0    0

-216.701 61811.4 0
61811.4 -61.611 0
0    0    0

176.672 62163 0
62163 233.607 0
0    0    0

-147.355 60444.7 0
60444.7 299.108 0
0    0    0

258.112 60890.6 0
60890.6 115.662 0
0    0    0

256.813 61009.6 0
61009.6 401.067 0
0    0    0

130.517 61588.2 0
61588.2 255.184 0
0    0    0

195.238 65468.9 0
65468.9 320.798 0
0    0    0

131.453 66201.3 0
66201.3 95.2677 0
0    0    0

243.398 66396.3 0
66396.3 -6.82782 0
0    0    0

235.541 66590.9 0
66590.9 323.289 0
0    0    0

-92.9295 67535.8 0
67535.8 -385.472 0
0    0    0

-113.075 67679 0
67679 -22.3146 0
0    0    0

-193.193 66134.6 0
66134.6 -208.954 0
0    0    0

-75.546 67008.7 0
67008.7 -322.074 0
0    0    0

-140.02 66513 0
66513 -282.423 0
0    0    0

139.265 66677.5 0
66677.5 278.318 0
0    0    0

-282.62 65992.1 0
65992.1 -155.341 0
0    0    0

-392.038 65433.7 0
65433.7 -250.274 0
0    0    0

-172.411 65280.4 0
65280.4 -326.976 0
0    0    0

294.432 65689.5 0
65689.5 354.368 0
0    0    0

-220.2 64760.9 0
64760.9 -46.6361 0
0    0    0

286.48 65222.7 0
65222.7 63.7571 0
0    0    0

-179.851 65788 0
65788 -116.517 0
0    0    0

172.852 66016.4 0
66016.4 25.2027 0
0    0    0

-109.429 66905.8 0
66905.8 -44.6754 0
0    0    0

-207.142 66614.9 0
66614.9 113.787 0
0    0    0

112.292 66717.3 0
66717.3 273.172 0
0    0    0

214.582 66277.3 0
66277.3 106.987 0
0    0    0

129.407 66991.7 0
66991.7 147.69 0
0    0    0

-53.9393 66796.9 0
66796.9 -159.713 0
0    0    0

-218.891 64026.6 0
64026.6 -214.557 0
0    0    0

144.518 65981.5 0
65981.5 -81.8615 0
0    0    0

16.5103 64906.6 0
64906.6 -57.5617 0
0    0    0

215.501 65138.1 0
65138.1 104.52 0
0    0    0

-194.729 69603.7 0
69603.7 -154.159 0
0    0    0

257.654 68043.9 0
68043.9 24.9551 0
0    0    0

115.969 67800.4 0
67800.4 194.269 0
0    0    0

-72.808 68550.9 0
68550.9 254.047 0
0    0    0

161.169 55561.9 0
55561.9 -77.5584 0
0    0    0

278.428 56504.7 0
56504.7 84.522 0
0    0    0

61.8124 56610.5 0
56610.5 -76.3317 0
0    0    0

-33.1264 57238.9 0
57238.9 -159.411 0
0    0    0

-130.68 51342 0
51342 -35.6439 0
0    0    0

154.44 51003.2 0
51003.2 79.4975 0
0    0    0

156.858 54431.3 0
54431.3 291.349 0
0    0    0

-203.244 53743.2 0
53743.2 -205.05 0
0    0    0

288.529 53290.2 0
53290.2 176.505 0
0    0    0

-226.123 52613.8 0
52613.8 78.3066 0
0    0    0

-202.067 53543.5 0
53543.5 -32.3923 0
0    0    0

186.272 52368.3 0
52368.3 -39.8396 0
0    0    0

10.6189 53585.8 0
53585.8 -148.249 0
0    0    0

184.901 53420.4 0
53420.4 124.614 0
0    0    0

-95.2602 52866.1 0
52866.1 148.297 0
0    0    0

9.63856 53086.6 0
53086.6 -154.823 0
0    0    0

193.868 51711.9 0
51711.9 -13.0884 0
0    0    0

198.615 52535.2 0
52535.2 57.3252 0
0    0    0

-168.292 52742.1 0
52742.1 -206.006 0
0    0    0

-295.944 53093.9 0
53093.9 -212.546 0
0    0    0

202.101 52016.7 0
52016.7 315.422 0
0    0    0

-74.2632 51971.5 0
51971.5 265.547 0
0    0    0

-223.905 56083.1 0
56083.1 -322.068 0
0    0    0

-213.964 55443.2 0
55443.2 -217.855 0
0    0    0

-243.255 75330.8 0
75330.8 -262.983 0
0    0    0

-49.657 52956.9 0
52956.9 -115.866 0
0    0    0

-9.14105 75364.4 0
75364.4 -346.056 0
0    0    0

-193.589 72125.9 0
72125.9 -34.3555 0
0    0    0

-132.152 71590.8 0
71590.8 -62.8841 0
0    0    0

-65.1055 74928.7 0
74928.7 -215.003 0
0    0    0

18.2376 75058 0
75058 136.927 0
0    0    0

20.2692 69756.4 0
69756.4 -77.7011 0
0    0    0

-157.012 73855.5 0
73855.5 -180.603 0
0    0    0

-137.127 74262.1 0
74262.1 24.8028 0
0    0    0

-345.265 74470.9 0
74470.9 -180.827 0
0    0    0

-283.268 73889.9 0
73889.9 -155.333 0
0    0    0

-208.198 73607.2 0
73607.2 -105.044 0
0    0    0

139.192 73419.2 0
73419.2 -172.734 0
0    0    0

68.125 72516.3 0
72516.3 -217.211 0
0    0    0

198.538 73419.3 0
73419.3 262.899 0
0    0    0

-131.051 71763.9 0
71763.9 -78.5656 0
0    0    0

-47.3518 73543.4 0
73543.4 187.69 0
0    0    0

-54.3127 72968.6 0
72968.6 -198.522 0
0    0    0

22.7858 75239.6 0
75239.6 209.82 0
0    0    0

67.5227 75865.3 0
75865.3 271.278 0
0    0    0

140.715 73130.6 0
73130.6 204.075 0
0    0    0

263.719 72451.7 0
72451.7 265.252 0
0    0    0

-111.665 73144.4 0
73144.4 30.22 0
0    0    0

-156.843 73181.9 0
73181.9 -277.662 0
0    0    0

199.118 75608.1 0
75608.1 331.355 0
0    0    0

168.963 75543.1 0
75543.1 91.3284 0
0    0    0

234.741 74212.4 0
74212.4 164.054 0
0    0    0

48.7275 75092.9 0
75092.9 -115.689 0
0    0    0

-104.242 73335.1 0
73335.1 -120.949 0
0    0    0

129.173 72808.7 0
72808.7 170.3 0
0    0    0

301.332 74656.6 0
74656.6 29.4101 0
0    0    0

107.461 75260.8 0
75260.8 7.55259 0
0    0    0

55.3895 75165.7 0
75165.7 301.633 0
0    0    0

-39.9688 75927.5 0
75927.5 -325.529 0
0    0    0

-89.0045 75751.3 0
75751.3 27.9966 0
0    0    0

-168.839 75337.6 0
75337.6 139.966 0
0    0    0

109.888 76424.5 0
76424.5 -198.198 0
0    0    0

-175.588 75646.5 0
75646.5 -292.582 0
0    0    0

112.216 76024.3 0
76024.3 48.0927 0
0    0    0

147.06 75315.8 0
75315.8 256.872 0
0    0    0

67.9774 75446.3 0
75446.3 29.1332 0
0    0    0

-166.698 76175.8 0
76175.8 -308.057 0
0    0    0

138.089 75771.4 0
75771.4 59.1811 0
0    0    0

-188.272 74686.6 0
74686.6 -46.1481 0
0    0    0

161.475 75122.5 0
75122.5 -69.7836 0
0    0    0

161.288 73690.6 0
73690.6 174.44 0
0    0    0

-230.101 75600.3 0
75600.3 -129.8 0
0    0    0

191.473 73770.8 0
73770.8 -91.0919 0
0    0    0

106.887 77068.7 0
77068.7 45.8087 0
0    0    0

-4.02663 77407.3 0
77407.3 -87.4183 0
0    0    0

15.3656 74743.2 0
74743.2 26.2665 0
0    0    0

-152.085 73837.8 0
73837.8 -5.0055 0
0    0    0

337.116 74475.7 0
74475.7 155.094 0
0    0    0

-119.384 73425.7 0
73425.7 -126.963 0
0    0    0

217.104 73102.9 0
73102.9 205.192 0
0    0    0

106.075 76201.8 0
76201.8 280.529 0
0    0    0

-202.215 76420.8 0
76420.8 -57.2287 0
0    0    0

124.954 76794.5 0
76794.5 53.5519 0
0    0    0

-66.4179 76458.7 0
76458.7 -235.723 0
0    0    0

96.2031 74386.6 0
74386.6 -96.3194 0
0    0    0

-118.602 73930.3 0
73930.3 -363.496 0
0    0    0

-69.4502 73392.5 0
73392.5 -39.7133 0
0    0    0

74.2815 73651 0
73651 234.388 0
0    0    0

-350.38 72227.8 0
72227.8 -116.073 0
0    0    0

-52.2392 72715.5 0
72715.5 -23.6301 0
0    0    0

-227.531 71910.1 0
71910.1 12.1325 0
0    0    0

206.673 74773.4 0
74773.4 247.887 0
0    0    0

-161.037 73447.2 0
73447.2 -71.4481 0
0    0    0

78.1346 74271.8 0
74271.8 176.914 0
0    0    0

-193.995 75000.1 0
75000.1 -222.152 0
0    0    0

-202.211 74882.5 0
74882.5 17.286 0
0    0    0

1.85955 73193 0
73193 -26.765 0
0    0    0

-220.337 73888.6 0
73888.6 -392.226 0
0    0    0

203.493 72700.4 0
72700.4 147.78 0
0    0    0

232.619 73680.2 0
73680.2 269.267 0
0    0    0

-20.0882 74143.3 0
74143.3 -274.009 0
0    0    0

112.959 74672.9 0
74672.9 359.443 0
0    0    0

32.978 72736.6 0
72736.6 -66.9338 0
0    0    0

-320.435 72808.6 0
72808.6 -389.546 0
0    0    0

280.723 73360.3 0
73360.3 374.122 0
0    0    0

145.982 72926.3 0
72926.3 104.861 0
0    0    0

153.902 72553.6 0
72553.6 265.062 0
0    0    0

-273.36 72376.3 0
72376.3 -171.603 0
0    0    0

-201.19 73072.8 0
73072.8 -278.7 0
0    0    0

-192.971 74095 0
74095 -155.04 0
0    0    0

321.431 71984.1 0
71984.1 281.741 0
0    0    0

-196.126 72690.9 0
72690.9 -240.681 0
0    0    0

191.594 71117.8 0
71117.8 332.044 0
0    0    0

-39.8627 72661.5 0
72661.5 119.441 0
0    0    0

320.575 72428.4 0
72428.4 321.997 0
0    0    0

146.522 71866.6 0
71866.6 161.679 0
0    0    0

26.5101 73400.1 0
73400.1 -7.97015 0
0    0    0

274.171 71482.3 0
71482.3 307.683 0
0    0    0

-105.449 72184.4 0
72184.4 -130.467 0
0    0    0

127.119 70858.7 0
70858.7 236.855 0
0    0    0

-265.724 70234.6 0
70234.6 -398.318 0
0    0    0

263.926 69056.4 0
69056.4 341.402 0
0    0    0

186.313 72140.6 0
72140.6 304.353 0
0    0    0

97.929 71466.6 0
71466.6 4.16847 0
0    0    0

-172.82 70068.8 0
70068.8 -56.7663 0
0    0    0

-150.16 71726.2 0
71726.2 -221.479 0
0    0    0

-199.295 71770.7 0
71770.7 -179.332 0
0    0    0

-31.123 71562.2 0
71562.2 -390.425 0
0    0    0

-48.4 70300.1 0
70300.1 -274.788 0
0    0    0

233.144 70245.4 0
70245.4 325.068 0
0    0    0

107.448 73092.2 0
73092.2 204.556 0
0    0    0

-252.767 73433.2 0
73433.2 -251.785 0
0    0    0

178.589 72437.4 0
72437.4 395.614 0
0    0    0

140.865 72279.2 0
72279.2 83.8891 0
0    0    0

292.362 72198.1 0
72198.1 245.98 0
0    0    0

56.1349 70202.4 0
70202.4 251.779 0
0    0    0

-177.836 69318.9 0
69318.9 -83.8703 0
0    0    0

-194.688 71138.3 0
71138.3 -329.968 0
0    0    0

-284.305 71151.7 0
71151.7 -437.086 0
0    0    0

-91.6003 71355 0
71355 -457.527 0
0    0    0

-109.135 70973.3 0
70973.3 -72.1737 0
0    0    0

-141.729 70426.4 0
70426.4 -282.911 0
0    0    0

109.363 70059.2 0
70059.2 285.528 0
0    0    0

232.98 69983.3 0
69983.3 432.599 0
0    0    0

281.633 70862.1 0
70862.1 339.815 0
0    0    0

34.1579 69942.1 0
69942.1 290.396 0
0    0    0

-186.367 70721.7 0
70721.7 -124.064 0
0    0    0

278.176 71342.3 0
71342.3 99.9613 0
0    0    0

-30.17 69708.8 0
69708.8 -200.536 0
0    0    0

284.021 69573.1 0
69573.1 31.3823 0
0    0    0

262.97 70912.9 0
70912.9 595.341 0
0    0    0

-242.873 70637.3 0
70637.3 -35.1429 0
0    0    0

-232.936 72824.8 0
72824.8 -340.484 0
0    0    0

214.005 73627.2 0
73627.2 255.668 0
0    0    0

290.224 71916 0
71916 188.768 0
0    0    0

92.657 72464.9 0
72464.9 150.584 0
0    0    0

-160.794 73996.7 0
73996.7 -304.025 0
0    0    0

-116.508 74899.8 0
74899.8 -49.932 0
0    0    0

133.627 72038.5 0
72038.5 -73.1844 0
0    0    0

39.567 73557.3 0
73557.3 16.9573 0
0    0    0

-194.994 72581.6 0
72581.6 -211.424 0
0    0    0

-303.546 71953 0
71953 -384.987 0
0    0    0

170.126 70054.5 0
70054.5 260.563 0
0    0    0

-19.7451 69636.1 0
69636.1 296.31 0
0    0    0

141.914 71705.9 0
71705.9 145.759 0
0    0    0

125.934 70695.9 0
70695.9 362.644 0
0    0    0

101.502 68194.8 0
68194.8 -123.002 0
0    0    0

17.3627 68763.4 0
68763.4 232.2 0
0    0    0

110.263 67910.2 0
67910.2 -135.169 0
0    0    0

48.3807 68631 0
68631 -166.104 0
0    0    0

-206.802 73599.2 0
73599.2 -206.026 0
0    0    0

33.0789 74587.3 0
74587.3 14.1767 0
0    0    0

-311.496 74602.7 0
74602.7 -125.306 0
0    0    0

96.142 74270.3 0
74270.3 41.2037 0
0    0    0

122.47 74572.4 0
74572.4 -100.386 0
0    0    0

-70.9765 70949.5 0
70949.5 -21.7706 0
0    0    0

57.4756 69597.1 0
69597.1 104.356 0
0    0    0

-100.091 71898.1 0
71898.1 -107.756 0
0    0    0

171.344 71097.1 0
71097.1 74.0336 0
0    0    0

-23.7841 69390.8 0
69390.8 118.12 0
0    0    0

211.87 69037.1 0
69037.1 281.813 0
0    0    0

40.8584 69499.1 0
69499.1 91.7346 0
0    0    0

73.4557 68858.5 0
68858.5 -124.957 0
0    0    0

103.725 67869.3 0
67869.3 173.254 0
0    0    0

-58.2019 68507.4 0
68507.4 201.235 0
0    0    0

-227.176 69380.8 0
69380.8 -61.4873 0
0    0    0

-261.498 69495.2 0
69495.2 -302.22 0
0    0    0

-51.7214 68741.4 0
68741.4 -317.396 0
0    0    0

-177.509 69005.6 0
69005.6 -319.323 0
0    0    0

165.337 69860.7 0
69860.7 343.447 0
0    0    0

275.066 71493.5 0
71493.5 145.7 0
0    0    0

-309.286 69312.3 0
69312.3 -487.172 0
0    0    0

-155.521 70100.6 0
70100.6 -217.725 0
0    0    0

26.8713 71698.7 0
71698.7 87.4616 0
0    0    0

23.8111 70266.6 0
70266.6 241.602 0
0    0    0

27.3132 69126.5 0
69126.5 174.759 0
0    0    0

-133.147 68976.1 0
68976.1 -261.919 0
0    0    0

-437.385 67689.7 0
67689.7 -238.978 0
0    0    0

-257.313 67041 0
67041 -232.886 0
0    0    0

-130.45 70367.7 0
70367.7 -162.8 0
0    0    0

28.9054 70809.9 0
70809.9 437.9 0
0    0    0

64.3859 70617.5 0
70617.5 354.874 0
0    0    0

-159.19 70490.7 0
70490.7 -305.086 0
0    0    0

-138.058 70969.1 0
70969.1 -258.102 0
0    0    0

-224.037 71402.7 0
71402.7 -272.497 0
0    0    0

169.421 71601.8 0
71601.8 277.464 0
0    0    0

283.88 71341.2 0
71341.2 172.298 0
0    0    0

75.5245 69549.2 0
69549.2 -102.929 0
0    0    0

29.7702 70031.5 0
70031.5 -250.265 0
0    0    0

-104.402 69905 0
69905 -130.966 0
0    0    0

40.1958 69158.3 0
69158.3 189.243 0
0    0    0

79.4564 69283.4 0
69283.4 -321.179 0
0    0    0

-90.7749 69396 0
69396 -190.302 0
0    0    0

75.0259 69235.9 0
69235.9 -102.706 0
0    0    0

57.829 68807.3 0
68807.3 -186.68 0
0    0    0

229.854 68524.5 0
68524.5 234.897 0
0    0    0

119.259 69312.5 0
69312.5 207.294 0
0    0    0

111.413 69972.9 0
69972.9 185.046 0
0    0    0

194.756 69181.3 0
69181.3 154.756 0
0    0    0

212.824 70524 0
70524 326.291 0
0    0    0

130.509 68858.3 0
68858.3 201.89 0
0    0    0

-136.323 69033.9 0
69033.9 -262.956 0
0    0    0

107.59 68829.4 0
68829.4 -101.592 0
0    0    0

65.9357 70461.4 0
70461.4 253.15 0
0    0    0

-146.364 69716.6 0
69716.6 -191.056 0
0    0    0

-64.5872 69795.2 0
69795.2 40.8 0
0    0    0

-29.0575 69747.6 0
69747.6 179.898 0
0    0    0

-157.716 68790.4 0
68790.4 -233.9 0
0    0    0

-94.05 67549.6 0
67549.6 14.418 0
0    0    0

65.0591 68530 0
68530 37.2975 0
0    0    0

45.1742 69462.1 0
69462.1 -132.52 0
0    0    0

-95.2956 68177.3 0
68177.3 -215.304 0
0    0    0

-165.898 68109.8 0
68109.8 -2.77021 0
0    0    0

218.366 67426.8 0
67426.8 13.3713 0
0    0    0

-276.078 67878.4 0
67878.4 -70.0826 0
0    0    0

111.088 68903.6 0
68903.6 69.9171 0
0    0    0

-81.5051 69162.7 0
69162.7 -266.526 0
0    0    0

99.9205 67770.6 0
67770.6 242.237 0
0    0    0

96.7388 67222 0
67222 174.906 0
0    0    0

-152.959 67952.9 0
67952.9 -159.805 0
0    0    0

165.802 67696.5 0
67696.5 -30.8 0
0    0    0

153.371 67599.9 0
67599.9 326.001 0
0    0    0

-206.114 68350.9 0
68350.9 -224.012 0
0    0    0

-91.7804 69404.5 0
69404.5 24.4611 0
0    0    0

209.795 69337.5 0
69337.5 228.064 0
0    0    0

36.6971 68815.5 0
68815.5 144.19 0
0    0    0

-181.181 68678.2 0
68678.2 -259.119 0
0    0    0

-95.065 69193.1 0
69193.1 -159.307 0
0    0    0

-87.686 69615.4 0
69615.4 -190.523 0
0    0    0

177.872 68051.3 0
68051.3 315.053 0
0    0    0

-86.2688 67520.4 0
67520.4 -174.932 0
0    0    0

265.814 67230.5 0
67230.5 446.809 0
0    0    0

-140.32 68095.6 0
68095.6 -261.525 0
0    0    0

-105.766 68223.1 0
68223.1 -122.779 0
0    0    0

-118.618 67733.5 0
67733.5 -344.017 0
0    0    0

-180.778 67016.4 0
67016.4 -302.824 0
0    0    0

-42.9126 67369.1 0
67369.1 223.302 0
0    0    0

-5.97212 78287.8 0
78287.8 131.187 0
0    0    0

-127.971 78658.1 0
78658.1 -54.9675 0
0    0    0

-66.3825 79134.8 0
79134.8 108.909 0
0    0    0

-318.931 79174.1 0
79174.1 -167.874 0
0    0    0

-110.242 79401.8 0
79401.8 184.431 0
0    0    0

14.8768 78694.9 0
78694.9 -21.3413 0
0    0    0

50.1997 78207.3 0
78207.3 251.507 0
0    0    0

167.231 77584.4 0
77584.4 58.8188 0
0    0    0

276.746 77760 0
77760 452.922 0
0    0    0

-115.218 77982.4 0
77982.4 -272.732 0
0    0    0

-86.2045 77343 0
77343 1.08613 0
0    0    0

-43.2995 77412.5 0
77412.5 -18.5569 0
0    0    0

-79.3195 76875.8 0
76875.8 58.3494 0
0    0    0

163.716 76029 0
76029 -30.3486 0
0    0    0

-70.9922 75888.1 0
75888.1 -233.511 0
0    0    0

67.2233 76128.7 0
76128.7 216.564 0
0    0    0

-40.109 76158.9 0
76158.9 119.476 0
0    0    0

153.338 79175.5 0
79175.5 277.444 0
0    0    0

299.982 78768.2 0
78768.2 166.645 0
0    0    0

-316.496 82118.2 0
82118.2 -71.5924 0
0    0    0

-69.4929 79711.8 0
79711.8 -322.731 0
0    0    0

31.5603 81216.2 0
81216.2 -284.424 0
0    0    0

97.7718 81784.8 0
81784.8 24.9288 0
0    0    0

-198.287 93100.2 0
93100.2 -290.019 0
0    0    0

316.42 93178.4 0
93178.4 203.393 0
0    0    0

62.5437 92235.5 0
92235.5 250.629 0
0    0    0

195.297 92867.7 0
92867.7 255.298 0
0    0    0

-173.829 92463.9 0
92463.9 -133.777 0
0    0    0

80.9706 95774.5 0
95774.5 186.849 0
0    0    0

152.449 93548 0
93548 -111.232 0
0    0    0

-162.752 93801.5 0
93801.5 -303.307 0
0    0    0

-31.5699 94733.1 0
94733.1 -249.24 0
0    0    0

117.242 95512.6 0
95512.6 161.021 0
0    0    0

-17.4217 95050.2 0
95050.2 -213.47 0
0    0    0

-137.249 94959.9 0
94959.9 43.9911 0
0    0    0

31.165 94704.7 0
94704.7 89.2554 0
0    0    0

176.284 93968.4 0
93968.4 237.072 0
0    0    0

46.0909 94516.4 0
94516.4 321.587 0
0    0    0

-170.918 94249 0
94249 -185.947 0
0    0    0

99.0712 94511.9 0
94511.9 -197.94 0
0    0    0

-72.399 94424.4 0
94424.4 -29.9628 0
0    0    0

-1.43237 94423.1 0
94423.1 291.081 0
0    0    0

-3.47396 94227.4 0
94227.4 156.374 0
0    0    0

-207.504 95238.6 0
95238.6 -88.9304 0
0    0    0

-43.1604 94805.7 0
94805.7 -256.085 0
0    0    0

35.471 94861.8 0
94861.8 15.2018 0
0    0    0

27.8011 94327.1 0
94327.1 -47.3954 0
0    0    0

66.5483 95183.7 0
95183.7 244.674 0
0    0    0

223.263 95629.8 0
95629.8 1.42226 0
0    0    0

118.589 93629.4 0
93629.4 257.27 0
0    0    0

154.604 92273.3 0
92273.3 81.0256 0
0    0    0

130.944 94598.4 0
94598.4 152.603 0
0    0    0

85.266 94255 0
94255 125.522 0
0    0    0

6.71782 95825.5 0
95825.5 2.87906 0
0    0    0

-245.615 96210.7 0
96210.7 -401.193 0
0    0    0

15.9295 95478 0
95478 -145.241 0
0    0    0

188.133 96424.1 0
96424.1 80.6286 0
0    0    0

-33.8575 93866 0
93866 -349.437 0
0    0    0

-14.305 93830.7 0
93830.7 -280.724 0
0    0    0

168.024 93092.3 0
93092.3 184.519 0
0    0    0

-7.64294 91673.7 0
91673.7 -164.423 0
0    0    0

-27.3371 92247.1 0
92247.1 290.671 0
0    0    0

-191.361 91795.4 0
91795.4 -298.187 0
0    0    0

200.611 93188.5 0
93188.5 203.948 0
0    0    0

-80.0632 95334.1 0
95334.1 -183.356 0
0    0    0

106.694 96184 0
96184 109.337 0
0    0    0

-162.861 92419.7 0
92419.7 -302.319 0
0    0    0

-156.964 93565 0
93565 -95.0994 0
0    0    0

146.564 92693.6 0
92693.6 313.04 0
0    0    0

-99.2746 92455 0
92455 -346.078 0
0    0    0

-84.1424 92169.9 0
92169.9 31.2897 0
0    0    0

267.211 90943.5 0
90943.5 162.705 0
0    0    0

168.215 91427.9 0
91427.9 258.626 0
0    0    0

86.677 94979 0
94979 226.517 0
0    0    0

-241.048 95316 0
95316 -172.56 0
0    0    0

-207.968 96648.7 0
96648.7 -141.009 0
0    0    0

-11.4047 96086 0
96086 -4.88772 0
0    0    0

252.059 95785.5 0
95785.5 563.065 0
0    0    0

-138.332 97128.7 0
97128.7 -59.2853 0
0    0    0

-128.398 96442 0
96442 -343.688 0
0    0    0

-188.974 95577 0
95577 -297.396 0
0    0    0

70.1568 96042.5 0
96042.5 204.415 0
0    0    0

-256.934 92909 0
92909 -339.408 0
0    0    0

38.2901 96757.2 0
96757.2 16.41 0
0    0    0

44.7942 93132.2 0
93132.2 135.591 0
0    0    0

-239.498 91835.3 0
91835.3 -266.89 0
0    0    0

88.2615 91974.6 0
91974.6 25.6615 0
0    0    0

168.654 90690.7 0
90690.7 -165.708 0
0    0    0

-157.147 91366.1 0
91366.1 -189.426 0
0    0    0

164.275 95185.4 0
95185.4 -210.728 0
0    0    0

64.3163 95551.1 0
95551.1 27.5641 0
0    0    0

178.666 92665.3 0
92665.3 345.015 0
0    0    0

219.159 92557.3 0
92557.3 112.074 0
0    0    0

13.3952 92498.5 0
92498.5 98.5482 0
0    0    0

-32.2743 92750.7 0
92750.7 -405.143 0
0    0    0

-138.972 92491.7 0
92491.7 102.406 0
0    0    0

57.9665 91775 0
91775 101.528 0
0    0    0

-54.6863 92913.5 0
92913.5 -3.55185 0
0    0    0

-45.6429 92827.7 0
92827.7 -346.929 0
0    0    0

64.0415 93864.6 0
93864.6 -29.1135 0
0    0    0

-184.718 94143.2 0
94143.2 -48.6595 0
0    0    0

-87.8258 96896.6 0
96896.6 111.773 0
0    0    0

70.2317 97703.6 0
97703.6 202.017 0
0    0    0

-232.042 96544.3 0
96544.3 -550.005 0
0    0    0

2.59803 96924.7 0
96924.7 203.416 0
0    0    0

146.196 97390.1 0
97390.1 353.347 0
0    0    0

224.472 96782.6 0
96782.6 486.317 0
0    0    0

-132.623 97012.3 0
97012.3 -349.805 0
0    0    0

190.234 97741.6 0
97741.6 81.5291 0
0    0    0

52.7364 97007.4 0
97007.4 -347.599 0
0    0    0

153.958 97441.2 0
97441.2 65.9818 0
0    0    0

30.5648 94111.7 0
94111.7 213.908 0
0    0    0

-11.2505 95241.9 0
95241.9 -249.376 0
0    0    0

63.6196 94421.4 0
94421.4 148.446 0
0    0    0

-131.178 93971.9 0
93971.9 -208.762 0
0    0    0

20.5434 94850.2 0
94850.2 47.9346 0
0    0    0

-53.7714 93952.7 0
93952.7 -125.467 0
0    0    0

68.2025 93867.9 0
93867.9 -212.892 0
0    0    0

-2.07937 93796.1 0
93796.1 236.673 0
0    0    0

97.5879 94498.3 0
94498.3 -71.1033 0
0    0    0

158.35 93715.2 0
93715.2 -10.6632 0
0    0    0

-116.244 93982.9 0
93982.9 150.634 0
0    0    0

-99.4792 94547.1 0
94547.1 15.5875 0
0    0    0

224.054 94148.9 0
94148.9 -19.1906 0
0    0    0

95.2021 90729.2 0
90729.2 222.138 0
0    0    0

-109.349 90124.4 0
90124.4 -133.877 0
0    0    0

40.5645 90926.8 0
90926.8 -224.29 0
0    0    0

59.063 91142.3 0
91142.3 137.814 0
0    0    0

144.466 90233.2 0
90233.2 170.495 0
0    0    0

159.636 90240.4 0
90240.4 372.484 0
0    0    0

-208.606 90697.6 0
90697.6 -119.335 0
0    0    0

191.433 89812.1 0
89812.1 -59.0578 0
0    0    0

9.09301 90489.7 0
90489.7 158.818 0
0    0    0

-122.525 89567.8 0
89567.8 -10.913 0
0    0    0

-2.11474 89896.1 0
89896.1 258.636 0
0    0    0

104.611 90565 0
90565 -31.8116 0
0    0    0

176.548 91237.9 0
91237.9 230.466 0
0    0    0

163.726 84955.7 0
84955.7 331.985 0
0    0    0

-243.945 84354.5 0
84354.5 -230.417 0
0    0    0

-151.228 85768.3 0
85768.3 -272.767 0
0    0    0

-241.496 86213.6 0
86213.6 -253.61 0
0    0    0

145.961 87007.5 0
87007.5 246.764 0
0    0    0

48.1237 86259.4 0
86259.4 164.453 0
0    0    0

80.5976 85723.4 0
85723.4 -203.57 0
0    0    0

65.9473 85735.9 0
85735.9 -264.5 0
0    0    0

-39.179 87392 0
87392 -319.74 0
0    0    0

-275.819 86803.1 0
86803.1 -345.382 0
0    0    0

-198.167 88083.9 0
88083.9 -275.415 0
0    0    0

132.019 87971.9 0
87971.9 56.5795 0
0    0    0

161.35 87707.5 0
87707.5 374.783 0
0    0    0

-7.58132 88407.1 0
88407.1 241.785 0
0    0    0

-40.1734 88764.1 0
88764.1 -256.108 0
0    0    0

-2.52574 88997.8 0
88997.8 113.948 0
0    0    0

-24.0063 88544.5 0
88544.5 84.8697 0
0    0    0

76.6889 89222.4 0
89222.4 -128.239 0
0    0    0

192.919 88332.1 0
88332.1 525.033 0
0    0    0

306.519 86435.8 0
86435.8 309.603 0
0    0    0

-280.694 86889.3 0
86889.3 -249.522 0
0    0    0

64.5593 89594.7 0
89594.7 27.6683 0
0    0    0

-28.5451 88948 0
88948 81.8568 0
0    0    0

42.116 87061.8 0
87061.8 18.0497 0
0    0    0

84.6738 88539.2 0
88539.2 36.2888 0
0    0    0

59.2011 87732.3 0
87732.3 217.011 0
0    0    0

285.704 87107.2 0
87107.2 274.814 0
0    0    0

86.8393 87387.8 0
87387.8 37.2169 0
0    0    0

98.1193 87717.3 0
87717.3 42.0511 0
0    0    0

230.664 69262.3 0
69262.3 346.967 0
0    0    0

148.305 69094.6 0
69094.6 49.3634 0
0    0    0

126.114 70533.9 0
70533.9 -95.056 0
0    0    0

-92.6487 71997 0
71997 52.0094 0
0    0    0

-180.978 71398 0
71398 -369.663 0
0    0    0

-106.789 69967.1 0
69967.1 124.477 0
0    0    0

96.8491 71521.6 0
71521.6 21.2565 0
0    0    0

169.135 71097.9 0
71097.9 178.695 0
0    0    0

92.5023 68479.6 0
68479.6 -119.631 0
0    0    0

-21.6618 69399 0
69399 -219.717 0
0    0    0

221.258 69152.6 0
69152.6 176.423 0
0    0    0

83.9691 68958.8 0
68958.8 -114.592 0
0    0    0

-155.414 68718.1 0
68718.1 69.5899 0
0    0    0

-165.448 69236.8 0
69236.8 63.5728 0
0    0    0

-161.936 69692.5 0
69692.5 87.5729 0
0    0    0

238.197 70091.7 0
70091.7 -35.2567 0
0    0    0

154.415 69680 0
69680 198.584 0
0    0    0

154.679 69842.3 0
69842.3 203.762 0
0    0    0

197.847 71159.8 0
71159.8 99.5741 0
0    0    0

-234.024 69768.1 0
69768.1 -219.02 0
0    0    0

209.332 71108.4 0
71108.4 248.871 0
0    0    0

67.6378 70356.3 0
70356.3 8.3759 0
0    0    0

-271.797 70078.3 0
70078.3 -205.013 0
0    0    0

26.4434 70451.6 0
70451.6 135.796 0
0    0    0

-114.071 70170.1 0
70170.1 -232.862 0
0    0    0

-238.501 70756.8 0
70756.8 -183.702 0
0    0    0

-74.0461 71284.6 0
71284.6 88.7882 0
0    0    0

218.562 70311.3 0
70311.3 137.72 0
0    0    0

-145.551 71451.2 0
71451.2 -176.068 0
0    0    0

-49.1691 70769.6 0
70769.6 188.684 0
0    0    0

-171.615 70932.9 0
70932.9 105.45 0
0    0    0

11.7841 70473.3 0
70473.3 174.954 0
0    0    0

162.7 70618.9 0
70618.9 -74.1705 0
0    0    0

151.206 71232.5 0
71232.5 378.451 0
0    0    0

-71.5099 63638.7 0
63638.7 -149.93 0
0    0    0

452.407 64369.7 0
64369.7 402.833 0
0    0    0

-66.8972 63605.5 0
63605.5 260.025 0
0    0    0

-148.826 62996.9 0
62996.9 -75.482 0
0    0    0

146.367 63967.1 0
63967.1 39.4903 0
0    0    0

139.278 63879.7 0
63879.7 -183.346 0
0    0    0

-207.811 67028.1 0
67028.1 -187.285 0
0    0    0

58.7927 67423.1 0
67423.1 130.768 0
0    0    0

274.79 55876.5 0
55876.5 382.476 0
0    0    0

366.513 55410.7 0
55410.7 147.654 0
0    0    0

-217.411 55117.3 0
55117.3 -126.453 0
0    0    0

-20.436 55533.3 0
55533.3 -43.834 0
0    0    0

253.71 54807 0
54807 76.7288 0
0    0    0

8.53673 56370.3 0
56370.3 222.061 0
0    0    0

-219.228 53854.2 0
53854.2 -257.822 0
0    0    0

240.551 54732.8 0
54732.8 109.766 0
0    0    0

-162.709 54375.7 0
54375.7 -470.314 0
0    0    0

-102.558 55600 0
55600 -148.185 0
0    0    0

-59.0302 53631.2 0
53631.2 -93.1671 0
0    0    0

-130.278 54959.7 0
54959.7 -41.6292 0
0    0    0

46.7094 56023.7 0
56023.7 -160.397 0
0    0    0

-200.65 55246.7 0
55246.7 82.3969 0
0    0    0

-33.7217 53916.5 0
53916.5 -16.0311 0
0    0    0

263.687 55442.7 0
55442.7 290.828 0
0    0    0

197.27 54023.6 0
54023.6 151.794 0
0    0    0

-83.0221 55137.2 0
55137.2 -79.5475 0
0    0    0

165.913 56771.9 0
56771.9 203.764 0
0    0    0

37.6338 56588.9 0
56588.9 -4.252 0
0    0    0

-75.9621 54619.8 0
54619.8 -230.038 0
0    0    0

-167.339 54576 0
54576 -20.4744 0
0    0    0

19.1385 54555.7 0
54555.7 371.469 0
0    0    0

-19.589 56233.4 0
56233.4 -68.5289 0
0    0    0

142.553 54889.1 0
54889.1 218.969 0
0    0    0

238.893 55660.6 0
55660.6 214.94 0
0    0    0

-155.697 57098.7 0
57098.7 -253.702 0
0    0    0

-185.884 57435.9 0
57435.9 -204.527 0
0    0    0

-93.7181 53005.4 0
53005.4 -246.952 0
0    0    0

152.812 54003.4 0
54003.4 309.059 0
0    0    0

22.9014 56531.9 0
56531.9 -203.228 0
0    0    0

-98.1616 57680.9 0
57680.9 186.231 0
0    0    0

73.7959 56152.3 0
56152.3 264.176 0
0    0    0

303.908 56842.9 0
56842.9 98.4291 0
0    0    0

-223.777 55861.4 0
55861.4 -353.037 0
0    0    0

249.668 55777.8 0
55777.8 363.048 0
0    0    0

-394.482 57193.6 0
57193.6 -189.541 0
0    0    0

-263.118 58767.3 0
58767.3 -279.525 0
0    0    0

-215.256 57758.8 0
57758.8 -210.131 0
0    0    0

55.9173 58390.1 0
58390.1 -110.5 0
0    0    0

62.6657 57384.1 0
57384.1 222.269 0
0    0    0

-265.464 57886.2 0
57886.2 -107.045 0
0    0    0

255.242 56941.2 0
56941.2 249.031 0
0    0    0

-167.839 58746.4 0
58746.4 -107.171 0
0    0    0

152.143 57409.3 0
57409.3 116.305 0
0    0    0

169.589 57994.8 0
57994.8 290.085 0
0    0    0

-118.418 56703.6 0
56703.6 -258.364 0
0    0    0

-14.1938 57809.8 0
57809.8 41.7085 0
0    0    0

-249.332 58164.4 0
58164.4 -114.125 0
0    0    0

287.689 58184.3 0
58184.3 192.273 0
0    0    0

241.369 57911.5 0
57911.5 131.678 0
0    0    0

199.78 58556.4 0
58556.4 22.5039 0
0    0    0

115.019 58995 0
58995 271.919 0
0    0    0

-61.2881 59370.8 0
59370.8 -8.82455 0
0    0    0

-203.999 59014.4 0
59014.4 -253.65 0
0    0    0

-313.537 59218.2 0
59218.2 -358.087 0
0    0    0

112.418 58312 0
58312 41.6037 0
0    0    0

190.99 58903.6 0
58903.6 343.256 0
0    0    0

-106.263 56123 0
56123 47.7456 0
0    0    0

-8.59769 56443.2 0
56443.2 90.5064 0
0    0    0

288.806 57378.2 0
57378.2 309.141 0
0    0    0

162.227 57075.6 0
57075.6 23.0736 0
0    0    0

173.985 53907 0
53907 127.61 0
0    0    0

52.081 54002.9 0
54002.9 272.355 0
0    0    0

-135.593 54922.4 0
54922.4 -396.197 0
0    0    0

-135.799 55129.5 0
55129.5 -307.123 0
0    0    0

-137.255 54305 0
54305 22.9112 0
0    0    0

258.375 54284.3 0
54284.3 551.829 0
0    0    0

19.2805 55151.3 0
55151.3 -273.482 0
0    0    0

284.674 52565.7 0
52565.7 275.341 0
0    0    0

-282.262 53468.9 0
53468.9 -366.646 0
0    0    0

98.0617 51979.4 0
51979.4 292.454 0
0    0    0

56.5868 52096.2 0
52096.2 -68.2354 0
0    0    0

-313.156 52879.9 0
52879.9 -268.652 0
0    0    0

-125.956 53683.4 0
53683.4 -355.708 0
0    0    0

-106.568 52155.1 0
52155.1 -5.75653 0
0    0    0

-225.977 52874.7 0
52874.7 -170.655 0
0    0    0

123.171 52268.4 0
52268.4 72.0528 0
0    0    0

-2.62286 53142.5 0
53142.5 317.475 0
0    0    0

-5.91755 53343.7 0
53343.7 -128.502 0
0    0    0

2.64425 52848.3 0
52848.3 -251.84 0
0    0    0

-30.5958 51212.5 0
51212.5 51.1609 0
0    0    0

-270.058 53225.6 0
53225.6 -372.382 0
0    0    0

273.233 52614.8 0
52614.8 228.834 0
0    0    0

40.0255 53889 0
53889 -59.3997 0
0    0    0

39.6575 53501.8 0
53501.8 75.4191 0
0    0    0

5.58354 54322.7 0
54322.7 -234.459 0
0    0    0

71.1055 54157.5 0
54157.5 221.286 0
0    0    0

-63.9673 53121.9 0
53121.9 -186.061 0
0    0    0

-141.816 53613.3 0
53613.3 -57.9406 0
0    0    0

166.622 51480.5 0
51480.5 284.238 0
0    0    0

191.761 51924.4 0
51924.4 303.331 0
0    0    0

-306.062 52569.4 0
52569.4 -415.327 0
0    0    0

247.782 52012.2 0
52012.2 227.347 0
0    0    0

21.7329 53394.7 0
53394.7 270.044 0
0    0    0

39.0408 52733.2 0
52733.2 97.8728 0
0    0    0

230.391 53117.7 0
53117.7 470.628 0
0    0    0

-109.661 53339 0
53339 76.7622 0
0    0    0

283.685 52163 0
52163 326.648 0
0    0    0

-230.736 52504.6 0
52504.6 -221.395 0
0    0    0

136.43 53701.3 0
53701.3 264.562 0
0    0    0

93.3122 53413 0
53413 50.919 0
0    0    0

-39.5482 51702.6 0
51702.6 148.291 0
0    0    0

174.929 52119.2 0
52119.2 396.938 0
0    0    0

-143.372 51912.5 0
51912.5 109.259 0
0    0    0

201.16 52234.8 0
52234.8 223.103 0
0    0    0

113.745 53148.8 0
53148.8 195.412 0
0    0    0

328.348 53732.8 0
53732.8 384.11 0
0    0    0

-66.367 51958.2 0
51958.2 17.5621 0
0    0    0

-131.577 52412.9 0
52412.9 -279.245 0
0    0    0

154.241 51693.3 0
51693.3 0.257985 0
0    0    0

-179.821 52436.3 0
52436.3 -237.851 0
0    0    0

146.185 52685.3 0
52685.3 437.165 0
0    0    0

222.743 52831.7 0
52831.7 357.173 0
0    0    0

-3.72077 55363 0
55363 116.936 0
0    0    0

-174.306 55625.1 0
55625.1 -102.102 0
0    0    0

42.0483 72546.2 0
72546.2 337.091 0
0    0    0

167.071 71852.6 0
71852.6 119.469 0
0    0    0

130.372 76887.7 0
76887.7 34.2048 0
0    0    0

62.6458 76763.9 0
76763.9 236.851 0
0    0    0

-161.312 76969.2 0
76969.2 -162.653 0
0    0    0

136.45 75194.9 0
75194.9 58.4787 0
0    0    0

-85.0859 74949.9 0
74949.9 -281.781 0
0    0    0

-206 74289.8 0
74289.8 -101.585 0
0    0    0

-5.95165 74449.2 0
74449.2 -186.548 0
0    0    0

50.6622 72830.3 0
72830.3 230.802 0
0    0    0

-52.1735 73156.4 0
73156.4 -250.422 0
0    0    0

-53.8929 72718.7 0
72718.7 -132.255 0
0    0    0

144.481 72996.7 0
72996.7 389.279 0
0    0    0

-44.6586 72375.9 0
72375.9 51.9772 0
0    0    0

125.524 71966.8 0
71966.8 -107.909 0
0    0    0

-273.696 72138.1 0
72138.1 -27.1174 0
0    0    0

-68.9341 71169 0
71169 -158.114 0
0    0    0

-163.838 67669.9 0
67669.9 -155.513 0
0    0    0

131.783 72668.7 0
72668.7 56.4785 0
0    0    0

-214.291 66795.5 0
66795.5 -201.713 0
0    0    0

475.526 67370.7 0
67370.7 326.245 0
0    0    0

-71.4631 68217.9 0
68217.9 188.308 0
0    0    0

-204.829 78593.3 0
78593.3 -211.389 0
0    0    0

73.6933 79013.4 0
79013.4 335.887 0
0    0    0

-90.0024 79985.7 0
79985.7 154.447 0
0    0    0

72.4883 80040.6 0
80040.6 216.02 0
0    0    0

19.2518 80326.1 0
80326.1 -257.306 0
0    0    0

-161.867 79608.9 0
79608.9 -144.437 0
0    0    0

62.1098 81450.2 0
81450.2 26.6185 0
0    0    0

263.698 81095 0
81095 158.883 0
0    0    0

188.41 79653.2 0
79653.2 236.252 0
0    0    0

192.069 80802.1 0
80802.1 -67.8418 0
0    0    0

-75.223 81346 0
81346 157.715 0
0    0    0

210.655 80438.8 0
80438.8 220.408 0
0    0    0

151.187 80637.1 0
80637.1 -15.2216 0
0    0    0

192.688 81152.5 0
81152.5 223.69 0
0    0    0

-23.1428 81303.6 0
81303.6 96.7087 0
0    0    0

10.5882 80652.2 0
80652.2 173.788 0
0    0    0

212.468 81915.7 0
81915.7 195.717 0
0    0    0

-316.45 81646.6 0
81646.6 -308.305 0
0    0    0

49.0477 80638.4 0
80638.4 63.1218 0
0    0    0

-158.703 80943.5 0
80943.5 -174.283 0
0    0    0

251.931 81976.1 0
81976.1 107.97 0
0    0    0

89.389 81452.6 0
81452.6 -175.621 0
0    0    0

-75.4584 80678.2 0
80678.2 -146.075 0
0    0    0

-174.637 80941.2 0
80941.2 -65.6747 0
0    0    0

-159.435 94007.5 0
94007.5 -86.1854 0
0    0    0

7.42737 94037 0
94037 26.0866 0
0    0    0

227.148 93694 0
93694 442.021 0
0    0    0

-269.573 93447.4 0
93447.4 -515.685 0
0    0    0

-134.75 92998.8 0
92998.8 -227.059 0
0    0    0

-382.982 93435.3 0
93435.3 -187.102 0
0    0    0

-14.6446 93234 0
93234 116.938 0
0    0    0

36.5906 92593 0
92593 137.066 0
0    0    0

260.602 95117 0
95117 245.621 0
0    0    0

-216.562 95987 0
95987 -33.7951 0
0    0    0

-231.887 96479.2 0
96479.2 -247.536 0
0    0    0

184.159 95830.2 0
95830.2 114.852 0
0    0    0

-18.8775 95352.2 0
95352.2 -44.0475 0
0    0    0

-77.2191 94912.7 0
94912.7 -74.4683 0
0    0    0

-45.5655 95090 0
95090 277.218 0
0    0    0

-106.107 94372.4 0
94372.4 -294.84 0
0    0    0

-38.0064 95377.3 0
95377.3 90.7358 0
0    0    0

183.901 94560.2 0
94560.2 222.508 0
0    0    0

67.4737 89688.8 0
89688.8 -136.444 0
0    0    0

-141.514 90534.3 0
90534.3 -220.309 0
0    0    0

-251.438 88707.3 0
88707.3 -496.345 0
0    0    0

177.981 88939.2 0
88939.2 76.2777 0
0    0    0

-196.912 69718.1 0
69718.1 -169.779 0
0    0    0

-182.192 70086.1 0
70086.1 -214.676 0
0    0    0

143.1 69839.4 0
69839.4 113.595 0
0    0    0

188.355 69860.3 0
69860.3 127.101 0
0    0    0

-118.011 71375.4 0
71375.4 -119.521 0
0    0    0

-199.854 70349.5 0
70349.5 -142.937 0
0    0    0

-156.705 70248.1 0
70248.1 -251.343 0
0    0    0

49.0804 70506.1 0
70506.1 344.945 0
0    0    0

119.838 70188.3 0
70188.3 -34.8404 0
0    0    0

-151.712 70807.6 0
70807.6 -282.026 0
0    0    0

12.7222 70925.8 0
70925.8 179.064 0
0    0    0

99.8527 70831 0
70831 -56.8929 0
0    0    0

223.004 71954.4 0
71954.4 69.0891 0
0    0    0

184.527 72285.7 0
72285.7 172.061 0
0    0    0

-208.636 71677.9 0
71677.9 -474.725 0
0    0    0

-105.435 71990.5 0
71990.5 27.2423 0
0    0    0

258.974 71641.7 0
71641.7 -211.983 0
0    0    0

83.5241 71421.4 0
71421.4 114.034 0
0    0    0

-257.161 72288.4 0
72288.4 -90.7284 0
0    0    0

110.171 72980 0
72980 327.405 0
0    0    0

-78.4687 72159.2 0
72159.2 -321.647 0
0    0    0

-156.697 72914.1 0
72914.1 -359.824 0
0    0    0

-207.392 73061.7 0
73061.7 -168.117 0
0    0    0

-281.033 72497.9 0
72497.9 -279.338 0
0    0    0

51.4177 71293.7 0
71293.7 126.995 0
0    0    0

120.679 71991.8 0
71991.8 39.2454 0
0    0    0

158.055 71208.3 0
71208.3 24.0883 0
0    0    0

-8.70226 72450.4 0
72450.4 -289.284 0
0    0    0

101.924 72276 0
72276 85.8632 0
0    0    0

208.453 71844.9 0
71844.9 344.599 0
0    0    0

160.09 72254 0
72254 210.151 0
0    0    0

315.109 72769.8 0
72769.8 461.585 0
0    0    0

-109.157 72981.9 0
72981.9 144.065 0
0    0    0

120.312 72619.6 0
72619.6 58.8776 0
0    0    0

-163.764 69923.6 0
69923.6 -228.446 0
0    0    0

-174.01 70310.5 0
70310.5 -154.638 0
0    0    0

-112.569 63174.9 0
63174.9 -83.3231 0
0    0    0

126.715 63606.5 0
63606.5 375.525 0
0    0    0

-83.3828 63712.9 0
63712.9 53.8029 0
0    0    0

93.1648 64668 0
64668 -113.921 0
0    0    0

-440.848 64680.6 0
64680.6 -297.871 0
0    0    0

-61.9002 63982.2 0
63982.2 -355.803 0
0    0    0

164.444 63105.7 0
63105.7 -73.7107 0
0    0    0

109.47 64084.1 0
64084.1 220.571 0
0    0    0

22.9971 63427.4 0
63427.4 107.453 0
0    0    0

284.73 64184.9 0
64184.9 301.828 0
0    0    0

-197.311 64316.4 0
64316.4 -116.202 0
0    0    0

-186.324 63656.9 0
63656.9 -421.843 0
0    0    0

-143.735 57799.6 0
57799.6 -292.593 0
0    0    0

-76.0655 58160.4 0
58160.4 -93.4537 0
0    0    0

-203.356 57064.6 0
57064.6 85.6314 0
0    0    0

165.528 57045.7 0
57045.7 231.409 0
0    0    0

-197.836 58178.9 0
58178.9 -90.1194 0
0    0    0

182.314 59199.8 0
59199.8 -21.7787 0
0    0    0

-299.368 57362.3 0
57362.3 -285.08 0
0    0    0

-333.95 56674.5 0
56674.5 -142.158 0
0    0    0

173.408 57208.7 0
57208.7 -92.7953 0
0    0    0

376.21 58173.7 0
58173.7 144.934 0
0    0    0

-115.039 58404.1 0
58404.1 -135.758 0
0    0    0

55.129 57741.3 0
57741.3 33.2153 0
0    0    0

-65.9031 59081.4 0
59081.4 -308.881 0
0    0    0

-140.219 59005.8 0
59005.8 122.889 0
0    0    0

225.013 59387.5 0
59387.5 286.959 0
0    0    0

-317.187 59629.6 0
59629.6 -87.252 0
0    0    0

38.5068 57881.2 0
57881.2 97.3575 0
0    0    0

120.9 57285.7 0
57285.7 -65.3619 0
0    0    0

266.793 56377.3 0
56377.3 123.31 0
0    0    0

275.532 56880.6 0
56880.6 280.301 0
0    0    0

-253.047 56184.1 0
56184.1 -327.367 0
0    0    0

106.675 56085.8 0
56085.8 26.5912 0
0    0    0

-219.859 56908.9 0
56908.9 -76.7207 0
0    0    0

-211.56 56297.9 0
56297.9 -380.564 0
0    0    0

75.4381 56363.5 0
56363.5 -207.467 0
0    0    0

13.2233 56893.3 0
56893.3 221.894 0
0    0    0

-104.861 57709.2 0
57709.2 -151.727 0
0    0    0

-283.252 57129.2 0
57129.2 -359.015 0
0    0    0

-200.347 61333.4 0
61333.4 -161.014 0
0    0    0

17.9569 58424.2 0
58424.2 -7.02874 0
0    0    0

-52.4504 58188.6 0
58188.6 23.211 0
0    0    0

97.3995 59641.9 0
59641.9 -76.8372 0
0    0    0

77.3784 58087.8 0
58087.8 -116.087 0
0    0    0

-72.2211 58713.9 0
58713.9 386.075 0
0    0    0

113.019 56692.8 0
56692.8 27.6272 0
0    0    0

64.4875 56482.8 0
56482.8 -71.7546 0
0    0    0

-120.988 55590.8 0
55590.8 -105.71 0
0    0    0

62.5488 56160.5 0
56160.5 240.962 0
0    0    0

-191.845 55611.7 0
55611.7 12.4516 0
0    0    0

78.895 54894.5 0
54894.5 257.06 0
0    0    0

29.9356 53342 0
53342 -350.539 0
0    0    0

146.006 53775.5 0
53775.5 -15.9886 0
0    0    0

245.01 54912.8 0
54912.8 245.588 0
0    0    0

-138.293 55083.6 0
55083.6 -200.807 0
0    0    0

-104.451 76333 0
76333 -418.965 0
0    0    0

132.083 76144.9 0
76144.9 -18.1717 0
0    0    0

-100.877 71939.2 0
71939.2 -155.829 0
0    0    0

-231.967 72243.5 0
72243.5 -78.1911 0
0    0    0

197.256 72427.2 0
72427.2 224.074 0
0    0    0

-58.1655 72101.3 0
72101.3 67.1539 0
0    0    0

-184.679 70503 0
70503 -442.16 0
0    0    0

8.18843 70323.8 0
70323.8 236.023 0
0    0    0

229.26 69800.7 0
69800.7 315.958 0
0    0    0

-184.447 70665.6 0
70665.6 -559.367 0
0    0    0

-32.6115 70915.1 0
70915.1 331.028 0
0    0    0

82.8771 70665.4 0
70665.4 209.738 0
0    0    0

-155.984 70729.4 0
70729.4 -160.095 0
0    0    0

138.055 72485.5 0
72485.5 251.214 0
0    0    0

100.595 68352.8 0
68352.8 226.861 0
0    0    0

-35.582 68148.8 0
68148.8 -109.634 0
0    0    0

24.1369 95234.1 0
95234.1 -280.121 0
0    0    0

40.2155 95680.8 0
95680.8 -52.5528 0
0    0    0

-94.3937 96802.1 0
96802.1 -220.252 0
0    0    0

22.3561 95839.3 0
95839.3 52.1641 0
0    0    0

-162.495 95885.8 0
95885.8 1.08468 0
0    0    0

38.4676 96333.4 0
96333.4 89.7578 0
0    0    0

-344.966 96321.3 0
96321.3 -414.805 0
0    0    0

158.945 96055.2 0
96055.2 118.289 0
0    0    0

-208.787 95691.3 0
95691.3 -197.448 0
0    0    0

-18.5173 95524.2 0
95524.2 102.534 0
0    0    0

129.25 96051.5 0
96051.5 167.6 0
0    0    0

336.845 96612.4 0
96612.4 392.859 0
0    0    0

0.018543 96933.3 0
96933.3 -156.474 0
0    0    0

-154.229 96539.1 0
96539.1 -131.032 0
0    0    0

-189.582 95874.3 0
95874.3 -218.334 0
0    0    0

48.6053 96051.8 0
96051.8 254.52 0
0    0    0

303.44 95593.3 0
95593.3 212.961 0
0    0    0

-155.128 96438.7 0
96438.7 132.778 0
0    0    0

-50.4983 96300.4 0
96300.4 -257.509 0
0    0    0

-103.907 95869.4 0
95869.4 -241.201 0
0    0    0

78.3929 96747.8 0
96747.8 -159.353 0
0    0    0

-195.45 97006 0
97006 -213.173 0
0    0    0

68.2885 96689.3 0
96689.3 232.223 0
0    0    0

60.452 96743.4 0
96743.4 242.027 0
0    0    0

129.13 96424 0
96424 -132.979 0
0    0    0

17.881 97246.3 0
97246.3 203.66 0
0    0    0

-73.1337 97026.2 0
97026.2 -235.583 0
0    0    0

-96.4592 97547.3 0
97547.3 -238.757 0
0    0    0

108.426 97243.3 0
97243.3 252.993 0
0    0    0

-132.409 97545.5 0
97545.5 -263.473 0
0    0    0

-69.3788 98157.3 0
98157.3 -26.512 0
0    0    0

103.42 97227.6 0
97227.6 265.945 0
0    0    0

-1.45249e-06 99609.4 0
99609.4 -2.04196e-06 0
0    0    0

-64.5554 96972.5 0
96972.5 -327.483 0
0    0    0

113.129 98087.9 0
98087.9 -0.557687 0
0    0    0

83.1208 96614.3 0
96614.3 458.681 0
0    0    0

44.0422 97429.4 0
97429.4 -178.885 0
0    0    0

2.73326 96791.8 0
96791.8 103.407 0
0    0    0

-192.522 98899.1 0
98899.1 -185.996 0
0    0    0

39.8189 97228.3 0
97228.3 -66.4777 0
0    0    0

200.157 98610.8 0
98610.8 94.0044 0
0    0    0

-65.8328 98015.2 0
98015.2 -199.227 0
0    0    0

70.4108 99109.7 0
99109.7 164.292 0
0    0    0

58.9664 98613.2 0
98613.2 137.588 0
0    0    0

78.4099 98521.7 0
98521.7 -148.847 0
0    0    0

-269.951 99519.8 0
99519.8 -177.876 0
0    0    0

-493.395 98914.5 0
98914.5 -259.142 0
0    0    0

140.054 99265.5 0
99265.5 60.0233 0
0    0    0

51.2071 98447.5 0
98447.5 -120.185 0
0    0    0

52.4253 98172.5 0
98172.5 122.326 0
0    0    0

431.327 98646.7 0
98646.7 236.768 0
0    0    0

228.609 99100.6 0
99100.6 140.5 0
0    0    0

-308.146 98469.2 0
98469.2 -88.0548 0
0    0    0

118.491 98960.3 0
98960.3 50.7819 0
0    0    0

-0.254573 62140.6 0
62140.6 221.367 0
0    0    0

-56.0068 95811.1 0
95811.1 -8.45202 0
0    0    0

54.2788 63917.4 0
63917.4 -140.599 0
0    0    0

-49.305 64899.1 0
64899.1 -221.505 0
0    0    0

-207.687 64363.8 0
64363.8 -117.302 0
0    0    0

253.103 58780.7 0
58780.7 290.916 0
0    0    0

399.509 59483.7 0
59483.7 272.269 0
0    0    0

-268.998 61696.9 0
61696.9 -265.529 0
0    0    0

194.222 62090.6 0
62090.6 73.4214 0
0    0    0

-360.574 57962.5 0
57962.5 -30.2169 0
0    0    0

-53.7596 58316.2 0
58316.2 184.94 0
0    0    0

19.4547 57581.4 0
57581.4 89.1616 0
0    0    0

134.023 58083.4 0
58083.4 0.212556 0
0    0    0

-470.442 59095.6 0
59095.6 -241.04 0
0    0    0

211.647 61021.2 0
61021.2 204.925 0
0    0    0

79.0433 60188 0
60188 -289.266 0
0    0    0

-145.971 60806.4 0
60806.4 -71.2803 0
0    0    0

-10.7045 60670.4 0
60670.4 -207.671 0
0    0    0

459.261 60446.6 0
60446.6 187.186 0
0    0    0

45.0883 54789.4 0
54789.4 -228.204 0
0    0    0

-221.736 55391.9 0
55391.9 -173.408 0
0    0    0

231.316 55226.5 0
55226.5 109.106 0
0    0    0

213.765 55087.4 0
55087.4 186.718 0
0    0    0

-14.2777 55740.3 0
55740.3 168.26 0
0    0    0

-139.203 56458.5 0
56458.5 -326.008 0
0    0    0

-167.485 55971.5 0
55971.5 -102.29 0
0    0    0

-116.141 57009.7 0
57009.7 67.7823 0
0    0    0

210.638 56870.1 0
56870.1 -40.8404 0
0    0    0

68.1499 57553.1 0
57553.1 -109.484 0
0    0    0

189.988 56602.1 0
56602.1 -66.2012 0
0    0    0

140.196 55576.5 0
55576.5 -29.7909 0
0    0    0

-18.0615 56091.2 0
56091.2 -27.8085 0
0    0    0

-7.63382 56185.1 0
56185.1 359.807 0
0    0    0

152.939 54868.8 0
54868.8 133.984 0
0    0    0

43.7925 56189.5 0
56189.5 -160.462 0
0    0    0

-63.1476 55821.9 0
55821.9 -171.263 0
0    0    0

207.482 55297.4 0
55297.4 250.513 0
0    0    0

185.063 55535.2 0
55535.2 143.796 0
0    0    0

-136.005 56846.8 0
56846.8 -196.183 0
0    0    0

41.2865 56318.9 0
56318.9 -196.398 0
0    0    0

-186.329 55814 0
55814 -51.0461 0
0    0    0

-62.884 56652.8 0
56652.8 7.83935 0
0    0    0

43.285 57613.5 0
57613.5 128.08 0
0    0    0

69.1267 56718.3 0
56718.3 150.296 0
0    0    0

-28.311 56023.9 0
56023.9 123.572 0
0    0    0

109.482 55977.8 0
55977.8 6.10971 0
0    0    0

-172.14 56474 0
56474 102.104 0
0    0    0

-67.4227 54243.2 0
54243.2 -97.0233 0
0    0    0

21.4946 54667.2 0
54667.2 -43.0972 0
0    0    0

-10.2441 71243.4 0
71243.4 182.671 0
0    0    0

96.2062 70780.8 0
70780.8 50.134 0
0    0    0

-95.9612 70345.3 0
70345.3 33.8012 0
0    0    0

-83.036 70356.7 0
70356.7 277.145 0
0    0    0

95.4551 71224.1 0
71224.1 -37.4218 0
0    0    0

-59.2506 72793.3 0
72793.3 -228.349 0
0    0    0

-186.507 96259.4 0
96259.4 -365.859 0
0    0    0

140.575 96222.7 0
96222.7 -75.2863 0
0    0    0

-0.573113 97272.7 0
97272.7 275.165 0
0    0    0

240.397 97658.4 0
97658.4 131.636 0
0    0    0

-87.6327 96489.8 0
96489.8 -171.142 0
0    0    0

71.8733 96502.7 0
96502.7 -165.564 0
0    0    0

-242.479 96267.2 0
96267.2 -88.271 0
0    0    0

269.636 96700 0
96700 246.836 0
0    0    0

-131.982 96982.9 0
96982.9 -256.566 0
0    0    0

-13.8999 98090.5 0
98090.5 -4.32013 0
0    0    0

-86.4776 97228.1 0
97228.1 -11.2191 0
0    0    0

-236.555 97523.7 0
97523.7 -69.0311 0
0    0    0

-149.172 63237.2 0
63237.2 -329.144 0
0    0    0

-190.664 62976 0
62976 -227.627 0
0    0    0

280.612 62654.1 0
62654.1 130.443 0
0    0    0

-140.244 62296.9 0
62296.9 -66.9703 0
0    0    0

32.8295 62717.5 0
62717.5 279.864 0
0    0    0

165.979 62111.9 0
62111.9 198.889 0
0    0    0

-161.282 61402.7 0
61402.7 -194.088 0
0    0    0

267.028 59449.5 0
59449.5 354.27 0
0    0    0

-378.599 62465.1 0
62465.1 -37.7244 0
0    0    0

198.338 61947.5 0
61947.5 15.1466 0
0    0    0

51.1447 62696.7 0
62696.7 339.491 0
0    0    0

91.1075 63270.4 0
63270.4 20.4176 0
0    0    0

-263.429 60652.3 0
60652.3 -185.049 0
0    0    0

-197.618 59358.1 0
59358.1 -404.618 0
0    0    0

37.9508 63061.4 0
63061.4 253.313 0
0    0    0

197.827 62732.3 0
62732.3 38.563 0
0    0    0

-325.651 57712.1 0
57712.1 -114.709 0
0    0    0

-203.906 59172.4 0
59172.4 -288.553 0
0    0    0

141.919 57621.8 0
57621.8 242.86 0
0    0    0

280.503 58917.5 0
58917.5 503.793 0
0    0    0

384.763 57583.1 0
57583.1 62.2608 0
0    0    0

134.703 58489 0
58489 202.194 0
0    0    0

-125.172 58544.9 0
58544.9 -210.055 0
0    0    0

39.1432 57737.9 0
57737.9 127.944 0
0    0    0

-155.161 57323 0
57323 -228.045 0
0    0    0

-31.5162 57447.5 0
57447.5 -244.626 0
0    0    0

-106.797 57162.2 0
57162.2 77.8831 0
0    0    0

-140.978 57557.6 0
57557.6 -138.185 0
0    0    0

-149.303 58523.9 0
58523.9 -53.964 0
0    0    0

-156.755 57945.1 0
57945.1 -108.936 0
0    0    0

253.619 58715.7 0
58715.7 259.803 0
0    0    0

236.239 58382.8 0
58382.8 136.43 0
0    0    0

182.99 59774 0
59774 295.916 0
0    0    0

-164.504 59984.2 0
59984.2 -163.252 0
0    0    0

-21.1429 59328.2 0
59328.2 -105.221 0
0    0    0

149.952 59773 0
59773 401.625 0
0    0    0

334.296 59915.3 0
59915.3 63.2239 0
0    0    0

164.58 61773.2 0
61773.2 -127.965 0
0    0    0

141.451 57210.3 0
57210.3 249.938 0
0    0    0

-393.076 59258.7 0
59258.7 -408.357 0
0    0    0

-60.9478 54445.8 0
54445.8 -131.986 0
0    0    0

95.0278 54886.5 0
54886.5 326.6 0
0    0    0

210.841 54130.6 0
54130.6 167.21 0
0    0    0

-199.265 53918.5 0
53918.5 -15.7583 0
0    0    0

-152.917 54683.6 0
54683.6 49.9859 0
0    0    0

-59.5545 54511.9 0
54511.9 -120.396 0
0    0    0

73.8551 53772.6 0
53772.6 -74.8226 0
0    0    0

190.148 54825.7 0
54825.7 286.237 0
0    0    0

245.764 54733.4 0
54733.4 169.132 0
0    0    0

-87.1334 54444 0
54444 85.0438 0
0    0    0

82.0702 54723.8 0
54723.8 9.48354 0
0    0    0

54.2409 55531.3 0
55531.3 30.9268 0
0    0    0

-328.105 55079.8 0
55079.8 -205.594 0
0    0    0

-258.426 54560.2 0
54560.2 -169.955 0
0    0    0

217.327 55389.8 0
55389.8 200.823 0
0    0    0

-21.7897 55894.8 0
55894.8 15.1185 0
0    0    0

71.8783 58098.1 0
58098.1 267.992 0
0    0    0

-245.673 56224.8 0
56224.8 -354.601 0
0    0    0

-297.542 55611 0
55611 -293.444 0
0    0    0

-275.009 56133.3 0
56133.3 -249.72 0
0    0    0

24.8184 54451.5 0
54451.5 -217.363 0
0    0    0

-185.299 54000.4 0
54000.4 -248.468 0
0    0    0

-29.6712 54786.4 0
54786.4 223.626 0
0    0    0

61.9184 54922 0
54922 168.166 0
0    0    0

-192.242 58681.9 0
58681.9 -373.321 0
0    0    0

-106.61 60001.4 0
60001.4 -252.503 0
0    0    0

-93.4442 56978.1 0
56978.1 -335.977 0
0    0    0

-128.671 56021.9 0
56021.9 52.6838 0
0    0    0

11.5973 56542 0
56542 177.704 0
0    0    0

-71.526 56319.5 0
56319.5 -203.992 0
0    0    0

107.15 55624.4 0
55624.4 -40.0655 0
0    0    0

41.6043 55309.9 0
55309.9 219.739 0
0    0    0

-30.8491 54278.4 0
54278.4 -178.123 0
0    0    0

-114.815 54157.6 0
54157.6 -370.975 0
0    0    0

73.1834 54570.1 0
54570.1 -141.422 0
0    0    0

88.0196 55081.5 0
55081.5 -71.9617 0
0    0    0

-184.443 56178.2 0
56178.2 -267.508 0
0    0    0

43.7785 55281.7 0
55281.7 138.733 0
0    0    0

114.374 54905.9 0
54905.9 -96.6282 0
0    0    0

30.9231 55359.4 0
55359.4 -44.9963 0
0    0    0

277.735 55911.7 0
55911.7 297.945 0
0    0    0

-187.491 55556.2 0
55556.2 -172.165 0
0    0    0

122.54 55893.9 0
55893.9 187.804 0
0    0    0

57.9801 57461 0
57461 184.009 0
0    0    0

145.106 56416.8 0
56416.8 366.594 0
0    0    0

-80.6223 56665.6 0
56665.6 47.2665 0
0    0    0

31.6947 56516.4 0
56516.4 203.365 0
0    0    0

-109.655 58374.7 0
58374.7 -3.84301 0
0    0    0

-132.938 55331.4 0
55331.4 13.2875 0
0    0    0

-256.807 55723 0
55723 -140.528 0
0    0    0

187.048 55227.4 0
55227.4 148.611 0
0    0    0

187.323 55922.2 0
55922.2 34.5876 0
0    0    0

-45.1458 56395.5 0
56395.5 -131.261 0
0    0    0

-9.02285 56621 0
56621 -333.015 0
0    0    0

102.902 56997.9 0
56997.9 273.099 0
0    0    0

13.8828 56844.7 0
56844.7 97.8472 0
0    0    0

25.5782 56683.1 0
56683.1 -265.61 0
0    0    0

15.7191 57243.9 0
57243.9 -69.4417 0
0    0    0

-109.937 57278.1 0
57278.1 -145.44 0
0    0    0

156.88 57391.8 0
57391.8 166.96 0
0    0    0

-77.4816 57147.4 0
57147.4 -180.909 0
0    0    0

207.099 58049 0
58049 -45.0555 0
0    0    0

-66.7917 57843.6 0
57843.6 -370.039 0
0    0    0

209.036 58708.4 0
58708.4 175.002 0
0    0    0

110.375 56321.7 0
56321.7 163.408 0
0    0    0

215.425 57638.7 0
57638.7 294.842 0
0    0    0

-360.021 57857.2 0
57857.2 -339.11 0
0    0    0

-63.9758 59436.4 0
59436.4 -239.892 0
0    0    0

114.165 56915.4 0
56915.4 65.3499 0
0    0    0

345.761 57359 0
57359 310.992 0
0    0    0

318.614 57491 0
57491 8.26568 0
0    0    0

-131.456 57877.9 0
57877.9 -171.682 0
0    0    0

-25.0109 60320.4 0
60320.4 161.984 0
0    0    0

-48.7861 59292.6 0
59292.6 -352.258 0
0    0    0

28.0201 59029.5 0
59029.5 91.3927 0
0    0    0

189.285 60005.6 0
60005.6 -158.461 0
0    0    0

94.3749 59079.7 0
59079.7 72.4351 0
0    0    0

-186.038 59512.2 0
59512.2 -310.4 0
0    0    0

-73.4483 61123.4 0
61123.4 -283.262 0
0    0    0

-53.7448 63295.9 0
63295.9 102.228 0
0    0    0

-174.835 58445.7 0
58445.7 -107.756 0
0    0    0

171.602 59447.8 0
59447.8 -200.931 0
0    0    0

157.347 59662.7 0
59662.7 89.4613 0
0    0    0

-33.9392 60463.3 0
60463.3 -117.981 0
0    0    0

32.204 59105 0
59105 9.08805 0
0    0    0

-100.81 60035.2 0
60035.2 -270.504 0
0    0    0

-118.596 60531.2 0
60531.2 -206.892 0
0    0    0

-78.7352 59929.7 0
59929.7 60.0102 0
0    0    0

-185.805 62049.8 0
62049.8 -578.182 0
0    0    0

-233.829 60767.8 0
60767.8 103.709 0
0    0    0

-209.061 61171.6 0
61171.6 -288.265 0
0    0    0

154.695 60434.7 0
60434.7 28.9375 0
0    0    0

18.7573 59787.9 0
59787.9 125.524 0
0    0    0

-246.359 60120 0
60120 -234.057 0
0    0    0

-237.013 60146.4 0
60146.4 1.5314 0
0    0    0

190.786 60774.9 0
60774.9 -153.855 0
0    0    0

161.295 60061.3 0
60061.3 -93.6004 0
0    0    0

-200.778 60668.6 0
60668.6 68.2674 0
0    0    0

-141.252 60194.1 0
60194.1 77.62 0
0    0    0

289.745 60346.6 0
60346.6 -21.5816 0
0    0    0

-126.702 70670 0
70670 -204.229 0
0    0    0

57.008 70848 0
70848 148.411 0
0    0    0

137.189 98314.6 0
98314.6 195.263 0
0    0    0

75.576 97489.1 0
97489.1 -204.242 0
0    0    0

-109.614 97098.7 0
97098.7 -324.521 0
0    0    0

-23.4083 97555.4 0
97555.4 -95.695 0
0    0    0

-166.384 97590.4 0
97590.4 -328.546 0
0    0    0

-176.599 98015.7 0
98015.7 -78.5768 0
0    0    0

174.528 97118.4 0
97118.4 141.296 0
0    0    0

-9.38347 98055.7 0
98055.7 -4.02149 0
0    0    0

142.693 97632.6 0
97632.6 0.759328 0
0    0    0

-162.396 99066.1 0
99066.1 -52.1461 0
0    0    0

56.6783 97804.3 0
97804.3 193.211 0
0    0    0

-67.3725 98113.3 0
98113.3 -63.8876 0
0    0    0

-58.6678 98633.8 0
98633.8 -25.1433 0
0    0    0

-54.7565 98639.4 0
98639.4 -59.2717 0
0    0    0

-261.316 97814.7 0
97814.7 79.6334 0
0    0    0

-9.95558 97105.2 0
97105.2 138.736 0
0    0    0

-79.3786 64430 0
64430 -336.659 0
0    0    0

-77.1295 64007.5 0
64007.5 29.06 0
0    0    0

207.663 63215.2 0
63215.2 270.83 0
0    0    0

129.291 63687.7 0
63687.7 217.965 0
0    0    0

121.507 64682.2 0
64682.2 100.793 0
0    0    0

68.4794 64362.2 0
64362.2 -48.891 0
0    0    0

-139.268 60368.7 0
60368.7 -68.9561 0
0    0    0

-211.925 60112.3 0
60112.3 -255.966 0
0    0    0

-153.424 61836.2 0
61836.2 -396.406 0
0    0    0

-108.185 62561 0
62561 -58.2712 0
0    0    0

-13.5582 60319.9 0
60319.9 -286.891 0
0    0    0

-4.20656 61694.6 0
61694.6 -72.9102 0
0    0    0

164.794 62416.4 0
62416.4 114.579 0
0    0    0

-10.8231 63335.2 0
63335.2 -158.888 0
0    0    0

-32.7367 62456.7 0
62456.7 -256.217 0
0    0    0

89.2733 61506.6 0
61506.6 173.309 0
0    0    0

-146.537 62359 0
62359 14.5122 0
0    0    0

-103.829 61840 0
61840 -225.368 0
0    0    0

32.5912 60065.8 0
60065.8 154.573 0
0    0    0

-377.864 61470.9 0
61470.9 -262.008 0
0    0    0

-132.68 63512.4 0
63512.4 -230.89 0
0    0    0

-76.925 62953 0
62953 -299.224 0
0    0    0

-152.442 62160.4 0
62160.4 48.1493 0
0    0    0

-149.388 60988.6 0
60988.6 85.5084 0
0    0    0

-114.494 62807.1 0
62807.1 -285.034 0
0    0    0

57.5105 63026.7 0
63026.7 283.87 0
0    0    0

497.101 61723.1 0
61723.1 303.21 0
0    0    0

90.1773 62502.2 0
62502.2 298.102 0
0    0    0

264.124 60868.3 0
60868.3 185.125 0
0    0    0

-139.369 62220.9 0
62220.9 -213.462 0
0    0    0

-88.6652 62753.9 0
62753.9 -258.678 0
0    0    0

-78.6175 63332 0
63332 -325.998 0
0    0    0

199.36 61932 0
61932 250.752 0
0    0    0

126.668 63050.9 0
63050.9 24.7057 0
0    0    0

-149.923 65749.4 0
65749.4 -42.0048 0
0    0    0

90.933 63575.9 0
63575.9 310.908 0
0    0    0

89.9906 65367.6 0
65367.6 -106.114 0
0    0    0

118.836 64065.2 0
64065.2 190.38 0
0    0    0

-386.636 61891.4 0
61891.4 -74.6025 0
0    0    0

93.7299 61282.5 0
61282.5 123.28 0
0    0    0

-211.745 60255.7 0
60255.7 -213.137 0
0    0    0

72.7092 62650.5 0
62650.5 -92.7418 0
0    0    0

-175.717 61581.3 0
61581.3 -147.721 0
0    0    0

-66.0871 61893.4 0
61893.4 -244.325 0
0    0    0

-122.094 62215 0
62215 -340.512 0
0    0    0

-104.567 62454.5 0
62454.5 106.879 0
0    0    0

131.72 61951.4 0
61951.4 298.744 0
0    0    0

117.605 61254.3 0
61254.3 128.886 0
0    0    0

164.329 61415.8 0
61415.8 170.575 0
0    0    0

-56.5945 62088 0
62088 -148.773 0
0    0    0

310.923 60217.2 0
60217.2 166.805 0
0    0    0

71.0706 61446.2 0
61446.2 -87.0831 0
0    0    0

276.083 61396.3 0
61396.3 236.309 0
0    0    0

-182.668 61767.5 0
61767.5 -270.345 0
0    0    0

203.929 59594.8 0
59594.8 105.108 0
0    0    0

102.692 60388.6 0
60388.6 146.202 0
0    0    0

201.652 57921.9 0
57921.9 306.113 0
0    0    0

-231.458 58425.3 0
58425.3 -250.412 0
0    0    0

-29.6233 59702.1 0
59702.1 -423.792 0
0    0    0

-14.9717 59416.8 0
59416.8 153.313 0
0    0    0

251.367 58138.5 0
58138.5 131.706 0
0    0    0

386.105 58685.7 0
58685.7 361.851 0
0    0    0

-178.389 58713.9 0
58713.9 -3.01055 0
0    0    0

-203.108 58843 0
58843 -194.633 0
0    0    0

20.1212 58199.8 0
58199.8 -79.7372 0
0    0    0

-190.642 58271 0
58271 -348.785 0
0    0    0

-23.429 58794 0
58794 -17.719 0
0    0    0

153.081 60294 0
60294 264.485 0
0    0    0

83.1861 60575.9 0
60575.9 -100.231 0
0    0    0

322.746 60638.8 0
60638.8 46.682 0
0    0    0

231.863 58499.1 0
58499.1 233.186 0
0    0    0

69.0709 59240.9 0
59240.9 -206.768 0
0    0    0

170.498 59855.4 0
59855.4 75.0153 0
0    0    0

112.564 58883.9 0
58883.9 175.147 0
0    0    0

23.8649 58024.1 0
58024.1 -79.5704 0
0    0    0

164.943 58384.3 0
58384.3 6.05366 0
0    0    0

-191.322 59773.3 0
59773.3 -18.1489 0
0    0    0

-3.76588 60282.1 0
60282.1 -274.125 0
0    0    0

-192.918 57961.9 0
57961.9 -211.557 0
0    0    0

-346.608 58334.8 0
58334.8 -96.6108 0
0    0    0

-279.576 59389.9 0
59389.9 -63.9006 0
0    0    0

-192.599 58485.5 0
58485.5 17.3297 0
0    0    0

112.338 60906.3 0
60906.3 207.84 0
0    0    0

44.7353 59466.1 0
59466.1 4.57915 0
0    0    0

-53.1865 58895 0
58895 177.417 0
0    0    0

10.1176 58748.1 0
58748.1 -117.675 0
0    0    0

399.061 58601.9 0
58601.9 35.1236 0
0    0    0

146.685 59078.6 0
59078.6 337.455 0
0    0    0

99.3693 60031.9 0
60031.9 -31.7194 0
0    0    0

41.4562 60036.5 0
60036.5 337.695 0
0    0    0

-441.929 60436.8 0
60436.8 -27.7401 0
0    0    0

151.993 60841.6 0
60841.6 117.347 0
0    0    0

-166 60769.7 0
60769.7 -171.054 0
0    0    0

-136.265 60378.4 0
60378.4 -55.6622 0
0    0    0

47.9874 60562.2 0
60562.2 -129.58 0
0    0    0

-80.5382 60941.1 0
60941.1 -71.2975 0
0    0    0

-75.3218 61280.7 0
61280.7 -136.04 0
0    0    0

-50.1829 60443.5 0
60443.5 74.3952 0
0    0    0

-245.698 59185.9 0
59185.9 -311.351 0
0    0    0

43.3429 59592.7 0
59592.7 279.212 0
0    0    0

-246.672 61502.1 0
61502.1 -310.166 0
0    0    0

42.9496 60491.3 0
60491.3 46.1789 0
0    0    0

62.8507 59655.9 0
59655.9 -110.858 0
0    0    0

-181.087 59746.9 0
59746.9 -263.096 0
0    0    0

49.4838 60566.3 0
60566.3 247.621 0
0    0    0

56.6854 60453.9 0
60453.9 122.521 0
0    0    0

24.4064 60787 0
60787 -167.475 0
0    0    0

-303.18 61320.9 0
61320.9 -175.001 0
0    0    0

210.11 60758.2 0
60758.2 -132.429 0
0    0    0

-202.987 60021.2 0
60021.2 36.6597 0
0    0    0

235.737 59175.8 0
59175.8 322.897 0
0    0    0

-329.383 59063.1 0
59063.1 -345.788 0
0    0    0

63.226 60032.2 0
60032.2 87.9756 0
0    0    0

-383.888 59527.6 0
59527.6 -379.471 0
0    0    0

32.621 59052.6 0
59052.6 184.737 0
0    0    0

-23.9227 58670.8 0
58670.8 209.534 0
0    0    0

332.831 58724.3 0
58724.3 390.046 0
0    0    0

172.067 59315 0
59315 260.883 0
0    0    0

-327.142 60198.7 0
60198.7 -367.574 0
0    0    0

123.655 60348.5 0
60348.5 -253.868 0
0    0    0

184.437 61630.7 0
61630.7 161.889 0
0    0    0

272.55 61073.3 0
61073.3 455.368 0
0    0    0

-143.854 61921.1 0
61921.1 -333.21 0
0    0    0

-147.698 61357.1 0
61357.1 -59.4343 0
0    0    0

-175.706 60873 0
60873 -108.794 0
0    0    0

-186.225 61142 0
61142 88.4351 0
0    0    0

168.644 56548 0
56548 80.6295 0
0    0    0

-142.54 57576.4 0
57576.4 -5.90418 0
0    0    0

-63.2919 56224.1 0
56224.1 173.845 0
0    0    0

-240.917 55187.8 0
55187.8 -278.781 0
0    0    0

150.174 56581.2 0
56581.2 281.379 0
0    0    0

0.452566 55620.1 0
55620.1 -42.7989 0
0    0    0

39.227 57250.5 0
57250.5 -145.34 0
0    0    0

7.98937 57989.5 0
57989.5 -105.878 0
0    0    0

-47.7004 56921.5 0
56921.5 51.3954 0
0    0    0

-23.5197 57410.4 0
57410.4 -58.237 0
0    0    0

0.000331669 57173.9 0
57173.9 201.772 0
0    0    0

125.022 57240.9 0
57240.9 194.024 0
0    0    0

89.0784 57417.1 0
57417.1 -14.5651 0
0    0    0

-355.872 57083.4 0
57083.4 -323.514 0
0    0    0

-27.5256 57916.6 0
57916.6 19.9456 0
0    0    0

61.991 58298.3 0
58298.3 224.843 0
0    0    0

-87.9966 57416.4 0
57416.4 107.734 0
0    0    0

21.7067 57560.2 0
57560.2 172.603 0
0    0    0

137.807 59043.4 0
59043.4 92.9291 0
0    0    0

44.7391 58182.2 0
58182.2 154.533 0
0    0    0

-203.574 58553.1 0
58553.1 -111.486 0
0    0    0

-183.602 57853 0
57853 -69.8794 0
0    0    0

234.926 57544.8 0
57544.8 78.8264 0
0    0    0

98.1834 58252.6 0
58252.6 -56.7701 0
0    0    0

170.706 58245.1 0
58245.1 45.8408 0
0    0    0

-271.39 59526 0
59526 -152.094 0
0    0    0

-104.55 58755.9 0
58755.9 186.811 0
0    0    0

-115.168 58643.2 0
58643.2 2.67608 0
0    0    0

-111.439 58709.3 0
58709.3 204.447 0
0    0    0

208.903 59226 0
59226 358.262 0
0    0    0

268.662 70332.8 0
70332.8 298.712 0
0    0    0

191.341 69529.5 0
69529.5 -9.38503 0
0    0    0

8.03624 70003.1 0
70003.1 -160.545 0
0    0    0

172.544 70358.3 0
70358.3 -4.26462 0
0    0    0

-78.012 70093.7 0
70093.7 -376.232 0
0    0    0

191.037 69855.7 0
69855.7 152.587 0
0    0    0

272.429 69248.6 0
69248.6 97.7222 0
0    0    0

38.5738 69921.2 0
69921.2 70.5473 0
0    0    0

-152.281 70620.8 0
70620.8 -97.1409 0
0    0    0

-82.9518 71799.6 0
71799.6 -181.021 0
0    0    0

99.267 71702.9 0
71702.9 95.6889 0
0    0    0

-241.947 71767 0
71767 -207.388 0
0    0    0

214.288 71362.5 0
71362.5 159.292 0
0    0    0

-178.437 71610.7 0
71610.7 -33.4405 0
0    0    0

166.233 70446.4 0
70446.4 121.977 0
0    0    0

-218.672 71206 0
71206 -145.039 0
0    0    0

49.4866 71536.3 0
71536.3 277.731 0
0    0    0

75.3466 70966.8 0
70966.8 73.3341 0
0    0    0

6.06185 71426.9 0
71426.9 194.03 0
0    0    0

-183.87 70936.2 0
70936.2 -149.537 0
0    0    0

103.327 69906.1 0
69906.1 125.14 0
0    0    0

-63.2455 69261.9 0
69261.9 198.576 0
0    0    0

-175.442 72860.9 0
72860.9 -163.332 0
0    0    0

-207.57 70957.6 0
70957.6 -276.299 0
0    0    0

-296.651 71311.8 0
71311.8 -149.924 0
0    0    0

47.7876 70900 0
70900 -119.571 0
0    0    0

152.256 70554.4 0
70554.4 -71.9721 0
0    0    0

-176.151 68389.6 0
68389.6 -61.3656 0
0    0    0

-173.134 70009.3 0
70009.3 -48.0436 0
0    0    0

-91.8131 69841.2 0
69841.2 -183.127 0
0    0    0

-86.2539 69504.6 0
69504.6 -116.095 0
0    0    0

36.6657 71005.3 0
71005.3 267.684 0
0    0    0

-240.023 72258.7 0
72258.7 -144.218 0
0    0    0

310.66 71148.9 0
71148.9 -11.9137 0
0    0    0

82.8967 71977.4 0
71977.4 127.023 0
0    0    0

-274.67 70231 0
70231 -258.929 0
0    0    0

-110.25 69579.2 0
69579.2 71.2091 0
0    0    0

65.2983 67945.5 0
67945.5 91.8208 0
0    0    0

-151.809 68278.7 0
68278.7 -84.1605 0
0    0    0

165.721 69695.6 0
69695.6 391.265 0
0    0    0

228.072 69609.2 0
69609.2 10.594 0
0    0    0

84.1789 69130.1 0
69130.1 202.969 0
0    0    0

-90.5785 69589.7 0
69589.7 108.152 0
0    0    0

-4.67686 70451.9 0
70451.9 -178.687 0
0    0    0

32.2066 71734.1 0
71734.1 13.8028 0
0    0    0

-15.3881 70522.8 0
70522.8 -38.1519 0
0    0    0

107.33 66202.2 0
66202.2 -154.628 0
0    0    0

230.37 69035.9 0
69035.9 310.854 0
0    0    0

105.797 68267.9 0
68267.9 48.671 0
0    0    0

60.0045 69220.7 0
69220.7 -63.8011 0
0    0    0

-201.983 69318.6 0
69318.6 -404.681 0
0    0    0

-1.6964 68510.7 0
68510.7 155.011 0
0    0    0

3.15221 68572.5 0
68572.5 -111.128 0
0    0    0

-103.947 68890.1 0
68890.1 -137.746 0
0    0    0

37.495 67631.3 0
67631.3 -101.473 0
0    0    0

231.886 68124.8 0
68124.8 366.913 0
0    0    0

-123.982 68774.8 0
68774.8 -245.895 0
0    0    0

312.383 67981 0
67981 135.19 0
0    0    0

14.0073 68811.5 0
68811.5 -183.626 0
0    0    0

208.707 68797.2 0
68797.2 -119.91 0
0    0    0

53.6143 66696.5 0
66696.5 -60.1203 0
0    0    0

11.3188 67394 0
67394 315.565 0
0    0    0

-44.751 65251.7 0
65251.7 141.961 0
0    0    0

243.329 68018.9 0
68018.9 -59.8598 0
0    0    0

242.931 65763.8 0
65763.8 -62.0297 0
0    0    0

10.8496 66347.9 0
66347.9 -169.405 0
0    0    0

209.141 67231.3 0
67231.3 116.126 0
0    0    0

-28.6656 66968.3 0
66968.3 -279.111 0
0    0    0

134.396 66177.7 0
66177.7 211.405 0
0    0    0

-28.5282 66437.2 0
66437.2 -142.054 0
0    0    0

8.07382 65674.4 0
65674.4 151.59 0
0    0    0

115.518 65864.2 0
65864.2 101.543 0
0    0    0

-70.617 64734.3 0
64734.3 155.16 0
0    0    0

-145.435 65466.6 0
65466.6 -263.208 0
0    0    0

233.327 71403.8 0
71403.8 177.953 0
0    0    0

158.364 72094.5 0
72094.5 67.8703 0
0    0    0

-81.8689 71273.2 0
71273.2 -160.585 0
0    0    0

97.5333 70927.9 0
70927.9 33.4251 0
0    0    0

189.704 70716.5 0
70716.5 145.375 0
0    0    0

-207.771 71835.6 0
71835.6 -218.35 0
0    0    0

419.473 69623.6 0
69623.6 480.967 0
0    0    0

-158.918 70484.7 0
70484.7 7.70368 0
0    0    0

-175.851 71306.9 0
71306.9 -228.824 0
0    0    0

19.0739 70039.1 0
70039.1 -28.6674 0
0    0    0

-16.943 70839.1 0
70839.1 -7.26127 0
0    0    0

168.582 71139.1 0
71139.1 72.2495 0
0    0    0

190.042 71506 0
71506 81.4467 0
0    0    0

-2.60781 71126.1 0
71126.1 -297.642 0
0    0    0

-181.9 70128.2 0
70128.2 -196.167 0
0    0    0

8.27849 70452.4 0
70452.4 -111.633 0
0    0    0

-169.814 68792 0
68792 -273.045 0
0    0    0

-170.972 67253.5 0
67253.5 62.3531 0
0    0    0

21.256 66600.5 0
66600.5 180.559 0
0    0    0

-65.4925 66878 0
66878 199.369 0
0    0    0

-144.044 67103.2 0
67103.2 0.0300069 0
0    0    0

152.732 66636.9 0
66636.9 214.474 0
0    0    0

176.046 67123.9 0
67123.9 128.305 0
0    0    0

-187.154 65976.8 0
65976.8 -179.892 0
0    0    0

-164.754 66303.1 0
66303.1 16.0755 0
0    0    0

-282.756 66068.5 0
66068.5 88.3967 0
0    0    0

-174.115 65546 0
65546 -222.98 0
0    0    0

-159.149 69453.5 0
69453.5 -377.613 0
0    0    0

37.7249 69708.8 0
69708.8 78.1752 0
0    0    0

96.4268 66641.7 0
66641.7 154.968 0
0    0    0

149.287 67350.8 0
67350.8 -34.8775 0
0    0    0

-190.536 67788.5 0
67788.5 -111.196 0
0    0    0

-193.05 68026.1 0
68026.1 77.8709 0
0    0    0

126.008 68920.1 0
68920.1 262.859 0
0    0    0

-113.154 68453.1 0
68453.1 -28.8238 0
0    0    0

60.4005 98368.2 0
98368.2 25.8859 0
0    0    0

-85.0099 97934.8 0
97934.8 -287.909 0
0    0    0

155.323 60948.9 0
60948.9 204.745 0
0    0    0

175.671 60848.3 0
60848.3 303.061 0
0    0    0

-137.465 61118 0
61118 -218.245 0
0    0    0

-147.754 61250.3 0
61250.3 -101.101 0
0    0    0

330.51 59982.9 0
59982.9 202.719 0
0    0    0

-48.0216 60919.5 0
60919.5 238.532 0
0    0    0

-283.084 59909.3 0
59909.3 -201.96 0
0    0    0

186.317 60305.5 0
60305.5 147.467 0
0    0    0

-203.241 61677.1 0
61677.1 -131.015 0
0    0    0

107.269 61150.7 0
61150.7 -113.627 0
0    0    0

-266.56 60649.4 0
60649.4 -367.558 0
0    0    0

161.806 60614 0
60614 -116.867 0
0    0    0

219.162 56173.8 0
56173.8 371.958 0
0    0    0

-213.078 55985.5 0
55985.5 -252.959 0
0    0    0

-66.0233 56466.2 0
56466.2 -190.203 0
0    0    0

63.7941 56833.6 0
56833.6 -137.586 0
0    0    0

248.459 55254.7 0
55254.7 195.622 0
0    0    0

229.853 55876.6 0
55876.6 156.589 0
0    0    0

134.251 57220.1 0
57220.1 -33.2717 0
0    0    0

-60.6347 59742.6 0
59742.6 204.478 0
0    0    0

21.5662 58819.4 0
58819.4 -175.024 0
0    0    0

-20.8171 60325.9 0
60325.9 197.295 0
0    0    0

-209.301 58352.4 0
58352.4 74.3392 0
0    0    0

-87.4369 59224.5 0
59224.5 179.92 0
0    0    0

189.965 71935 0
71935 174.914 0
0    0    0

246.476 71904.9 0
71904.9 222.431 0
0    0    0

-179.122 72238.2 0
72238.2 -237.974 0
0    0    0

145.905 72426.6 0
72426.6 62.5306 0
0    0    0

-42.7051 72508.3 0
72508.3 169.292 0
0    0    0

253.355 71484.1 0
71484.1 230.167 0
0    0    0

-105.565 72325.9 0
72325.9 -160.101 0
0    0    0

99.0745 73264.9 0
73264.9 42.4605 0
0    0    0

-89.642 73421.2 0
73421.2 40.5681 0
0    0    0

197.063 67237.2 0
67237.2 186.99 0
0    0    0

136.893 73011.6 0
73011.6 58.6684 0
0    0    0

140.633 70203 0
70203 60.2712 0
0    0    0

-217.886 67915.4 0
67915.4 -199.661 0
0    0    0

63.6187 66669.1 0
66669.1 252.059 0
0    0    0

187.544 67637.1 0
67637.1 56.2256 0
0    0    0

-77.4234 68270.3 0
68270.3 172.906 0
0    0    0

156.865 68157 0
68157 159.746 0
0    0    0

-12.4905 68432.7 0
68432.7 173.13 0
0    0    0

48.7387 69223.8 0
69223.8 99.0235 0
0    0    0

-16.943 70526.6 0
70526.6 -7.26127 0
0    0    0

273.062 67837.5 0
67837.5 321.179 0
0    0    0

124.016 59997.8 0
59997.8 -34.409 0
0    0    0

254.115 64323.9 0
64323.9 33.1115 0
0    0    0

-165.908 69078.6 0
69078.6 181.02 0
0    0    0

-65.9434 68533.3 0
68533.3 -178.791 0
0    0    0

-135.004 67938.2 0
67938.2 -77.1019 0
0    0    0

-197.231 68749.6 0
68749.6 -320.638 0
0    0    0

-101.416 69789.1 0
69789.1 -135.655 0
0    0    0

27.6156 68706.5 0
68706.5 -48.1417 0
0    0    0

142.774 69937.7 0
69937.7 19.8986 0
0    0    0

147.101 69910.7 0
69910.7 63.0434 0
0    0    0

78.8092 70253.9 0
70253.9 -202.37 0
0    0    0

257.569 69110.1 0
69110.1 289.172 0
0    0    0

-194.017 69410.8 0
69410.8 -28.6809 0
0    0    0

165.052 69623.9 0
69623.9 -76.7056 0
0    0    0

-173.147 70087.7 0
70087.7 -29.3395 0
0    0    0

326.756 68979.4 0
68979.4 307.445 0
0    0    0

-177.574 68170.2 0
68170.2 -153.905 0
0    0    0

90.6981 68967.6 0
68967.6 38.8706 0
0    0    0

-323.977 69260.8 0
69260.8 -361.841 0
0    0    0

284.301 68927.2 0
68927.2 362.354 0
0    0    0

110.577 68895.8 0
68895.8 70.8696 0
0    0    0

243.263 69507.7 0
69507.7 318.204 0
0    0    0

131.182 70204.8 0
70204.8 114.675 0
0    0    0

-81.4861 69519.2 0
69519.2 -242.199 0
0    0    0

-95.4289 69190.1 0
69190.1 159.271 0
0    0    0

139.378 69668.3 0
69668.3 158.803 0
0    0    0

183.227 68351.9 0
68351.9 261.657 0
0    0    0

41.8346 68089.7 0
68089.7 19.5075 0
0    0    0

90.847 70773.5 0
70773.5 263.214 0
0    0    0

-57.2311 69017 0
69017 161.504 0
0    0    0

-58.2351 70713.2 0
70713.2 287.782 0
0    0    0

144.306 70207.6 0
70207.6 455.008 0
0    0    0

-166.763 69912.9 0
69912.9 -458.353 0
0    0    0

-216.737 68111.1 0
68111.1 -201.805 0
0    0    0

229.826 69597.4 0
69597.4 98.4971 0
0    0    0

38.1612 69341.2 0
69341.2 -30.4358 0
0    0    0

104.126 69210.5 0
69210.5 44.6256 0
0    0    0

99.2734 68480.3 0
68480.3 50.944 0
0    0    0

-207.227 69371.5 0
69371.5 -322.716 0
0    0    0

192.573 68234.5 0
68234.5 45.5099 0
0    0    0

56.8701 67901.9 0
67901.9 -41.9695 0
0    0    0

28.1563 67203.9 0
67203.9 -66.5248 0
0    0    0

-234.888 68671.1 0
68671.1 -103.709 0
0    0    0

172.768 68358.1 0
68358.1 46.8767 0
0    0    0

-94.167 68448.8 0
68448.8 -4.82644 0
0    0    0

48.2492 68649.5 0
68649.5 -116.681 0
0    0    0

-203.593 68166.6 0
68166.6 -258.535 0
0    0    0

137.784 67323.8 0
67323.8 -168.562 0
0    0    0

-93.8132 68041.4 0
68041.4 -17.7393 0
0    0    0

126.753 68655.2 0
68655.2 54.3229 0
0    0    0

24.2779 67289.4 0
67289.4 296.156 0
0    0    0

13.9653 66742 0
66742 5.98513 0
0    0    0

-42.7984 67775.6 0
67775.6 233.418 0
0    0    0

-102.989 67715.1 0
67715.1 -66.082 0
0    0    0

-14.1922 67536.4 0
67536.4 -316.446 0
0    0    0

-220.988 67502.8 0
67502.8 -155.394 0
0    0    0

-136.61 68757.7 0
68757.7 -58.0742 0
0    0    0

-82.8533 67224.5 0
67224.5 -56.6704 0
0    0    0

93.6394 66946.3 0
66946.3 175.467 0
0    0    0

152.853 67584.9 0
67584.9 -52.5934 0
0    0    0

-79.6684 66147.9 0
66147.9 -258.382 0
0    0    0

165.209 66347.9 0
66347.9 155.982 0
0    0    0

51.3667 67216.9 0
67216.9 -13.8739 0
0    0    0

-74.3063 68455.7 0
68455.7 38.2447 0
0    0    0

141.931 67264.3 0
67264.3 152.001 0
0    0    0

-163.263 66943.6 0
66943.6 173.495 0
0    0    0

-13.2859 68325.8 0
68325.8 214.513 0
0    0    0

164.604 68025.3 0
68025.3 70.5444 0
0    0    0

-198.236 67378.4 0
67378.4 -90.1501 0
0    0    0

232.47 68454.2 0
68454.2 345.372 0
0    0    0

236.787 67625.4 0
67625.4 184.567 0
0    0    0

-30.2892 66721.7 0
66721.7 -184.541 0
0    0    0

24.6526 65594.2 0
65594.2 -210.004 0
0    0    0

-124.782 67526.1 0
67526.1 178.766 0
0    0    0

-21.6636 66763.8 0
66763.8 29.9296 0
0    0    0

27.3413 66491.6 0
66491.6 286.026 0
0    0    0

137.704 67394 0
67394 229.704 0
0    0    0

306.913 65550.5 0
65550.5 97.525 0
0    0    0

206.386 67755.7 0
67755.7 253.497 0
0    0    0

156.172 68368.6 0
68368.6 66.9307 0
0    0    0

-165.772 68745.9 0
68745.9 -233.143 0
0    0    0

-139.126 68143.7 0
68143.7 -27.9947 0
0    0    0

114.983 67689.6 0
67689.6 -24.4616 0
0    0    0

-208.023 67816.6 0
67816.6 -207.337 0
0    0    0

35.6514 67706.7 0
67706.7 180.538 0
0    0    0

135.734 65111.8 0
65111.8 115.428 0
0    0    0

37.2898 67870.3 0
67870.3 -178.02 0
0    0    0

195.255 67134.6 0
67134.6 406.112 0
0    0    0

174.349 67281.4 0
67281.4 367.862 0
0    0    0

-203.462 67442.8 0
67442.8 -368.904 0
0    0    0

202.655 67753.4 0
67753.4 -12.4532 0
0    0    0

-141.045 67009.2 0
67009.2 -67.0933 0
0    0    0

-128.018 67461.4 0
67461.4 -72.4512 0
0    0    0

-52.6201 66977.3 0
66977.3 -476.586 0
0    0    0

299.282 66135.8 0
66135.8 150.05 0
0    0    0

167.963 65696 0
65696 213.919 0
0    0    0

-152.801 65997.2 0
65997.2 -209.578 0
0    0    0

-117.728 66526.7 0
66526.7 -122.483 0
0    0    0

-47.5678 65188.3 0
65188.3 75.8032 0
0    0    0

-230.439 64473.4 0
64473.4 -115.618 0
0    0    0

197.341 65733 0
65733 34.3983 0
0    0    0

-71.5332 66057.3 0
66057.3 23.2619 0
0    0    0

178.199 64177.7 0
64177.7 278.779 0
0    0    0

50.9618 64024.5 0
64024.5 109.371 0
0    0    0

-171.008 65544.3 0
65544.3 -220.683 0
0    0    0

-43.0032 65729.6 0
65729.6 119.578 0
0    0    0

132.665 65134.5 0
65134.5 299.121 0
0    0    0

72.1358 64608 0
64608 -57.8069 0
0    0    0

-209.659 67554.6 0
67554.6 -189.113 0
0    0    0

-317.026 66985.6 0
66985.6 -287.962 0
0    0    0

239.198 66930.2 0
66930.2 168.206 0
0    0    0

-117.421 64105.3 0
64105.3 -250.42 0
0    0    0

-100.238 66875.4 0
66875.4 -258.836 0
0    0    0

-25.9173 64654 0
64654 -21.1453 0
0    0    0

-214.363 66474.6 0
66474.6 -22.0364 0
0    0    0

-147.134 66252.9 0
66252.9 -89.1138 0
0    0    0

85.9974 65996.3 0
65996.3 -205.334 0
0    0    0

-201.849 66744.5 0
66744.5 -319.84 0
0    0    0

140.268 65274.6 0
65274.6 336.418 0
0    0    0

90.4139 66741.3 0
66741.3 -129.52 0
0    0    0

106.366 66601.7 0
66601.7 -186.209 0
0    0    0

144.279 67311.8 0
67311.8 207.258 0
0    0    0

145.045 66144.8 0
66144.8 176.395 0
0    0    0

117.625 66461.2 0
66461.2 260.974 0
0    0    0

-168.852 66813.1 0
66813.1 -262.597 0
0    0    0

-191.704 67084.8 0
67084.8 -15.9791 0
0    0    0

-60.2341 66120.8 0
66120.8 -247.21 0
0    0    0

-126.219 66341 0
66341 103.196 0
0    0    0

91.3175 65871.9 0
65871.9 286.453 0
0    0    0

-63.0503 63882 0
63882 -210.051 0
0    0    0

-24.5216 65882.2 0
65882.2 187.426 0
0    0    0

-134.97 65378.3 0
65378.3 16.5271 0
0    0    0

63.5627 66163.3 0
66163.3 -341.362 0
0    0    0

132.986 65540.2 0
65540.2 -46.5142 0
0    0    0

-76.434 63760.6 0
63760.6 165.168 0
0    0    0

-252.482 62494.9 0
62494.9 -478.081 0
0    0    0

133.353 65352.8 0
65352.8 40.1265 0
0    0    0

-329.674 65365 0
65365 -103.948 0
0    0    0

-131.949 63528.3 0
63528.3 -63.9677 0
0    0    0

232.874 64442.3 0
64442.3 153.307 0
0    0    0

-267.046 64802.3 0
64802.3 -173.896 0
0    0    0

178.978 65818.1 0
65818.1 -30.7155 0
0    0    0

102.929 64275.2 0
64275.2 -144.531 0
0    0    0

-158.142 64798.9 0
64798.9 -71.1535 0
0    0    0

127.961 66484 0
66484 129.45 0
0    0    0

95.1752 66220.1 0
66220.1 -98.248 0
0    0    0

21.5147 66016.9 0
66016.9 -28.6579 0
0    0    0

-22.9432 67137.3 0
67137.3 -9.83279 0
0    0    0

-138.01 64766.9 0
64766.9 0.468314 0
0    0    0

-166.594 65166.8 0
65166.8 -14.7995 0
0    0    0

270.457 64970.4 0
64970.4 149.545 0
0    0    0

295.736 65750.2 0
65750.2 148.384 0
0    0    0

-96.7341 66941.7 0
66941.7 -281.171 0
0    0    0

110.441 67054.7 0
67054.7 -274.186 0
0    0    0

84.7312 60558.1 0
60558.1 -53.0055 0
0    0    0

128.656 60174.4 0
60174.4 92.736 0
0    0    0

209.835 59659.6 0
59659.6 66.0263 0
0    0    0

-167.017 60130.7 0
60130.7 -22.5449 0
0    0    0

169.199 61795.6 0
61795.6 127.067 0
0    0    0

-83.1997 61570.8 0
61570.8 -122.632 0
0    0    0

217 65099.9 0
65099.9 205.851 0
0    0    0

312.061 60877 0
60877 267.575 0
0    0    0

225.369 60868.6 0
60868.6 284.762 0
0    0    0

-254.023 64111.5 0
64111.5 -156.615 0
0    0    0

103.694 60287.6 0
60287.6 -102.597 0
0    0    0

20.5918 61837.5 0
61837.5 243.99 0
0    0    0

-290.086 70009.5 0
70009.5 -311.601 0
0    0    0

-242.049 69334.4 0
69334.4 -406.001 0
0    0    0

-206.887 67522.4 0
67522.4 -151.487 0
0    0    0

-221.207 67452.1 0
67452.1 -296.271 0
0    0    0

108.664 67155.8 0
67155.8 267.467 0
0    0    0

-100.798 67156.6 0
67156.6 197.192 0
0    0    0

101.873 66630.3 0
66630.3 57.4285 0
0    0    0

-9.36582 66973.8 0
66973.8 -117.237 0
0    0    0

-107.392 66428.4 0
66428.4 137.592 0
0    0    0

-136.484 66284.1 0
66284.1 -291.889 0
0    0    0

422.697 64808.4 0
64808.4 235.841 0
0    0    0

-52.8773 65278.1 0
65278.1 38.4923 0
0    0    0

-254.913 66185 0
66185 -237.48 0
0    0    0

157.052 65834.6 0
65834.6 210.06 0
0    0    0

-20.1285 65673.2 0
65673.2 -206.19 0
0    0    0

-57.6998 65376.1 0
65376.1 -96.265 0
0    0    0

84.1314 65347.7 0
65347.7 259.468 0
0    0    0

192.547 64284.1 0
64284.1 28.7848 0
0    0    0

-213.015 65564 0
65564 -427.429 0
0    0    0

309.346 64861.7 0
64861.7 217.452 0
0    0    0

128.113 64742.8 0
64742.8 -17.921 0
0    0    0

-352.914 65188 0
65188 -111.87 0
0    0    0

-49.1386 64295 0
64295 244.806 0
0    0    0

43.6387 64849.8 0
64849.8 -145.973 0
0    0    0

-285.022 65694.5 0
65694.5 -68.0515 0
0    0    0

-91.4564 64789.5 0
64789.5 -162.376 0
0    0    0

73.8188 66751.2 0
66751.2 -152.365 0
0    0    0

106.44 65899.6 0
65899.6 241.651 0
0    0    0

-56.8435 66595.8 0
66595.8 113.448 0
0    0    0

-133.355 66141.3 0
66141.3 -59.5064 0
0    0    0

158.627 65846.2 0
65846.2 325.681 0
0    0    0

7.07914 65677.6 0
65677.6 81.7591 0
0    0    0

262.887 64497.7 0
64497.7 218.282 0
0    0    0

136.038 62571.4 0
62571.4 -53.23 0
0    0    0

-403.107 65053.5 0
65053.5 -196.821 0
0    0    0

63.353 64390 0
64390 226.613 0
0    0    0

59.0724 66546 0
66546 354.804 0
0    0    0

-101.439 66954.2 0
66954.2 -267.303 0
0    0    0

-28.4468 66298.2 0
66298.2 19.3046 0
0    0    0

80.7795 66674.5 0
66674.5 171.778 0
0    0    0

-139.69 64705.7 0
64705.7 -44.5837 0
0    0    0

153.503 65272.9 0
65272.9 -27.2308 0
0    0    0

206.559 65264.7 0
65264.7 69.0409 0
0    0    0

221.884 65697.3 0
65697.3 373.709 0
0    0    0

-222.138 65477.9 0
65477.9 -223.743 0
0    0    0

74.4343 66375.5 0
66375.5 31.9004 0
0    0    0

-47.4919 65967.7 0
65967.7 -332.371 0
0    0    0

135.029 65607.5 0
65607.5 248.664 0
0    0    0

-237.378 65341.8 0
65341.8 -182.145 0
0    0    0

-109.832 65757.8 0
65757.8 -22.7395 0
0    0    0

-200.704 66164.3 0
66164.3 -222.646 0
0    0    0

-24.776 66790.3 0
66790.3 97.1904 0
0    0    0

-213.876 65533 0
65533 -215.76 0
0    0    0

0.841766 63478 0
63478 -50.1353 0
0    0    0

298.982 64064.4 0
64064.4 106.964 0
0    0    0

-163.257 64623.4 0
64623.4 115.151 0
0    0    0

212.229 63858.5 0
63858.5 57.5559 0
0    0    0

-223.252 65475.6 0
65475.6 -212.743 0
0    0    0

157.983 64567.1 0
64567.1 193.463 0
0    0    0

182.188 64965.4 0
64965.4 253.588 0
0    0    0

-228.616 64910.6 0
64910.6 -275.722 0
0    0    0

-98.7521 63709 0
63709 48.75 0
0    0    0

-160.305 64826.3 0
64826.3 -253.051 0
0    0    0

164.252 62256.1 0
62256.1 181.434 0
0    0    0

-245.026 63318.6 0
63318.6 -115.328 0
0    0    0

-145.728 64443.3 0
64443.3 -117.49 0
0    0    0

-47.1284 63825.4 0
63825.4 -313.933 0
0    0    0

-215.873 65102.2 0
65102.2 -110.571 0
0    0    0

-196.351 64070.8 0
64070.8 -4.85789 0
0    0    0

175.951 64608 0
64608 21.4275 0
0    0    0

78.3508 63954.8 0
63954.8 -136.622 0
0    0    0

-209.605 65007.3 0
65007.3 -17.632 0
0    0    0

142.375 63607.4 0
63607.4 -113.803 0
0    0    0

176.901 66156.3 0
66156.3 75.8147 0
0    0    0

79.0721 65881.8 0
65881.8 -406.016 0
0    0    0

-99.236 66292.1 0
66292.1 172.735 0
0    0    0

-168.663 66687.3 0
66687.3 -121.353 0
0    0    0

-72.7148 66697.9 0
66697.9 -231.857 0
0    0    0

191.073 65006.6 0
65006.6 -3.2206 0
0    0    0

-96.9741 64490.7 0
64490.7 -269.41 0
0    0    0

-118.558 64592.6 0
64592.6 -298.602 0
0    0    0

40.0113 63880.7 0
63880.7 -89.2332 0
0    0    0

-128.569 61169.9 0
61169.9 193.184 0
0    0    0

232.439 62490.6 0
62490.6 330.396 0
0    0    0

121.296 63606.1 0
63606.1 264.651 0
0    0    0

173.527 64516.9 0
64516.9 253.902 0
0    0    0

35.249 63187.7 0
63187.7 383.802 0
0    0    0

-221.11 63080.7 0
63080.7 -78.4324 0
0    0    0

-91.1073 63934.1 0
63934.1 -221.383 0
0    0    0

135.048 63600.1 0
63600.1 282.77 0
0    0    0

-276.636 62857.5 0
62857.5 -365.165 0
0    0    0

255.13 62840 0
62840 190.927 0
0    0    0

-149.854 60876.6 0
60876.6 53.4992 0
0    0    0

-4.46186 61119.3 0
61119.3 -210.664 0
0    0    0

-22.1465 61749.1 0
61749.1 250.271 0
0    0    0

178.699 60717.5 0
60717.5 332.699 0
0    0    0

79.0692 62061 0
62061 -30.9233 0
0    0    0

261.911 62753.3 0
62753.3 285.482 0
0    0    0

181.545 63482.6 0
63482.6 84.973 0
0    0    0

3.76562 63241.7 0
63241.7 -157.807 0
0    0    0

-237.66 63896.9 0
63896.9 -193.82 0
0    0    0

-270.003 64340 0
64340 -185.315 0
0    0    0

188.653 61337.5 0
61337.5 -8.61978 0
0    0    0

-136.43 63787.8 0
63787.8 -77.4304 0
0    0    0

-87.4149 61608.8 0
61608.8 -240.109 0
0    0    0

12.0014 61202.2 0
61202.2 150.191 0
0    0    0

-326.775 64971 0
64971 -181.282 0
0    0    0

-155.948 64304.7 0
64304.7 -177.253 0
0    0    0

158.845 65164 0
65164 231.658 0
0    0    0

153.846 64868.1 0
64868.1 27.9075 0
0    0    0

-185.342 65360.6 0
65360.6 6.60358 0
0    0    0

-13.735 65758.8 0
65758.8 197.919 0
0    0    0

324.055 61348.2 0
61348.2 300.67 0
0    0    0

-109.721 62648.6 0
62648.6 -68.5998 0
0    0    0

174.369 61792 0
61792 320.936 0
0    0    0

-220.674 61527.3 0
61527.3 -87.1466 0
0    0    0

137.219 62636.8 0
62636.8 183.246 0
0    0    0

-185.634 62983.9 0
62983.9 -179.242 0
0    0    0

-7.80075 61937.6 0
61937.6 117.015 0
0    0    0

-190.867 62077.5 0
62077.5 -242.539 0
0    0    0

122.138 64299.5 0
64299.5 -37.5543 0
0    0    0

32.2764 61810.6 0
61810.6 187.356 0
0    0    0

-147.686 62321.9 0
62321.9 -347.977 0
0    0    0

119.395 62104.6 0
62104.6 219.392 0
0    0    0

-43.7736 63499.9 0
63499.9 -161.946 0
0    0    0

-107.637 62189.1 0
62189.1 -232.073 0
0    0    0

-96.7796 63407.7 0
63407.7 87.5917 0
0    0    0

187.221 62618.8 0
62618.8 209.98 0
0    0    0

30.7554 63370.1 0
63370.1 119.62 0
0    0    0

12.7946 63070.7 0
63070.7 18.7869 0
0    0    0

92.8132 63653.2 0
63653.2 -96.1476 0
0    0    0

-292.867 62994.7 0
62994.7 -90.4119 0
0    0    0

-135.193 64166.1 0
64166.1 -332.542 0
0    0    0

81.3989 64195.7 0
64195.7 -76.7409 0
0    0    0

219.72 62500.1 0
62500.1 186.171 0
0    0    0

46.1627 62120.4 0
62120.4 234.2 0
0    0    0

6.93418 64470.3 0
64470.3 190.841 0
0    0    0

34.9318 63890.6 0
63890.6 230.37 0
0    0    0

155.923 62407.8 0
62407.8 -141.571 0
0    0    0

-148.582 63023.6 0
63023.6 -174.746 0
0    0    0

-227.865 62651.2 0
62651.2 27.6849 0
0    0    0

138.07 62113 0
62113 454.572 0
0    0    0

110.241 61722.9 0
61722.9 -213.057 0
0    0    0

-114.677 62036.8 0
62036.8 -37.3273 0
0    0    0

-101.472 61582.5 0
61582.5 -198.652 0
0    0    0

132.631 62216.7 0
62216.7 140.241 0
0    0    0

109.695 61360.4 0
61360.4 164.51 0
0    0    0

189.596 61868.5 0
61868.5 481.345 0
0    0    0

152.68 48088.1 0
48088.1 116.73 0
0    0    0

94.2964 48088 0
48088 284.633 0
0    0    0

16.2356 47112.2 0
47112.2 149.168 0
0    0    0

143.35 47680.7 0
47680.7 -80.494 0
0    0    0

-93.4586 33011.9 0
33011.9 -399.361 0
0    0    0

-67.6444 33639.7 0
33639.7 -167.396 0
0    0    0

36.702 34826.8 0
34826.8 159.709 0
0    0    0

33.0031 35357.3 0
35357.3 282.429 0
0    0    0

-253.83 26072.8 0
26072.8 -338.851 0
0    0    0

-336.738 26676 0
26676 -247.806 0
0    0    0

-264.038 29542.7 0
29542.7 -228.033 0
0    0    0

-256.965 28726.1 0
28726.1 -139.285 0
0    0    0

167.132 48298.9 0
48298.9 237.585 0
0    0    0

314.931 49027.5 0
49027.5 470.867 0
0    0    0

-368.254 49144.6 0
49144.6 -298.54 0
0    0    0

25.7692 48377.2 0
48377.2 218.815 0
0    0    0

-80.7236 34643.3 0
34643.3 -235.043 0
0    0    0

-166.892 35130.6 0
35130.6 -185.632 0
0    0    0

118.692 24148.7 0
24148.7 296.468 0
0    0    0

182.437 23122 0
23122 170.417 0
0    0    0

81.2078 24105 0
24105 304.716 0
0    0    0

55.6034 23827.5 0
23827.5 -142.334 0
0    0    0

-108.918 22958.4 0
22958.4 -369.194 0
0    0    0

103.166 23252.7 0
23252.7 360.474 0
0    0    0

183.147 39822.2 0
39822.2 -70.0577 0
0    0    0

-275.534 40131.2 0
40131.2 -106.512 0
0    0    0

81.1268 39374.7 0
39374.7 -30.7223 0
0    0    0

121.298 39047.9 0
39047.9 258.191 0
0    0    0

52.0926 38974.3 0
38974.3 221.433 0
0    0    0

122.115 39720.3 0
39720.3 -73.3156 0
0    0    0

-12.3167 40188.1 0
40188.1 -27.5959 0
0    0    0

225.304 39842.6 0
39842.6 175.447 0
0    0    0

20.3431 42673.2 0
42673.2 289.087 0
0    0    0

-119.012 41054.4 0
41054.4 91.1045 0
0    0    0

149.073 43055.5 0
43055.5 262.678 0
0    0    0

-22.8686 42685.3 0
42685.3 151.693 0
0    0    0

77.1018 42179.8 0
42179.8 -103.608 0
0    0    0

161.937 41781.1 0
41781.1 436.234 0
0    0    0

70.8198 42086.7 0
42086.7 215.639 0
0    0    0

59.82 41959.2 0
41959.2 -131.351 0
0    0    0

82.5234 41302.3 0
41302.3 -10.7286 0
0    0    0

196.687 42108.1 0
42108.1 233.022 0
0    0    0

-61.6695 42627.7 0
42627.7 -112.68 0
0    0    0

-60.1721 42379.2 0
42379.2 -213.35 0
0    0    0

167.735 41440.5 0
41440.5 224.802 0
0    0    0

-233.052 41798.7 0
41798.7 -258.99 0
0    0    0

-10.3221 41464.9 0
41464.9 78.5932 0
0    0    0

-227.482 41542.6 0
41542.6 -519.256 0
0    0    0

-249.869 42400.3 0
42400.3 -146.816 0
0    0    0

-14.0547 41651.7 0
41651.7 89.3152 0
0    0    0

-93.362 16356.4 0
16356.4 -189.788 0
0    0    0

150.092 16058.3 0
16058.3 274.413 0
0    0    0

-162.757 16286.3 0
16286.3 70.5747 0
0    0    0

-7.19035 14894.4 0
14894.4 195.306 0
0    0    0

47.2427 15829.9 0
15829.9 -126.405 0
0    0    0

190.955 15392.8 0
15392.8 -67.5823 0
0    0    0

-105.704 15069.9 0
15069.9 -45.3018 0
0    0    0

-146.867 14775.3 0
14775.3 -62.9428 0
0    0    0

147.367 15409.2 0
15409.2 442.649 0
0    0    0

54.4555 15147.5 0
15147.5 -203.883 0
0    0    0

-259.991 15157.1 0
15157.1 -59.5572 0
0    0    0

26.2918 14462.8 0
14462.8 11.2679 0
0    0    0

63.5239 15124.6 0
15124.6 17.0646 0
0    0    0

140.272 14859.7 0
14859.7 19.5314 0
0    0    0

20.0089 33716.7 0
33716.7 295.192 0
0    0    0

124.46 33511.7 0
33511.7 -72.8213 0
0    0    0

137.695 34182.1 0
34182.1 -10.9406 0
0    0    0

77.8576 33334.5 0
33334.5 -260.537 0
0    0    0

144.33 34029.2 0
34029.2 435.758 0
0    0    0

-103.168 32619.9 0
32619.9 -474.314 0
0    0    0

-158.373 34640.7 0
34640.7 -113.058 0
0    0    0

-28.9739 33825 0
33825 -200.934 0
0    0    0

-131.018 33734.7 0
33734.7 -262.5 0
0    0    0

83.7978 33931 0
33931 93.6648 0
0    0    0

22.7153 34856.2 0
34856.2 191.087 0
0    0    0

-3.51408 35010 0
35010 212.948 0
0    0    0

224.078 34599.3 0
34599.3 64.6137 0
0    0    0

-165.963 34440 0
34440 -284.484 0
0    0    0

115.696 35375 0
35375 344.775 0
0    0    0

-113.365 35209.1 0
35209.1 -217.574 0
0    0    0

156.537 34582.2 0
34582.2 -219.769 0
0    0    0

90.276 34221.3 0
34221.3 120.997 0
0    0    0

-52.8341 33471.8 0
33471.8 67.182 0
0    0    0

196.438 33411.1 0
33411.1 327.177 0
0    0    0

-123.746 33649.1 0
33649.1 -355.664 0
0    0    0

137.587 32975.4 0
32975.4 -49.2788 0
0    0    0

-21.2887 33050.1 0
33050.1 -396.497 0
0    0    0

-154.916 33214.7 0
33214.7 -376.701 0
0    0    0

364.283 32231.8 0
32231.8 333.337 0
0    0    0

-73.1385 32919.9 0
32919.9 18.4451 0
0    0    0

135.045 32993.9 0
32993.9 484.408 0
0    0    0

19.0984 32826.3 0
32826.3 279.387 0
0    0    0

92.518 20024.1 0
20024.1 147.455 0
0    0    0

164.861 20744.1 0
20744.1 290.597 0
0    0    0

-83.7199 23143 0
23143 -241.922 0
0    0    0

-125.162 22691 0
22691 71.8688 0
0    0    0

-203.722 21967.4 0
21967.4 -87.3094 0
0    0    0

-89.5185 22580 0
22580 -38.3651 0
0    0    0

140.995 22758.7 0
22758.7 276.778 0
0    0    0

130.63 22476.2 0
22476.2 -127.598 0
0    0    0

150.872 21511.5 0
21511.5 -132.166 0
0    0    0

-187.714 22142.8 0
22142.8 -11.1613 0
0    0    0

78.9197 22235.6 0
22235.6 -262.12 0
0    0    0

69.1228 22086.3 0
22086.3 273.496 0
0    0    0

148.512 21773.3 0
21773.3 78.572 0
0    0    0

-145.697 21952.9 0
21952.9 -92.4713 0
0    0    0

-74.3544 21424.3 0
21424.3 -31.8662 0
0    0    0

-150.542 21596.3 0
21596.3 -181.429 0
0    0    0

114.045 21491.6 0
21491.6 -70.0157 0
0    0    0

174.121 21265.2 0
21265.2 99.2557 0
0    0    0

39.0313 22495 0
22495 -45.3259 0
0    0    0

263.79 21671 0
21671 354.614 0
0    0    0

4.24869 21995.2 0
21995.2 192.558 0
0    0    0

75.5715 22024.6 0
22024.6 294.196 0
0    0    0

-7.1415 22289.2 0
22289.2 -372.408 0
0    0    0

-85.5611 22950.5 0
22950.5 -226.083 0
0    0    0

-130.935 20562.9 0
20562.9 -118.185 0
0    0    0

-307.128 21289.9 0
21289.9 -244.747 0
0    0    0

-261.404 22081.8 0
22081.8 -507.781 0
0    0    0

-146.889 22205.1 0
22205.1 -247.996 0
0    0    0

-242.925 21432 0
21432 -285.432 0
0    0    0

196.852 21794.2 0
21794.2 389.515 0
0    0    0

28.7558 21528.4 0
21528.4 -273.433 0
0    0    0

256.719 21303.1 0
21303.1 26.8586 0
0    0    0

-77.2102 22149.9 0
22149.9 -218.586 0
0    0    0

55.0328 22543.9 0
22543.9 154.774 0
0    0    0

-273 21721.6 0
21721.6 -4.78812 0
0    0    0

9.11651 21163.1 0
21163.1 51.7066 0
0    0    0

123.844 21845.8 0
21845.8 189.582 0
0    0    0

284.983 19686.7 0
19686.7 549.698 0
0    0    0

164.228 22527.8 0
22527.8 61.7423 0
0    0    0

-156.075 22963.2 0
22963.2 -104.689 0
0    0    0

-85.1442 23757.2 0
23757.2 -10.6089 0
0    0    0

233.08 20912.3 0
20912.3 234.095 0
0    0    0

-149.437 18237 0
18237 -111.008 0
0    0    0

87.0573 18717.9 0
18717.9 -123.943 0
0    0    0

-281.852 19315.5 0
19315.5 -75.2147 0
0    0    0

-246.555 18636.1 0
18636.1 -559.714 0
0    0    0

61.8238 18957.1 0
18957.1 184.181 0
0    0    0

151.479 17750 0
17750 79.9107 0
0    0    0

-295.308 19187.8 0
19187.8 -284.028 0
0    0    0

-196.749 17885.5 0
17885.5 -84.3212 0
0    0    0

156.812 20367.5 0
20367.5 66.7494 0
0    0    0

161.583 20233.1 0
20233.1 178.27 0
0    0    0

173.602 22834.9 0
22834.9 -92.4068 0
0    0    0

202.141 23399.9 0
23399.9 4.56662 0
0    0    0

92.4997 23339.6 0
23339.6 103.386 0
0    0    0

217.774 23097.9 0
23097.9 31.3672 0
0    0    0

115.176 19469.1 0
19469.1 189.557 0
0    0    0

-271.127 19188.4 0
19188.4 -281.571 0
0    0    0

148.767 19872.6 0
19872.6 219.779 0
0    0    0

95.9334 18198 0
18198 41.1143 0
0    0    0

-198.165 20733.2 0
20733.2 -233.726 0
0    0    0

-234.676 19700.9 0
19700.9 -141.135 0
0    0    0

-94.2239 19960.8 0
19960.8 -140.663 0
0    0    0

-11.5383 20516.8 0
20516.8 132.39 0
0    0    0

170.661 20440.3 0
20440.3 195.183 0
0    0    0

-89.9808 20328.8 0
20328.8 -166.13 0
0    0    0

18.0886 21271 0
21271 143.973 0
0    0    0

176.873 20894.5 0
20894.5 346.199 0
0    0    0

31.1921 20564.8 0
20564.8 -234.75 0
0    0    0

-187.192 20948 0
20948 56.8416 0
0    0    0

-36.0751 21117.5 0
21117.5 -166.953 0
0    0    0

123.302 21933.9 0
21933.9 90.9332 0
0    0    0

99.787 21564.9 0
21564.9 -71.1182 0
0    0    0

40.384 21531.1 0
21531.1 223.872 0
0    0    0

243.236 21073.1 0
21073.1 -13.5817 0
0    0    0

-204.4 19179.3 0
19179.3 166.455 0
0    0    0

-11.14 18305.7 0
18305.7 396.434 0
0    0    0

284.915 18891.1 0
18891.1 306.578 0
0    0    0

44.5517 18477.9 0
18477.9 -44.7748 0
0    0    0

250.32 19434.1 0
19434.1 432.259 0
0    0    0

-31.5567 19233.1 0
19233.1 67.9501 0
0    0    0

148.114 20666.1 0
20666.1 75.3125 0
0    0    0

-37.8641 18624.5 0
18624.5 -16.2275 0
0    0    0

-46.3787 19162.7 0
19162.7 -19.8766 0
0    0    0

137.423 20034.5 0
20034.5 214.348 0
0    0    0

-115.44 18884.9 0
18884.9 -49.4745 0
0    0    0

-77.6998 20227.1 0
20227.1 -33.2999 0
0    0    0

-88.444 20967.8 0
20967.8 -54.1124 0
0    0    0

61.2389 20837.8 0
20837.8 77.4311 0
0    0    0

12.1861 20323.4 0
20323.4 -213.824 0
0    0    0

70.4123 19004.9 0
19004.9 -92.5936 0
0    0    0

-58.8237 19674.8 0
19674.8 166.778 0
0    0    0

-260.568 20157.5 0
20157.5 -462.998 0
0    0    0

15.3662 19983.7 0
19983.7 -39.5755 0
0    0    0

-106.681 19468.8 0
19468.8 -45.7205 0
0    0    0

174.21 19898.1 0
19898.1 308.82 0
0    0    0

-145.062 19505.3 0
19505.3 -206.951 0
0    0    0

96.1985 19238.7 0
19238.7 228.516 0
0    0    0

-48.7316 19524.2 0
19524.2 -197.201 0
0    0    0

-110.064 19506.9 0
19506.9 -252.764 0
0    0    0

-207.694 20094.2 0
20094.2 -131.056 0
0    0    0

105.45 19343.7 0
19343.7 282.28 0
0    0    0

166.932 19634.5 0
19634.5 110.516 0
0    0    0

-210.812 65451.6 0
65451.6 -350.414 0
0    0    0

-198.396 68672.8 0
68672.8 -308.304 0
0    0    0

166.171 66005.7 0
66005.7 286.971 0
0    0    0

-174.614 40507.2 0
40507.2 -165.056 0
0    0    0

-26.3536 40951.7 0
40951.7 137.113 0
0    0    0

206.872 61300.3 0
61300.3 175.44 0
0    0    0

43.4577 62034.3 0
62034.3 225.734 0
0    0    0

90.3824 61801.2 0
61801.2 -79.1689 0
0    0    0

109.263 62064.3 0
62064.3 254.946 0
0    0    0

75.9388 61634.5 0
61634.5 177.191 0
0    0    0

125.113 62590.8 0
62590.8 158.766 0
0    0    0

-242.533 62345.3 0
62345.3 -161.816 0
0    0    0

-42.9783 24091.9 0
24091.9 -159.476 0
0    0    0

-140.56 62853.6 0
62853.6 -378.905 0
0    0    0

-211.955 26147.2 0
26147.2 -2.96635 0
0    0    0

73.9664 25535.2 0
25535.2 73.0522 0
0    0    0

-106.71 25573.5 0
25573.5 -365.597 0
0    0    0

202.192 24484.9 0
24484.9 228.981 0
0    0    0

-13.2295 24738.4 0
24738.4 -164.268 0
0    0    0

-127.111 23661.4 0
23661.4 -103 0
0    0    0

52.4205 24279.3 0
24279.3 178.838 0
0    0    0

-194.693 23152.9 0
23152.9 -215.438 0
0    0    0

-217.032 24164.5 0
24164.5 -129.946 0
0    0    0

-214.111 24333.9 0
24333.9 -110.678 0
0    0    0

-197.92 25009.4 0
25009.4 42.504 0
0    0    0

271.803 23319.2 0
23319.2 172.29 0
0    0    0

-104.1 23316.5 0
23316.5 25.769 0
0    0    0

-106.862 23351 0
23351 -32.2717 0
0    0    0

91.8813 22721.5 0
22721.5 242.914 0
0    0    0

-112.621 25576.3 0
25576.3 46.5663 0
0    0    0

42.8269 25430 0
25430 -222.487 0
0    0    0

147.935 26045.2 0
26045.2 24.4093 0
0    0    0

85.9208 25147.6 0
25147.6 -82.0755 0
0    0    0

149.671 25755 0
25755 174.667 0
0    0    0

98.9655 25372.9 0
25372.9 354.108 0
0    0    0

-35.3083 22802.1 0
22802.1 320.999 0
0    0    0

-77.2685 23657.7 0
23657.7 -192.595 0
0    0    0

-24.0735 23846.8 0
23846.8 -36.4177 0
0    0    0

27.7768 23945 0
23945 322.48 0
0    0    0

88.1441 24218.3 0
24218.3 -95.316 0
0    0    0

-82.0091 24486.7 0
24486.7 275.618 0
0    0    0

-45.7162 25181.7 0
25181.7 -130.534 0
0    0    0

-43.0636 25336.9 0
25336.9 195.778 0
0    0    0

174.73 23229.6 0
23229.6 235.547 0
0    0    0

64.3384 22933.1 0
22933.1 -37.6122 0
0    0    0

-164.609 24813.6 0
24813.6 -154.957 0
0    0    0

-198.504 25043.9 0
25043.9 33.0258 0
0    0    0

-27.8599 25106.6 0
25106.6 216.837 0
0    0    0

85.7625 24620 0
24620 -250.551 0
0    0    0

262.607 69203.5 0
69203.5 386.02 0
0    0    0

-174.031 68615.6 0
68615.6 -66.3351 0
0    0    0

-49.6498 68513.5 0
68513.5 -99.7279 0
0    0    0

-177.388 69083.1 0
69083.1 -257.31 0
0    0    0

92.4703 72639.1 0
72639.1 150.295 0
0    0    0

-26.9667 72001.5 0
72001.5 -128.512 0
0    0    0

-114.519 72162.1 0
72162.1 39.546 0
0    0    0

38.2871 71460.4 0
71460.4 -123.54 0
0    0    0

-132.763 73173.8 0
73173.8 -116.153 0
0    0    0

-170.623 72028.7 0
72028.7 -301.034 0
0    0    0

-30.8929 70375.6 0
70375.6 153.489 0
0    0    0

61.6961 70704.8 0
70704.8 -11.9851 0
0    0    0

-145.613 71410.5 0
71410.5 52.9072 0
0    0    0

-66.5731 71756.6 0
71756.6 -40.5482 0
0    0    0

-129.696 70432.6 0
70432.6 -67.1543 0
0    0    0

256.13 71052.2 0
71052.2 261.048 0
0    0    0

-11.7712 49059.4 0
49059.4 215.937 0
0    0    0

-25.8548 48555.1 0
48555.1 153.934 0
0    0    0

52.3072 68595.2 0
68595.2 -158.112 0
0    0    0

34.0377 69405.1 0
69405.1 73.2748 0
0    0    0

174.425 69142.3 0
69142.3 319.805 0
0    0    0

237.432 68938.1 0
68938.1 103.743 0
0    0    0

-232.223 69164.3 0
69164.3 -300.021 0
0    0    0

-79.5977 68164.9 0
68164.9 264.106 0
0    0    0

189.494 68508.7 0
68508.7 351.584 0
0    0    0

58.6131 68247.9 0
68247.9 63.1321 0
0    0    0

58.6813 69570.5 0
69570.5 396.182 0
0    0    0

155.023 68861.3 0
68861.3 156.934 0
0    0    0

-62.9414 69973 0
69973 178.946 0
0    0    0

-6.08431 70187.8 0
70187.8 -18.7526 0
0    0    0

154.462 70446.3 0
70446.3 -166.836 0
0    0    0

-242.368 69790.7 0
69790.7 -379.093 0
0    0    0

-13.3395 74620 0
74620 280.246 0
0    0    0

246.123 74576.4 0
74576.4 257.049 0
0    0    0

37.6828 74270.3 0
74270.3 -180.612 0
0    0    0

148.384 73246.3 0
73246.3 -75.3574 0
0    0    0

-224.863 74308.5 0
74308.5 -429.566 0
0    0    0

-146.74 74834.7 0
74834.7 -193.792 0
0    0    0

40.5296 74989.3 0
74989.3 152.535 0
0    0    0

113.784 74786.4 0
74786.4 -151.721 0
0    0    0

-19.2545 75467.3 0
75467.3 -51.6331 0
0    0    0

73.3338 77567.9 0
77567.9 171.112 0
0    0    0

224.264 75086.3 0
75086.3 -30.323 0
0    0    0

-234.437 75923.4 0
75923.4 14.7698 0
0    0    0

-117.54 75934.8 0
75934.8 161.996 0
0    0    0

261.652 75698.9 0
75698.9 29.7243 0
0    0    0

-76.5454 75992.7 0
75992.7 -259.307 0
0    0    0

100.814 76728.6 0
76728.6 226.308 0
0    0    0

-55.9578 76207.2 0
76207.2 -8.03224 0
0    0    0

-133.247 76556.1 0
76556.1 -205.281 0
0    0    0

35.1236 74137.1 0
74137.1 218.657 0
0    0    0

-83.527 76077.6 0
76077.6 158.545 0
0    0    0

-174.823 73324.6 0
73324.6 -146.132 0
0    0    0

162.748 75056.5 0
75056.5 276.864 0
0    0    0

-84.7621 73957 0
73957 -234.377 0
0    0    0

2.85642 74606.9 0
74606.9 -193.039 0
0    0    0

151.965 74098.1 0
74098.1 290.757 0
0    0    0

-93.6932 74643.8 0
74643.8 93.6702 0
0    0    0

183.595 73843.5 0
73843.5 -29.1477 0
0    0    0

93.7205 72553.2 0
72553.2 -231.708 0
0    0    0

-120.769 73481.7 0
73481.7 -52.0228 0
0    0    0

-1.24594 72528.7 0
72528.7 -283.881 0
0    0    0

42.5754 73087.2 0
73087.2 -85.6694 0
0    0    0

-156.52 72242 0
72242 262.754 0
0    0    0

-108.469 75003 0
75003 -199.803 0
0    0    0

-168.647 74330.5 0
74330.5 65.3465 0
0    0    0

90.558 73784.7 0
73784.7 125.526 0
0    0    0

-92.3254 73575.9 0
73575.9 75.0075 0
0    0    0

-209.492 74746.9 0
74746.9 -368.599 0
0    0    0

-282.652 74063.4 0
74063.4 -208.588 0
0    0    0

98.2308 73378.6 0
73378.6 -198.736 0
0    0    0

-135.841 73036.2 0
73036.2 -165.051 0
0    0    0

-63.9802 73925.4 0
73925.4 130.247 0
0    0    0

254.775 73650.4 0
73650.4 400.056 0
0    0    0

-191.222 74525.8 0
74525.8 -61.0051 0
0    0    0

-19.8142 73171.4 0
73171.4 116.616 0
0    0    0

56.6213 73776.8 0
73776.8 132.116 0
0    0    0

86.0181 73599.7 0
73599.7 102.498 0
0    0    0

10.6959 71683.2 0
71683.2 139.16 0
0    0    0

81.5052 74240 0
74240 190.179 0
0    0    0

116.056 72290.9 0
72290.9 366.502 0
0    0    0

64.6922 72097.8 0
72097.8 -158.056 0
0    0    0

43.3379 73606.7 0
73606.7 99.7298 0
0    0    0

83.5133 72865.8 0
72865.8 194.864 0
0    0    0

-29.1502 70582.9 0
70582.9 -267.316 0
0    0    0

-237.248 71574.6 0
71574.6 -14.4396 0
0    0    0

119.093 70916.8 0
70916.8 200.773 0
0    0    0

23.1867 71950.8 0
71950.8 54.1023 0
0    0    0

102.623 71030.7 0
71030.7 -99.876 0
0    0    0

32.0908 70652.3 0
70652.3 203.048 0
0    0    0

174.318 71708.7 0
71708.7 -1.95978 0
0    0    0

-192.935 71162.2 0
71162.2 -269.927 0
0    0    0

-84.9071 72091.9 0
72091.9 -76.7969 0
0    0    0

119.321 72685.8 0
72685.8 192.094 0
0    0    0

62.999 73353.2 0
73353.2 146.998 0
0    0    0

127.018 71732.5 0
71732.5 -251.475 0
0    0    0

-150.812 72014.2 0
72014.2 26.0906 0
0    0    0

36.8907 72432.6 0
72432.6 -212.577 0
0    0    0

-145.595 72875.4 0
72875.4 146.259 0
0    0    0

116.341 72455.3 0
72455.3 231.333 0
0    0    0

-160.815 72648.3 0
72648.3 4.78587 0
0    0    0

130.917 70096.8 0
70096.8 305.472 0
0    0    0

-136.13 70578.4 0
70578.4 176.288 0
0    0    0

34.1157 71648.1 0
71648.1 133.32 0
0    0    0

230.963 71329.6 0
71329.6 90.0033 0
0    0    0

129.464 72267.8 0
72267.8 -10.0253 0
0    0    0

-175.347 73172.3 0
73172.3 -138.764 0
0    0    0

-76.6589 71512.4 0
71512.4 -170.277 0
0    0    0

50.9897 72382.1 0
72382.1 118.976 0
0    0    0

54.2351 71913.1 0
71913.1 -198.603 0
0    0    0

-28.7975 71148.3 0
71148.3 -3.54177 0
0    0    0

162.723 72181.5 0
72181.5 153.489 0
0    0    0

-129.063 72557.7 0
72557.7 -172.278 0
0    0    0

-20.4145 71828.3 0
71828.3 146.027 0
0    0    0

210.927 72751.9 0
72751.9 179.114 0
0    0    0

-153.371 73076.3 0
73076.3 -221.33 0
0    0    0

109.072 73433.4 0
73433.4 -67.4827 0
0    0    0

169.255 69953.5 0
69953.5 192.619 0
0    0    0

-171.635 70077.3 0
70077.3 -21.2848 0
0    0    0

-80.0992 70337.5 0
70337.5 139.656 0
0    0    0

-315.289 69491.5 0
69491.5 -207.84 0
0    0    0

203.14 69951.3 0
69951.3 53.5528 0
0    0    0

143.225 69090.1 0
69090.1 263.824 0
0    0    0

61.1438 68991.6 0
68991.6 3.4574 0
0    0    0

253.885 69137.4 0
69137.4 125.341 0
0    0    0

-162.068 70273.4 0
70273.4 -20.8073 0
0    0    0

243.922 69338.5 0
69338.5 1.79815 0
0    0    0

222.858 69749.7 0
69749.7 41.9701 0
0    0    0

-168.897 69853.6 0
69853.6 2.05952 0
0    0    0

207.153 71107.3 0
71107.3 80.1544 0
0    0    0

4.96071 70948.7 0
70948.7 -181.129 0
0    0    0

-74.431 71174.5 0
71174.5 417.789 0
0    0    0

117.571 70556.4 0
70556.4 274.332 0
0    0    0

-161.953 69393.2 0
69393.2 -168.955 0
0    0    0

-315.345 69702.2 0
69702.2 -60.1906 0
0    0    0

52.9856 70870.9 0
70870.9 218.76 0
0    0    0

-84.8815 70864.1 0
70864.1 124.865 0
0    0    0

122.773 69344.2 0
69344.2 370.035 0
0    0    0

92.8584 70667.4 0
70667.4 63.5441 0
0    0    0

-283.951 70132.8 0
70132.8 -250.739 0
0    0    0

92.8735 68884.3 0
68884.3 170.618 0
0    0    0

-189.449 68432 0
68432 -234.002 0
0    0    0

-186.569 68796.3 0
68796.3 -103.338 0
0    0    0

-23.7012 67781 0
67781 37.8624 0
0    0    0

64.9519 68997.2 0
68997.2 -66.6837 0
0    0    0

-190.867 68571 0
68571 -129.008 0
0    0    0

234.109 67729.5 0
67729.5 198.975 0
0    0    0

118.351 68681.2 0
68681.2 21.5702 0
0    0    0

189.168 68117.7 0
68117.7 332.482 0
0    0    0

171.722 68432.6 0
68432.6 102.694 0
0    0    0

37.7025 69318.1 0
69318.1 151.882 0
0    0    0

255.899 68300.4 0
68300.4 199.856 0
0    0    0

-188.457 69638.4 0
69638.4 -563.297 0
0    0    0

-125.813 68933.4 0
68933.4 -121.057 0
0    0    0

-166.03 68045.1 0
68045.1 -150.098 0
0    0    0

114.303 68128.4 0
68128.4 99.4615 0
0    0    0

-82.8486 70273 0
70273 -237.382 0
0    0    0

-36.6243 69628 0
69628 -85.4566 0
0    0    0

-48.1932 70104.1 0
70104.1 -194.648 0
0    0    0

79.8173 70006.6 0
70006.6 224.144 0
0    0    0

-154.892 69569.3 0
69569.3 -362.294 0
0    0    0

92.0153 68664.7 0
68664.7 214.702 0
0    0    0

34.8976 70691.6 0
70691.6 34.8364 0
0    0    0

-166.694 69207.3 0
69207.3 -172.981 0
0    0    0

178.453 69159.5 0
69159.5 416.389 0
0    0    0

-103.455 68223.5 0
68223.5 40.5066 0
0    0    0

106.797 68214.9 0
68214.9 249.192 0
0    0    0

-142.157 69813.4 0
69813.4 17.0416 0
0    0    0

239.442 70362.8 0
70362.8 432.882 0
0    0    0

-34.7892 71432.8 0
71432.8 47.4646 0
0    0    0

-47.0791 70925.8 0
70925.8 -375.589 0
0    0    0

114.887 71320.6 0
71320.6 268.069 0
0    0    0

-26.5889 71044.5 0
71044.5 231.387 0
0    0    0

6.42617 70506.7 0
70506.7 -141.167 0
0    0    0

12.4652 71158.6 0
71158.6 -20.7165 0
0    0    0

329.916 69674.8 0
69674.8 201.385 0
0    0    0

-73.334 69429.4 0
69429.4 -103.631 0
0    0    0

-239.771 68134.8 0
68134.8 -165.474 0
0    0    0

-127.85 68324.6 0
68324.6 -76.21 0
0    0    0

-66.1771 39745.3 0
39745.3 -326.571 0
0    0    0

-14.152 39548 0
39548 -133.319 0
0    0    0

-44.045 45377.3 0
45377.3 -93.962 0
0    0    0

-58.3903 46861.7 0
46861.7 -357.074 0
0    0    0

-49.5964 46215 0
46215 -376.002 0
0    0    0

3.34044 46733.4 0
46733.4 216.099 0
0    0    0

-29.4911 45954.3 0
45954.3 227.22 0
0    0    0

155.015 45707.5 0
45707.5 319.914 0
0    0    0

45.1513 32413.2 0
32413.2 208.604 0
0    0    0

-146.063 31927.9 0
31927.9 -82.3006 0
0    0    0

-80.0925 32810.6 0
32810.6 -186.882 0
0    0    0

188.052 32310.3 0
32310.3 469.728 0
0    0    0

313.887 31476.3 0
31476.3 114.031 0
0    0    0

-71.1729 32297.7 0
32297.7 -166.07 0
0    0    0

184.847 31929.2 0
31929.2 343.673 0
0    0    0

-37.9304 31748.1 0
31748.1 -246.762 0
0    0    0

223.758 30973.2 0
30973.2 185.447 0
0    0    0

182.928 30986.7 0
30986.7 172.968 0
0    0    0

-12.9177 30495 0
30495 -30.1413 0
0    0    0

1.78935 31340 0
31340 4.17514 0
0    0    0

-40.0186 31536.1 0
31536.1 150.427 0
0    0    0

-232.214 31438.6 0
31438.6 -255.889 0
0    0    0

-43.811 31808.7 0
31808.7 -102.226 0
0    0    0

-54.4826 30870.5 0
30870.5 -189.408 0
0    0    0

10.2338 31147.7 0
31147.7 180.17 0
0    0    0

-246.711 30848.8 0
30848.8 -58.8327 0
0    0    0

-77.1205 30910.3 0
30910.3 -179.948 0
0    0    0

-185.643 43455.6 0
43455.6 -127.094 0
0    0    0

-196.366 43312.1 0
43312.1 91.3652 0
0    0    0

-70.9892 43781.1 0
43781.1 109.457 0
0    0    0

152.667 43075.8 0
43075.8 141.493 0
0    0    0

91.4085 42929.2 0
42929.2 -165.967 0
0    0    0

-86.8559 42587 0
42587 -114.598 0
0    0    0

-307.5 43611.3 0
43611.3 -73.5149 0
0    0    0

70.2972 42816.9 0
42816.9 11.3148 0
0    0    0

-185.063 32009.5 0
32009.5 -217.039 0
0    0    0

80.6788 30991.5 0
30991.5 347.438 0
0    0    0

198.117 30756.9 0
30756.9 -55.0259 0
0    0    0

-148.685 31257.2 0
31257.2 -269.228 0
0    0    0

94.1498 31016.3 0
31016.3 245.351 0
0    0    0

212.082 30406.6 0
30406.6 116.877 0
0    0    0

-252.831 26943 0
26943 -321.298 0
0    0    0

-101.045 25222.1 0
25222.1 -235.772 0
0    0    0

249.287 26441.9 0
26441.9 392.925 0
0    0    0

-71.2653 26584.1 0
26584.1 -36.8874 0
0    0    0

-83.1246 26021.9 0
26021.9 -276.164 0
0    0    0

119.795 24932.3 0
24932.3 166.82 0
0    0    0

1.09421 25716 0
25716 2.55317 0
0    0    0

-126.564 24811.7 0
24811.7 220.617 0
0    0    0

144.366 25361.2 0
25361.2 172.316 0
0    0    0

-255.495 26811.7 0
26811.7 -215.708 0
0    0    0

-151.597 26130.3 0
26130.3 -29.7808 0
0    0    0

32.7643 26197.9 0
26197.9 209.946 0
0    0    0

-334.033 26211 0
26211 -653.017 0
0    0    0

18.6593 25935.6 0
25935.6 267.027 0
0    0    0

-219.822 25551.8 0
25551.8 5.05837 0
0    0    0

205.913 25792.3 0
25792.3 600.879 0
0    0    0

25.8792 25129.9 0
25129.9 -148.876 0
0    0    0

-45.7749 24197.2 0
24197.2 -57.9064 0
0    0    0

30.9788 24753.4 0
24753.4 72.2839 0
0    0    0

3.55456 25612.8 0
25612.8 -145.952 0
0    0    0

64.4271 25740.7 0
25740.7 62.8011 0
0    0    0

88.5733 24708.7 0
24708.7 392.276 0
0    0    0

-183.828 24896.3 0
24896.3 -159.445 0
0    0    0

24.4287 10436.7 0
10436.7 -202.527 0
0    0    0

-88.7811 10436.3 0
10436.3 -293.445 0
0    0    0

75.4852 77844.3 0
77844.3 -53.071 0
0    0    0

-85.811 14554.4 0
14554.4 -251.391 0
0    0    0

47.3584 77278.9 0
77278.9 -252.533 0
0    0    0

-141.909 18830 0
18830 270.166 0
0    0    0

-141.435 18423.9 0
18423.9 -223.938 0
0    0    0

288.579 7817.4 0
7817.4 281.767 0
0    0    0

149.093 7643.24 0
7643.24 251.522 0
0    0    0

141.178 80115.9 0
80115.9 171.185 0
0    0    0

-176.446 80939 0
80939 -301.248 0
0    0    0

207.838 79757.4 0
79757.4 78.8438 0
0    0    0

129.164 80721.7 0
80721.7 22.7918 0
0    0    0

75.2839 80057.7 0
80057.7 -245.658 0
0    0    0

227.828 79011.1 0
79011.1 214.713 0
0    0    0

13.9463 80815.4 0
80815.4 32.5414 0
0    0    0

-12.2242 78363.8 0
78363.8 -55.4548 0
0    0    0

-185.074 79606.6 0
79606.6 -147.649 0
0    0    0

221.337 80510.8 0
80510.8 89.748 0
0    0    0

-194.855 80767.7 0
80767.7 -275.912 0
0    0    0

-226.448 80191.5 0
80191.5 -212.702 0
0    0    0

154.169 79746.2 0
79746.2 205.227 0
0    0    0

-58.8193 79679.9 0
79679.9 -90.7958 0
0    0    0

-184.553 80363.8 0
80363.8 -235.516 0
0    0    0

-132.995 79712.3 0
79712.3 -229.741 0
0    0    0

-103.991 79944.1 0
79944.1 -121.386 0
0    0    0

-224.987 80154.3 0
80154.3 -23.3205 0
0    0    0

167.635 80370.8 0
80370.8 153.097 0
0    0    0

-22.7625 79910.7 0
79910.7 -53.1125 0
0    0    0

200.312 78687.9 0
78687.9 258.615 0
0    0    0

-132.19 79887.9 0
79887.9 78.7196 0
0    0    0

147.69 79369.5 0
79369.5 71.0661 0
0    0    0

-234.233 78516.7 0
78516.7 -151.359 0
0    0    0

-198.855 78833.4 0
78833.4 72.6503 0
0    0    0

-9.46202 81933.5 0
81933.5 -195.881 0
0    0    0

-175.753 82147.2 0
82147.2 -197.095 0
0    0    0

-365.608 43078.3 0
43078.3 -277.474 0
0    0    0

-155.312 43074 0
43074 -71.1745 0
0    0    0

-51.2035 41731.6 0
41731.6 -119.475 0
0    0    0

-265.222 42579.4 0
42579.4 -168.8 0
0    0    0

62.3311 42272.5 0
42272.5 185.69 0
0    0    0

303.864 41372.5 0
41372.5 161.46 0
0    0    0

91.9777 42243.8 0
42243.8 11.7169 0
0    0    0

255.979 42735.3 0
42735.3 188.646 0
0    0    0

-25.8073 42593.1 0
42593.1 42.0357 0
0    0    0

-42.6823 43157.9 0
43157.9 -99.5921 0
0    0    0

-95.1858 43064.7 0
43064.7 30.0537 0
0    0    0

150.048 45476.6 0
45476.6 341.442 0
0    0    0

-61.0818 42652 0
42652 -142.524 0
0    0    0

-133.69 45839.2 0
45839.2 -1.60613 0
0    0    0

345.603 42788.8 0
42788.8 171.116 0
0    0    0

92.6237 43340.4 0
43340.4 145.277 0
0    0    0

135.141 42563.2 0
42563.2 -182.867 0
0    0    0

-264.128 42981.9 0
42981.9 -269.033 0
0    0    0

-169.077 43607.2 0
43607.2 -261.652 0
0    0    0

28.7871 46299.4 0
46299.4 84.8585 0
0    0    0

116.393 42147.4 0
42147.4 -93.8882 0
0    0    0

318.581 41926.4 0
41926.4 157.217 0
0    0    0

-61.4063 43520 0
43520 -53.9671 0
0    0    0

-195.591 44540 0
44540 -134.266 0
0    0    0

254.627 43005.5 0
43005.5 48.4492 0
0    0    0

96.6727 43334.1 0
43334.1 323.822 0
0    0    0

47.3546 43178 0
43178 225.43 0
0    0    0

114.53 44309.7 0
44309.7 334.452 0
0    0    0

114.207 45927.8 0
45927.8 67.4586 0
0    0    0

203.695 43303.6 0
43303.6 358.763 0
0    0    0

88.2648 44237.9 0
44237.9 426.367 0
0    0    0

-118.967 42879.5 0
42879.5 -80.8799 0
0    0    0

-66.8452 43528.8 0
43528.8 -155.972 0
0    0    0

-221.634 43312.9 0
43312.9 -340.77 0
0    0    0

36.3777 42162.2 0
42162.2 -66.7983 0
0    0    0

-120.79 42367.1 0
42367.1 -254.712 0
0    0    0

-218.624 25978.2 0
25978.2 -248.855 0
0    0    0

-100.469 26298.9 0
26298.9 230.378 0
0    0    0

151.687 25735.9 0
25735.9 -27.9186 0
0    0    0

161.746 26448.8 0
26448.8 75.2352 0
0    0    0

-173.789 5518.12 0
5518.12 -71.4831 0
0    0    0

48.8033 5653.79 0
5653.79 320.428 0
0    0    0

109.458 82942.8 0
82942.8 415.473 0
0    0    0

39.9064 82330.7 0
82330.7 -292.494 0
0    0    0

-90.1975 83595.6 0
83595.6 -290.049 0
0    0    0

39.7735 83546.4 0
83546.4 -184.809 0
0    0    0

-254.37 82376.4 0
82376.4 -90.8392 0
0    0    0

61.6414 82848.5 0
82848.5 -19.0188 0
0    0    0

-2.04079 84097 0
84097 124.079 0
0    0    0

308.972 83500 0
83500 397.915 0
0    0    0

-14.1504 84221.9 0
84221.9 130.298 0
0    0    0

262.569 83588.4 0
83588.4 125.971 0
0    0    0

217.57 82857.7 0
82857.7 343.775 0
0    0    0

-172.149 83879.2 0
83879.2 -280.416 0
0    0    0

113.915 84568.2 0
84568.2 -82.3622 0
0    0    0

1.54118 83958.5 0
83958.5 -297.652 0
0    0    0

130.701 83312.7 0
83312.7 225.296 0
0    0    0

-147.357 83717 0
83717 -228.56 0
0    0    0

196.367 83146.9 0
83146.9 85.9746 0
0    0    0

217.062 82959.5 0
82959.5 335.377 0
0    0    0

-39.4288 83865 0
83865 -282.315 0
0    0    0

-169.098 83405.3 0
83405.3 -338.225 0
0    0    0

5.82674 81803 0
81803 -289.198 0
0    0    0

-5.94286 81995.9 0
81995.9 129.947 0
0    0    0

-30.3467 81675.1 0
81675.1 -193.334 0
0    0    0

-277.931 80959.9 0
80959.9 -311.052 0
0    0    0

185.137 46426.2 0
46426.2 186.076 0
0    0    0

96.4474 47839.2 0
47839.2 73.767 0
0    0    0

-284.466 47458.8 0
47458.8 -175.662 0
0    0    0

-26.8608 48039.4 0
48039.4 -314.826 0
0    0    0

-105.499 47442 0
47442 34.9304 0
0    0    0

-176.532 47927.3 0
47927.3 -283.803 0
0    0    0

-24.4164 46575.1 0
46575.1 78.2084 0
0    0    0

-61.2621 46918 0
46918 -128.143 0
0    0    0

-43.4815 47174.6 0
47174.6 248.05 0
0    0    0

-41.5154 46924.2 0
46924.2 -187.876 0
0    0    0

-113.847 46264.4 0
46264.4 22.3281 0
0    0    0

203.898 47422.9 0
47422.9 185.417 0
0    0    0

109.016 46987.9 0
46987.9 31.6073 0
0    0    0

89.0898 47666 0
47666 -54.7272 0
0    0    0

-22.3917 46675.3 0
46675.3 69.2061 0
0    0    0

107.629 47217.3 0
47217.3 290.411 0
0    0    0

-88.6237 21880 0
21880 -4.23423 0
0    0    0

226.925 22047.5 0
22047.5 276.515 0
0    0    0

186.277 22360.1 0
22360.1 305.166 0
0    0    0

-217.3 82365.5 0
82365.5 -162.406 0
0    0    0

223.891 79613.9 0
79613.9 194.955 0
0    0    0

-36.3795 80008.2 0
80008.2 -197.629 0
0    0    0

-74.6369 80224.3 0
80224.3 264.891 0
0    0    0

242.849 80639.3 0
80639.3 98.5772 0
0    0    0

-93.4346 79985.3 0
79985.3 -276.307 0
0    0    0

-78.1794 81467.7 0
81467.7 88.965 0
0    0    0

64.5858 81900.8 0
81900.8 -138.645 0
0    0    0

-143.265 80439.3 0
80439.3 7.73419 0
0    0    0

98.6178 81028.6 0
81028.6 279.408 0
0    0    0

-10.5414 80557.2 0
80557.2 -74.0729 0
0    0    0

-257.496 80873 0
80873 -196.06 0
0    0    0

-207.138 79092.5 0
79092.5 -179.66 0
0    0    0

20.1063 83599.9 0
83599.9 46.9147 0
0    0    0

-207.279 79454.4 0
79454.4 -127.839 0
0    0    0

249.54 79318.2 0
79318.2 -21.7935 0
0    0    0

-183.796 80015.3 0
80015.3 -146.683 0
0    0    0

145.82 80159.1 0
80159.1 66.1564 0
0    0    0

-95.5729 79893.1 0
79893.1 -200.356 0
0    0    0

-116.31 81256.9 0
81256.9 -151.937 0
0    0    0

153.632 81686.5 0
81686.5 -61.3203 0
0    0    0

161.289 82529.9 0
82529.9 174.06 0
0    0    0

104.356 82173 0
82173 340.004 0
0    0    0

-89.7091 81623.8 0
81623.8 -423.363 0
0    0    0

139.775 81800.9 0
81800.9 420.009 0
0    0    0

-242.471 80944.1 0
80944.1 49.1112 0
0    0    0

-27.3671 81289.5 0
81289.5 199.53 0
0    0    0

-94.7842 81797.5 0
81797.5 10.7515 0
0    0    0

-128.053 82102.6 0
82102.6 -95.0212 0
0    0    0

134.069 81365.5 0
81365.5 154.429 0
0    0    0

244.431 81086.2 0
81086.2 -40.0637 0
0    0    0

-30.7522 81049.8 0
81049.8 -167.237 0
0    0    0

-219.755 81694.8 0
81694.8 -378.731 0
0    0    0

157.288 80683.3 0
80683.3 230.334 0
0    0    0

97.4562 81135.7 0
81135.7 3.40032 0
0    0    0

-106.73 82767.1 0
82767.1 -287.677 0
0    0    0

-226.563 81678.4 0
81678.4 -260.013 0
0    0    0

39.2898 81708 0
81708 137.751 0
0    0    0

185.824 81431.2 0
81431.2 286.674 0
0    0    0

97.4768 81387.2 0
81387.2 360.342 0
0    0    0

-212.187 82199 0
82199 -370.402 0
0    0    0

33.9643 82079.9 0
82079.9 -117.177 0
0    0    0

-22.8123 83610.9 0
83610.9 -279.439 0
0    0    0

77.4618 82660.7 0
82660.7 -116.163 0
0    0    0

-59.3472 83327.7 0
83327.7 166.139 0
0    0    0

143.354 82841.7 0
82841.7 -48.3712 0
0    0    0

112.234 82242.7 0
82242.7 -83.1017 0
0    0    0

51.8402 83063.9 0
83063.9 180.77 0
0    0    0

-66.5523 83880.5 0
83880.5 57.3319 0
0    0    0

-228.667 82842.8 0
82842.8 -145.787 0
0    0    0

152.753 82457.2 0
82457.2 350.722 0
0    0    0

-194.733 82704.9 0
82704.9 -146.189 0
0    0    0

48.6584 83310.9 0
83310.9 -123.617 0
0    0    0

-21.7193 82370.4 0
82370.4 -179.867 0
0    0    0

154.537 83023.8 0
83023.8 114.879 0
0    0    0

-310.15 83521.6 0
83521.6 -221.143 0
0    0    0

232.486 83737.6 0
83737.6 188.792 0
0    0    0

-100.255 83145 0
83145 71.3586 0
0    0    0

-94.6978 84116.4 0
84116.4 -278.949 0
0    0    0

-316.954 83198.9 0
83198.9 -336.076 0
0    0    0

-122.254 83695.2 0
83695.2 -143.006 0
0    0    0

-62.7841 84441.3 0
84441.3 -280.015 0
0    0    0

-49.1436 85092.1 0
85092.1 215.386 0
0    0    0

259.479 84569.6 0
84569.6 325.536 0
0    0    0

-35.9393 84877.2 0
84877.2 -154.962 0
0    0    0

76.1266 82689.2 0
82689.2 -32.3486 0
0    0    0

-218.326 83714.8 0
83714.8 -210.226 0
0    0    0

228.503 82300.6 0
82300.6 173.053 0
0    0    0

66.6563 83185.7 0
83185.7 -92.7638 0
0    0    0

-139.34 82383.6 0
82383.6 126.008 0
0    0    0

-112.951 82747.6 0
82747.6 -127.306 0
0    0    0

224.35 83942.1 0
83942.1 424.707 0
0    0    0

-306.063 84215.8 0
84215.8 -195.206 0
0    0    0

-38.1126 82894.4 0
82894.4 258.16 0
0    0    0

222.56 82881 0
82881 268.12 0
0    0    0

-128.788 82565 0
82565 123.872 0
0    0    0

146.785 82508.3 0
82508.3 183.341 0
0    0    0

360.496 82911.3 0
82911.3 117.583 0
0    0    0

261.47 83697.5 0
83697.5 134.065 0
0    0    0

84.7959 84749 0
84749 256.06 0
0    0    0

197.712 83939 0
83939 -79.4619 0
0    0    0

-203.173 83937.1 0
83937.1 -411.747 0
0    0    0

107.27 83779.8 0
83779.8 54.5089 0
0    0    0

137.204 83456.9 0
83456.9 343.868 0
0    0    0

291.658 85952.1 0
85952.1 576.986 0
0    0    0

-28.7165 84272.8 0
84272.8 253.185 0
0    0    0

316.58 84180.5 0
84180.5 373.262 0
0    0    0

-27.9534 85031.5 0
85031.5 -312.352 0
0    0    0

-142.229 86339.2 0
86339.2 -8.53847 0
0    0    0

6.56228 84893 0
84893 94.9423 0
0    0    0

-51.0849 84799.6 0
84799.6 185.149 0
0    0    0

126.213 84572.4 0
84572.4 239.266 0
0    0    0

-131.657 85995.5 0
85995.5 52.3248 0
0    0    0

-108.312 87117.9 0
87117.9 -84.4679 0
0    0    0

-335.221 85688.6 0
85688.6 -462.146 0
0    0    0

18.3212 86146.8 0
86146.8 146.15 0
0    0    0

-113.192 86433.2 0
86433.2 -257.131 0
0    0    0

-77.5164 86699.6 0
86699.6 -29.7963 0
0    0    0

220.388 86585.3 0
86585.3 206.036 0
0    0    0

34.7849 86146.7 0
86146.7 -60.2565 0
0    0    0

165.236 85546 0
85546 -51.9625 0
0    0    0

89.1191 86438 0
86438 38.1939 0
0    0    0

98.9127 85161 0
85161 109.815 0
0    0    0

196.929 85414.4 0
85414.4 281.385 0
0    0    0

189.857 85867 0
85867 -33.3147 0
0    0    0

-126.82 85678.8 0
85678.8 -2.21508 0
0    0    0

-252.265 85156 0
85156 -573.924 0
0    0    0

104.486 86144.9 0
86144.9 44.7796 0
0    0    0

143.507 84667.4 0
84667.4 308.631 0
0    0    0

-71.017 85460.4 0
85460.4 1.32859 0
0    0    0

199.328 83723.2 0
83723.2 300.211 0
0    0    0

-189.895 85118.8 0
85118.8 -216.973 0
0    0    0

-219.08 84509.8 0
84509.8 -230.587 0
0    0    0

50.8045 85462 0
85462 75.1767 0
0    0    0

169.931 84933.5 0
84933.5 248.591 0
0    0    0

-175.75 85245.4 0
85245.4 -267.455 0
0    0    0

87.472 85874.9 0
85874.9 37.488 0
0    0    0

204.783 84221.9 0
84221.9 191.341 0
0    0    0

-1.90642 85487.2 0
85487.2 -0.81704 0
0    0    0

115.108 84387.4 0
84387.4 191.338 0
0    0    0

332.964 84907.8 0
84907.8 326.808 0
0    0    0

9.70592 83949.3 0
83949.3 -185.196 0
0    0    0

-54.6541 84518 0
84518 -161.03 0
0    0    0

113.9 85060.8 0
85060.8 48.8145 0
0    0    0

-366.278 84615.3 0
84615.3 -423.244 0
0    0    0

-17.4537 85657.5 0
85657.5 -193.83 0
0    0    0

-100.528 85767.5 0
85767.5 -326.9 0
0    0    0

-3.53184 83995.9 0
83995.9 -286.32 0
0    0    0

-256.003 84553 0
84553 -370.887 0
0    0    0

188.521 92463.4 0
92463.4 298.696 0
0    0    0

107.3 91420.2 0
91420.2 204.78 0
0    0    0

288.699 92355.3 0
92355.3 123.728 0
0    0    0

-168.322 91735.8 0
91735.8 -168.374 0
0    0    0

-243.359 92659.2 0
92659.2 -419.239 0
0    0    0

238.348 93297.4 0
93297.4 102.149 0
0    0    0

151.586 92232.1 0
92232.1 370.63 0
0    0    0

118.517 92493 0
92493 282.733 0
0    0    0

60.891 92226.8 0
92226.8 463.897 0
0    0    0

279.869 91573.5 0
91573.5 396.392 0
0    0    0

133.553 92898.7 0
92898.7 57.2369 0
0    0    0

61.4077 92007.4 0
92007.4 -88.0635 0
0    0    0

-236.145 92652.7 0
92652.7 -308.041 0
0    0    0

-108.242 92018.1 0
92018.1 -367.478 0
0    0    0

175.354 91623.5 0
91623.5 311.935 0
0    0    0

198.459 91113.5 0
91113.5 147.734 0
0    0    0

-184.689 91932.8 0
91932.8 -460.563 0
0    0    0

-17.0649 91130.9 0
91130.9 -90.7651 0
0    0    0

-164.66 93236.7 0
93236.7 -0.89779 0
0    0    0

-211.997 91817.8 0
91817.8 -461.245 0
0    0    0

-66.2288 92539.6 0
92539.6 -241.595 0
0    0    0

-80.573 93093.6 0
93093.6 -340.273 0
0    0    0

149.124 94639.8 0
94639.8 63.9102 0
0    0    0

132.174 92307.8 0
92307.8 343.933 0
0    0    0

187.65 92810 0
92810 231.786 0
0    0    0

-17.2086 93428 0
93428 282.886 0
0    0    0

238.218 93450.2 0
93450.2 43.9193 0
0    0    0

-213.809 93091.4 0
93091.4 -341.551 0
0    0    0

151.157 92807.5 0
92807.5 76.4082 0
0    0    0

13.1907 92882.2 0
92882.2 296.061 0
0    0    0

114.508 94213.5 0
94213.5 49.075 0
0    0    0

-162.754 93654.8 0
93654.8 -183.711 0
0    0    0

-175.27 93493 0
93493 -137.637 0
0    0    0

-7.32331 92890.7 0
92890.7 74.1705 0
0    0    0

139.323 93953.1 0
93953.1 59.7099 0
0    0    0

-146.076 93827.7 0
93827.7 -71.8148 0
0    0    0

-63.0347 94323.2 0
94323.2 -273.081 0
0    0    0

-162.431 94494.8 0
94494.8 -435.903 0
0    0    0

-72.1632 94146 0
94146 103.538 0
0    0    0

150.366 93637 0
93637 64.4427 0
0    0    0

208.818 93822.4 0
93822.4 19.1414 0
0    0    0

-79.8607 91235.4 0
91235.4 205.156 0
0    0    0

-96.4246 91313.2 0
91313.2 230.673 0
0    0    0

-219.571 93834 0
93834 12.2336 0
0    0    0

-99.7701 93340.1 0
93340.1 -76.9333 0
0    0    0

205.426 94110.9 0
94110.9 435.978 0
0    0    0

106.734 93580.6 0
93580.6 -76.5587 0
0    0    0

-16.2177 92544.8 0
92544.8 -326.07 0
0    0    0

179.367 92266.6 0
92266.6 453.331 0
0    0    0

160.06 93237.3 0
93237.3 101.835 0
0    0    0

-300.383 92598.2 0
92598.2 -359.788 0
0    0    0

151.815 54508.7 0
54508.7 156.387 0
0    0    0

238.72 53494.7 0
53494.7 300.823 0
0    0    0

-349.911 53539 0
53539 -423.314 0
0    0    0

30.1586 54206.5 0
54206.5 203.818 0
0    0    0

287.236 52996.9 0
52996.9 325.818 0
0    0    0

27.7476 54014.3 0
54014.3 -183.435 0
0    0    0

-30.294 54337.1 0
54337.1 -70.6859 0
0    0    0

387.308 53681.9 0
53681.9 520.898 0
0    0    0

-203.901 54584.4 0
54584.4 -267.613 0
0    0    0

379.757 54362.6 0
54362.6 354.599 0
0    0    0

-313.172 53361.3 0
53361.3 -364.376 0
0    0    0

91.9898 53816.7 0
53816.7 220.319 0
0    0    0

274.461 54412.4 0
54412.4 222.257 0
0    0    0

-82.6682 53915.2 0
53915.2 -206.435 0
0    0    0

-346.642 54692.1 0
54692.1 -325.839 0
0    0    0

174.013 53628.3 0
53628.3 -99.3687 0
0    0    0

64.9047 55470.4 0
55470.4 275.716 0
0    0    0

82.555 56738 0
56738 -148.093 0
0    0    0

-51.4685 54732.1 0
54732.1 -176.873 0
0    0    0

-200.926 54086.2 0
54086.2 -513.725 0
0    0    0

-148.003 52895.2 0
52895.2 7.52438 0
0    0    0

314.058 53223.3 0
53223.3 345.839 0
0    0    0

-161.926 53292.3 0
53292.3 -399.719 0
0    0    0

-149.039 53507.5 0
53507.5 10.3597 0
0    0    0

-0.106365 53452.1 0
53452.1 -225.219 0
0    0    0

-258.488 54101.7 0
54101.7 -91.1701 0
0    0    0

-239.903 55373.3 0
55373.3 -109.238 0
0    0    0

51.4878 54512.4 0
54512.4 59.8248 0
0    0    0

267.796 54110.5 0
54110.5 292.756 0
0    0    0

170.556 54791.2 0
54791.2 -157.411 0
0    0    0

-156.655 53928.8 0
53928.8 -196.841 0
0    0    0

96.4456 54311.2 0
54311.2 370.724 0
0    0    0

129.849 55526.5 0
55526.5 -145.242 0
0    0    0

-32.8802 56448.9 0
56448.9 -63.6499 0
0    0    0

-82.4105 53843.7 0
53843.7 -192.291 0
0    0    0

-298.292 54194.3 0
54194.3 -183.223 0
0    0    0

-102.789 56685.9 0
56685.9 -239.841 0
0    0    0

59.4793 53904.5 0
53904.5 -32.2117 0
0    0    0

78.0599 58378.7 0
58378.7 -4.7033 0
0    0    0

96.5051 54404.9 0
54404.9 117.162 0
0    0    0

-457.956 54715.7 0
54715.7 -294.905 0
0    0    0

48.4359 55421.3 0
55421.3 -203.01 0
0    0    0

298.792 55004.9 0
55004.9 246.474 0
0    0    0

-270.577 55288.3 0
55288.3 -404.796 0
0    0    0

280.518 54329.9 0
54329.9 305.639 0
0    0    0

-125.964 55289.3 0
55289.3 -293.915 0
0    0    0

33.668 55110.1 0
55110.1 270.506 0
0    0    0

108.85 56765.8 0
56765.8 -25.1825 0
0    0    0

203.176 56034.3 0
56034.3 65.8571 0
0    0    0

78.8714 57272.6 0
57272.6 116.014 0
0    0    0

151.57 55631 0
55631 129.25 0
0    0    0

-77.2974 56693 0
56693 -191.958 0
0    0    0

-104.651 57016.5 0
57016.5 19.004 0
0    0    0

-139.711 56606.3 0
56606.3 35.9538 0
0    0    0

-307.348 56464.9 0
56464.9 -199.416 0
0    0    0

-30.9245 57043.7 0
57043.7 -231.962 0
0    0    0

-8.92132 56456.7 0
56456.7 254.208 0
0    0    0

-150.762 55927.5 0
55927.5 -167.16 0
0    0    0

-136.488 56385.4 0
56385.4 94.1651 0
0    0    0

436.965 54380.5 0
54380.5 253.185 0
0    0    0

251.592 55047.8 0
55047.8 140.008 0
0    0    0

28.095 56395.6 0
56395.6 -167.45 0
0    0    0

-123.771 55758.8 0
55758.8 -179.479 0
0    0    0

286.291 54787.3 0
54787.3 557.367 0
0    0    0

-196.088 55049.8 0
55049.8 -238.58 0
0    0    0

53.0027 55559.3 0
55559.3 6.28716 0
0    0    0

-48.2887 55150.7 0
55150.7 -223.855 0
0    0    0

174.824 55189.1 0
55189.1 -105.701 0
0    0    0

-138.734 55631.6 0
55631.6 80.8022 0
0    0    0

206.72 56161.6 0
56161.6 377.866 0
0    0    0

15.2943 55769 0
55769 135.337 0
0    0    0

-100.428 55039.1 0
55039.1 18.0857 0
0    0    0

203.257 56119.2 0
56119.2 136.508 0
0    0    0

-178.846 57390.1 0
57390.1 -138.363 0
0    0    0

-165.205 58133.8 0
58133.8 -331.908 0
0    0    0

279.546 57333.5 0
57333.5 259.268 0
0    0    0

-174.903 56929.7 0
56929.7 -27.7681 0
0    0    0

151.53 56705.7 0
56705.7 -79.5353 0
0    0    0

-124.401 55506 0
55506 65.7736 0
0    0    0

-173.635 55318.1 0
55318.1 -191.346 0
0    0    0

-308.654 54719.6 0
54719.6 -279.836 0
0    0    0

-344.408 54664.7 0
54664.7 -219.21 0
0    0    0

-44.1974 55024.4 0
55024.4 -55.241 0
0    0    0

174.102 54915.5 0
54915.5 192.317 0
0    0    0

120.356 56170.8 0
56170.8 -118.096 0
0    0    0

-98.3963 55834.2 0
55834.2 -31.4457 0
0    0    0

142.573 55196.2 0
55196.2 -134.438 0
0    0    0

-87.2149 56224.2 0
56224.2 37.6699 0
0    0    0

-65.8571 57403.5 0
57403.5 -178.746 0
0    0    0

-113.24 56737.3 0
56737.3 -182.892 0
0    0    0

-24.3725 57041.7 0
57041.7 26.8997 0
0    0    0

55.9777 57748 0
57748 -231.079 0
0    0    0

-81.6817 57719.8 0
57719.8 215.644 0
0    0    0

85.7057 58452 0
58452 264.372 0
0    0    0

111.472 56961.5 0
56961.5 -129.329 0
0    0    0

-63.6595 57449.2 0
57449.2 -252.341 0
0    0    0

-88.5177 57277.4 0
57277.4 134.294 0
0    0    0

-175.24 56362.7 0
56362.7 0.191968 0
0    0    0

-51.8233 56823 0
56823 195.861 0
0    0    0

-19.5589 55981.7 0
55981.7 -224.566 0
0    0    0

-143.121 57582.1 0
57582.1 -210.898 0
0    0    0

-145.016 59083.6 0
59083.6 10.8701 0
0    0    0

-134.21 57145.7 0
57145.7 2.76716 0
0    0    0

250.242 56138.6 0
56138.6 168.319 0
0    0    0

-214.052 57277.8 0
57277.8 -134.276 0
0    0    0

-128.468 55674.9 0
55674.9 192.956 0
0    0    0

102.336 54987 0
54987 250.257 0
0    0    0

-30.3981 56202 0
56202 -70.9289 0
0    0    0

151.107 55525.1 0
55525.1 148.803 0
0    0    0

-62.0268 54822.6 0
54822.6 -144.729 0
0    0    0

-17.613 55196.6 0
55196.6 -278.725 0
0    0    0

123.108 58488.6 0
58488.6 263.389 0
0    0    0

257.648 60016.7 0
60016.7 425.326 0
0    0    0

192.282 55893.5 0
55893.5 -66.45 0
0    0    0

-91.1657 55976.7 0
55976.7 250.32 0
0    0    0

-281.183 57676.4 0
57676.4 -279.722 0
0    0    0

-182.315 57611 0
57611 -217.117 0
0    0    0

216.868 55845.5 0
55845.5 138.812 0
0    0    0

244.232 55500 0
55500 119.657 0
0    0    0

353.963 56371.5 0
56371.5 287.955 0
0    0    0

-92.2812 55785 0
55785 -215.323 0
0    0    0

169.781 57826.1 0
57826.1 194.26 0
0    0    0

-179.945 56130.9 0
56130.9 21.1293 0
0    0    0

109.306 57881.8 0
57881.8 257.475 0
0    0    0

-127.437 58186.9 0
58186.9 -297.352 0
0    0    0

93.1986 57936.3 0
57936.3 321.482 0
0    0    0

6.0812 58766.3 0
58766.3 -209.087 0
0    0    0

-66.783 58219.9 0
58219.9 -223.297 0
0    0    0

126.145 57874.2 0
57874.2 189.126 0
0    0    0

178.21 56879.4 0
56879.4 185.824 0
0    0    0

140.795 58392.7 0
58392.7 218.958 0
0    0    0

-57.8823 57792.7 0
57792.7 -13.4833 0
0    0    0

212.444 56505.4 0
56505.4 276.022 0
0    0    0

-76.2674 57969.9 0
57969.9 -20.04 0
0    0    0

141.701 58728.5 0
58728.5 -16.4689 0
0    0    0

76.1341 58347.2 0
58347.2 191.8 0
0    0    0

54.181 61290.3 0
61290.3 399.731 0
0    0    0

157.203 58409.2 0
58409.2 342.707 0
0    0    0

-138.585 58776.7 0
58776.7 -392.459 0
0    0    0

63.5962 58117.6 0
58117.6 -64.6896 0
0    0    0

-99.1358 58633.8 0
58633.8 -301.367 0
0    0    0

-81.812 58346.2 0
58346.2 -47.0725 0
0    0    0

27.5415 57567.7 0
57567.7 372.239 0
0    0    0

10.445 57528.2 0
57528.2 87.329 0
0    0    0

-146.621 57891.2 0
57891.2 -87.8866 0
0    0    0

128.125 58416.6 0
58416.6 81.8466 0
0    0    0

-105.034 57096 0
57096 -323 0
0    0    0

-279.79 57407.4 0
57407.4 -195.818 0
0    0    0

162.27 57573.7 0
57573.7 145.521 0
0    0    0

209.855 58389.1 0
58389.1 214.506 0
0    0    0

-31.1878 58184.4 0
58184.4 267.937 0
0    0    0

-212.662 58021 0
58021 126.294 0
0    0    0

5.2677 56073.2 0
56073.2 -70.6577 0
0    0    0

54.8049 56682.6 0
56682.6 105.208 0
0    0    0

200.894 57246.7 0
57246.7 117.241 0
0    0    0

122.607 56864.1 0
56864.1 -127.372 0
0    0    0

8.78574 55839 0
55839 -73.3816 0
0    0    0

125.434 56592.8 0
56592.8 -48.0342 0
0    0    0

221.651 55434.2 0
55434.2 43.5176 0
0    0    0

-199.939 56347.3 0
56347.3 -29.0303 0
0    0    0

-28.409 57505.2 0
57505.2 34.5044 0
0    0    0

-70.5856 56825.1 0
56825.1 -289.914 0
0    0    0

-205.502 57562.6 0
57562.6 94.3559 0
0    0    0

304.73 57077.1 0
57077.1 65.8416 0
0    0    0

180.634 57084 0
57084 136.027 0
0    0    0

226.575 57790.2 0
57790.2 245.351 0
0    0    0

-152.363 58977.8 0
58977.8 -42.9743 0
0    0    0

248.322 59067.5 0
59067.5 217.163 0
0    0    0

-216.045 59408 0
59408 -156.459 0
0    0    0

-186.867 59974.8 0
59974.8 -303.293 0
0    0    0

-268.701 59435.7 0
59435.7 -318.963 0
0    0    0

197.05 58907.7 0
58907.7 365.014 0
0    0    0

128.329 60796 0
60796 317.429 0
0    0    0

194.116 59562.4 0
59562.4 209.882 0
0    0    0

176.024 58941.2 0
58941.2 212.017 0
0    0    0

-256.534 58664.9 0
58664.9 -350.173 0
0    0    0

-95.6191 61675 0
61675 -174.309 0
0    0    0

32.7538 59575.9 0
59575.9 56.5715 0
0    0    0

79.482 60200.4 0
60200.4 193.352 0
0    0    0

-156.046 61154.7 0
61154.7 7.95976 0
0    0    0

193.134 59508.4 0
59508.4 237.258 0
0    0    0

-149.739 58026 0
58026 66.3324 0
0    0    0

-114.284 58700.5 0
58700.5 -239.428 0
0    0    0

-34.0757 57386.4 0
57386.4 148.173 0
0    0    0

-41.74 57950.7 0
57950.7 100.236 0
0    0    0

-64.1055 57841.3 0
57841.3 36.6102 0
0    0    0

7.60059 58390.5 0
58390.5 316.678 0
0    0    0

50.1969 57664.5 0
57664.5 -90.1928 0
0    0    0

-186.597 58241.6 0
58241.6 -207.21 0
0    0    0

141.493 58056.2 0
58056.2 56.8849 0
0    0    0

-72.8939 59005.9 0
59005.9 68.811 0
0    0    0

189.779 58409 0
58409 348.593 0
0    0    0

-89.9213 57247.8 0
57247.8 64.4788 0
0    0    0

127.478 57752.3 0
57752.3 72.1415 0
0    0    0

-81.7949 59925.3 0
59925.3 -189.652 0
0    0    0

-99.9092 59188.6 0
59188.6 -448.485 0
0    0    0

116.619 60405.1 0
60405.1 -186.428 0
0    0    0

-88.5107 59807 0
59807 278.385 0
0    0    0

101.597 59250.1 0
59250.1 -25.0532 0
0    0    0

-115.997 59553.8 0
59553.8 -134.655 0
0    0    0

90.8097 58048.2 0
58048.2 -99.8691 0
0    0    0

-183.813 58629.8 0
58629.8 -2.79578 0
0    0    0

198.051 58518.1 0
58518.1 18.2777 0
0    0    0

42.0257 59246.5 0
59246.5 84.5558 0
0    0    0

183.63 58824.6 0
58824.6 5.64604 0
0    0    0

-211.647 58920.4 0
58920.4 8.46792 0
0    0    0

-286.984 60506 0
60506 -270.746 0
0    0    0

-72.3563 60670.3 0
60670.3 -249.497 0
0    0    0

-132.593 60106.2 0
60106.2 -163.629 0
0    0    0

3.8924 60294.5 0
60294.5 320.979 0
0    0    0

180.188 58847.8 0
58847.8 377.054 0
0    0    0

21.3597 58558.7 0
58558.7 -172.49 0
0    0    0

-83.3422 55860.7 0
55860.7 175.466 0
0    0    0

-153.908 56153.9 0
56153.9 29.3622 0
0    0    0

-193.79 61626.8 0
61626.8 -335.875 0
0    0    0

44.5899 60854.1 0
60854.1 176.586 0
0    0    0

-119.173 60678.2 0
60678.2 -173.331 0
0    0    0

256.058 60227.1 0
60227.1 341.588 0
0    0    0

-178.732 61121.8 0
61121.8 -356.407 0
0    0    0

-37.7094 60444 0
60444 58.898 0
0    0    0

16.7266 61120 0
61120 -257.355 0
0    0    0

-338.952 62647 0
62647 -213.071 0
0    0    0

-88.87 61176.5 0
61176.5 -221.525 0
0    0    0

154.604 63164.3 0
63164.3 -70.667 0
0    0    0

-98.0796 59370.1 0
59370.1 -284.894 0
0    0    0

-49.7374 59732.7 0
59732.7 196.334 0
0    0    0

-264.758 60589.4 0
60589.4 -279.557 0
0    0    0

-14.542 60736.4 0
60736.4 -48.0746 0
0    0    0

129.98 61695.1 0
61695.1 162.542 0
0    0    0

88.0623 61790.7 0
61790.7 232.968 0
0    0    0

63.2251 61293.4 0
61293.4 186.996 0
0    0    0

-302.009 63242.5 0
63242.5 -324.169 0
0    0    0

128.636 61371 0
61371 182.984 0
0    0    0

-172.078 60691.4 0
60691.4 48.9332 0
0    0    0

9.48227 59925.7 0
59925.7 -245.747 0
0    0    0

-281.238 58756.4 0
58756.4 -177.716 0
0    0    0

117.341 61098 0
61098 -168.305 0
0    0    0

-227.124 60474.8 0
60474.8 -408.625 0
0    0    0

-85.0081 61059.4 0
61059.4 -236.154 0
0    0    0

288.738 62329.2 0
62329.2 253.996 0
0    0    0

-93.6006 60726.1 0
60726.1 32.0759 0
0    0    0

235.058 60672.7 0
60672.7 89.8153 0
0    0    0

128.873 61528.4 0
61528.4 285.555 0
0    0    0

65.819 61249.4 0
61249.4 251.581 0
0    0    0

-177.626 62098.1 0
62098.1 -322.989 0
0    0    0

307.323 61922.4 0
61922.4 266.484 0
0    0    0

-158.401 61605.8 0
61605.8 -193.109 0
0    0    0

-44.8223 62099.2 0
62099.2 -113.623 0
0    0    0

-186.438 61151.9 0
61151.9 -317.198 0
0    0    0

-186.219 61668.1 0
61668.1 -166.665 0
0    0    0

178.231 60945.1 0
60945.1 398.398 0
0    0    0

72.5631 60901.4 0
60901.4 265.439 0
0    0    0

-96.3205 59923.6 0
59923.6 -146.847 0
0    0    0

-1.31763 60753.8 0
60753.8 168.951 0
0    0    0

47.8092 60883.5 0
60883.5 157.376 0
0    0    0

117.449 60305.4 0
60305.4 160.814 0
0    0    0

144.633 59664.7 0
59664.7 215.571 0
0    0    0

162.833 60177.7 0
60177.7 92.2118 0
0    0    0

-111.996 58638.8 0
58638.8 6.09299 0
0    0    0

109.187 59560.1 0
59560.1 338.736 0
0    0    0

272.17 59115.8 0
59115.8 170.816 0
0    0    0

-106.635 59763.7 0
59763.7 74.3234 0
0    0    0

211.687 59337 0
59337 58.5943 0
0    0    0

-212.42 59508.8 0
59508.8 -185.667 0
0    0    0

-69.2562 59229.9 0
59229.9 -300.588 0
0    0    0

-211.612 60371.9 0
60371.9 -236.74 0
0    0    0

-141.466 59956.4 0
59956.4 -158.411 0
0    0    0

-162.271 61285.9 0
61285.9 18.7048 0
0    0    0

-85.0588 59774.7 0
59774.7 -299.108 0
0    0    0

217.731 60146.9 0
60146.9 270.833 0
0    0    0

-87.3203 60513.9 0
60513.9 -182.955 0
0    0    0

-262.375 61574.7 0
61574.7 -274.56 0
0    0    0

139.005 60783.2 0
60783.2 599.251 0
0    0    0

54.633 62815.5 0
62815.5 -147.635 0
0    0    0

98.5048 60196.1 0
60196.1 169.39 0
0    0    0

-7.49704 61041.7 0
61041.7 -194.526 0
0    0    0

200.798 62236.8 0
62236.8 270.733 0
0    0    0

-109.187 61423.2 0
61423.2 51.6217 0
0    0    0

-285.009 62298.7 0
62298.7 -353.594 0
0    0    0

-116.996 63973.9 0
63973.9 -33.8309 0
0    0    0

-93.3103 59285.2 0
59285.2 35.0004 0
0    0    0

-85.5579 62028 0
62028 202.719 0
0    0    0

65.7096 62553.4 0
62553.4 165.774 0
0    0    0

107.19 61371.5 0
61371.5 169.309 0
0    0    0

26.4927 60560 0
60560 -74.2557 0
0    0    0

-57.4455 60984.4 0
60984.4 82.8892 0
0    0    0

-3.27134 60970.1 0
60970.1 -314.234 0
0    0    0

-143.567 61577.9 0
61577.9 -174.714 0
0    0    0

186.28 61823.7 0
61823.7 427.624 0
0    0    0

3.71987 61471.9 0
61471.9 -254.827 0
0    0    0

106.353 61202.6 0
61202.6 164.812 0
0    0    0

219.086 61741.6 0
61741.6 330.848 0
0    0    0

-69.3975 62592.1 0
62592.1 -222.043 0
0    0    0

-48.7306 63434.1 0
63434.1 29.4928 0
0    0    0

-24.2157 63593.5 0
63593.5 -85.8535 0
0    0    0

96.5031 63207.8 0
63207.8 -47.9689 0
0    0    0

3.02599 61464 0
61464 174.641 0
0    0    0

235.365 61872.1 0
61872.1 294.343 0
0    0    0

-71.8223 61777.3 0
61777.3 -14.8355 0
0    0    0

249.797 62367.3 0
62367.3 83.0863 0
0    0    0

-59.8406 61606.2 0
61606.2 -166.801 0
0    0    0

-290.039 62157.6 0
62157.6 -148.347 0
0    0    0

76.7967 61361.9 0
61361.9 254.463 0
0    0    0

69.3767 62081.3 0
62081.3 -35.1716 0
0    0    0

-202.902 60363.9 0
60363.9 -520.407 0
0    0    0

-169.775 60744.4 0
60744.4 -256.487 0
0    0    0

185.995 61976.9 0
61976.9 151.596 0
0    0    0

-111.594 63005.9 0
63005.9 -182.567 0
0    0    0

-176.796 62636.6 0
62636.6 -217.802 0
0    0    0

243.073 63484.2 0
63484.2 178.304 0
0    0    0

-266.179 62843 0
62843 -256.737 0
0    0    0

89.6253 62979.5 0
62979.5 296.759 0
0    0    0

87.1628 62300.6 0
62300.6 229.53 0
0    0    0

-362.362 62581.9 0
62581.9 -147.988 0
0    0    0

-196.724 58232.6 0
58232.6 -341.519 0
0    0    0

-201.435 59335.8 0
59335.8 -157.903 0
0    0    0

169.169 58414 0
58414 252.994 0
0    0    0

80.9706 59217.8 0
59217.8 -342.241 0
0    0    0

-131.959 59667.7 0
59667.7 106.305 0
0    0    0

15.5824 59337.1 0
59337.1 172.98 0
0    0    0

137.885 59808.8 0
59808.8 355.322 0
0    0    0

-154.27 59830.3 0
59830.3 147.685 0
0    0    0

57.5078 61726.4 0
61726.4 -170.945 0
0    0    0

-166.279 61850.8 0
61850.8 -97.5 0
0    0    0

25.1272 62130.9 0
62130.9 304.954 0
0    0    0

-75.9167 61517.5 0
61517.5 262.796 0
0    0    0

188.642 63102.7 0
63102.7 30.1435 0
0    0    0

-11.1159 60810.8 0
60810.8 -94.4507 0
0    0    0

114.142 61443.8 0
61443.8 -104.556 0
0    0    0

-148.897 61620.9 0
61620.9 37.1575 0
0    0    0

155.395 63336.6 0
63336.6 66.5979 0
0    0    0

171.697 60451.5 0
60451.5 242.538 0
0    0    0

64.4731 62348 0
62348 -217.703 0
0    0    0

165.077 61066.3 0
61066.3 101.475 0
0    0    0

-359.643 61043.5 0
61043.5 -320.764 0
0    0    0

112.288 62651.4 0
62651.4 242.876 0
0    0    0

218.267 62091.5 0
62091.5 362.935 0
0    0    0

19.1081 62717.3 0
62717.3 8.18918 0
0    0    0

-129.965 63457.8 0
63457.8 -331.421 0
0    0    0

-22.1388 62404.8 0
62404.8 -9.48806 0
0    0    0

169.062 63040.3 0
63040.3 72.4553 0
0    0    0

-6.02642 62655.4 0
62655.4 324.124 0
0    0    0

115.76 63477.2 0
63477.2 -63.6632 0
0    0    0

94.624 62870.7 0
62870.7 -141.403 0
0    0    0

67.5525 61873.1 0
61873.1 228.651 0
0    0    0

-175.904 62893.3 0
62893.3 -330.966 0
0    0    0

-78.9393 63200.3 0
63200.3 13.7231 0
0    0    0

-104.656 62407.7 0
62407.7 -215.36 0
0    0    0

227.437 62528.7 0
62528.7 135.325 0
0    0    0

-49.0739 63965.1 0
63965.1 -21.0317 0
0    0    0

-56.3688 63925 0
63925 122.792 0
0    0    0

-28.8727 62936 0
62936 352.054 0
0    0    0

-272.92 62029.2 0
62029.2 -382.996 0
0    0    0

-344.364 62896.2 0
62896.2 -131.763 0
0    0    0

43.0442 62173.9 0
62173.9 88.1698 0
0    0    0

-277.361 61900.9 0
61900.9 -95.675 0
0    0    0

243.092 61895.8 0
61895.8 -23.9945 0
0    0    0

-165.277 64737.4 0
64737.4 -191.173 0
0    0    0

169.898 63652.6 0
63652.6 72.8132 0
0    0    0

178.549 63330.3 0
63330.3 153.494 0
0    0    0

-82.0713 62068.5 0
62068.5 -303.253 0
0    0    0

231.126 62472.1 0
62472.1 222.113 0
0    0    0

-174.326 62927.9 0
62927.9 -23.3921 0
0    0    0

-124.83 62850.1 0
62850.1 -111.104 0
0    0    0

-231.693 63598.3 0
63598.3 -222.198 0
0    0    0

62.0796 64272.1 0
64272.1 26.6055 0
0    0    0

137.038 64544.7 0
64544.7 58.7306 0
0    0    0

11.7618 62627.6 0
62627.6 -154.776 0
0    0    0

142.334 63161.1 0
63161.1 119.095 0
0    0    0

-151.793 66003.1 0
66003.1 -77.0433 0
0    0    0

189.336 63594.5 0
63594.5 293.382 0
0    0    0

-32.0055 63295 0
63295 194.828 0
0    0    0

30.3975 63981.7 0
63981.7 8.36837 0
0    0    0

-15.5088 64148.3 0
64148.3 -146.798 0
0    0    0

-86.3137 64135.8 0
64135.8 -425.466 0
0    0    0

-234.916 63715.4 0
63715.4 -182.335 0
0    0    0

170.344 63792.7 0
63792.7 458.942 0
0    0    0

-55.8939 64303.9 0
64303.9 -268.819 0
0    0    0

-198.559 64908.6 0
64908.6 -350.783 0
0    0    0

-189.016 64086 0
64086 -258.431 0
0    0    0

92.6685 64114.3 0
64114.3 190.17 0
0    0    0

37.1042 64314.7 0
64314.7 265.038 0
0    0    0

113.377 64680.4 0
64680.4 270.968 0
0    0    0

190.513 65838.8 0
65838.8 81.6484 0
0    0    0

142.951 64566.4 0
64566.4 308.228 0
0    0    0

197.4 65200.9 0
65200.9 443.715 0
0    0    0

94.4063 65606.5 0
65606.5 98.3298 0
0    0    0

111.724 65453.4 0
65453.4 47.8815 0
0    0    0

4.85299 64399.5 0
64399.5 -232.521 0
0    0    0

13.7772 63974.6 0
63974.6 -42.0127 0
0    0    0

-119.796 63370.5 0
63370.5 -357.035 0
0    0    0

-209.693 65648.3 0
65648.3 -326.894 0
0    0    0

-1.23582 63656.3 0
63656.3 160.198 0
0    0    0

69.817 62992.8 0
62992.8 251.723 0
0    0    0

271.374 62483.6 0
62483.6 399.076 0
0    0    0

-318.096 62232.3 0
62232.3 -284.008 0
0    0    0

237.583 62726.8 0
62726.8 173.324 0
0    0    0

-210.94 62655.5 0
62655.5 -528.67 0
0    0    0

-196.367 62850.3 0
62850.3 -299.303 0
0    0    0

136.929 62515.9 0
62515.9 198.472 0
0    0    0

320.898 63124.4 0
63124.4 -1.84304 0
0    0    0

83.3852 65222.8 0
65222.8 35.7365 0
0    0    0

12.9982 65326.7 0
65326.7 283.258 0
0    0    0

-201.43 64161.8 0
64161.8 -265.027 0
0    0    0

179.797 64898.5 0
64898.5 77.056 0
0    0    0

10.1965 64407.5 0
64407.5 177.993 0
0    0    0

-70.929 62208.4 0
62208.4 -418.272 0
0    0    0

2.29587 62366.5 0
62366.5 -186.544 0
0    0    0

-120.959 62984.1 0
62984.1 -59.9158 0
0    0    0

-116.304 63203.9 0
63203.9 134.749 0
0    0    0

279.884 63851.4 0
63851.4 398.641 0
0    0    0

53.6289 63866.9 0
63866.9 236.151 0
0    0    0

209.048 65126.3 0
65126.3 295.753 0
0    0    0

-201.29 64975.8 0
64975.8 -364.205 0
0    0    0

-92.242 65418.3 0
65418.3 -182.063 0
0    0    0

-165.66 64382.5 0
64382.5 -6.0749 0
0    0    0

140.644 64715.3 0
64715.3 442.304 0
0    0    0

136.603 64504.5 0
64504.5 301.939 0
0    0    0

6.64406 64684.2 0
64684.2 165.577 0
0    0    0

241.705 64973.2 0
64973.2 92.2865 0
0    0    0

-151.695 64845.4 0
64845.4 -349.249 0
0    0    0

-162.885 65111.9 0
65111.9 -101.134 0
0    0    0

180.122 92025.2 0
92025.2 263.735 0
0    0    0

-218.845 91836.9 0
91836.9 -286.642 0
0    0    0

76.1738 91636.3 0
91636.3 177.739 0
0    0    0

201.084 91247.3 0
91247.3 -90.1329 0
0    0    0

-47.8781 91714.4 0
91714.4 -64.2258 0
0    0    0

303.924 73128.8 0
73128.8 411.252 0
0    0    0

-210.253 73691.3 0
73691.3 -328.878 0
0    0    0

-195.5 72371.6 0
72371.6 47.7786 0
0    0    0

-248.458 72883.8 0
72883.8 -306.294 0
0    0    0

163.992 73343.9 0
73343.9 432.251 0
0    0    0

174.626 72327.6 0
72327.6 13.9672 0
0    0    0

-238.63 73086.1 0
73086.1 -227.24 0
0    0    0

-19.6445 73121.5 0
73121.5 183.236 0
0    0    0

242.565 72921.1 0
72921.1 -90.2208 0
0    0    0

191.775 73929.8 0
73929.8 82.1892 0
0    0    0

230.632 73760.9 0
73760.9 102.043 0
0    0    0

-238.127 68277.2 0
68277.2 -401.276 0
0    0    0

-150.658 68944.9 0
68944.9 5.16479 0
0    0    0

-107.312 67390.6 0
67390.6 263.837 0
0    0    0

75.1421 66917 0
66917 -178.823 0
0    0    0

232.425 68914 0
68914 15.701 0
0    0    0

-181.275 69705.3 0
69705.3 -256.001 0
0    0    0

-232.354 68831.8 0
68831.8 -314.463 0
0    0    0

281.346 67930.4 0
67930.4 272.383 0
0    0    0

-116.054 68654.5 0
68654.5 163.53 0
0    0    0

-164.186 68103.1 0
68103.1 -80.4283 0
0    0    0

-184.235 67693.4 0
67693.4 -356.594 0
0    0    0

-243.124 68228.4 0
68228.4 -306.346 0
0    0    0

177.653 67321.3 0
67321.3 226.013 0
0    0    0

125.786 66523 0
66523 -58.5824 0
0    0    0

-233.194 67437.4 0
67437.4 -45.8161 0
0    0    0

-23.522 66963.1 0
66963.1 -115.548 0
0    0    0

-143.067 67653.8 0
67653.8 -186.599 0
0    0    0

-206.898 66860.1 0
66860.1 -232.114 0
0    0    0

155.218 67460.2 0
67460.2 125.606 0
0    0    0

68.8415 67128.7 0
67128.7 322.419 0
0    0    0

138.33 66437.5 0
66437.5 97.9749 0
0    0    0

96.6284 67187.6 0
67187.6 -111.669 0
0    0    0

138.419 67778.2 0
67778.2 156.941 0
0    0    0

264.549 67664.3 0
67664.3 -6.78996 0
0    0    0

-230.838 67862.6 0
67862.6 -282.291 0
0    0    0

154.295 67022.7 0
67022.7 14.2726 0
0    0    0

229.319 66747.1 0
66747.1 63.0909 0
0    0    0

224.043 67515.7 0
67515.7 211.206 0
0    0    0

123.59 68490.9 0
68490.9 325.883 0
0    0    0

33.7238 68456.7 0
68456.7 277.607 0
0    0    0

313.366 68071.5 0
68071.5 79.8607 0
0    0    0

-9.85032 69042.8 0
69042.8 -68.9848 0
0    0    0

-193.496 67930.7 0
67930.7 -262.83 0
0    0    0

70.0948 68062.5 0
68062.5 79.7641 0
0    0    0

127.362 79873.1 0
79873.1 81.4803 0
0    0    0

116.143 80848.3 0
80848.3 49.7756 0
0    0    0

102.463 81200.6 0
81200.6 43.9129 0
0    0    0

114.938 80525.1 0
80525.1 49.2593 0
0    0    0

-67.5137 80369.4 0
80369.4 150.767 0
0    0    0

-21.2278 80862.6 0
80862.6 -150.782 0
0    0    0

-165.634 81093.8 0
81093.8 -178.711 0
0    0    0

-87.4027 70738 0
70738 -67.5788 0
0    0    0

-130.946 71109.2 0
71109.2 19.5359 0
0    0    0

-72.703 69821.1 0
69821.1 8.33321 0
0    0    0

189.163 70236.6 0
70236.6 157.241 0
0    0    0

79.3597 71179.9 0
71179.9 103.205 0
0    0    0

-96.3215 70321 0
70321 150.775 0
0    0    0

7.39586 70580.8 0
70580.8 -245.989 0
0    0    0

-45.5672 71118.5 0
71118.5 -95.8603 0
0    0    0

-227.085 71123.6 0
71123.6 -425.357 0
0    0    0

-198.114 71628.4 0
71628.4 -59.8188 0
0    0    0

74.3999 71974 0
71974 -112.98 0
0    0    0

-102.528 71500.4 0
71500.4 -391.616 0
0    0    0

14.5064 71416.4 0
71416.4 133.809 0
0    0    0

-112.05 70793.8 0
70793.8 -278.154 0
0    0    0

62.1092 71654.5 0
71654.5 -97.3695 0
0    0    0

-230.466 71759.1 0
71759.1 -162.281 0
0    0    0

-222.384 56369.5 0
56369.5 -341.313 0
0    0    0

-26.9357 56795.4 0
56795.4 58.2651 0
0    0    0

146.198 61507.5 0
61507.5 287.952 0
0    0    0

86.7477 61316.3 0
61316.3 175.898 0
0    0    0

-154.828 62246.3 0
62246.3 192.492 0
0    0    0

-9.12873 63589.5 0
63589.5 -200.567 0
0    0    0

-121 64363.7 0
64363.7 95.0641 0
0    0    0

105.354 63682.9 0
63682.9 31.3043 0
0    0    0

104.32 63606.2 0
63606.2 48.9659 0
0    0    0

31.5138 63205 0
63205 133.921 0
0    0    0

-294.728 61232 0
61232 -311.833 0
0    0    0

-43.9878 61542.6 0
61542.6 -124.074 0
0    0    0

274.438 61449 0
61449 206.805 0
0    0    0

-36.9825 62297.4 0
62297.4 -186.252 0
0    0    0

269.669 61293.7 0
61293.7 266.613 0
0    0    0

100.432 61889.7 0
61889.7 -3.37784 0
0    0    0

77.6695 62837.6 0
62837.6 -135.027 0
0    0    0

-62.6936 63017.6 0
63017.6 92.3189 0
0    0    0

144.281 63223.8 0
63223.8 -29.0609 0
0    0    0

178.205 63113.3 0
63113.3 62.387 0
0    0    0

111.847 63906.1 0
63906.1 252.872 0
0    0    0

-235.79 64102.4 0
64102.4 -78.0844 0
0    0    0

-39.0088 63595.1 0
63595.1 -38.7938 0
0    0    0

158.145 63917 0
63917 317.74 0
0    0    0

50.9965 43828.7 0
43828.7 -224.469 0
0    0    0

-15.2247 42552.3 0
42552.3 312.097 0
0    0    0

-17.6144 43378.4 0
43378.4 -261.838 0
0    0    0

-63.1466 43603.5 0
43603.5 -135.214 0
0    0    0

109.352 42423.8 0
42423.8 283.677 0
0    0    0

108.939 43260.6 0
43260.6 -22.6615 0
0    0    0

219.634 74551.1 0
74551.1 96.2977 0
0    0    0

62.7818 75240.9 0
75240.9 245.664 0
0    0    0

-105.037 75453.4 0
75453.4 -283.222 0
0    0    0

91.7646 75014.5 0
75014.5 -102.171 0
0    0    0

106.699 75905.8 0
75905.8 232.545 0
0    0    0

-88.947 76361.8 0
76361.8 -219.832 0
0    0    0

-168.093 74916 0
74916 -63.1085 0
0    0    0

-140.804 74223.4 0
74223.4 -239.539 0
0    0    0

160.846 75138 0
75138 177.03 0
0    0    0

-133.67 76768.2 0
76768.2 -253.961 0
0    0    0

87.6686 75408.2 0
75408.2 13.9235 0
0    0    0

-2.03314 75857.3 0
75857.3 78.0281 0
0    0    0

120.874 76103.3 0
76103.3 63.0594 0
0    0    0

-142.887 75592.2 0
75592.2 -175.257 0
0    0    0

-187.822 75330.5 0
75330.5 -337.321 0
0    0    0

-69.532 76213.4 0
76213.4 -249.386 0
0    0    0

-104.539 75946 0
75946 -157.347 0
0    0    0

-96.586 75590.6 0
75590.6 -232.608 0
0    0    0

51.6031 76557 0
76557 -210.895 0
0    0    0

-220 77751 0
77751 -300.628 0
0    0    0

8.59365 75658.3 0
75658.3 -158.972 0
0    0    0

67.8033 76123.5 0
76123.5 182.575 0
0    0    0

190.493 76463.8 0
76463.8 338.567 0
0    0    0

98.3404 76167.6 0
76167.6 229.461 0
0    0    0

134.908 76463.6 0
76463.6 142.972 0
0    0    0

55.0544 76607.1 0
76607.1 128.46 0
0    0    0

85.4336 75690.2 0
75690.2 77.4525 0
0    0    0

48.8687 76283.9 0
76283.9 -87.0828 0
0    0    0

-156.817 77394.8 0
77394.8 -99.6589 0
0    0    0

238.843 77955.5 0
77955.5 222.932 0
0    0    0

88.8488 77085.3 0
77085.3 207.314 0
0    0    0

252.819 76832.9 0
76832.9 289.079 0
0    0    0

226.603 77009.2 0
77009.2 296.775 0
0    0    0

-247.677 77959 0
77959 -110.028 0
0    0    0

-191.675 76784.4 0
76784.4 -260.964 0
0    0    0

-147.668 77094.3 0
77094.3 -29.139 0
0    0    0

226.96 76842.6 0
76842.6 352.03 0
0    0    0

205.404 77570 0
77570 84.1497 0
0    0    0

-208.099 77127.7 0
77127.7 -338.473 0
0    0    0

109.355 78956.7 0
78956.7 255.162 0
0    0    0

33.1521 78051.4 0
78051.4 77.3549 0
0    0    0

-306.662 78338 0
78338 -290.426 0
0    0    0

-188.832 78019.1 0
78019.1 -328.147 0
0    0    0

15.2553 77305.5 0
77305.5 -198.945 0
0    0    0

58.4525 77581.6 0
77581.6 285.671 0
0    0    0

120.185 77633.4 0
77633.4 255.401 0
0    0    0

-54.46 78608.1 0
78608.1 -276.919 0
0    0    0

-198.247 78836.8 0
78836.8 -171.477 0
0    0    0

131.323 78285.5 0
78285.5 284.311 0
0    0    0

-230.261 78984.6 0
78984.6 -165.683 0
0    0    0

180.861 79149.3 0
79149.3 241.616 0
0    0    0

149.804 79572.4 0
79572.4 -70.0606 0
0    0    0

-204.572 78142.4 0
78142.4 -126.577 0
0    0    0

267.857 78568.8 0
78568.8 287.663 0
0    0    0

-133.428 79247.8 0
79247.8 -215.463 0
0    0    0

-212.014 79426.8 0
79426.8 -156.834 0
0    0    0

263.452 79248.2 0
79248.2 351.409 0
0    0    0

51.8458 79057.2 0
79057.2 110.925 0
0    0    0

-78.5702 42157.8 0
42157.8 -48.3838 0
0    0    0

-39.4658 41810.6 0
41810.6 13.9101 0
0    0    0

-43.9484 42178.2 0
42178.2 -102.546 0
0    0    0

-78.4292 44111.9 0
44111.9 -171.036 0
0    0    0

212.692 43799 0
43799 163.668 0
0    0    0

152.797 43623.2 0
43623.2 290.698 0
0    0    0

76.1575 44555.1 0
44555.1 -153.283 0
0    0    0

-182.175 45017.4 0
45017.4 8.65581 0
0    0    0

37.6439 45583.3 0
45583.3 304.328 0
0    0    0

-211.445 44824.5 0
44824.5 -40.2649 0
0    0    0

207.433 44796.7 0
44796.7 -32.1664 0
0    0    0

-250.302 46082.6 0
46082.6 -311.354 0
0    0    0

48.7689 45747.9 0
45747.9 -88.3248 0
0    0    0

68.1671 45271.6 0
45271.6 129.938 0
0    0    0

-53.2752 45723.3 0
45723.3 136.669 0
0    0    0

-34.1327 45588.3 0
45588.3 -23.5551 0
0    0    0

-292.567 45039.6 0
45039.6 -50.7526 0
0    0    0

223.239 44862.8 0
44862.8 -108.883 0
0    0    0

-127.755 45539.5 0
45539.5 -168.854 0
0    0    0

105.763 44320.1 0
44320.1 396.624 0
0    0    0

-203.109 45245.2 0
45245.2 31.4131 0
0    0    0

10.8108 43989.5 0
43989.5 -127.688 0
0    0    0

1.14637 44490.3 0
44490.3 -76.1425 0
0    0    0

-110.367 44260.9 0
44260.9 -22.2483 0
0    0    0

-276.333 43880.4 0
43880.4 -15.5275 0
0    0    0

131.716 43542.7 0
43542.7 -126.062 0
0    0    0

218.072 44101.4 0
44101.4 413.989 0
0    0    0

-53.3158 45194.2 0
45194.2 145.211 0
0    0    0

-180.612 44563.5 0
44563.5 -397.96 0
0    0    0

-133.088 43982.7 0
43982.7 -310.539 0
0    0    0

112.18 46403.4 0
46403.4 85.3879 0
0    0    0

53.178 46642.2 0
46642.2 -215.895 0
0    0    0

157.764 45674 0
45674 410.276 0
0    0    0

-211.567 46676.8 0
46676.8 -320.423 0
0    0    0

55.9178 46018.9 0
46018.9 21.2504 0
0    0    0

-7.55064 46017.1 0
46017.1 165.838 0
0    0    0

-98.6949 45942.2 0
45942.2 -228.84 0
0    0    0

17.6767 45149.8 0
45149.8 -119.627 0
0    0    0

139.808 46119.2 0
46119.2 -63.8945 0
0    0    0

223.005 45493 0
45493 19.0175 0
0    0    0

-105.564 44444.9 0
44444.9 -365.721 0
0    0    0

-81.3868 45550.6 0
45550.6 122.555 0
0    0    0

135.97 44786.2 0
44786.2 108.773 0
0    0    0

281.845 43700.5 0
43700.5 147.932 0
0    0    0

-71.3354 45349.6 0
45349.6 -194.525 0
0    0    0

-162.28 44809.6 0
44809.6 -370.842 0
0    0    0

131.481 44660.6 0
44660.6 219.732 0
0    0    0

266.99 45054.3 0
45054.3 288.427 0
0    0    0

47.348 43989.4 0
43989.4 -30.1493 0
0    0    0

128.121 44249.8 0
44249.8 314.247 0
0    0    0

-275.284 44118.4 0
44118.4 -299.244 0
0    0    0

-167.11 44931.4 0
44931.4 -389.924 0
0    0    0

106.177 44671.9 0
44671.9 328.368 0
0    0    0

-403.275 43468.3 0
43468.3 -79.3078 0
0    0    0

76.9811 43739.2 0
43739.2 259.57 0
0    0    0

-187.042 45859 0
45859 -436.431 0
0    0    0

-52.1893 44448.5 0
44448.5 -121.775 0
0    0    0

-100.428 44956.4 0
44956.4 -369.343 0
0    0    0

116.233 45367.6 0
45367.6 306.752 0
0    0    0

1.96337 46132.2 0
46132.2 -59.4053 0
0    0    0

19.2955 47341.9 0
47341.9 21.3216 0
0    0    0

-128.765 46289.9 0
46289.9 26.4226 0
0    0    0

-63.4797 45855.9 0
45855.9 -169.448 0
0    0    0

-324.403 44556.1 0
44556.1 -350.95 0
0    0    0

182.992 44820.3 0
44820.3 61.5341 0
0    0    0

-211.696 45379.2 0
45379.2 -422.463 0
0    0    0

-123.569 45722.7 0
45722.7 -280.14 0
0    0    0

195.313 45004.9 0
45004.9 198.584 0
0    0    0

-245.229 44830.8 0
44830.8 -391.698 0
0    0    0

-135.971 45999.4 0
45999.4 86.0959 0
0    0    0

-81.4951 45887.1 0
45887.1 -276.021 0
0    0    0

-157.173 44188.7 0
44188.7 -32.8621 0
0    0    0

290.67 44420.8 0
44420.8 468.274 0
0    0    0

85.0887 43723 0
43723 76.4966 0
0    0    0

-78.0152 43859.4 0
43859.4 -296.785 0
0    0    0

-168.034 46337.7 0
46337.7 96.069 0
0    0    0

-31.5559 46828.9 0
46828.9 -73.6305 0
0    0    0

19.0855 46792.6 0
46792.6 -228.544 0
0    0    0

-62.0106 46764.4 0
46764.4 -251.331 0
0    0    0

177.117 45869.7 0
45869.7 137.064 0
0    0    0

169.283 46536.2 0
46536.2 275.212 0
0    0    0

-207.635 45679.7 0
45679.7 -375.779 0
0    0    0

-69.5583 46345.3 0
46345.3 -162.303 0
0    0    0

36.6084 47070 0
47070 235.191 0
0    0    0

71.8304 45390.3 0
45390.3 167.604 0
0    0    0

-80.7657 46390.8 0
46390.8 -14.871 0
0    0    0

87.3023 46078.8 0
46078.8 71.3399 0
0    0    0

-103.516 46755.6 0
46755.6 -289.819 0
0    0    0

62.9729 46561.1 0
46561.1 193.831 0
0    0    0

96.5277 47129.8 0
47129.8 323.444 0
0    0    0

-121.501 80983 0
80983 -376.319 0
0    0    0

100.854 46461.1 0
46461.1 112.752 0
0    0    0

-102.724 80439.2 0
80439.2 -277.738 0
0    0    0

0.0710968 92238.8 0
92238.8 80.0262 0
0    0    0

-284.863 92136.5 0
92136.5 151.127 0
0    0    0

-337.871 92667.8 0
92667.8 -144.802 0
0    0    0

46.6843 58883.4 0
58883.4 166.129 0
0    0    0

-32.4984 58390.9 0
58390.9 164.35 0
0    0    0

-72.2695 59092.4 0
59092.4 115.344 0
0    0    0

187.596 58911.6 0
58911.6 33.7421 0
0    0    0

20.5024 59656.1 0
59656.1 -177.33 0
0    0    0

101.16 56905 0
56905 329.135 0
0    0    0

45.9647 59541.7 0
59541.7 -9.83796 0
0    0    0

106.748 57909.8 0
57909.8 193.234 0
0    0    0

-46.8646 58642.6 0
58642.6 -282.951 0
0    0    0

207.984 58981.6 0
58981.6 114.161 0
0    0    0

14.297 58955.3 0
58955.3 194.986 0
0    0    0

111.225 60071.8 0
60071.8 145.854 0
0    0    0

31.8524 61134.7 0
61134.7 -41.764 0
0    0    0

159.154 59035.2 0
59035.2 187.982 0
0    0    0

124.752 59906 0
59906 256.562 0
0    0    0

-142.434 60244.2 0
60244.2 -341.151 0
0    0    0

263.265 60478.3 0
60478.3 115.9 0
0    0    0

55.889 59449 0
59449 164.375 0
0    0    0

3.38696 59812.6 0
59812.6 -14.9459 0
0    0    0

-303.593 60837.8 0
60837.8 -356.181 0
0    0    0

135.246 60016.5 0
60016.5 208.06 0
0    0    0

-17.8656 60393.3 0
60393.3 -70.3098 0
0    0    0

-69.7857 63358.5 0
63358.5 -224.761 0
0    0    0

179.694 62896.6 0
62896.6 -33.4478 0
0    0    0

-155.079 62860.2 0
62860.2 53.9593 0
0    0    0

96.2305 62409.5 0
62409.5 -37.5059 0
0    0    0

-159.324 62450.5 0
62450.5 -221.778 0
0    0    0

-213.424 62684 0
62684 -94.4673 0
0    0    0

81.3815 74766.6 0
74766.6 189.89 0
0    0    0

-336.456 74491.5 0
74491.5 -214.673 0
0    0    0

305.888 74208.9 0
74208.9 111.101 0
0    0    0

141.244 74789.3 0
74789.3 55.0211 0
0    0    0

76.4044 74485.6 0
74485.6 -325.85 0
0    0    0

55.7322 74705.9 0
74705.9 301.848 0
0    0    0

-208.469 56719.2 0
56719.2 -399.269 0
0    0    0

23.8045 75195.4 0
75195.4 55.5439 0
0    0    0

99.442 57129.4 0
57129.4 232.031 0
0    0    0

-350.178 57327.8 0
57327.8 -411.63 0
0    0    0

-106.628 58069.9 0
58069.9 -248.799 0
0    0    0

-284.91 57305.9 0
57305.9 -236.283 0
0    0    0

245.596 57567.4 0
57567.4 288.467 0
0    0    0

158.935 56394.7 0
56394.7 266.866 0
0    0    0

213.053 56940.9 0
56940.9 183.809 0
0    0    0

157.089 58596.3 0
58596.3 114.216 0
0    0    0

375.065 57631.8 0
57631.8 391.05 0
0    0    0

-291.208 57863.8 0
57863.8 -100.503 0
0    0    0

185.79 57029.5 0
57029.5 231.386 0
0    0    0

144.903 58046.4 0
58046.4 96.751 0
0    0    0

209.144 57245.9 0
57245.9 57.7533 0
0    0    0

-229.734 58484.3 0
58484.3 -157.994 0
0    0    0

141.1 58657.2 0
58657.2 57.7474 0
0    0    0

246.949 57451 0
57451 217.774 0
0    0    0

-232.731 57670.8 0
57670.8 -43.4688 0
0    0    0

-152.976 58075.4 0
58075.4 -186.535 0
0    0    0

-200.814 58234.7 0
58234.7 -169.505 0
0    0    0

287.183 58187.3 0
58187.3 339.383 0
0    0    0

-175.595 58405.1 0
58405.1 -14.9209 0
0    0    0

150.555 59283.3 0
59283.3 59.4004 0
0    0    0

-136.4 58787.4 0
58787.4 -47.8741 0
0    0    0

-292.5 57937.5 0
57937.5 -268.812 0
0    0    0

136.919 58561.8 0
58561.8 243.554 0
0    0    0

139.274 59005.2 0
59005.2 -156.084 0
0    0    0

-10.8649 59521.7 0
59521.7 212.91 0
0    0    0

100.065 62080.9 0
62080.9 261.591 0
0    0    0

46.9741 60099.4 0
60099.4 80.4423 0
0    0    0

-143.399 59202.9 0
59202.9 -166.539 0
0    0    0

-133.33 59406 0
59406 -69.0622 0
0    0    0

-23.2682 59490 0
59490 23.9422 0
0    0    0

-263.114 60473.5 0
60473.5 -322.593 0
0    0    0

195.347 60663.5 0
60663.5 418.427 0
0    0    0

-249.475 60766.9 0
60766.9 -285.444 0
0    0    0

-127.358 60429.2 0
60429.2 -425.773 0
0    0    0

194.141 60576.6 0
60576.6 249.13 0
0    0    0

-46.2148 57598.2 0
57598.2 -107.835 0
0    0    0

-161.064 57916.7 0
57916.7 -178.205 0
0    0    0

63.0423 65613 0
65613 198.396 0
0    0    0

171.758 57665.4 0
57665.4 18.6577 0
0    0    0

4.57419 65863.8 0
65863.8 -141.771 0
0    0    0

133.853 65385.2 0
65385.2 312.323 0
0    0    0

208.39 38965.3 0
38965.3 207.881 0
0    0    0

-123.541 39200 0
39200 -214.587 0
0    0    0

-69.5991 39317 0
39317 -162.398 0
0    0    0

-244.28 38601.1 0
38601.1 -560.596 0
0    0    0

-135.431 38812.9 0
38812.9 -316.006 0
0    0    0

0.261913 48692 0
48692 -144.398 0
0    0    0

-29.9686 49095.7 0
49095.7 -171.565 0
0    0    0

-166.832 48373.8 0
48373.8 -85.7838 0
0    0    0

-260 49186.5 0
49186.5 -144.19 0
0    0    0

180.906 48194.6 0
48194.6 60.6585 0
0    0    0

9.90913 48989.3 0
48989.3 -84.5424 0
0    0    0

-238.105 48064.8 0
48064.8 -83.6803 0
0    0    0

59.1681 47619.6 0
47619.6 140.319 0
0    0    0

92.5566 48234.4 0
48234.4 -17.3071 0
0    0    0

-111.633 48011.8 0
48011.8 77.5854 0
0    0    0

183.007 48894.7 0
48894.7 218.672 0
0    0    0

76.2812 48939.9 0
48939.9 329.707 0
0    0    0

168.542 48754.3 0
48754.3 181.72 0
0    0    0

95.6291 48459.1 0
48459.1 -31.0943 0
0    0    0

44.1177 48672.7 0
48672.7 -106.949 0
0    0    0

54.433 47251.5 0
47251.5 -168.762 0
0    0    0

228.057 47895.2 0
47895.2 119.856 0
0    0    0

-36.6267 46950.8 0
46950.8 275.674 0
0    0    0

-238.023 47730.8 0
47730.8 -173.089 0
0    0    0

61.4684 48304.2 0
48304.2 120.474 0
0    0    0

-33.4451 48228 0
48228 -78.0386 0
0    0    0

-93.3087 48700.1 0
48700.1 -217.72 0
0    0    0

168.215 47452.9 0
47452.9 256.471 0
0    0    0

-88.2761 47670.9 0
47670.9 -180.212 0
0    0    0

-87.7284 47737.9 0
47737.9 -204.7 0
0    0    0

-103.6 47093.9 0
47093.9 -363.593 0
0    0    0

-145.954 47221.5 0
47221.5 -340.56 0
0    0    0

144.136 60279.5 0
60279.5 61.7728 0
0    0    0

-454.267 60526.3 0
60526.3 -240.947 0
0    0    0

200.265 60781.6 0
60781.6 310.602 0
0    0    0

30.5239 61464.8 0
61464.8 13.0817 0
0    0    0

-163.107 58783.9 0
58783.9 -171.346 0
0    0    0

-33.6189 59143.4 0
59143.4 -104.273 0
0    0    0

151.428 58239.9 0
58239.9 391.371 0
0    0    0

-143.213 59101.6 0
59101.6 -178.091 0
0    0    0

-220.349 58067.7 0
58067.7 -149.388 0
0    0    0

188.289 59210.2 0
59210.2 183.22 0
0    0    0

11.2928 59704.9 0
59704.9 211.64 0
0    0    0

42.2037 59629.8 0
59629.8 510.202 0
0    0    0

-235.674 60418.2 0
60418.2 -238.418 0
0    0    0

-88.9162 60598.6 0
60598.6 -12.0599 0
0    0    0

272.854 60094.8 0
60094.8 164.69 0
0    0    0

-173.857 59872.2 0
59872.2 -559.95 0
0    0    0

-209.072 59525.5 0
59525.5 -47.5845 0
0    0    0

483.649 60304.7 0
60304.7 212.474 0
0    0    0

-142.405 60577.9 0
60577.9 -61.0306 0
0    0    0

-123.771 58726.8 0
58726.8 -256.435 0
0    0    0

-6.62283 60890.4 0
60890.4 -2.83835 0
0    0    0

250.731 59725.2 0
59725.2 270.43 0
0    0    0

4.39968e-07 59921.9 0
59921.9 1.02659e-06 0
0    0    0

-219.095 60026 0
60026 -471.795 0
0    0    0

-137.068 60153.2 0
60153.2 -282.595 0
0    0    0

94.1834 59670.4 0
59670.4 360.158 0
0    0    0

-349.607 59406.8 0
59406.8 10.0464 0
0    0    0

179.466 58873.4 0
58873.4 67.7008 0
0    0    0

14.1261 59471.7 0
59471.7 32.961 0
0    0    0

-15.9793 59908.9 0
59908.9 81.0219 0
0    0    0

83.3678 58538.6 0
58538.6 194.525 0
0    0    0

-112.677 59027.9 0
59027.9 -262.912 0
0    0    0

-239.407 61630.9 0
61630.9 -88.4753 0
0    0    0

52.7942 60961.7 0
60961.7 -196.632 0
0    0    0

185.023 61197.7 0
61197.7 79.2955 0
0    0    0

-251.763 61063.2 0
61063.2 -116.696 0
0    0    0

-151.044 61056.9 0
61056.9 -283.017 0
0    0    0

-64.4586 61385.2 0
61385.2 114.518 0
0    0    0

74.2203 62081.3 0
62081.3 31.8087 0
0    0    0

86.6793 61554.6 0
61554.6 -131.073 0
0    0    0

-112.64 61997.4 0
61997.4 60.5084 0
0    0    0

157.713 61771 0
61771 67.5912 0
0    0    0

3.21435 62057.5 0
62057.5 7.581 0
0    0    0

398.21 60707.3 0
60707.3 205.72 0
0    0    0

-34.9623 61347.1 0
61347.1 250.293 0
0    0    0

