# vtk DataFile Version 3.0
2D scalar data
ASCII
DATASET UNSTRUCTURED_GRID
POINTS 187 float
-1.000000 0.000000 0
1.000000 0.000000 0
1.000000 10.000000 0
-1.000000 10.000000 0
-1.000000 4.000000 0
1.000000 5.000000 0
-1.000000 7.000000 0
1.000000 7.500000 0
1.000000 2.500000 0
-1.000000 2.000000 0
-1.000000 8.500000 0
1.000000 8.750000 0
0.000000 10.000000 0
-1.000000 9.000000 0
-0.015625 8.750000 0
-0.539559 8.750000 0
-1.000000 8.750000 0
-1.000000 7.750000 0
-0.277592 9.378372 0
-0.277592 8.023376 0
-0.277592 9.009579 0
-1.000000 9.500000 0
-0.641305 9.193976 0
-0.277592 8.433911 0
-0.645310 8.395756 0
-1.000000 8.125000 0
-0.645289 8.028029 0
-0.500000 10.000000 0
-0.750000 9.750000 0
-0.566457 9.497244 0
-0.250000 9.738845 0
1.000000 9.375000 0
0.500000 10.000000 0
0.250000 9.515567 0
0.107433 9.136168 0
0.492188 8.800869 0
1.000000 9.750000 0
0.646969 9.562500 0
0.661137 9.163077 0
1.000000 9.062500 0
0.379385 9.250462 0
0.250000 10.000000 0
0.293103 8.228161 0
0.044671 8.433428 0
1.000000 8.125000 0
0.681228 8.414198 0
0.242434 7.471764 0
0.609043 7.812500 0
0.693587 8.107536 0
1.000000 6.250000 0
1.000000 7.812500 0
0.230240 7.852476 0
0.024157 8.080062 0
0.623317 7.429551 0
0.348790 6.691961 0
1.000000 6.875000 0
0.393482 7.095211 0
1.000000 7.187500 0
-0.302374 7.034653 0
0.652203 6.862436 0
0.673384 6.469491 0
0.036364 7.170531 0
-0.467669 7.533468 0
1.000000 6.562500 0
-1.000000 5.500000 0
0.342932 5.625000 0
-0.010970 6.798364 0
-0.113361 7.494058 0
1.000000 5.625000 0
0.222154 6.159160 0
0.629042 6.050749 0
0.388032 6.401184 0
0.709568 7.149651 0
-0.697957 7.729937 0
-1.000000 7.375000 0
-0.659640 7.187500 0
0.374415 5.912853 0
1.000000 5.937500 0
-0.345983 5.749965 0
0.019967 5.805971 0
-1.000000 6.250000 0
-0.493022 6.501703 0
-0.304097 6.734695 0
-0.109764 6.384026 0
-0.678846 6.819695 0
-0.397408 6.130155 0
-1.000000 6.625000 0
-0.685998 6.253967 0
-1.000000 5.875000 0
-0.696886 5.687500 0
0.671466 5.713230 0
0.618051 5.256344 0
1.000000 5.312500 0
-0.128771 4.985994 0
-0.002824 5.386626 0
-1.000000 4.750000 0
-0.449601 5.306966 0
0.257896 5.084550 0
1.000000 3.750000 0
0.272591 4.219116 0
0.162740 4.650093 0
-0.565112 4.870677 0
1.000000 4.375000 0
0.599308 4.782124 0
-1.000000 5.125000 0
-0.756710 5.312500 0
-1.000000 4.375000 0
-0.377125 4.187500 0
-0.716783 4.187500 0
-0.546954 4.508221 0
-0.176134 4.499254 0
0.448375 4.493409 0
1.000000 4.687500 0
-0.301699 4.757146 0
0.686562 4.062500 0
0.707231 4.355209 0
-1.000000 3.000000 0
-0.005162 3.235288 0
0.474852 3.536715 0
0.692199 3.754715 0
-0.003790 3.766022 0
-1.000000 3.500000 0
-0.546954 3.715453 0
1.000000 3.125000 0
1.000000 3.437500 0
0.163120 3.500222 0
0.339156 3.867670 0
-0.047409 4.103470 0
-1.000000 3.750000 0
-0.603355 3.250000 0
-0.407748 2.500000 0
-0.299176 3.449285 0
-0.624545 2.843965 0
-1.000000 2.500000 0
-0.206059 2.867427 0
-0.703874 2.553661 0
0.296126 2.352696 0
0.280964 2.840241 0
0.356932 3.194317 0
-0.033373 2.533566 0
0.655339 2.945106 0
1.000000 2.812500 0
-0.289203 3.889295 0
0.698608 3.281642 0
0.619765 2.561565 0
-0.214121 1.669886 0
-0.063007 2.089014 0
-0.529203 2.020292 0
-0.320889 2.222779 0
-1.000000 2.250000 0
-0.704591 2.258140 0
1.000000 1.250000 0
1.000000 1.875000 0
0.664173 2.137585 0
0.327424 1.711441 0
1.000000 2.187500 0
0.356903 2.034271 0
0.047308 1.812435 0
0.664133 1.791492 0
0.586800 1.368616 0
1.000000 1.562500 0
0.000000 0.000000 0
1.000000 0.625000 0
0.686666 0.937500 0
-1.000000 1.000000 0
0.500000 0.000000 0
-0.007544 1.003814 0
0.541882 0.478994 0
0.350654 1.086789 0
0.091726 1.389918 0
0.246873 0.720157 0
-0.284145 0.499800 0
0.182143 0.339954 0
-0.057334 0.703232 0
1.000000 0.312500 0
0.750000 0.000000 0
-0.503566 0.948122 0
-0.289840 1.281332 0
-1.000000 0.500000 0
-1.000000 1.500000 0
-0.674935 1.293189 0
-0.664055 1.669164 0
-1.000000 0.750000 0
-0.642044 0.602492 0
-0.500000 0.000000 0
-0.532170 0.310405 0
-1.000000 0.250000 0

CELLS 305 1220
3 23 14 15
3 124 143 123
3 77 49 70
3 20 15 14
3 7 47 53
3 103 97 100
3 153 8 144
3 119 98 114
3 16 10 24
3 35 14 43
3 33 41 12
3 15 22 13
3 24 23 15
3 33 12 30
3 50 44 48
3 40 35 38
3 28 27 3
3 15 13 16
3 24 25 26
3 20 22 15
3 62 73 75
3 45 35 42
3 34 20 14
3 20 18 22
3 29 22 18
3 29 30 28
3 21 13 22
3 15 16 24
3 52 43 23
3 24 26 19
3 19 23 24
3 25 17 26
3 24 10 25
3 73 74 75
3 29 21 22
3 27 28 30
3 3 21 28
3 29 18 30
3 21 29 28
3 33 30 18
3 12 27 30
3 36 2 32
3 11 38 35
3 18 20 34
3 40 33 34
3 35 34 14
3 18 34 33
3 14 23 43
3 38 39 31
3 37 32 33
3 31 36 37
3 32 37 36
3 31 37 38
3 37 33 40
3 35 40 34
3 38 11 39
3 37 40 38
3 47 51 46
3 33 32 41
3 45 11 35
3 52 23 19
3 35 43 42
3 48 42 47
3 47 46 53
3 11 45 44
3 26 73 19
3 55 59 63
3 45 48 44
3 51 47 42
3 42 48 45
3 50 48 47
3 42 52 51
3 53 57 7
3 47 7 50
3 67 19 62
3 43 52 42
3 67 52 19
3 56 53 46
3 53 72 57
3 61 56 46
3 68 91 92
3 61 46 67
3 59 60 63
3 59 56 54
3 89 85 87
3 72 56 59
3 61 66 56
3 59 54 60
3 72 55 57
3 66 54 56
3 70 60 71
3 67 51 52
3 61 58 66
3 17 73 26
3 67 58 61
3 71 60 54
3 60 49 63
3 108 109 106
3 65 94 97
3 84 86 81
3 70 49 60
3 51 67 46
3 58 67 62
3 71 54 83
3 68 90 91
3 58 84 82
3 69 76 70
3 70 76 90
3 83 54 66
3 70 71 69
3 56 72 53
3 55 72 59
3 74 6 75
3 19 73 62
3 84 75 6
3 73 17 74
3 62 75 58
3 83 79 69
3 90 76 65
3 76 79 65
3 90 77 70
3 66 82 83
3 69 79 76
3 89 96 78
3 88 89 87
3 82 66 58
3 79 83 85
3 84 58 75
3 83 82 81
3 83 81 85
3 83 69 71
3 86 80 87
3 82 84 81
3 87 85 81
3 79 85 78
3 86 87 81
3 84 6 86
3 88 64 89
3 94 96 93
3 87 80 88
3 85 89 78
3 90 65 91
3 77 90 68
3 65 79 94
3 65 97 91
3 96 94 78
3 91 5 92
3 125 120 131
3 78 94 79
3 94 93 97
3 64 105 89
3 101 105 104
3 101 104 95
3 103 5 91
3 91 97 103
3 93 101 113
3 100 97 93
3 107 108 122
3 113 109 110
3 111 103 100
3 106 4 108
3 93 96 101
3 111 100 99
3 114 102 115
3 112 5 103
3 89 105 96
3 105 101 96
3 64 104 105
3 129 132 134
3 95 106 109
3 99 100 110
3 128 121 122
3 109 108 107
3 109 107 110
3 109 101 95
3 110 107 127
3 113 100 93
3 115 99 114
3 103 111 115
3 109 113 101
3 115 112 103
3 100 113 110
3 120 125 126
3 98 102 114
3 115 102 112
3 99 115 111
3 116 132 129
3 129 122 121
3 119 124 98
3 114 126 119
3 134 137 117
3 126 114 99
3 143 124 119
3 127 120 126
3 4 122 108
3 121 116 129
3 120 142 131
3 142 122 131
3 138 117 137
3 118 125 138
3 143 119 118
3 126 125 118
3 119 126 118
3 127 126 99
3 110 127 99
3 142 127 107
3 135 130 132
3 122 4 128
3 131 129 134
3 136 139 146
3 134 117 131
3 131 117 125
3 122 129 131
3 150 149 9
3 132 130 134
3 139 134 130
3 116 133 135
3 139 137 134
3 116 135 132
3 150 9 147
3 181 9 179
3 153 136 156
3 137 144 140
3 143 138 140
3 117 138 125
3 138 137 140
3 130 135 150
3 137 139 136
3 144 137 136
3 141 123 140
3 127 142 120
3 144 141 140
3 107 122 142
3 138 143 118
3 123 143 140
3 153 144 136
3 141 144 8
3 171 161 172
3 174 162 167
3 148 139 130
3 153 156 158
3 145 146 147
3 148 147 146
3 139 148 146
3 150 148 130
3 150 147 148
3 133 149 150
3 133 150 135
3 146 157 156
3 160 159 151
3 146 145 157
3 8 153 155
3 169 166 168
3 153 158 152
3 146 156 136
3 153 152 155
3 158 156 154
3 169 157 145
3 156 157 154
3 159 158 154
3 160 152 158
3 0 184 186
3 151 159 163
3 162 151 163
3 159 160 158
3 163 159 168
3 168 159 169
3 1 174 175
3 180 176 177
3 176 180 164
3 167 162 163
3 172 165 167
3 170 163 168
3 163 170 167
3 169 159 154
3 168 166 170
3 157 169 154
3 177 169 145
3 173 170 166
3 165 172 161
3 171 173 176
3 161 171 185
3 167 170 172
3 172 170 173
3 176 173 166
3 172 173 171
3 167 175 174
3 175 167 165
3 177 176 166
3 183 182 178
3 169 177 166
3 181 147 9
3 181 177 145
3 176 183 171
3 147 181 145
3 164 180 179
3 179 180 181
3 181 180 177
3 182 183 176
3 176 164 182
3 186 184 185
3 178 185 183
3 183 185 171
3 161 185 184
3 185 178 186

CELL_TYPES 305
5
5
5
5
5
5
5
5
5
5
5
5
5
5
5
5
5
5
5
5
5
5
5
5
5
5
5
5
5
5
5
5
5
5
5
5
5
5
5
5
5
5
5
5
5
5
5
5
5
5
5
5
5
5
5
5
5
5
5
5
5
5
5
5
5
5
5
5
5
5
5
5
5
5
5
5
5
5
5
5
5
5
5
5
5
5
5
5
5
5
5
5
5
5
5
5
5
5
5
5
5
5
5
5
5
5
5
5
5
5
5
5
5
5
5
5
5
5
5
5
5
5
5
5
5
5
5
5
5
5
5
5
5
5
5
5
5
5
5
5
5
5
5
5
5
5
5
5
5
5
5
5
5
5
5
5
5
5
5
5
5
5
5
5
5
5
5
5
5
5
5
5
5
5
5
5
5
5
5
5
5
5
5
5
5
5
5
5
5
5
5
5
5
5
5
5
5
5
5
5
5
5
5
5
5
5
5
5
5
5
5
5
5
5
5
5
5
5
5
5
5
5
5
5
5
5
5
5
5
5
5
5
5
5
5
5
5
5
5
5
5
5
5
5
5
5
5
5
5
5
5
5
5
5
5
5
5
5
5
5
5
5
5
5
5
5
5
5
5
5
5
5
5
5
5
5
5
5
5
5
5
5
5
5
5
5
5
5
5
5
5
5
5
5
5
5
5
5
5
5
5
5
5
5
5

POINT_DATA 187
SCALARS pressure float 1
LOOKUP_TABLE default
0
0
0
0
0
0
0
0
0
0
0
0
0
0
0
0
0
0
0
0
0
0
0
0
0
0
0
0
0
0
0
0
0
0
0
0
0
0
0
0
0
0
0
0
0
0
0
0
0
0
0
0
0
0
0
0
0
0
0
0
0
0
0
0
0
0
0
0
0
0
0
0
0
0
0
0
0
0
0
0
0
0
0
0
0
0
0
0
0
0
0
0
0
0
0
0
0
0
0
0
0
0
0
0
0
0
0
0
0
0
0
0
0
0
0
0
0
0
0
0
0
0
0
0
0
0
0
0
0
0
0
0
0
0
0
0
0
0
0
0
0
0
0
0
0
0
0
0
0
0
0
0
0
0
0
0
0
0
0
0
0
0
0
0
0
0
0
0
0
0
0
0
0
0
0
0
0
0
0
0
0
0
0
0
0
0
0
VECTORS displacement float
2.93037e-08 2.42788e-05 0
5.59579e-08 2.43426e-05 0
-9.3099e-07 1.06651e-05 0
4.70993e-07 1.10875e-05 0
-6.70023e-07 2.14913e-05 0
6.53861e-07 1.99715e-05 0
-1.20881e-06 1.57151e-05 0
1.00097e-06 1.44823e-05 0
3.42144e-07 2.32456e-05 0
-3.14243e-07 2.3584e-05 0
-1.70638e-06 1.17922e-05 0
1.54146e-06 1.13055e-05 0
0 0 0
-2.15884e-06 1.07403e-05 0
-2.31842e-07 1.05168e-05 0
-1.33596e-06 1.08897e-05 0
-1.92108e-06 1.12448e-05 0
-1.3963e-06 1.37761e-05 0
-1.06293e-06 7.67442e-06 0
-5.62186e-07 1.31009e-05 0
-9.43275e-07 9.55361e-06 0
-1.76468e-06 1.06784e-05 0
-1.908e-06 9.69644e-06 0
-6.99444e-07 1.18313e-05 0
-1.26089e-06 1.20161e-05 0
-1.54595e-06 1.27495e-05 0
-1.0586e-06 1.30655e-05 0
7.24007e-07 7.99845e-06 0
-8.15516e-07 9.74813e-06 0
-1.7748e-06 8.58515e-06 0
-1.58106e-06 5.11591e-06 0
1.37498e-06 1.05776e-05 0
-8.20347e-07 7.96762e-06 0
9.62592e-07 6.74705e-06 0
1.23322e-07 8.89151e-06 0
9.25306e-07 1.07113e-05 0
3.34215e-07 1.06474e-05 0
9.06712e-07 9.25796e-06 0
1.41027e-06 9.99449e-06 0
1.58805e-06 1.07854e-05 0
1.06192e-06 8.57404e-06 0
-8.58969e-07 5.492e-06 0
3.07726e-07 1.25137e-05 0
-7.04864e-08 1.1749e-05 0
1.21664e-06 1.27797e-05 0
1.0189e-06 1.20024e-05 0
1.2794e-07 1.46443e-05 0
6.224e-07 1.37205e-05 0
8.22383e-07 1.28879e-05 0
8.0449e-07 1.75149e-05 0
1.08772e-06 1.36398e-05 0
1.37564e-07 1.36043e-05 0
-1.36781e-07 1.29313e-05 0
5.60008e-07 1.47309e-05 0
2.06764e-07 1.65699e-05 0
8.8709e-07 1.60666e-05 0
2.73641e-07 1.56013e-05 0
9.37766e-07 1.52922e-05 0
-4.69642e-07 1.57427e-05 0
5.25454e-07 1.61428e-05 0
5.12872e-07 1.70561e-05 0
-1.09594e-07 1.54167e-05 0
-7.26737e-07 1.44397e-05 0
8.44005e-07 1.68097e-05 0
-9.26791e-07 1.90048e-05 0
1.76126e-07 1.88616e-05 0
-1.55224e-07 1.63246e-05 0
-2.99383e-07 1.45812e-05 0
7.27261e-07 1.88111e-05 0
7.18339e-08 1.77635e-05 0
4.44039e-07 1.79769e-05 0
2.38047e-07 1.72266e-05 0
6.19486e-07 1.54299e-05 0
-1.03388e-06 1.38904e-05 0
-1.29942e-06 1.47697e-05 0
-8.82766e-07 1.53102e-05 0
2.1071e-07 1.8279e-05 0
7.65836e-07 1.81801e-05 0
-4.09904e-07 1.85924e-05 0
-1.00407e-07 1.85025e-05 0
-1.06223e-06 1.74526e-05 0
-6.14982e-07 1.69785e-05 0
-4.47219e-07 1.64586e-05 0
-2.37913e-07 1.72756e-05 0
-8.38335e-07 1.62124e-05 0
-4.89889e-07 1.78088e-05 0
-1.13056e-06 1.66161e-05 0
-7.68154e-07 1.75057e-05 0
-9.96877e-07 1.82578e-05 0
-7.01981e-07 1.86872e-05 0
4.58131e-07 1.86666e-05 0
3.85504e-07 1.95499e-05 0
6.95342e-07 1.9401e-05 0
-1.89088e-07 2.00433e-05 0
-1.05329e-07 1.93212e-05 0
-8.02601e-07 2.0345e-05 0
-4.61567e-07 1.94407e-05 0
9.93426e-08 1.98733e-05 0
4.88964e-07 2.1879e-05 0
9.47365e-08 2.12819e-05 0
2.4413e-08 2.06128e-05 0
-5.07117e-07 2.02063e-05 0
5.78336e-07 2.09913e-05 0
3.39936e-07 2.03812e-05 0
-8.68001e-07 1.97012e-05 0
-7.04138e-07 1.93941e-05 0
-7.35586e-07 2.09405e-05 0
-3.15805e-07 2.13038e-05 0
-5.24432e-07 2.12661e-05 0
-4.52683e-07 2.08039e-05 0
-2.03732e-07 2.08455e-05 0
2.15933e-07 2.08547e-05 0
6.12357e-07 2.04988e-05 0
-3.065e-07 2.04219e-05 0
3.43093e-07 2.14888e-05 0
3.8314e-07 2.1054e-05 0
-4.92952e-07 2.2716e-05 0
-5.79557e-08 2.25579e-05 0
1.89237e-07 2.21947e-05 0
3.17829e-07 2.19043e-05 0
-6.75013e-08 2.19076e-05 0
-5.82149e-07 2.2146e-05 0
-3.6894e-07 2.19429e-05 0
4.18443e-07 2.26349e-05 0
4.55931e-07 2.2276e-05 0
2.61804e-08 2.22482e-05 0
1.26193e-07 2.17775e-05 0
-1.0395e-07 2.14444e-05 0
-6.28211e-07 2.18242e-05 0
-3.44723e-07 2.25001e-05 0
-1.83489e-07 2.32709e-05 0
-2.12165e-07 2.22953e-05 0
-3.1102e-07 2.29211e-05 0
-4.10972e-07 2.31875e-05 0
-1.32646e-07 2.29426e-05 0
-3.03963e-07 2.31865e-05 0
7.6187e-08 2.34227e-05 0
7.93469e-08 2.29806e-05 0
1.15833e-07 2.26023e-05 0
-4.51475e-08 2.32656e-05 0
2.45068e-07 2.28557e-05 0
3.80856e-07 2.29593e-05 0
-2.348e-07 2.17289e-05 0
2.87749e-07 2.24845e-05 0
2.06025e-07 2.32288e-05 0
-6.07553e-08 2.38905e-05 0
-4.07223e-08 2.36212e-05 0
-1.7639e-07 2.36393e-05 0
-1.31274e-07 2.35066e-05 0
-3.62619e-07 2.33913e-05 0
-2.63947e-07 2.34404e-05 0
1.93667e-07 2.40683e-05 0
2.65878e-07 2.37243e-05 0
1.90652e-07 2.3576e-05 0
7.62127e-08 2.38735e-05 0
3.07102e-07 2.34949e-05 0
9.09728e-08 2.36638e-05 0
3.66075e-09 2.38112e-05 0
1.65215e-07 2.38109e-05 0
1.23904e-07 2.40497e-05 0
2.3047e-07 2.39163e-05 0
4.36575e-08 2.43905e-05 0
1.17581e-07 2.42747e-05 0
1.111e-07 2.42189e-05 0
-1.35658e-07 2.4105e-05 0
4.47629e-08 2.43826e-05 0
1.08948e-08 2.42094e-05 0
6.59173e-08 2.43407e-05 0
6.67562e-08 2.41795e-05 0
2.04676e-08 2.40505e-05 0
4.69708e-08 2.4299e-05 0
7.39216e-09 2.43261e-05 0
4.15122e-08 2.43703e-05 0
1.61596e-08 2.42967e-05 0
8.10501e-08 2.4328e-05 0
5.28177e-08 2.43709e-05 0
-5.44177e-08 2.41964e-05 0
-4.99591e-08 2.40872e-05 0
-4.88403e-08 2.42401e-05 0
-2.24786e-07 2.38869e-05 0
-1.27099e-07 2.40376e-05 0
-1.70582e-07 2.38488e-05 0
-9.20011e-08 2.41856e-05 0
-3.55248e-08 2.42688e-05 0
3.57337e-08 2.43489e-05 0
5.46697e-09 2.43301e-05 0
-5.90214e-09 2.42715e-05 0

CELL_DATA 305
TENSORS efStress float
53677.3 -25977.7 0
-25977.7 -247592 0
0    0    0

352.278 584.737 0
584.737 -86928.7 0
0    0    0

-650.803 568.649 0
568.649 -161676 0
0    0    0

19439.5 -35181 0
-35181 -327481 0
0    0    0

-109.227 1054.92 0
1054.92 -200582 0
0    0    0

-913.536 -44.2856 0
-44.2856 -129188 0
0    0    0

1406.66 -395.909 0
-395.909 -62202.9 0
0    0    0

-2049.47 -282.342 0
-282.342 -103400 0
0    0    0

6045.12 -23123.8 0
-23123.8 -163453 0
0    0    0

63152.3 18158 0
18158 -257114 0
0    0    0

-422273 483207 0
483207 -377417 0
0    0    0

-3435.87 -61034.6 0
-61034.6 -227781 0
0    0    0

24002.7 -23012.2 0
-23012.2 -226778 0
0    0    0

-126438 -79968.9 0
-79968.9 -1.26062e+06 0
0    0    0

7770.93 5740.74 0
5740.74 -205351 0
0    0    0

-16583.2 120325 0
120325 -293973 0
0    0    0

14334.9 -13959.5 0
-13959.5 -56080 0
0    0    0

37707.8 -45704.5 0
-45704.5 -136849 0
0    0    0

49.3171 -11661.3 0
-11661.3 -216360 0
0    0    0

85001.1 -73142.5 0
-73142.5 -201869 0
0    0    0

4594.29 -913.723 0
-913.723 -195632 0
0    0    0

18163.1 20135.4 0
20135.4 -236888 0
0    0    0

93266.2 -8861.33 0
-8861.33 -270091 0
0    0    0

28251.3 -87589.7 0
-87589.7 -374256 0
0    0    0

118735 -116355 0
-116355 -147785 0
0    0    0

-222600 -174756 0
-174756 -259282 0
0    0    0

20428 -54531.6 0
-54531.6 -635.442 0
0    0    0

626.766 -36157 0
-36157 -223372 0
0    0    0

48707.1 -4935.87 0
-4935.87 -231670 0
0    0    0

11154.7 -12997 0
-12997 -211600 0
0    0    0

21934.4 -13692.5 0
-13692.5 -225093 0
0    0    0

8499.98 -6812.98 0
-6812.98 -203944 0
0    0    0

3366.88 -14516.2 0
-14516.2 -192112 0
0    0    0

-288.994 -1265.47 0
-1265.47 -197777 0
0    0    0

-100186 -116757 0
-116757 -230140 0
0    0    0

-38402.4 -44946 0
-44946 151589 0
0    0    0

-30094.5 -1800.09 0
-1800.09 49146.4 0
0    0    0

-95951.7 -198094 0
-198094 -545123 0
0    0    0

43872.5 -27209.5 0
-27209.5 102226 0
0    0    0

116451 -44495.8 0
-44495.8 -488787 0
0    0    0

-304714 -227080 0
-227080 -454812 0
0    0    0

-17733.2 8866.59 0
8866.59 -2226.8 0
0    0    0

23552.2 44236 0
44236 -172803 0
0    0    0

64376.2 -9786.7 0
-9786.7 -358774 0
0    0    0

31685.3 66917.3 0
66917.3 -455875 0
0    0    0

31709.3 27365 0
27365 -325621 0
0    0    0

115774 14162.9 0
14162.9 -369868 0
0    0    0

24337.9 -10594.6 0
-10594.6 -288475 0
0    0    0

3457.89 38610.2 0
38610.2 -48949.1 0
0    0    0

-2449.91 68382 0
68382 -61181.5 0
0    0    0

-6304.53 28168.8 0
28168.8 11406.9 0
0    0    0

-17534 22740.1 0
22740.1 -112219 0
0    0    0

-7252.58 41788.1 0
41788.1 -135365 0
0    0    0

-151659 168023 0
168023 -337735 0
0    0    0

97531.8 48021.6 0
48021.6 -304362 0
0    0    0

-13407 52790.8 0
52790.8 -131932 0
0    0    0

12370.9 87283.1 0
87283.1 -122362 0
0    0    0

10815.7 2255.08 0
2255.08 -202451 0
0    0    0

-88782.9 163007 0
163007 -234493 0
0    0    0

326.047 33116 0
33116 -220453 0
0    0    0

13673.5 -8372 0
-8372 -228633 0
0    0    0

43727.4 21174 0
21174 -229679 0
0    0    0

14119.7 9623.38 0
9623.38 -209602 0
0    0    0

2355.67 3735.68 0
3735.68 -199243 0
0    0    0

7514.92 21719.7 0
21719.7 -175630 0
0    0    0

14428.2 -6887.49 0
-6887.49 -204476 0
0    0    0

1468 124.454 0
124.454 -179656 0
0    0    0

597.961 13349.6 0
13349.6 -219279 0
0    0    0

5627.52 6235.97 0
6235.97 -217696 0
0    0    0

24130.7 20339.9 0
20339.9 -208420 0
0    0    0

572.988 3459.8 0
3459.8 -209237 0
0    0    0

27688.5 6499.64 0
6499.64 -208879 0
0    0    0

2046.79 716.253 0
716.253 -195647 0
0    0    0

3226.63 1888.85 0
1888.85 -203045 0
0    0    0

530.638 -931.535 0
-931.535 -209668 0
0    0    0

14794.9 10460 0
10460 -248667 0
0    0    0

20168.3 -2402.57 0
-2402.57 -204222 0
0    0    0

4022.48 384.454 0
384.454 -192711 0
0    0    0

-832.914 -596.772 0
-596.772 -193056 0
0    0    0

-894.293 710.868 0
710.868 -193723 0
0    0    0

-1188.66 -269.924 0
-269.924 -143637 0
0    0    0

8867.78 -416.469 0
-416.469 -191448 0
0    0    0

-802.725 -156.256 0
-156.256 -176942 0
0    0    0

-530.576 -240.966 0
-240.966 -181829 0
0    0    0

1061.48 531.173 0
531.173 -157927 0
0    0    0

1963.49 -160.719 0
-160.719 -185563 0
0    0    0

2286.04 -294.495 0
-294.495 -184023 0
0    0    0

341.657 -334.797 0
-334.797 -176482 0
0    0    0

1183.39 293.331 0
293.331 -187387 0
0    0    0

-585.998 659.967 0
659.967 -182139 0
0    0    0

799.582 -234.91 0
-234.91 -165819 0
0    0    0

7567.1 2560.45 0
2560.45 -212450 0
0    0    0

2021.55 100.317 0
100.317 -184277 0
0    0    0

-1861.91 -2635.43 0
-2635.43 -213212 0
0    0    0

45.7673 -475.796 0
-475.796 -193617 0
0    0    0

-1222.13 -885.285 0
-885.285 -172329 0
0    0    0

988.233 387.821 0
387.821 -170693 0
0    0    0

1039.73 480.868 0
480.868 -114643 0
0    0    0

364.085 -732.129 0
-732.129 -141256 0
0    0    0

-783.935 645.658 0
645.658 -176333 0
0    0    0

-253.336 -81.0549 0
-81.0549 -166308 0
0    0    0

3193.56 1860.29 0
1860.29 -205748 0
0    0    0

8297.13 -188.592 0
-188.592 -191674 0
0    0    0

-1270.76 20.7788 0
20.7788 -171997 0
0    0    0

1022.73 -419.701 0
-419.701 -145457 0
0    0    0

211.1 920.23 0
920.23 -180921 0
0    0    0

728.789 -999.673 0
-999.673 -160235 0
0    0    0

-59.5167 -155.695 0
-155.695 -155676 0
0    0    0

1031.72 -928.17 0
-928.17 -173639 0
0    0    0

-564.185 -153.323 0
-153.323 -165542 0
0    0    0

-984.238 317.183 0
317.183 -192269 0
0    0    0

-1594.81 -259.149 0
-259.149 -186913 0
0    0    0

982.478 -1121.91 0
-1121.91 -190741 0
0    0    0

3665.93 -2549.3 0
-2549.3 -206819 0
0    0    0

-14.1235 -246.633 0
-246.633 -186658 0
0    0    0

4394.1 -1486.46 0
-1486.46 -199005 0
0    0    0

-1274.23 -1215.96 0
-1215.96 -195896 0
0    0    0

420.348 116.534 0
116.534 -160104 0
0    0    0

-1292.58 -648.659 0
-648.659 -153596 0
0    0    0

349.276 111.224 0
111.224 -153148 0
0    0    0

819.242 -247.837 0
-247.837 -155344 0
0    0    0

1550.12 100.787 0
100.787 -174160 0
0    0    0

-1267.03 -459.928 0
-459.928 -159206 0
0    0    0

1742.26 -206.733 0
-206.733 -145764 0
0    0    0

-456.671 -240.117 0
-240.117 -158535 0
0    0    0

-867.477 -507.043 0
-507.043 -181360 0
0    0    0

-151.234 -481.017 0
-481.017 -160717 0
0    0    0

2390.71 -522.766 0
-522.766 -185592 0
0    0    0

-1547.23 264.186 0
264.186 -174296 0
0    0    0

828.628 161.997 0
161.997 -167208 0
0    0    0

1002.72 255.787 0
255.787 -166626 0
0    0    0

-1603.59 392.084 0
392.084 -169844 0
0    0    0

1760.05 547.784 0
547.784 -176265 0
0    0    0

-2311.63 91.8245 0
91.8245 -168432 0
0    0    0

-1783.94 -681.787 0
-681.787 -156339 0
0    0    0

1302.29 522.048 0
522.048 -170596 0
0    0    0

626.657 -236.925 0
-236.925 -181907 0
0    0    0

334.23 -64.6311 0
-64.6311 -150892 0
0    0    0

2324.43 343.351 0
343.351 -137036 0
0    0    0

1721.83 575.301 0
575.301 -162066 0
0    0    0

-2644.03 -31.1006 0
-31.1006 -156441 0
0    0    0

1623.91 -432.493 0
-432.493 -145202 0
0    0    0

-1211.89 552.599 0
552.599 -153626 0
0    0    0

17.2866 -429.573 0
-429.573 -148099 0
0    0    0

-1493.68 343.395 0
343.395 -142503 0
0    0    0

-1680.69 110.481 0
110.481 -147292 0
0    0    0

859.513 300.502 0
300.502 -138062 0
0    0    0

-1934.88 266.131 0
266.131 -96253.9 0
0    0    0

1212.48 505.807 0
505.807 -147735 0
0    0    0

-2079.89 -167.127 0
-167.127 -138074 0
0    0    0

193.279 169.854 0
169.854 -144435 0
0    0    0

-364.705 15.122 0
15.122 -135737 0
0    0    0

-742.449 -448.947 0
-448.947 -130504 0
0    0    0

-265.864 -113.398 0
-113.398 -132829 0
0    0    0

1192.55 80.3647 0
80.3647 -132228 0
0    0    0

604.883 860.738 0
860.738 -129743 0
0    0    0

1347.71 89.7609 0
89.7609 -128395 0
0    0    0

1569.76 73.0739 0
73.0739 -105008 0
0    0    0

-1766.18 27.093 0
27.093 -122589 0
0    0    0

979.147 538.543 0
538.543 -122300 0
0    0    0

28.5519 63.5733 0
63.5733 -111361 0
0    0    0

-839.433 46.3106 0
46.3106 -135363 0
0    0    0

880.417 88.2542 0
88.2542 -117446 0
0    0    0

2555.82 -641.187 0
-641.187 -110917 0
0    0    0

-1106.54 736.646 0
736.646 -128417 0
0    0    0

-2619.59 -63.8799 0
-63.8799 -145474 0
0    0    0

2075.72 408.644 0
408.644 -134568 0
0    0    0

-140.809 324.691 0
324.691 -140868 0
0    0    0

-1360.92 113.448 0
113.448 -79633.2 0
0    0    0

-326.464 -353.634 0
-353.634 -120538 0
0    0    0

461.402 305.676 0
305.676 -117440 0
0    0    0

602.262 -541.029 0
-541.029 -97359.4 0
0    0    0

-2660.79 255.791 0
255.791 -114879 0
0    0    0

1733.6 90.3771 0
90.3771 -114424 0
0    0    0

708.25 585.619 0
585.619 -124181 0
0    0    0

-1089.14 -73.596 0
-73.596 -114101 0
0    0    0

-901.974 99.2684 0
99.2684 -127282 0
0    0    0

0.441499 832.193 0
832.193 -112299 0
0    0    0

-6.10266 -286.203 0
-286.203 -121078 0
0    0    0

751.176 -110.492 0
-110.492 -124263 0
0    0    0

1222.33 -227.669 0
-227.669 -120574 0
0    0    0

258.943 -571.383 0
-571.383 -123084 0
0    0    0

1402.11 62.7108 0
62.7108 -96555.6 0
0    0    0

-72.7787 -743.846 0
-743.846 -107731 0
0    0    0

-1492.72 32.2875 0
32.2875 -120140 0
0    0    0

198.389 -666.75 0
-666.75 -115783 0
0    0    0

-590.624 184.861 0
184.861 -79315.5 0
0    0    0

548.049 335.037 0
335.037 -91720.3 0
0    0    0

1226.54 106.9 0
106.9 -95792.1 0
0    0    0

-631.981 517.248 0
517.248 -102751 0
0    0    0

-1789.36 -385.911 0
-385.911 -80854.6 0
0    0    0

232.106 -276.059 0
-276.059 -107341 0
0    0    0

-412.227 356.234 0
356.234 -93224 0
0    0    0

-1115.93 -190.435 0
-190.435 -104297 0
0    0    0

-370.585 204.719 0
204.719 -105479 0
0    0    0

-222.431 -110.219 0
-110.219 -86529.6 0
0    0    0

568.807 140.36 0
140.36 -97480.5 0
0    0    0

1085.2 -682.554 0
-682.554 -97206.1 0
0    0    0

2033.99 47.8729 0
47.8729 -80170.2 0
0    0    0

1272.41 57.1621 0
57.1621 -88834.4 0
0    0    0

-501.66 -902.712 0
-902.712 -93311 0
0    0    0

-2226.3 1.22122 0
1.22122 -97263.3 0
0    0    0

498.934 -365.743 0
-365.743 -96961.6 0
0    0    0

670.858 746.081 0
746.081 -106604 0
0    0    0

-598.555 -261.607 0
-261.607 -114118 0
0    0    0

1638.7 -552.352 0
-552.352 -105849 0
0    0    0

-2010.29 -403.394 0
-403.394 -72530.7 0
0    0    0

-1032.25 -179.113 0
-179.113 -101403 0
0    0    0

197.459 -275.381 0
-275.381 -83661.6 0
0    0    0

564.819 86.7461 0
86.7461 -60599.8 0
0    0    0

998.482 923.64 0
923.64 -82780.9 0
0    0    0

732.942 487.623 0
487.623 -89713.4 0
0    0    0

-830.634 175.839 0
175.839 -92239.1 0
0    0    0

842.086 -165.253 0
-165.253 -58074.5 0
0    0    0

2247.48 161.079 0
161.079 -71144.9 0
0    0    0

-2194.32 38.5536 0
38.5536 -71573.3 0
0    0    0

-1213.65 91.8935 0
91.8935 -72021.5 0
0    0    0

2236.06 -351.591 0
-351.591 -71418.7 0
0    0    0

1562.93 231.085 0
231.085 -71736 0
0    0    0

-1131.04 30.1381 0
30.1381 -55568.5 0
0    0    0

-762.036 335.116 0
335.116 -46263.6 0
0    0    0

-679.866 -392.81 0
-392.81 -58115.3 0
0    0    0

1006.25 -11.0831 0
-11.0831 -72878.6 0
0    0    0

1632.05 -20.0261 0
-20.0261 -82306.9 0
0    0    0

-1599.41 77.4562 0
77.4562 -88884.2 0
0    0    0

-1327.46 -741.03 0
-741.03 -80988.6 0
0    0    0

1274.43 -184.25 0
-184.25 -64633.9 0
0    0    0

-990.667 -76.4526 0
-76.4526 -69233.4 0
0    0    0

34.0795 128.026 0
128.026 -68776.9 0
0    0    0

-430.507 566.17 0
566.17 -78895.5 0
0    0    0

-1384.91 26.6521 0
26.6521 -104328 0
0    0    0

389.484 -218.513 0
-218.513 -73083.4 0
0    0    0

-939.348 283.795 0
283.795 -106032 0
0    0    0

-1108.42 15.4651 0
15.4651 -89568.7 0
0    0    0

-60.1618 -81.5228 0
-81.5228 -82986.4 0
0    0    0

-6.15672 186.216 0
186.216 -62620.6 0
0    0    0

-1355.68 523.068 0
523.068 -70047.7 0
0    0    0

1864.63 651.102 0
651.102 -6263.13 0
0    0    0

230.845 720.359 0
720.359 -12822.2 0
0    0    0

1813.5 -273.439 0
-273.439 -62265.8 0
0    0    0

811.632 423.899 0
423.899 -51130.5 0
0    0    0

1426.15 -32.3434 0
-32.3434 -49732.1 0
0    0    0

-598.041 -587.572 0
-587.572 -55235.9 0
0    0    0

-858.419 -104.51 0
-104.51 -61168 0
0    0    0

-1227.73 388.909 0
388.909 -62695.8 0
0    0    0

804.388 -500.999 0
-500.999 -57318.1 0
0    0    0

-941.922 -129.924 0
-129.924 -62236.7 0
0    0    0

1638.05 424.086 0
424.086 -64482.3 0
0    0    0

1527.76 -658.185 0
-658.185 -51062.2 0
0    0    0

-534.027 614.921 0
614.921 -37098.4 0
0    0    0

-947.351 196.745 0
196.745 -50732.5 0
0    0    0

-1102.19 -282.153 0
-282.153 -60972.1 0
0    0    0

-1674.72 -95.6808 0
-95.6808 -32165.9 0
0    0    0

-883.97 -420.078 0
-420.078 -51856.9 0
0    0    0

-815.25 440.285 0
440.285 -57707.7 0
0    0    0

1172.7 -9.6409 0
-9.6409 -55143.8 0
0    0    0

-1679.74 -265.13 0
-265.13 -49757.5 0
0    0    0

1024.42 -211.496 0
-211.496 -42469.5 0
0    0    0

-1046.38 263.099 0
263.099 -49628.6 0
0    0    0

1329.2 -61.6881 0
-61.6881 -41494.4 0
0    0    0

753.289 213.327 0
213.327 -46284.1 0
0    0    0

32.9788 -16.4894 0
-16.4894 -2198.25 0
0    0    0

1355.19 32.0449 0
32.0449 -30452.5 0
0    0    0

51.0703 -784.398 0
-784.398 -25021.3 0
0    0    0

-469.141 -211.952 0
-211.952 -42135.7 0
0    0    0

-1181.24 90.6575 0
90.6575 -31386.1 0
0    0    0

1866.72 159.025 0
159.025 -32812.7 0
0    0    0

-695.087 -868.859 0
-868.859 -3844.19 0
0    0    0

2268.57 96.9932 0
96.9932 -29532.1 0
0    0    0

-1609.63 181.861 0
181.861 -30186.4 0
0    0    0

-1341.51 104.248 0
104.248 -19137 0
0    0    0

1578.27 -282.568 0
-282.568 -5614.2 0
0    0    0

174.635 -258.289 0
-258.289 -24100.9 0
0    0    0

869.556 54.4335 0
54.4335 -18330.5 0
0    0    0

-1715.66 -132.605 0
-132.605 -41117.2 0
0    0    0

1386.93 53.2664 0
53.2664 -23924.4 0
0    0    0

1151.38 155.145 0
155.145 -42305.6 0
0    0    0

-1614.75 -443.722 0
-443.722 -39821.3 0
0    0    0

-2124.54 -281.037 0
-281.037 -23217.4 0
0    0    0

-1819.83 -620.806 0
-620.806 -4637.43 0
0    0    0

717.364 200.872 0
200.872 -18282.6 0
0    0    0

257.377 262.486 0
262.486 -7192.44 0
0    0    0

-1205.1 -197.517 0
-197.517 -14609.1 0
0    0    0

1829.55 407.412 0
407.412 -13679.2 0
0    0    0

699.541 530.345 0
530.345 -22459.7 0
0    0    0

-1301.31 131.922 0
131.922 -14293.8 0
0    0    0

1195.08 -283.085 0
-283.085 -6239.83 0
0    0    0

-321.618 -146.249 0
-146.249 -6450.71 0
0    0    0

-1747.33 -227.195 0
-227.195 -28894.5 0
0    0    0

-636.66 -800.201 0
-800.201 -16812.5 0
0    0    0

1177.5 -46.9458 0
-46.9458 -31138.7 0
0    0    0

1743.19 379.585 0
379.585 -48737.2 0
0    0    0

1808.68 483.926 0
483.926 -38987.1 0
0    0    0

-1087.19 -64.3255 0
-64.3255 -19076 0
0    0    0

-2500.06 -439.716 0
-439.716 -49050.7 0
0    0    0

14.9533 201.706 0
201.706 -33068.4 0
0    0    0

548.625 510.831 0
510.831 -38143.9 0
0    0    0

-1857.61 -211.881 0
-211.881 -39113.7 0
0    0    0

443.333 641.697 0
641.697 -19503.4 0
0    0    0

680.205 -646.289 0
-646.289 -24137.4 0
0    0    0

1504.68 994.779 0
994.779 -2929.89 0
0    0    0

27.6596 330.239 0
330.239 -12294.9 0
0    0    0

1614.31 138.552 0
138.552 -12029.4 0
0    0    0

-602.917 -336.552 0
-336.552 -4210.63 0
0    0    0

-685.289 -806.663 0
-806.663 -9822.08 0
0    0    0

