# vtk DataFile Version 3.0
2D scalar data
ASCII
DATASET UNSTRUCTURED_GRID
POINTS 3592 float
0.000000 0.000000 0
200.000000 0.000000 0
200.000000 2.000000 0
100.000000 2.000000 0
0.000000 2.000000 0
100.000000 0.000000 0
50.000000 0.000000 0
50.000000 2.000000 0
150.000000 0.000000 0
150.000000 2.000000 0
75.000000 0.000000 0
75.000000 2.000000 0
25.000000 2.000000 0
25.000000 0.000000 0
125.000000 0.000000 0
125.000000 2.000000 0
175.000000 2.000000 0
175.000000 0.000000 0
87.500000 0.000000 0
87.500000 2.000000 0
62.500000 2.000000 0
62.500000 0.000000 0
37.500000 2.000000 0
37.500000 0.000000 0
12.500000 0.000000 0
12.500000 2.000000 0
137.500000 0.000000 0
137.500000 2.000000 0
112.500000 2.000000 0
112.500000 0.000000 0
162.500000 2.000000 0
162.500000 0.000000 0
187.500000 0.000000 0
187.500000 2.000000 0
93.750000 0.000000 0
93.750000 2.000000 0
81.250000 2.000000 0
81.250000 0.000000 0
68.750000 2.000000 0
68.750000 0.000000 0
56.250000 0.000000 0
56.250000 2.000000 0
31.250000 2.000000 0
31.250000 0.000000 0
43.750000 0.000000 0
43.750000 2.000000 0
18.750000 0.000000 0
18.750000 2.000000 0
6.250000 2.000000 0
6.250000 0.000000 0
143.750000 0.000000 0
143.750000 2.000000 0
131.250000 2.000000 0
131.250000 0.000000 0
118.750000 2.000000 0
118.750000 0.000000 0
106.250000 0.000000 0
106.250000 2.000000 0
156.250000 2.000000 0
156.250000 0.000000 0
168.750000 0.000000 0
168.750000 2.000000 0
181.250000 0.000000 0
181.250000 2.000000 0
193.750000 2.000000 0
193.750000 0.000000 0
96.875000 0.000000 0
96.875000 2.000000 0
90.625000 2.000000 0
90.625000 0.000000 0
84.375000 2.000000 0
84.375000 0.000000 0
78.125000 0.000000 0
78.125000 2.000000 0
65.625000 2.000000 0
65.625000 0.000000 0
71.875000 0.000000 0
71.875000 2.000000 0
59.375000 0.000000 0
59.375000 2.000000 0
53.125000 2.000000 0
53.125000 0.000000 0
28.125000 2.000000 0
28.125000 0.000000 0
34.375000 0.000000 0
34.375000 2.000000 0
40.625000 0.000000 0
40.625000 2.000000 0
46.875000 2.000000 0
46.875000 0.000000 0
21.875000 0.000000 0
21.875000 2.000000 0
15.625000 2.000000 0
15.625000 0.000000 0
9.375000 2.000000 0
9.375000 0.000000 0
3.125000 0.000000 0
3.125000 2.000000 0
146.875000 0.000000 0
146.875000 2.000000 0
140.625000 2.000000 0
140.625000 0.000000 0
134.375000 2.000000 0
134.375000 0.000000 0
128.125000 0.000000 0
128.125000 2.000000 0
115.625000 2.000000 0
115.625000 0.000000 0
121.875000 0.000000 0
121.875000 2.000000 0
109.375000 0.000000 0
109.375000 2.000000 0
103.125000 2.000000 0
103.125000 0.000000 0
153.125000 2.000000 0
153.125000 0.000000 0
159.375000 0.000000 0
159.375000 2.000000 0
165.625000 0.000000 0
165.625000 2.000000 0
171.875000 2.000000 0
171.875000 0.000000 0
184.375000 0.000000 0
184.375000 2.000000 0
178.125000 2.000000 0
178.125000 0.000000 0
190.625000 2.000000 0
190.625000 0.000000 0
196.875000 0.000000 0
196.875000 2.000000 0
98.437500 0.000000 0
98.437500 2.000000 0
99.218750 1.000000 0
99.218750 0.000000 0
99.609375 0.500000 0
99.094063 0.500000 0
99.351719 0.298706 0
99.609375 0.000000 0
99.351719 0.701294 0
98.204172 0.987463 0
98.828125 0.000000 0
98.713107 0.860548 0
98.632813 0.411856 0
98.896194 0.284519 0
98.399090 0.685211 0
97.656250 0.000000 0
97.844292 0.541406 0
99.005250 0.787694 0
99.218750 2.000000 0
98.585505 1.432742 0
98.046875 0.000000 0
98.242188 0.332734 0
97.851563 0.235522 0
97.656250 2.000000 0
97.265625 0.439031 0
98.506201 1.114732 0
98.891368 1.200625 0
99.299994 1.500000 0
98.828125 2.000000 0
98.632813 1.748022 0
98.985774 1.676119 0
97.445441 1.231405 0
98.011980 1.537980 0
97.265625 0.000000 0
95.312500 0.000000 0
95.312500 2.000000 0
99.917237 1.143105 0
99.585837 0.984460 0
99.619296 1.340025 0
99.984703 1.569033 0
99.609375 2.000000 0
99.584675 1.669567 0
101.562500 0.000000 0
101.562500 2.000000 0
100.781250 2.000000 0
100.390625 2.000000 0
100.677006 1.241067 0
100.585938 1.640202 0
100.273607 1.703567 0
100.282754 1.303515 0
100.781250 0.000000 0
100.373610 0.601383 0
100.431332 0.965797 0
97.499711 0.802499 0
97.849124 0.905713 0
97.965331 1.212888 0
98.046875 2.000000 0
97.612915 1.598678 0
97.265625 2.000000 0
97.070313 1.548974 0
97.329646 1.704474 0
96.093750 2.000000 0
96.879510 0.943243 0
96.484375 1.563041 0
97.164312 0.761393 0
96.779131 0.472091 0
97.102011 1.206073 0
96.772362 1.348515 0
96.780592 1.691315 0
97.009985 0.273191 0
96.077553 0.867831 0
96.464907 1.050428 0
96.093750 0.000000 0
96.417012 0.649874 0
96.038080 0.433028 0
96.484375 0.000000 0
96.483873 0.328376 0
95.379581 0.712003 0
95.703125 0.000000 0
95.507813 0.340760 0
95.731384 0.625752 0
96.484375 2.000000 0
95.903147 1.436526 0
95.652838 1.065973 0
96.156245 1.203055 0
95.403577 1.504167 0
95.636626 1.346743 0
95.225895 1.113104 0
94.531250 0.000000 0
94.686482 0.676428 0
95.044562 0.379926 0
95.027243 0.806994 0
94.692361 0.319053 0
94.109900 0.488207 0
94.921875 0.000000 0
94.140625 0.000000 0
94.427208 0.493427 0
96.157949 1.664310 0
95.703125 2.000000 0
95.681062 1.674929 0
100.010094 0.410474 0
99.763881 0.250000 0
100.044240 0.787002 0
99.756552 0.749953 0
94.531250 2.000000 0
94.838380 1.525072 0
94.716117 1.109040 0
95.116688 1.398620 0
94.921875 2.000000 0
95.117188 1.731026 0
92.187500 0.000000 0
92.187500 2.000000 0
92.968750 0.952687 0
92.968750 0.000000 0
93.480346 0.575545 0
93.771414 0.360974 0
93.892700 1.235236 0
94.261210 0.937291 0
94.346040 1.443779 0
93.862868 0.821472 0
93.441161 1.059834 0
94.178239 1.211535 0
94.559654 1.681596 0
94.140625 2.000000 0
93.945313 1.640749 0
92.968750 2.000000 0
93.419681 1.587699 0
93.697381 1.466747 0
93.251564 0.800764 0
92.895079 0.476343 0
93.135662 1.311772 0
93.072592 1.660830 0
92.578125 2.000000 0
92.382813 1.330649 0
92.757929 1.269017 0
92.382813 1.693820 0
92.728253 1.688848 0
93.359375 0.000000 0
92.578125 0.000000 0
92.448474 0.789284 0
92.382813 0.373207 0
92.748863 0.742826 0
92.667221 0.284337 0
91.406250 0.000000 0
91.796875 0.442138 0
92.076672 0.295711 0
91.796875 0.000000 0
93.359375 2.000000 0
93.220998 0.329571 0
91.918141 0.999625 0
91.406250 2.000000 0
91.833575 1.558846 0
91.015625 0.738739 0
92.094060 0.669435 0
92.240529 1.038727 0
91.796875 2.000000 0
91.350298 0.443059 0
91.574287 0.782489 0
91.533756 1.227502 0
91.015625 0.000000 0
90.820313 0.369370 0
91.102537 0.282279 0
89.062500 0.000000 0
89.062500 2.000000 0
89.843750 0.000000 0
90.234375 0.442875 0
90.513443 0.295311 0
90.234375 0.000000 0
90.569047 0.738555 0
91.444540 1.609548 0
91.015625 2.000000 0
90.976822 1.298887 0
91.268597 1.367022 0
91.049492 1.646495 0
91.249779 1.009529 0
89.843750 2.000000 0
90.792226 1.004682 0
90.406668 1.451610 0
90.429906 1.081886 0
90.733506 1.531154 0
89.453125 0.738247 0
89.829061 1.229714 0
90.152673 1.250054 0
90.046349 1.644856 0
90.016719 0.828568 0
90.234375 2.000000 0
90.429688 1.760103 0
89.711397 0.930203 0
89.789025 0.445814 0
89.453125 0.000000 0
89.257813 0.369123 0
89.541396 0.282941 0
88.347173 1.087200 0
88.868213 0.811505 0
89.146795 0.664100 0
88.281250 0.000000 0
88.811666 0.368956 0
88.444414 0.640769 0
88.671875 0.000000 0
88.584242 0.905031 0
88.909547 1.414876 0
89.204578 1.095233 0
87.705412 0.713607 0
88.471099 0.292815 0
88.051101 0.435604 0
89.423334 1.593124 0
89.728220 1.698733 0
88.074150 0.818194 0
87.769426 1.400523 0
88.010544 1.155803 0
87.684229 0.333337 0
87.890625 0.000000 0
89.205330 1.391905 0
89.453125 2.000000 0
88.281250 2.000000 0
88.264144 1.539984 0
88.564279 1.361016 0
87.890625 2.000000 0
87.695313 1.727497 0
85.937500 0.000000 0
85.937500 2.000000 0
88.671875 2.000000 0
88.557450 1.690717 0
88.876980 1.735942 0
86.675373 1.156039 0
86.718750 2.000000 0
87.134789 1.531995 0
86.718750 0.000000 0
87.109375 0.433469 0
87.379516 0.284167 0
87.109375 0.000000 0
87.109375 2.000000 0
86.714314 1.577133 0
86.328125 2.000000 0
86.124890 1.419294 0
86.132813 1.742438 0
86.448756 1.389343 0
87.202251 0.980878 0
86.520503 0.571395 0
86.994212 1.235100 0
87.360942 0.672370 0
87.573404 1.072350 0
87.433889 1.378314 0
86.776961 0.340285 0
86.874089 0.754972 0
85.156250 2.000000 0
86.242424 0.957891 0
86.540362 0.878968 0
85.174007 0.931402 0
86.016765 0.502246 0
85.705189 1.066711 0
86.250314 0.670282 0
86.000041 1.141820 0
86.328125 0.000000 0
85.156250 0.000000 0
85.631400 1.580636 0
85.539465 0.607010 0
85.824097 0.764122 0
85.466615 0.892995 0
85.088630 0.467160 0
85.546875 0.000000 0
84.330551 0.846547 0
84.765625 0.000000 0
84.570313 0.434696 0
85.351563 0.266745 0
85.723478 0.305706 0
84.839280 0.294319 0
84.810217 0.758334 0
84.717157 1.422822 0
84.868252 1.105222 0
85.226740 1.379988 0
84.522603 1.135524 0
82.812500 2.000000 0
83.593750 2.000000 0
84.245086 1.532979 0
85.517475 1.302019 0
85.546875 2.000000 0
84.765625 2.000000 0
84.570313 1.725777 0
84.960938 1.692975 0
83.984375 2.000000 0
85.317971 1.704373 0
86.297232 0.328483 0
82.812500 0.000000 0
83.429245 1.082865 0
83.927132 1.144855 0
84.226183 1.224168 0
83.787965 1.583158 0
84.034487 1.721694 0
83.253352 1.587736 0
83.655049 1.299711 0
83.521749 1.712788 0
83.203125 2.000000 0
82.339699 0.986350 0
82.872309 1.171908 0
83.174741 1.277273 0
82.838211 1.585651 0
82.031250 2.000000 0
82.511479 1.350447 0
81.912966 1.410252 0
82.201603 1.274074 0
82.421875 2.000000 0
82.273647 1.648596 0
82.617188 1.779908 0
82.776654 0.589310 0
82.666108 0.906612 0
82.031250 0.000000 0
83.593750 0.000000 0
83.103986 0.834717 0
83.203125 0.000000 0
83.577390 0.551443 0
83.160601 0.418196 0
83.397235 0.787581 0
82.877692 0.299710 0
82.421875 0.000000 0
82.226563 0.480326 0
84.063070 0.401378 0
83.437251 0.271321 0
84.325532 0.283452 0
82.534249 0.325567 0
81.776887 0.846523 0
83.959428 0.766594 0
83.984375 0.000000 0
82.093235 0.775795 0
81.205702 1.282691 0
81.774422 0.384305 0
81.199786 0.618486 0
81.640625 0.000000 0
81.534095 0.616703 0
81.423869 0.976309 0
81.365357 0.320647 0
81.693579 1.164922 0
81.640625 2.000000 0
81.445313 1.627916 0
81.835938 1.732437 0
79.687500 2.000000 0
79.687500 0.000000 0
80.468750 0.000000 0
80.859375 0.000000 0
81.011787 0.319036 0
80.263556 0.970939 0
80.703939 0.721047 0
81.010302 0.952302 0
80.468750 2.000000 0
80.647615 1.389780 0
80.691038 1.056699 0
80.267319 0.464582 0
80.630672 0.346065 0
80.859375 2.000000 0
80.664063 1.725925 0
81.052069 1.656052 0
80.067001 1.536675 0
80.342645 1.703505 0
80.078125 2.000000 0
80.411600 0.718847 0
79.592432 0.712760 0
80.078125 0.000000 0
80.317725 1.306772 0
79.976557 0.715614 0
79.851744 1.144875 0
79.787008 0.375992 0
79.597785 1.539432 0
80.052833 0.281114 0
79.391144 1.127417 0
79.833536 1.732532 0
78.906250 2.000000 0
78.906250 0.000000 0
79.296875 0.000000 0
79.397897 0.375768 0
79.094907 1.533817 0
79.347793 1.406985 0
79.296875 2.000000 0
78.515625 1.570656 0
78.814119 1.691451 0
78.515625 2.000000 0
76.562500 0.000000 0
76.562500 2.000000 0
78.769209 0.985239 0
78.800222 1.337801 0
79.146564 0.745501 0
79.061699 1.137155 0
78.709766 0.474820 0
79.051738 0.410751 0
78.862781 0.715671 0
77.457142 1.000000 0
78.515625 0.000000 0
78.111044 0.803218 0
77.915422 1.416951 0
78.477086 0.760589 0
78.394314 1.170477 0
78.250043 0.403903 0
78.229586 1.438890 0
78.069606 1.128053 0
77.791905 0.927567 0
77.343750 0.000000 0
77.521210 0.486306 0
78.504216 0.281764 0
77.734375 0.000000 0
77.892194 0.503188 0
76.829937 0.660932 0
77.120823 0.356882 0
77.227618 0.710531 0
76.953125 0.000000 0
76.757813 0.305543 0
77.343750 2.000000 0
77.419121 1.502118 0
77.634042 1.265893 0
77.734375 2.000000 0
77.929688 1.741014 0
76.953125 2.000000 0
76.936692 1.213090 0
77.000257 0.914401 0
76.757813 1.610452 0
75.781250 2.000000 0
77.082113 1.517497 0
76.171875 1.560410 0
75.781250 0.000000 0
76.171875 0.464896 0
76.439915 0.293557 0
76.171875 0.000000 0
76.454863 1.702296 0
76.171875 2.000000 0
76.493284 1.252426 0
75.955261 1.012653 0
76.175344 1.242329 0
77.250261 1.236833 0
76.349384 0.851803 0
76.667054 0.963854 0
75.618898 1.462380 0
75.594657 0.553341 0
76.525104 0.593836 0
75.865265 1.681305 0
75.390625 2.000000 0
75.195313 1.599798 0
73.437500 0.000000 0
73.437500 2.000000 0
75.240529 1.017627 0
74.218750 2.000000 0
75.337988 1.318038 0
75.598260 1.067587 0
74.609375 1.561601 0
74.894517 1.700760 0
74.609375 2.000000 0
74.920924 1.284940 0
74.218750 0.000000 0
74.638595 0.622662 0
74.879863 0.911127 0
74.379467 1.084522 0
75.105380 0.477379 0
74.621695 1.261727 0
74.609375 0.000000 0
74.414063 0.321182 0
73.828125 0.457517 0
74.098674 0.292995 0
74.221707 0.694918 0
73.828125 0.000000 0
75.390625 0.000000 0
75.585938 0.242269 0
75.319676 0.710799 0
74.795196 0.303296 0
75.909095 0.677687 0
74.108867 1.508863 0
73.743141 1.043367 0
74.066440 0.984531 0
74.340182 1.714971 0
73.828125 2.000000 0
73.606759 1.526935 0
73.132724 0.655731 0
73.851225 1.334866 0
73.864180 1.694803 0
73.524888 0.712618 0
73.374468 0.369397 0
73.637173 0.228759 0
73.239330 1.162292 0
73.524239 1.242646 0
72.656250 2.000000 0
72.263657 1.103125 0
73.046875 2.000000 0
72.851563 1.514168 0
73.242188 1.663307 0
72.759617 0.998750 0
72.355937 1.597094 0
73.048044 0.938050 0
72.948164 1.231025 0
72.563960 1.299563 0
72.656250 0.000000 0
73.046875 0.000000 0
72.851563 0.359056 0
72.810435 0.679599 0
72.265045 0.446713 0
72.542138 0.294721 0
72.265625 0.000000 0
72.629059 1.706893 0
72.265625 2.000000 0
71.816926 1.442185 0
72.447150 0.775305 0
70.312500 0.000000 0
71.661552 0.773644 0
72.125245 1.384586 0
70.312500 2.000000 0
71.855307 0.410834 0
71.093750 0.000000 0
71.484375 0.000000 0
71.433562 0.418747 0
70.739942 1.115017 0
71.163244 0.843083 0
71.888864 1.073141 0
71.455633 1.180224 0
72.033465 0.733811 0
71.093079 1.199293 0
71.093750 2.000000 0
70.810854 1.599883 0
71.295906 1.599477 0
70.703125 2.000000 0
70.266201 1.431920 0
71.484375 2.000000 0
71.679688 1.738403 0
70.578512 1.386245 0
70.650246 0.509963 0
69.531250 2.000000 0
70.831593 0.792255 0
71.041189 0.458213 0
70.239850 0.879977 0
69.921875 2.000000 0
69.726563 1.493225 0
70.117188 1.729992 0
70.210249 0.434546 0
69.531250 0.000000 0
69.921875 0.000000 0
69.560920 0.701396 0
69.726563 0.343063 0
69.930329 0.676847 0
69.876061 1.096921 0
70.160478 1.160367 0
69.140625 1.558428 0
69.450512 1.677859 0
69.140625 2.000000 0
67.187500 0.000000 0
67.187500 2.000000 0
69.391774 1.150019 0
69.618094 0.979151 0
68.508989 0.888580 0
69.028145 0.756720 0
69.308377 0.862377 0
68.972047 1.173335 0
68.669499 1.535223 0
68.797811 0.937789 0
68.895775 1.735391 0
67.968750 2.000000 0
68.359375 2.000000 0
68.675648 0.456808 0
67.968750 0.000000 0
68.359375 0.000000 0
68.146335 0.500549 0
68.421578 0.606790 0
69.140625 0.000000 0
69.316760 0.371079 0
68.981360 0.302937 0
67.769561 1.216168 0
67.578125 0.420362 0
68.082335 0.923848 0
68.326326 1.277163 0
68.164063 1.646756 0
67.737523 1.641535 0
68.034492 1.369454 0
68.445623 1.721695 0
67.687579 0.814961 0
66.906753 1.183492 0
67.848486 0.557849 0
67.176784 0.744166 0
68.640551 1.216510 0
67.578125 2.000000 0
67.330690 1.397003 0
67.382813 1.727880 0
66.406250 2.000000 0
67.226067 1.077108 0
67.520471 1.058087 0
66.950067 1.625119 0
66.796875 2.000000 0
66.430398 1.453149 0
66.632356 1.714030 0
66.728358 1.423926 0
67.578125 0.000000 0
66.406250 0.000000 0
67.208182 0.372458 0
66.655469 0.512952 0
66.796875 0.000000 0
66.956137 0.538349 0
66.601563 0.222125 0
66.015625 2.000000 0
65.820313 1.421137 0
66.210938 1.717417 0
65.820313 1.743518 0
66.468729 0.965287 0
66.799128 0.850792 0
66.138597 1.184786 0
65.556513 0.733402 0
66.051614 0.695948 0
66.232439 0.349761 0
65.784494 1.040415 0
65.824005 0.356742 0
66.015625 0.000000 0
66.370365 0.659965 0
70.703125 0.000000 0
64.062500 2.000000 0
64.843750 2.000000 0
65.234375 1.545819 0
65.352911 1.122745 0
65.508400 1.394452 0
64.062500 0.000000 0
64.843750 0.000000 0
64.379135 1.078057 0
64.913642 0.645128 0
64.860854 1.213024 0
65.219197 0.804915 0
65.234375 0.000000 0
65.310447 0.404035 0
64.982471 0.311321 0
64.453125 0.000000 0
64.257813 0.528163 0
64.617230 0.410011 0
64.257813 0.227968 0
64.572674 0.770583 0
64.845418 1.606362 0
64.453125 2.000000 0
64.257813 1.551734 0
64.568399 1.398519 0
63.281250 2.000000 0
63.456605 1.094146 0
63.920080 1.212855 0
64.189676 1.281906 0
63.835829 1.634556 0
63.797629 0.726814 0
63.281250 0.000000 0
63.887245 0.347802 0
63.431448 0.440132 0
63.671875 0.000000 0
63.671875 2.000000 0
63.631735 1.374513 0
63.120488 1.498980 0
63.476563 1.698503 0
64.081562 0.913727 0
63.726868 1.003087 0
63.471577 0.766079 0
62.743542 0.690267 0
63.116285 0.644377 0
62.979780 1.072360 0
62.890625 0.000000 0
63.085938 0.293303 0
62.695313 0.319187 0
63.211374 1.232490 0
62.564943 1.445696 0
62.585883 1.051820 0
60.937500 0.000000 0
60.937500 2.000000 0
61.571570 1.195389 0
62.092809 1.223101 0
61.718750 0.000000 0
62.112676 0.583587 0
62.444420 0.540470 0
62.854428 1.350218 0
62.890625 2.000000 0
62.695313 1.741927 0
61.718750 2.000000 0
62.259714 0.908220 0
61.848872 0.895457 0
61.236374 0.607328 0
61.671337 0.477776 0
61.497028 0.848316 0
61.328125 0.000000 0
61.132813 0.281088 0
60.156250 0.000000 0
60.546875 0.479824 0
60.811242 0.296129 0
60.546875 0.000000 0
62.109375 0.000000 0
62.304688 0.253008 0
61.949060 0.292710 0
62.109375 2.000000 0
61.914063 1.615538 0
62.304688 1.696161 0
61.467027 1.630279 0
61.825334 1.338198 0
61.328125 2.000000 0
60.807036 1.241613 0
61.122076 0.992410 0
61.171090 1.378111 0
60.743773 0.837899 0
61.132813 1.718548 0
59.859325 1.183309 0
60.249239 0.876660 0
60.514018 1.080716 0
60.156250 2.000000 0
60.431679 1.577932 0
60.775991 1.679427 0
60.546875 2.000000 0
59.687057 0.563047 0
59.902678 0.837215 0
60.110254 0.452094 0
60.925891 0.585494 0
59.997394 1.595433 0
59.765625 2.000000 0
59.511536 1.529014 0
59.733837 1.713118 0
57.812500 0.000000 0
57.812500 2.000000 0
59.328191 0.996769 0
59.548629 1.218535 0
60.210790 1.285927 0
58.593750 0.000000 0
59.156293 0.489213 0
59.449409 0.326759 0
59.765625 0.000000 0
59.843684 0.297897 0
59.398888 0.689939 0
58.284948 1.067204 0
58.593750 2.000000 0
58.984375 2.000000 0
58.789063 1.417830 0
58.789063 1.741678 0
59.133935 1.579754 0
59.083442 1.239073 0
58.984375 0.000000 0
65.234375 2.000000 0
58.303198 1.578675 0
58.485828 1.316097 0
58.203125 2.000000 0
57.676315 1.344982 0
58.038128 1.332072 0
57.962874 1.678724 0
57.031250 2.000000 0
57.736744 0.671715 0
57.928985 0.982930 0
57.421875 2.000000 0
57.226563 1.547204 0
57.606525 1.694799 0
56.640625 1.562983 0
57.235610 0.966081 0
57.582110 0.982216 0
56.937252 1.690932 0
57.367209 1.258762 0
56.640625 2.000000 0
54.687500 0.000000 0
54.687500 2.000000 0
56.925429 1.251884 0
56.173497 0.849424 0
56.724849 0.722973 0
56.498110 1.146599 0
56.931392 0.947134 0
56.134467 1.503644 0
56.465308 0.856550 0
56.329601 0.435327 0
56.171418 1.177574 0
55.234210 1.236495 0
55.690455 1.010446 0
56.401749 1.412162 0
55.468750 0.000000 0
55.859375 0.000000 0
55.664063 0.486691 0
56.003616 0.548911 0
56.054688 0.242084 0
57.031250 0.000000 0
56.640625 0.000000 0
56.685900 0.361118 0
57.167362 0.475863 0
56.960179 0.277726 0
57.421875 0.000000 0
57.525165 0.361238 0
57.411482 0.691736 0
55.468750 2.000000 0
55.646944 1.496082 0
55.520040 1.239945 0
55.869351 1.271242 0
55.859375 2.000000 0
55.265496 1.644661 0
55.078125 2.000000 0
54.764668 1.477768 0
54.964497 1.713014 0
55.887736 1.691309 0
55.286345 0.768267 0
55.569519 0.753998 0
54.790259 0.950046 0
55.275787 0.359973 0
54.933487 0.573109 0
55.078125 0.000000 0
54.882813 0.255514 0
55.083574 0.982705 0
53.906250 2.000000 0
53.992936 1.175863 0
54.296875 2.000000 0
54.101563 1.603916 0
54.492188 1.704322 0
54.388379 1.302334 0
54.661273 1.208272 0
53.515625 1.561182 0
53.818410 1.447962 0
53.515625 2.000000 0
51.562500 0.000000 0
51.562500 2.000000 0
52.443417 1.000000 0
52.909314 1.414730 0
53.173378 1.649794 0
58.203125 0.000000 0
58.398438 0.521764 0
58.007813 0.362157 0
58.398438 0.224326 0
58.777289 0.356989 0
58.170014 0.758763 0
58.822986 0.835300 0
58.500653 0.827559 0
52.343750 2.000000 0
53.108990 0.721366 0
53.498462 1.050723 0
53.246538 1.301755 0
52.977669 1.058981 0
53.906250 0.000000 0
54.293912 0.512318 0
54.553782 0.304617 0
54.296875 0.000000 0
54.602273 0.662934 0
54.290287 0.910705 0
54.101563 0.255038 0
53.818708 0.667051 0
53.783662 0.963287 0
53.464024 0.696490 0
53.262333 0.363908 0
53.515625 0.000000 0
53.710938 0.313638 0
52.414053 1.502040 0
52.627173 1.262627 0
52.734375 2.000000 0
51.953125 2.000000 0
51.669940 1.206638 0
51.757813 1.622494 0
52.045943 1.344399 0
52.116295 1.688730 0
52.699109 1.670679 0
101.171875 1.559720 0
100.893493 1.706159 0
101.171875 2.000000 0
101.330006 0.770548 0
100.870454 0.821154 0
101.138412 1.142586 0
101.055061 0.385677 0
100.716008 0.498813 0
101.171875 0.000000 0
101.457656 0.388714 0
102.343750 0.000000 0
102.185872 0.844416 0
101.953125 0.000000 0
101.766842 0.704331 0
102.148438 0.400450 0
101.719330 1.305894 0
101.398686 1.331616 0
101.584800 1.640268 0
102.343750 2.000000 0
101.953125 2.000000 0
102.148438 1.547785 0
102.734375 0.438376 0
101.803651 0.359021 0
101.587131 0.992795 0
101.916170 1.038324 0
101.884336 1.702005 0
102.734375 1.563003 0
102.429698 0.600296 0
102.837851 1.000689 0
102.437883 1.691059 0
102.734375 0.000000 0
102.734375 2.000000 0
102.450116 1.220016 0
102.144834 1.241752 0
102.529078 0.907218 0
104.687500 0.000000 0
104.687500 2.000000 0
103.370509 0.611993 0
103.368720 1.389057 0
103.010678 0.678208 0
103.063428 0.338361 0
103.255950 1.000263 0
103.094833 1.633881 0
102.970196 1.315721 0
103.906250 0.000000 0
103.906250 2.000000 0
103.515625 0.000000 0
103.710938 0.369514 0
103.380864 0.291247 0
104.296875 0.442846 0
104.017780 0.295326 0
104.296875 0.000000 0
103.933310 1.014546 0
103.941366 0.650921 0
103.592395 1.113429 0
103.891200 1.506488 0
104.560339 1.315993 0
104.296875 2.000000 0
104.492188 1.682486 0
104.161424 1.697851 0
103.515625 2.000000 0
103.403683 1.703783 0
104.189620 1.284259 0
104.348187 0.876929 0
105.468750 0.000000 0
105.157488 0.756668 0
104.771609 0.943122 0
104.779584 0.467099 0
105.078125 0.000000 0
105.273438 0.362011 0
105.859375 0.444444 0
105.531385 0.652157 0
105.581685 0.294624 0
105.859375 0.000000 0
106.112911 1.207601 0
105.468750 2.000000 0
105.891229 0.857555 0
107.812500 0.000000 0
105.488354 1.357910 0
107.031250 0.000000 0
105.775027 1.176362 0
105.859375 2.000000 0
105.833921 1.586469 0
105.427054 0.999984 0
106.603479 0.651710 0
105.523476 1.680327 0
105.078125 2.000000 0
105.075663 1.244377 0
106.277307 0.858272 0
106.255232 0.462613 0
104.592412 0.702041 0
104.547512 0.270224 0
106.240364 1.593609 0
107.812500 2.000000 0
106.754409 1.250838 0
106.427696 1.317710 0
106.580416 0.976094 0
107.031250 2.000000 0
106.640625 2.000000 0
106.659703 1.619676 0
103.645106 0.790294 0
105.144180 1.621969 0
104.822447 1.698161 0
104.835772 1.408056 0
107.441558 0.759159 0
107.017126 0.891995 0
106.999815 0.445612 0
107.421920 1.440896 0
107.038483 1.520357 0
107.172308 1.201265 0
106.640625 0.000000 0
106.556968 0.322145 0
107.421875 0.000000 0
107.617188 0.374771 0
108.593750 0.000000 0
107.315265 0.469138 0
108.404606 0.966866 0
107.945887 0.757274 0
108.360632 0.456330 0
107.997765 0.334830 0
108.203125 0.000000 0
107.967602 1.316527 0
108.984375 0.487261 0
108.238320 0.724027 0
107.632564 1.105812 0
108.097869 1.031421 0
108.593750 2.000000 0
107.751298 1.626776 0
107.421875 2.000000 0
108.203125 2.000000 0
107.279898 1.720436 0
108.113303 1.648636 0
108.661804 0.687551 0
109.223522 1.232312 0
108.817499 1.088991 0
109.129621 0.851546 0
110.937500 0.000000 0
109.493632 0.495312 0
108.870706 1.585040 0
109.261911 1.623526 0
110.937500 2.000000 0
110.156250 2.000000 0
109.765625 2.000000 0
109.960938 1.286833 0
109.960938 1.670161 0
109.582246 1.394601 0
110.569657 1.478497 0
109.655665 0.933356 0
109.577480 1.726518 0
110.302014 1.690940 0
110.546875 2.000000 0
110.742188 1.747283 0
111.664066 0.965774 0
111.151036 1.295082 0
108.984375 2.000000 0
108.493370 1.633099 0
109.410925 0.774895 0
110.156250 0.000000 0
108.533932 1.288665 0
110.305310 0.680862 0
110.025381 0.922617 0
109.916499 0.513599 0
110.412526 1.087951 0
109.765625 0.000000 0
109.960938 0.221585 0
110.908514 0.739658 0
110.789763 1.163058 0
110.268396 1.372822 0
110.596025 0.821959 0
108.679461 0.331495 0
108.984375 0.000000 0
109.242127 0.293687 0
111.718750 2.000000 0
110.546875 0.000000 0
110.653573 0.406069 0
110.306210 0.323918 0
111.268165 0.913278 0
111.718750 0.000000 0
111.328125 0.000000 0
111.527892 0.473628 0
111.207024 0.580616 0
111.132813 0.262200 0
112.109375 0.432679 0
111.808658 0.311499 0
111.842182 0.662022 0
112.506770 1.165974 0
112.097329 1.015736 0
112.434078 0.731040 0
112.122604 1.579896 0
112.470249 0.365810 0
114.062500 0.000000 0
114.062500 2.000000 0
113.281250 0.000000 0
113.068137 0.609428 0
112.733081 0.576246 0
112.890625 0.000000 0
112.863782 0.964691 0
113.085938 0.273677 0
113.699311 1.208899 0
113.281250 2.000000 0
113.311123 0.985605 0
112.948567 1.532325 0
112.797687 1.264712 0
112.228050 1.292526 0
113.675143 0.483907 0
113.352928 0.456179 0
113.334231 1.394503 0
113.096627 1.202829 0
113.671875 2.000000 0
113.222292 1.689775 0
113.670419 1.603923 0
113.648773 0.847685 0
112.109375 0.000000 0
112.109375 2.000000 0
111.618619 1.499575 0
111.850744 1.250502 0
112.890625 2.000000 0
112.537091 1.587112 0
111.842684 1.714972 0
111.328125 2.000000 0
111.132813 1.674363 0
111.463461 1.217530 0
113.671875 0.000000 0
100.390625 0.000000 0
100.470849 0.303202 0
52.343750 0.000000 0
52.615931 0.477839 0
52.734375 0.000000 0
52.942184 0.438190 0
52.735128 0.806799 0
51.949379 0.547199 0
51.977867 0.948197 0
52.266811 0.360263 0
52.353273 0.680640 0
51.953125 0.000000 0
51.757813 0.272275 0
51.420059 0.711825 0
51.726711 0.764529 0
50.781250 2.000000 0
51.171875 1.558622 0
51.478609 1.464279 0
51.200961 1.107379 0
51.469210 0.997506 0
50.781250 0.000000 0
50.799241 0.626409 0
51.093129 0.789194 0
51.171875 2.000000 0
50.444783 1.308680 0
50.762022 1.040283 0
50.812472 1.421598 0
50.905793 1.716679 0
51.171875 0.000000 0
51.173331 0.398671 0
51.481595 0.409568 0
50.863651 0.311096 0
50.390625 0.000000 0
50.195313 0.573883 0
50.195313 0.253706 0
50.518961 0.404920 0
50.479351 0.806253 0
48.437500 2.000000 0
48.437500 0.000000 0
49.218750 0.000000 0
49.609375 0.453121 0
49.609375 0.000000 0
49.776118 1.125951 0
50.121939 0.953354 0
49.809728 0.760545 0
48.828125 0.731684 0
49.315470 0.863662 0
49.166825 0.446774 0
48.828125 0.000000 0
48.632813 0.365842 0
48.918463 0.283286 0
47.724176 1.085994 0
48.243948 0.808502 0
48.521595 0.660274 0
49.218750 2.000000 0
48.613599 1.359924 0
48.532434 1.014723 0
48.149170 1.286979 0
48.018928 1.012555 0
47.656250 2.000000 0
48.333680 1.627175 0
48.046875 2.000000 0
47.851563 1.608131 0
47.265625 1.560700 0
47.549077 1.701976 0
47.265625 2.000000 0
47.656250 0.000000 0
47.744564 0.539597 0
49.295576 1.434254 0
48.980584 1.134492 0
45.312500 0.000000 0
45.312500 2.000000 0
46.990065 0.785023 0
47.265625 0.000000 0
47.460938 0.308992 0
47.379292 0.699131 0
47.268700 1.122823 0
48.046875 0.000000 0
48.218350 0.377507 0
47.851563 0.245060 0
48.031512 0.604861 0
49.455053 1.154171 0
49.741427 1.600534 0
50.064466 1.385587 0
50.390625 2.000000 0
50.195313 1.709904 0
50.550998 1.666587 0
49.609375 2.000000 0
49.414063 1.738433 0
48.828125 2.000000 0
48.668402 1.697544 0
48.947760 1.484362 0
49.023438 1.773618 0
46.598578 1.360884 0
46.898892 1.144044 0
46.922442 1.493040 0
47.051660 0.375050 0
46.093750 2.000000 0
46.093750 0.000000 0
46.452461 0.494640 0
46.484375 0.000000 0
46.773625 0.542892 0
46.515505 0.929451 0
46.679688 0.244440 0
45.842651 1.282725 0
46.232415 1.207675 0
46.273688 1.623195 0
45.937603 0.726224 0
46.484375 2.000000 0
46.649219 1.699694 0
45.703125 2.000000 0
46.203052 0.894667 0
45.507813 1.589799 0
44.531250 2.000000 0
44.921875 1.562410 0
45.209091 1.699165 0
44.921875 2.000000 0
46.091079 0.379324 0
45.703125 0.000000 0
45.507813 0.464026 0
45.299825 1.026913 0
45.196682 1.355241 0
45.518926 1.265824 0
45.644328 0.930897 0
45.891178 1.664372 0
44.140625 1.258154 0
45.782739 0.306628 0
44.531250 0.000000 0
44.474444 1.556145 0
44.140625 2.000000 0
43.945313 1.629077 0
44.227103 1.717581 0
42.187500 0.000000 0
42.187500 2.000000 0
43.033620 0.912135 0
43.555333 1.186847 0
43.834419 1.333802 0
42.968750 2.000000 0
43.498034 1.630442 0
44.687992 0.980950 0
44.986037 1.108703 0
43.359375 2.000000 0
43.132192 1.357688 0
44.701604 1.313243 0
43.271463 1.093196 0
42.968750 0.000000 0
43.596751 0.584252 0
43.890571 0.903542 0
43.157119 1.705982 0
42.393691 1.287391 0
42.740264 1.560776 0
44.110109 0.406681 0
44.294949 0.883865 0
44.433465 1.159936 0
44.600262 0.491970 0
45.033953 0.649711 0
42.760199 1.179135 0
42.397735 0.626536 0
42.495514 0.957574 0
42.578125 2.000000 0
42.374574 1.667994 0
43.892110 0.607290 0
44.329658 0.596028 0
44.140625 0.000000 0
44.921875 0.000000 0
45.117188 0.300830 0
45.334792 0.719964 0
44.386185 0.271175 0
43.139373 0.446240 0
43.303715 0.728493 0
42.786727 0.611143 0
42.578125 0.000000 0
42.773438 0.274506 0
42.382813 0.283003 0
43.359375 0.000000 0
43.554688 0.260994 0
41.286266 0.950174 0
41.406250 2.000000 0
41.757455 1.446217 0
41.951891 0.938185 0
41.406250 0.000000 0
41.879642 0.421364 0
42.099688 1.463406 0
41.621942 1.103129 0
41.600474 0.705428 0
41.149253 0.450210 0
41.520797 0.347914 0
42.086428 0.655917 0
41.796875 0.000000 0
39.062500 0.000000 0
41.015625 0.000000 0
40.251812 0.964906 0
40.767133 0.823685 0
41.061784 0.742936 0
40.893004 1.435638 0
41.300510 1.363730 0
41.015625 2.000000 0
40.820313 1.746934 0
39.062500 2.000000 0
39.843750 2.000000 0
40.286829 1.537102 0
41.210938 1.705537 0
41.542092 1.697893 0
41.796875 2.000000 0
41.992188 1.756480 0
39.843750 0.000000 0
40.732104 0.405624 0
40.439948 0.640601 0
39.900859 0.544587 0
40.974811 1.099890 0
40.585230 1.182807 0
40.234375 2.000000 0
39.569345 1.293841 0
40.234375 0.000000 0
40.405316 0.298430 0
40.039063 0.254806 0
39.453125 0.000000 0
39.648438 0.295770 0
39.420116 0.779846 0
39.829394 0.960934 0
40.037761 1.265175 0
39.916574 1.626203 0
38.762234 1.249511 0
39.230878 0.394706 0
38.926137 0.783501 0
39.175700 1.129468 0
38.281250 0.000000 0
39.219630 1.577807 0
39.453125 2.000000 0
38.143895 0.770203 0
39.565055 1.645884 0
38.281250 2.000000 0
38.532803 0.906988 0
38.169068 1.398728 0
38.481012 0.432974 0
38.253236 1.080591 0
38.671875 2.000000 0
38.535789 1.602931 0
38.877047 1.572329 0
38.070560 0.359776 0
37.470736 0.678716 0
37.740979 1.115269 0
37.890625 0.000000 0
37.822064 0.615942 0
37.592195 0.343964 0
38.671875 0.000000 0
38.852074 0.337990 0
37.735258 1.588894 0
37.890842 1.353926 0
37.890625 2.000000 0
38.085938 1.725339 0
35.937500 2.000000 0
36.718750 2.000000 0
37.044711 1.343705 0
37.431853 1.348382 0
37.109375 2.000000 0
37.242445 1.001422 0
36.914063 1.687911 0
37.304688 1.691053 0
35.937500 0.000000 0
36.328125 1.538378 0
36.718750 0.000000 0
36.675382 1.400419 0
37.109375 0.000000 0
36.596345 1.707495 0
36.328125 2.000000 0
36.215256 0.748255 0
37.195791 0.389546 0
36.366809 1.129729 0
35.511342 1.248749 0
36.758845 0.753138 0
35.924517 1.084602 0
36.916418 1.041335 0
36.486055 0.861513 0
35.867071 1.542078 0
35.156250 0.000000 0
35.632942 0.538733 0
36.095979 1.338478 0
36.099207 1.740752 0
35.883778 0.755556 0
35.548676 0.889722 0
35.986536 0.383174 0
34.564621 0.968849 0
35.041013 0.582231 0
36.328125 0.000000 0
35.343920 0.654954 0
35.546875 0.000000 0
36.523438 0.388034 0
35.716552 0.249134 0
35.351563 0.298400 0
36.859782 0.314158 0
36.255947 0.279501 0
37.088883 0.705414 0
34.765625 0.000000 0
34.960938 0.263863 0
35.047406 1.076923 0
35.156250 2.000000 0
34.693488 1.525557 0
34.848721 0.832103 0
34.503263 0.477877 0
35.546875 2.000000 0
35.351563 1.632772 0
35.005409 1.684221 0
34.765625 2.000000 0
35.138328 1.388312 0
35.632453 1.718932 0
34.762726 1.216261 0
32.812500 2.000000 0
32.812500 0.000000 0
33.593750 0.000000 0
33.984375 0.000000 0
33.741976 0.822338 0
33.789063 0.389323 0
34.176005 0.768096 0
34.158861 0.331188 0
33.162983 0.540310 0
33.593750 2.000000 0
33.441149 0.320209 0
33.470862 0.643585 0
33.199639 1.349924 0
33.412847 1.026551 0
33.203125 0.000000 0
33.897327 1.440051 0
33.007813 0.257135 0
32.002593 0.992064 0
32.031250 0.000000 0
32.553252 0.690321 0
32.644151 0.330617 0
33.554082 1.351644 0
32.847810 0.573420 0
32.860728 1.035524 0
32.205158 0.411018 0
32.421875 0.000000 0
33.654869 1.670869 0
33.984375 2.000000 0
34.179688 1.682896 0
34.282640 1.277616 0
33.977304 1.091546 0
32.733439 1.512603 0
32.426656 1.112619 0
32.224428 0.743568 0
31.640625 0.407579 0
31.882845 0.661898 0
32.923449 1.307779 0
33.203125 2.000000 0
32.031250 2.000000 0
31.923631 0.287835 0
33.051857 1.675764 0
32.089072 1.493980 0
32.421875 2.000000 0
32.166318 1.222263 0
33.134049 0.862498 0
31.640625 0.000000 0
29.687500 0.000000 0
29.687500 2.000000 0
32.413065 1.440685 0
31.640625 2.000000 0
31.429635 1.349191 0
31.426484 0.854041 0
31.445313 1.703714 0
31.739258 1.513107 0
31.719496 1.176053 0
30.347089 1.108495 0
31.177799 0.460175 0
31.710298 0.890105 0
30.915926 1.104875 0
30.468750 2.000000 0
30.961953 1.597600 0
31.389178 0.257589 0
30.468750 0.000000 0
31.231834 1.102865 0
31.071900 0.792695 0
30.661760 0.478953 0
30.859375 2.000000 0
30.633246 1.379794 0
30.647348 1.715452 0
30.859375 0.000000 0
30.629915 0.856449 0
30.078125 0.435782 0
30.356192 0.643266 0
30.913707 0.302661 0
30.078125 0.000000 0
30.380554 0.313908 0
29.010290 1.000000 0
29.473758 0.584558 0
29.736317 0.349206 0
29.873778 0.907609 0
30.168055 0.872289 0
29.911755 1.476163 0
30.290445 1.562321 0
30.078125 2.000000 0
29.882813 1.773693 0
29.449519 1.023762 0
29.726616 1.202984 0
28.906250 2.000000 0
29.289973 1.574257 0
29.216770 1.254673 0
28.688503 1.471933 0
29.296875 2.000000 0
28.964766 1.666944 0
28.515625 2.000000 0
28.320313 1.643727 0
26.562500 0.000000 0
26.562500 2.000000 0
28.164252 0.828803 0
28.345175 1.216561 0
27.343750 2.000000 0
27.734375 1.554183 0
28.011010 1.705837 0
27.734375 2.000000 0
28.597748 0.862626 0
27.924470 1.176770 0
28.729739 1.154379 0
28.906250 0.000000 0
28.113946 1.417388 0
26.953329 0.924206 0
28.415654 0.401566 0
28.947262 0.501145 0
27.343750 0.000000 0
27.411699 1.155078 0
27.963329 0.422988 0
28.515625 0.000000 0
28.658859 0.572002 0
28.710938 0.255026 0
27.734375 0.000000 0
29.296875 0.000000 0
29.181662 0.724939 0
27.304604 1.571658 0
26.953125 2.000000 0
27.058288 1.286279 0
26.943866 1.634028 0
27.684136 0.786487 0
27.306918 0.792651 0
26.953125 0.000000 0
27.489225 0.403941 0
26.982666 0.462097 0
26.310285 0.651397 0
27.217642 0.273583 0
26.679726 0.674851 0
26.514507 0.355943 0
26.786308 0.242657 0
29.243405 0.335220 0
26.305237 1.350227 0
26.473492 1.002009 0
26.684980 1.356146 0
26.618982 1.677168 0
25.781250 0.000000 0
26.171875 0.000000 0
25.976563 0.381904 0
26.241064 0.276279 0
25.755667 0.996824 0
26.114895 0.955640 0
25.903951 0.702956 0
25.280094 0.572506 0
25.626775 0.471531 0
25.390625 0.000000 0
25.195313 0.259215 0
25.781250 2.000000 0
25.080734 1.274615 0
25.822418 1.497036 0
26.010752 1.249079 0
26.171875 2.000000 0
26.284152 1.684472 0
25.390625 2.000000 0
25.195313 1.654553 0
25.456785 1.368454 0
25.546634 1.697105 0
25.350790 0.971938 0
25.566730 0.764723 0
23.437500 0.000000 0
24.218750 0.000000 0
24.609375 0.497517 0
24.949331 0.493898 0
24.783903 0.923158 0
25.078830 0.814100 0
23.437500 2.000000 0
23.802945 1.076783 0
24.275132 0.883170 0
24.539613 0.774724 0
24.218750 2.000000 0
24.502285 1.462082 0
24.850772 1.551210 0
24.609375 2.000000 0
24.743433 1.245053 0
24.414063 1.759264 0
23.936871 1.571709 0
23.829214 0.468253 0
24.149211 1.248667 0
24.445711 1.146377 0
23.828125 2.000000 0
23.400276 1.451328 0
24.218778 0.496658 0
23.956458 0.778578 0
23.700290 1.370145 0
23.623648 1.711772 0
22.656250 2.000000 0
23.116305 0.742310 0
23.046875 2.000000 0
22.851563 1.486050 0
23.242188 1.737652 0
22.851563 1.780137 0
23.395091 1.042029 0
23.597893 0.744352 0
23.112099 1.250296 0
23.451206 0.386503 0
22.265625 1.557467 0
22.265625 2.000000 0
20.312500 0.000000 0
20.312500 2.000000 0
22.487372 0.937423 0
22.776177 1.140900 0
22.540485 1.373186 0
21.188098 1.000000 0
21.656953 1.413860 0
21.922853 1.648571 0
24.609375 0.000000 0
23.828125 0.000000 0
22.656250 0.000000 0
23.046875 0.000000 0
22.851563 0.392670 0
23.150426 0.296415 0
22.768051 0.730954 0
22.303486 0.420372 0
22.571487 0.287070 0
21.890245 0.858563 0
22.265625 0.000000 0
22.208986 0.745205 0
21.093750 2.000000 0
22.153204 1.167588 0
21.842835 1.165299 0
21.545835 0.962362 0
21.093750 0.000000 0
21.574669 0.434750 0
21.940327 0.490885 0
21.484375 0.000000 0
21.162070 1.501995 0
21.374500 1.261337 0
21.484375 2.000000 0
20.703125 2.000000 0
20.421283 1.211915 0
20.507813 1.625409 0
20.794555 1.349603 0
20.868110 1.691568 0
21.447393 1.670635 0
21.072917 0.506416 0
21.294596 0.266167 0
21.354751 0.687325 0
20.732850 0.846004 0
21.008260 0.781735 0
20.907296 1.080209 0
20.107617 0.629230 0
20.607797 0.380708 0
20.377993 0.859451 0
20.703125 0.000000 0
20.804191 0.577378 0
20.273370 0.335230 0
19.531250 0.000000 0
19.921875 0.000000 0
19.726563 0.399684 0
19.989743 0.280728 0
19.531250 2.000000 0
19.140625 0.438449 0
19.512755 1.185666 0
19.963951 1.071832 0
19.425661 0.299161 0
19.140625 0.000000 0
19.656062 0.802578 0
19.228472 0.860972 0
19.987708 1.592439 0
19.411961 0.609864 0
18.932696 1.406735 0
20.136586 1.324800 0
20.240451 1.724220 0
19.791785 1.340534 0
19.468588 1.594046 0
19.921875 2.000000 0
19.140625 2.000000 0
19.248434 1.363658 0
19.728663 1.759693 0
18.945313 1.735383 0
17.187500 0.000000 0
18.326904 0.770179 0
18.786048 0.732563 0
18.932688 1.053701 0
17.187500 2.000000 0
18.480829 1.230228 0
17.968750 2.000000 0
18.540803 1.641204 0
18.359375 2.000000 0
18.055085 1.502220 0
17.968750 0.000000 0
18.780966 0.365645 0
18.359375 0.000000 0
18.164063 0.377540 0
18.572247 0.943867 0
18.099236 1.102128 0
17.315489 1.218122 0
17.722595 1.263047 0
17.578125 2.000000 0
17.585129 0.641714 0
17.382813 1.630557 0
17.947672 0.754129 0
17.548268 0.975742 0
17.726857 1.607816 0
18.471078 0.297077 0
17.792779 0.330326 0
17.578125 0.000000 0
17.382813 0.323027 0
17.063801 0.749112 0
18.542213 0.577274 0
16.406250 2.000000 0
16.796875 1.557140 0
17.106112 1.464012 0
16.834290 1.121397 0
17.102954 1.030138 0
16.406250 0.000000 0
16.448090 0.626420 0
16.733151 0.802158 0
16.796875 2.000000 0
16.061341 1.302067 0
16.389102 1.041169 0
16.429554 1.428317 0
16.533898 1.718887 0
16.796875 0.000000 0
16.839334 0.406983 0
17.126277 0.463422 0
16.525881 0.306617 0
16.015625 0.000000 0
15.820313 0.597331 0
16.144794 0.383281 0
15.820313 0.266734 0
16.125847 0.792158 0
14.062500 2.000000 0
14.062500 0.000000 0
14.843750 0.000000 0
15.234375 0.458321 0
15.234375 0.000000 0
15.381907 1.140856 0
14.453125 0.728552 0
15.471234 0.764336 0
15.766295 1.033193 0
15.648566 1.529369 0
16.015625 2.000000 0
16.145047 1.658013 0
14.790906 0.440663 0
14.996014 0.867056 0
14.453125 0.000000 0
14.257813 0.364276 0
14.541629 0.281951 0
13.350169 1.085422 0
13.869318 0.807072 0
14.146513 0.658449 0
14.843750 2.000000 0
14.742804 0.726329 0
14.887278 1.429146 0
14.600990 1.121739 0
14.395607 1.600025 0
14.603763 1.406170 0
15.234375 2.000000 0
15.039063 1.727806 0
15.366700 1.698880 0
15.069181 1.172772 0
13.281250 0.000000 0
14.453125 2.000000 0
13.281250 2.000000 0
13.848684 1.391894 0
13.390824 0.537942 0
13.688681 1.093473 0
14.172308 1.110537 0
14.152935 1.415052 0
13.408219 1.549682 0
13.671875 2.000000 0
13.867188 1.727031 0
12.890625 2.000000 0
12.695313 1.329121 0
12.695313 1.692991 0
13.029597 1.511056 0
13.004686 1.158756 0
12.535942 0.673629 0
12.704523 0.979762 0
12.968046 0.635162 0
12.890625 0.000000 0
13.085938 0.298493 0
12.695313 0.327353 0
13.228785 0.801158 0
13.671875 0.000000 0
13.844333 0.375979 0
13.476563 0.240347 0
10.937500 0.000000 0
10.937500 2.000000 0
11.718750 0.000000 0
11.718750 2.000000 0
12.109375 1.535861 0
12.213435 1.050710 0
12.430064 1.511056 0
11.258766 1.099678 0
11.975629 0.520865 0
12.311372 0.334486 0
12.109375 0.000000 0
11.914063 0.227452 0
11.742681 1.203473 0
12.219698 0.729611 0
11.886919 0.871644 0
11.420929 0.567192 0
12.022307 1.263451 0
11.716069 1.601297 0
11.328125 2.000000 0
11.132813 1.562214 0
10.156250 2.000000 0
11.436848 1.396589 0
10.338014 1.097364 0
10.798078 1.222645 0
10.715723 1.638596 0
10.721986 0.594696 0
10.546875 2.000000 0
10.507786 1.381298 0
9.991589 1.497223 0
10.351563 1.701754 0
10.632272 0.924152 0
10.992220 0.845227 0
11.539672 0.894289 0
9.765625 2.000000 0
9.580399 0.790986 0
9.906799 1.073769 0
9.395987 1.396267 0
9.570313 1.704558 0
10.156250 0.000000 0
9.579735 1.121517 0
10.150912 0.564620 0
10.134218 0.869711 0
9.765625 0.000000 0
9.960938 0.280489 0
9.825507 0.576616 0
9.455778 0.401186 0
7.812500 2.000000 0
7.812500 0.000000 0
8.593750 0.000000 0
8.984375 0.000000 0
8.722297 0.850504 0
9.160688 0.955409 0
8.789063 0.405446 0
9.121862 0.315997 0
9.219333 0.630963 0
8.161249 0.538802 0
8.932742 0.654537 0
8.443317 0.322233 0
8.468352 0.646812 0
8.136025 1.321273 0
8.376967 1.020888 0
8.203125 0.000000 0
8.593750 2.000000 0
8.007813 0.255848 0
7.031250 0.798874 0
7.031250 0.000000 0
7.594872 0.662852 0
8.798952 1.441012 0
7.948357 0.923920 0
8.473929 1.345486 0
8.555459 1.668785 0
8.203125 2.000000 0
8.212007 1.656442 0
8.887327 1.129310 0
7.031250 2.000000 0
7.441092 1.406493 0
7.813896 1.570496 0
7.746002 1.219108 0
10.546875 0.000000 0
10.742188 0.265619 0
11.117010 0.336613 0
10.396148 0.315449 0
11.328125 0.000000 0
11.523438 0.259231 0
7.233076 0.399437 0
7.421875 0.000000 0
7.617188 0.303027 0
7.379468 1.006029 0
12.109375 2.000000 0
8.984375 2.000000 0
9.179688 1.690979 0
7.421875 2.000000 0
7.226563 1.696611 0
7.536937 1.711364 0
6.640625 1.533965 0
6.908329 1.706305 0
6.640625 2.000000 0
7.004701 1.262516 0
4.687500 0.000000 0
4.687500 2.000000 0
5.530264 1.000000 0
6.017457 1.408359 0
6.294838 1.640856 0
5.468750 2.000000 0
6.185754 0.712770 0
6.583046 1.005790 0
6.356298 1.285818 0
6.081497 1.055699 0
6.632179 0.523330 0
6.862292 1.021780 0
6.464974 0.750034 0
6.301113 0.363887 0
5.468750 0.000000 0
5.859375 0.000000 0
5.664063 0.489878 0
5.987920 0.453843 0
5.841925 0.795552 0
6.902594 0.315714 0
6.640625 0.000000 0
5.003123 0.589130 0
5.305009 0.349157 0
5.379383 0.687818 0
5.078125 0.000000 0
4.882813 0.274474 0
3.895366 0.832359 0
3.906250 0.000000 0
4.430981 0.627563 0
4.761895 1.275904 0
5.101767 1.014545 0
5.332392 1.489720 0
4.730442 0.883338 0
4.297169 1.115595 0
5.322589 1.200924 0
4.200135 0.826629 0
4.040015 0.418000 0
3.906250 2.000000 0
3.471514 0.451969 0
4.296875 0.000000 0
4.492188 0.286373 0
4.388894 1.603451 0
3.783785 1.417270 0
3.515625 0.000000 0
3.762856 0.553674 0
3.710938 0.244822 0
4.482054 1.333385 0
4.751967 1.640754 0
5.016197 1.465383 0
5.078125 2.000000 0
4.296875 2.000000 0
3.972117 1.150099 0
5.661732 1.337955 0
5.859375 2.000000 0
5.664063 1.697783 0
5.993333 1.718853 0
2.000000 0.000000 0
1.562500 2.000000 0
3.336424 1.028830 0
3.294968 1.528403 0
2.809017 0.601073 0
3.498672 1.293800 0
3.515625 2.000000 0
3.710938 1.736813 0
4.044949 1.644884 0
2.343750 2.000000 0
3.105829 0.373514 0
3.227253 0.699016 0
2.735697 1.230487 0
2.980355 0.963715 0
3.064745 1.286685 0
2.734375 2.000000 0
2.839277 1.615423 0
2.378348 1.533048 0
3.095997 1.723120 0
1.953125 2.000000 0
2.095745 0.836962 0
2.351191 1.138664 0
2.471753 0.777594 0
2.562500 0.000000 0
2.219266 0.398874 0
2.843750 0.000000 0
2.281250 0.000000 0
2.565628 0.349806 0
1.750621 1.382488 0
2.012638 1.166319 0
1.757813 1.722090 0
2.043282 1.546167 0
0.000000 1.000000 0
1.000000 2.000000 0
1.269442 1.562555 0
1.281250 2.000000 0
0.567871 1.432129 0
1.000000 0.000000 0
0.893494 1.632695 0
0.500000 2.000000 0
1.244283 0.762385 0
1.661014 0.902429 0
1.001779 1.170490 0
1.407362 1.198168 0
1.500000 0.000000 0
0.576390 0.641613 0
1.750000 0.397132 0
0.887796 0.826656 0
0.552328 1.036657 0
0.924303 0.410668 0
0.000000 1.500000 0
0.000000 0.500000 0
0.500000 0.000000 0
1.250000 0.258392 0
0.261044 1.246147 0
0.289169 0.822373 0
0.750000 0.000000 0
0.608490 0.312437 0
0.258806 0.258806 0
1.983999 0.568997 0
1.524720 0.617943 0
0.310625 1.689375 0
114.843750 1.162414 0
114.261799 0.946059 0
114.150162 1.440443 0
113.940172 0.991058 0
114.478236 1.254729 0
114.843750 2.000000 0
114.453125 2.000000 0
114.755106 1.581207 0
114.257813 1.743953 0
115.336903 1.485576 0
114.467740 1.544269 0
115.234375 2.000000 0
115.429688 1.771498 0
115.027376 1.420059 0
115.039063 1.742801 0
115.472290 0.741108 0
115.259577 1.086969 0
117.187500 2.000000 0
117.187500 0.000000 0
116.406250 2.000000 0
116.027033 1.419636 0
115.774733 1.674293 0
115.659381 1.216214 0
116.015625 2.000000 0
116.210938 1.713545 0
116.933911 1.056675 0
116.736117 1.565276 0
116.449632 1.161101 0
116.726225 1.268668 0
116.428448 1.479736 0
116.406250 0.000000 0
116.576647 0.574994 0
116.646050 0.896851 0
117.257735 1.475371 0
116.796875 2.000000 0
116.027191 0.796985 0
115.959197 1.108293 0
117.029944 1.711891 0
117.968750 0.000000 0
117.968750 2.000000 0
115.784964 0.419249 0
116.015625 0.000000 0
116.210938 0.370626 0
117.715335 0.786886 0
117.578125 2.000000 0
117.382813 1.759132 0
117.859997 1.379350 0
117.773438 1.714370 0
117.370207 1.053812 0
117.148740 0.549465 0
117.687562 1.107560 0
117.150708 0.849399 0
116.796875 0.000000 0
116.992188 0.262322 0
116.601563 0.254865 0
117.578125 0.000000 0
117.773438 0.371349 0
117.382813 0.289877 0
117.462019 0.596625 0
118.359375 0.442488 0
118.040473 0.620518 0
118.079932 0.295514 0
118.359375 0.000000 0
118.539694 1.140127 0
118.358149 0.814928 0
118.065298 1.058503 0
120.312500 0.000000 0
119.046193 0.644095 0
118.725424 0.823167 0
118.747383 0.391354 0
114.158463 0.473806 0
113.912584 0.276985 0
114.843750 0.000000 0
114.722456 0.597829 0
115.083797 0.740517 0
115.029588 0.348924 0
115.234375 0.000000 0
115.411518 0.338524 0
113.920971 0.678267 0
114.453125 0.000000 0
114.648438 0.271592 0
114.411879 0.665787 0
114.594039 0.943472 0
118.359375 2.000000 0
118.172830 1.638869 0
118.264217 1.321792 0
118.628255 1.574122 0
120.312500 2.000000 0
119.181889 1.263995 0
118.875812 1.124187 0
119.531250 2.000000 0
119.140625 2.000000 0
119.335938 1.641791 0
118.975439 1.677581 0
120.082365 1.117127 0
119.857119 1.589969 0
119.567799 1.326944 0
119.442256 0.882199 0
119.134475 0.945705 0
119.531250 0.000000 0
119.140625 0.000000 0
119.335938 0.357605 0
119.036751 0.288872 0
119.921875 0.445486 0
119.644997 0.294264 0
119.921875 0.000000 0
119.749093 1.035676 0
119.721574 0.707233 0
120.328433 1.524416 0
119.921875 2.000000 0
120.071172 1.401866 0
121.093750 0.000000 0
121.093750 2.000000 0
120.120358 1.755504 0
120.939843 0.877050 0
120.703125 2.000000 0
120.544388 1.115968 0
120.898438 1.508662 0
120.312350 0.707176 0
120.610553 1.412265 0
120.858332 1.188870 0
121.656637 1.230987 0
121.252636 1.301831 0
121.484375 2.000000 0
121.226012 1.662936 0
121.679688 1.639950 0
120.016972 0.810954 0
120.266398 0.353578 0
120.703125 0.000000 0
120.711816 0.475478 0
120.623785 0.800650 0
120.536635 0.240862 0
121.190747 0.469050 0
120.948628 0.274565 0
121.484375 0.000000 0
121.388278 0.871672 0
121.695199 0.471327 0
121.442408 0.595349 0
121.783185 0.856602 0
123.437500 2.000000 0
123.437500 0.000000 0
122.656250 2.000000 0
122.323348 1.398540 0
122.057342 1.668087 0
122.031612 1.149154 0
122.265625 2.000000 0
122.656250 0.000000 0
122.460938 1.715244 0
123.130434 1.236148 0
122.900954 1.622799 0
122.320653 0.531176 0
121.998012 0.604858 0
122.265625 0.000000 0
122.441933 0.964485 0
122.460938 0.248205 0
122.070313 0.275216 0
123.313478 1.606211 0
124.257542 0.908949 0
123.723219 1.173241 0
123.438437 1.314102 0
124.218750 2.000000 0
123.828125 2.000000 0
123.751949 1.589631 0
124.144824 1.353337 0
123.046875 2.000000 0
122.152033 0.868535 0
122.724500 1.256648 0
124.011069 1.082921 0
124.218750 0.000000 0
123.789236 0.507059 0
124.858794 1.297945 0
124.078871 1.688434 0
124.523239 1.601855 0
124.492451 1.205023 0
124.880265 1.658854 0
124.609375 2.000000 0
123.828125 0.000000 0
124.241070 0.454350 0
124.039481 0.689253 0
123.990276 0.267457 0
124.609375 0.000000 0
124.845027 0.660063 0
124.744147 0.981330 0
124.804688 0.302368 0
124.558708 0.511231 0
124.522881 0.796987 0
123.384228 0.803286 0
122.969607 0.447529 0
122.908495 0.870701 0
122.627251 0.678989 0
123.719354 0.836496 0
123.400810 0.400976 0
123.653038 0.241592 0
123.046875 0.000000 0
126.562500 2.000000 0
126.562500 0.000000 0
125.781250 2.000000 0
125.390625 2.000000 0
125.585938 1.299576 0
125.223065 0.986976 0
125.585938 1.677019 0
125.222010 1.457430 0
126.190045 1.488298 0
125.195313 1.763212 0
125.922741 1.693893 0
126.171875 2.000000 0
125.781250 0.000000 0
125.812883 0.669219 0
125.578782 0.940968 0
126.009313 1.075144 0
125.330697 0.480476 0
125.895089 1.371218 0
126.439384 0.616540 0
125.137339 0.704073 0
126.501642 1.105884 0
126.136253 0.763227 0
126.171875 0.000000 0
126.138288 0.380877 0
126.446412 0.297381 0
127.343750 0.000000 0
127.001318 0.469257 0
126.649992 1.544916 0
125.806445 0.334166 0
126.793027 0.820179 0
127.709745 1.127023 0
127.284514 0.874627 0
126.393558 1.731568 0
127.343750 2.000000 0
127.464215 0.447478 0
126.995649 1.236652 0
126.953125 2.000000 0
127.148438 1.628022 0
126.876531 1.722518 0
127.373110 1.314803 0
127.734375 2.000000 0
127.539063 1.665141 0
126.953125 0.000000 0
127.734375 0.000000 0
127.633976 0.770270 0
127.929688 0.417136 0
127.224007 0.272190 0
126.763109 0.256618 0
127.686800 0.276569 0
129.687500 2.000000 0
129.687500 0.000000 0
128.906250 0.000000 0
128.515625 0.437192 0
128.226940 0.302023 0
128.515625 0.000000 0
125.390625 0.000000 0
125.523430 0.260540 0
128.011341 1.518813 0
127.724327 1.427776 0
128.291585 0.991104 0
128.191897 0.652884 0
127.964382 0.903744 0
129.296875 0.742123 0
128.963130 0.443927 0
129.296875 0.000000 0
129.492188 0.371061 0
129.210435 0.282432 0
130.468750 0.000000 0
130.303192 1.034876 0
130.078125 0.442543 0
129.798737 0.295484 0
130.078125 0.000000 0
129.744415 0.740758 0
128.814051 0.946642 0
130.080195 0.780682 0
129.522537 1.361637 0
129.867810 1.134939 0
130.468750 2.000000 0
129.924890 1.598159 0
128.736224 0.650100 0
128.906250 2.000000 0
129.521468 1.011170 0
129.148728 1.187542 0
129.296875 2.000000 0
128.677478 1.489310 0
129.101563 1.615878 0
129.492188 1.709976 0
128.853303 1.245040 0
130.143238 1.336126 0
130.735460 1.457487 0
130.078125 2.000000 0
130.286596 1.677574 0
128.515625 2.000000 0
130.658331 0.561010 0
128.351628 1.667031 0
128.295397 1.331396 0
130.402280 0.334999 0
130.859375 0.000000 0
131.054688 0.386521 0
132.812500 2.000000 0
132.812500 0.000000 0
131.077818 0.976475 0
132.031250 0.000000 0
130.949967 0.686057 0
130.688167 0.974661 0
131.640625 0.439993 0
131.339754 0.687811 0
132.031250 2.000000 0
131.740708 1.314813 0
131.455165 1.055710 0
131.898907 0.853580 0
131.297854 1.515964 0
131.358238 0.297301 0
131.640625 0.000000 0
132.090826 0.446286 0
132.495001 1.315783 0
131.640625 2.000000 0
131.835938 1.678626 0
131.531689 1.713758 0
132.117732 1.410495 0
132.226798 1.046192 0
132.421875 2.000000 0
132.841229 0.703130 0
132.226563 1.727557 0
132.617188 1.674858 0
132.582150 0.960875 0
133.593750 2.000000 0
132.333210 0.706711 0
133.203125 1.544119 0
132.421875 0.000000 0
132.931921 1.707031 0
133.203125 2.000000 0
132.913417 1.230374 0
132.617188 0.360132 0
132.333956 0.280710 0
130.859375 2.000000 0
130.664063 1.759203 0
130.999746 1.686536 0
131.868441 0.248854 0
131.035191 1.308477 0
133.593750 0.000000 0
133.984375 1.269995 0
133.457462 1.018639 0
133.227043 1.231405 0
133.131156 0.896411 0
133.597236 1.416991 0
133.256883 0.393726 0
133.984375 2.000000 0
133.473472 1.707766 0
132.936005 0.396555 0
133.901489 1.634997 0
134.348595 1.544615 0
135.937500 0.000000 0
135.937500 2.000000 0
134.641664 0.777092 0
135.156250 2.000000 0
134.384235 1.118510 0
134.765625 2.000000 0
134.001772 0.562375 0
135.026381 1.334927 0
134.960938 1.692923 0
134.634814 1.701148 0
134.285865 0.776580 0
133.958444 0.915333 0
134.353810 0.390973 0
134.741286 1.119966 0
133.203125 0.000000 0
133.649553 0.388717 0
133.984375 0.000000 0
133.456827 0.674196 0
134.081283 0.278459 0
135.156250 0.000000 0
134.765625 0.000000 0
134.960938 0.429589 0
135.152777 0.870756 0
134.653719 0.467747 0
135.546875 0.436791 0
134.917996 0.710556 0
135.760691 1.285589 0
135.424283 1.613869 0
135.252284 0.565192 0
135.385005 1.183288 0
135.676010 0.855591 0
135.794156 1.656391 0
136.718750 2.000000 0
136.328125 2.000000 0
136.523438 1.262316 0
136.523438 1.657014 0
136.147058 1.437630 0
137.141262 1.459665 0
136.150458 0.953248 0
136.132813 1.752551 0
136.872854 1.685143 0
137.109375 2.000000 0
137.304688 1.740418 0
139.062500 2.000000 0
139.062500 0.000000 0
138.281250 1.208910 0
138.281250 2.000000 0
137.707654 1.317912 0
135.546875 2.000000 0
136.718750 0.000000 0
136.719308 0.646355 0
136.496900 0.914754 0
136.934353 1.050900 0
136.833001 1.358952 0
137.325307 0.583651 0
137.351327 1.096585 0
137.167487 0.848784 0
135.546875 0.000000 0
136.033542 0.478956 0
136.371162 0.584213 0
136.597355 0.323282 0
137.109375 0.000000 0
136.328125 0.000000 0
136.980606 0.363167 0
137.304688 0.259510 0
135.806011 0.275474 0
135.944512 0.752458 0
138.059262 1.604455 0
138.003941 1.313343 0
137.847513 0.778405 0
138.281250 0.000000 0
137.719773 0.368659 0
137.649010 1.014827 0
137.890625 2.000000 0
137.695313 1.686808 0
137.890625 0.000000 0
138.175787 0.451279 0
138.671875 0.000000 0
138.226438 0.830384 0
138.736456 0.569306 0
138.618150 0.966894 0
138.435226 0.609552 0
138.867188 0.266160 0
139.843750 0.000000 0
139.517124 0.726206 0
139.143414 0.565044 0
138.758978 1.518435 0
138.476563 0.274887 0
139.453125 0.000000 0
139.135045 1.098320 0
138.580666 1.270215 0
139.648438 0.348711 0
139.257813 0.260347 0
138.925103 0.841836 0
139.249287 0.833409 0
140.234375 0.447841 0
139.899235 0.647538 0
139.959105 0.293663 0
140.234375 0.000000 0
140.464522 1.215154 0
139.843750 2.000000 0
140.253130 0.860387 0
142.187500 0.000000 0
139.831209 1.352158 0
140.983544 0.665524 0
140.124835 1.177197 0
140.234375 2.000000 0
140.171664 1.589656 0
139.770736 0.990726 0
140.646002 0.866653 0
139.858596 1.675670 0
139.453125 2.000000 0
139.483366 1.224582 0
140.635523 0.465264 0
139.257813 1.604084 0
138.421393 1.661284 0
138.671875 2.000000 0
140.573064 1.601790 0
142.187500 2.000000 0
141.406250 2.000000 0
141.124139 1.285280 0
141.015625 2.000000 0
140.785465 1.333608 0
141.000854 1.632159 0
140.953111 0.998253 0
139.550336 1.705910 0
138.982132 1.714220 0
139.037853 1.389694 0
141.841933 0.796619 0
141.403613 0.924284 0
141.797590 1.460660 0
141.406677 1.581046 0
141.519378 1.252132 0
142.739842 1.190080 0
141.796875 2.000000 0
141.666591 1.730157 0
142.317537 1.495381 0
142.043158 1.693740 0
142.079735 1.146000 0
141.779762 1.094554 0
142.444929 0.641816 0
142.409164 1.177397 0
142.171362 0.828016 0
141.406250 0.000000 0
142.088517 0.412236 0
141.398569 0.462124 0
141.796875 0.000000 0
141.745441 0.463435 0
142.968750 0.000000 0
143.100821 0.642458 0
142.578125 0.000000 0
142.773438 0.374955 0
142.412703 0.300399 0
142.772702 0.818955 0
143.359375 0.000000 0
143.554688 0.451859 0
143.164063 0.294653 0
145.312500 2.000000 0
145.312500 0.000000 0
143.614791 1.230667 0
144.531250 0.000000 0
143.455452 0.851240 0
143.178223 1.190832 0
144.140625 0.436985 0
143.936148 0.872544 0
142.968750 2.000000 0
143.844215 0.308864 0
144.923950 1.070500 0
144.531250 2.000000 0
142.958389 1.565620 0
144.454390 0.850061 0
144.215091 1.446094 0
143.359375 2.000000 0
143.554688 1.637778 0
143.865663 1.475696 0
144.017234 1.187714 0
143.244147 1.704100 0
142.578125 2.000000 0
142.641448 1.498703 0
144.189384 0.725652 0
144.140625 0.000000 0
144.575334 0.432491 0
144.921875 0.000000 0
144.800140 0.723903 0
145.117188 0.405032 0
144.839697 0.289235 0
146.093750 0.000000 0
145.703125 0.437973 0
145.416987 0.299993 0
145.703125 0.000000 0
144.558780 1.238026 0
144.948664 1.606130 0
144.554816 1.619367 0
144.298490 1.100036 0
145.386404 0.843997 0
145.107847 0.712798 0
146.484375 0.741580 0
144.921875 2.000000 0
145.530571 1.433577 0
146.150485 0.443786 0
146.484375 0.000000 0
146.679688 0.370790 0
146.397861 0.282406 0
148.437500 2.000000 0
148.437500 0.000000 0
147.591304 1.087816 0
147.069640 0.813031 0
146.790591 0.666043 0
147.656250 0.000000 0
147.126882 0.369513 0
145.954664 0.999420 0
147.265625 0.000000 0
147.492829 0.642197 0
145.923747 0.676200 0
147.353517 0.906673 0
147.656250 2.000000 0
147.028228 1.415684 0
146.734318 1.096368 0
147.467772 0.293929 0
148.231367 0.712682 0
147.884858 0.438956 0
146.093750 2.000000 0
146.336632 1.111098 0
146.019444 1.486908 0
147.864694 0.820668 0
148.226765 1.373582 0
148.129242 1.042437 0
148.046875 0.000000 0
148.250637 0.332104 0
145.795917 1.268563 0
146.533728 1.599210 0
145.703125 2.000000 0
145.507813 1.750005 0
145.898438 1.766359 0
146.306249 1.407215 0
146.736964 1.388853 0
145.182419 1.326960 0
146.484375 2.000000 0
144.140625 2.000000 0
143.945313 1.768177 0
144.280824 1.736889 0
147.485612 1.553745 0
147.321274 1.271515 0
147.837971 1.388723 0
148.046875 2.000000 0
147.851563 1.725413 0
148.242188 1.717049 0
147.265625 2.000000 0
147.070313 1.738969 0
149.338035 1.050854 0
149.218750 0.000000 0
148.867821 0.554130 0
148.673033 1.062223 0
149.218750 2.000000 0
148.745098 1.578790 0
148.525527 0.536799 0
149.002811 0.897266 0
149.023562 1.294601 0
149.473145 1.549903 0
149.104086 1.652024 0
148.538124 1.344354 0
148.828125 2.000000 0
151.562500 2.000000 0
149.609375 2.000000 0
150.363580 1.041017 0
149.852089 1.179496 0
149.559117 1.258814 0
149.732620 0.565492 0
149.324832 0.637047 0
149.609375 0.000000 0
149.804688 0.253609 0
151.562500 0.000000 0
150.781250 0.000000 0
150.341246 0.464817 0
149.414063 0.294832 0
149.082861 0.302129 0
148.828125 0.000000 0
148.632813 0.243589 0
150.781250 2.000000 0
149.889105 1.596407 0
150.175683 1.360864 0
150.710925 1.460183 0
149.648803 0.900425 0
150.035964 0.819358 0
150.390625 0.000000 0
151.081267 0.724666 0
150.390625 2.000000 0
150.216640 1.702801 0
150.585938 1.750955 0
151.171875 2.000000 0
150.976563 1.700066 0
151.162862 1.226745 0
150.659900 0.740999 0
150.704313 0.367836 0
150.881513 1.014799 0
150.629932 1.173801 0
152.024647 0.829021 0
151.400745 1.593700 0
151.657737 1.166520 0
151.378345 0.934056 0
151.483387 0.469584 0
151.171875 0.000000 0
152.343750 2.000000 0
152.343750 0.000000 0
151.681500 0.758502 0
151.133976 0.363259 0
152.216444 1.405723 0
151.953125 0.000000 0
151.929968 0.419594 0
152.447042 0.515683 0
152.167567 0.580311 0
151.953125 2.000000 0
152.148438 1.731066 0
151.774175 1.664649 0
151.990875 1.160498 0
151.686273 0.262309 0
152.734375 0.000000 0
152.929688 0.446717 0
152.539063 0.229065 0
154.687500 2.000000 0
154.687500 0.000000 0
152.773227 1.075086 0
152.373047 1.035317 0
152.598270 0.802303 0
153.906250 0.000000 0
153.515625 0.436844 0
153.220398 0.307765 0
153.229620 0.855062 0
152.918938 0.768937 0
153.515625 0.000000 0
154.296875 0.742366 0
153.226540 1.432029 0
153.963195 0.443990 0
154.296875 0.000000 0
154.492188 0.371183 0
154.210468 0.282444 0
155.468750 0.000000 0
155.303308 1.034963 0
155.078125 0.442520 0
154.798713 0.295497 0
155.078125 0.000000 0
154.744485 0.740916 0
153.782575 0.981750 0
155.080324 0.780700 0
154.522688 1.361709 0
154.868067 1.135088 0
155.468750 2.000000 0
154.924945 1.598267 0
153.735795 0.666825 0
154.521553 1.011286 0
154.144422 1.187721 0
153.906250 2.000000 0
153.733229 1.489269 0
154.296875 2.000000 0
154.183559 1.600822 0
154.510983 1.705155 0
155.143502 1.336346 0
155.736043 1.457476 0
155.078125 2.000000 0
155.286482 1.677800 0
153.917125 1.711643 0
152.734375 2.000000 0
152.543178 1.643800 0
152.929688 1.672021 0
152.547357 1.314605 0
152.919425 1.355739 0
155.658322 0.561008 0
153.454239 1.144753 0
153.515625 2.000000 0
153.320313 1.741856 0
155.402281 0.334994 0
155.859375 0.000000 0
156.054688 0.386526 0
157.812500 2.000000 0
157.812500 0.000000 0
156.077701 0.976252 0
157.031250 0.000000 0
155.949899 0.685928 0
155.688142 0.974446 0
156.640625 0.439993 0
156.339657 0.687646 0
157.031250 2.000000 0
156.740606 1.314758 0
156.455069 1.055588 0
156.898811 0.853580 0
156.297668 1.515880 0
156.358237 0.297302 0
156.640625 0.000000 0
157.090856 0.446312 0
157.494920 1.315797 0
156.640625 2.000000 0
156.835938 1.678583 0
156.531599 1.713698 0
157.117632 1.410370 0
157.226812 1.046068 0
157.421875 2.000000 0
157.841470 0.703216 0
157.226563 1.727471 0
157.617188 1.674851 0
157.582245 0.960883 0
158.593750 2.000000 0
157.333383 0.706622 0
158.203125 1.544122 0
157.421875 0.000000 0
157.931920 1.707031 0
158.203125 2.000000 0
157.913315 1.230541 0
157.617188 0.360251 0
157.333982 0.280722 0
155.859375 2.000000 0
155.664063 1.759120 0
155.999711 1.686589 0
156.868467 0.248876 0
156.035423 1.308133 0
158.593750 0.000000 0
158.984375 1.269993 0
158.457385 1.018425 0
158.227009 1.231337 0
158.131153 0.896528 0
158.597207 1.416910 0
158.257191 0.393951 0
158.984375 2.000000 0
158.473513 1.707732 0
157.936169 0.396470 0
158.901422 1.634996 0
159.348489 1.544671 0
160.937500 0.000000 0
160.937500 2.000000 0
159.641831 0.777143 0
160.156250 2.000000 0
159.384293 1.118535 0
159.765625 2.000000 0
159.002130 0.562404 0
160.026321 1.335029 0
159.960938 1.692983 0
159.634783 1.701129 0
159.286110 0.776632 0
158.958685 0.915331 0
159.354210 0.391023 0
159.741307 1.120021 0
158.203125 0.000000 0
158.649893 0.388704 0
158.984375 0.000000 0
158.457320 0.674119 0
159.081643 0.278412 0
160.156250 0.000000 0
159.765625 0.000000 0
159.960938 0.429543 0
160.152931 0.870783 0
159.653912 0.467959 0
160.546875 0.436792 0
159.918161 0.710547 0
160.760443 1.285853 0
160.424112 1.613963 0
160.252273 0.565167 0
160.384874 1.183427 0
160.676004 0.855702 0
160.793898 1.656581 0
161.718750 2.000000 0
161.328125 2.000000 0
161.523438 1.262043 0
161.523438 1.656868 0
161.147055 1.437839 0
162.141366 1.459456 0
161.150163 0.953674 0
161.132813 1.752668 0
161.872948 1.685077 0
162.109375 2.000000 0
162.304688 1.740340 0
164.062500 2.000000 0
164.062500 0.000000 0
163.281250 1.209069 0
163.281250 2.000000 0
162.707748 1.318054 0
160.546875 2.000000 0
161.718750 0.000000 0
161.718298 0.646065 0
161.496392 0.914677 0
161.934271 1.050451 0
161.833082 1.358619 0
162.323685 0.582609 0
162.351499 1.096125 0
162.167483 0.848581 0
160.546875 0.000000 0
161.033699 0.479096 0
161.370585 0.584778 0
161.595992 0.322947 0
162.109375 0.000000 0
161.328125 0.000000 0
161.979204 0.362601 0
162.304688 0.258876 0
160.806134 0.275584 0
160.944516 0.752562 0
163.059295 1.604534 0
163.003983 1.313472 0
162.847533 0.777051 0
163.281250 0.000000 0
162.718960 0.368313 0
162.649616 1.014474 0
162.890625 2.000000 0
162.695313 1.686883 0
162.890625 0.000000 0
163.174070 0.449744 0
163.671875 0.000000 0
163.227362 0.829448 0
163.730483 0.565244 0
163.620660 0.967254 0
163.431581 0.607194 0
163.867188 0.265409 0
164.843750 0.000000 0
164.521873 0.744983 0
164.144812 0.573068 0
163.758141 1.519325 0
163.476563 0.273851 0
164.453125 0.000000 0
164.131722 1.101241 0
163.580753 1.270345 0
164.648438 0.357640 0
164.257813 0.264392 0
163.928348 0.835304 0
164.250855 0.839945 0
165.234375 0.445478 0
164.903370 0.655288 0
164.957490 0.294267 0
165.234375 0.000000 0
165.486070 1.208571 0
164.843750 2.000000 0
165.264282 0.858669 0
167.187500 0.000000 0
164.862315 1.358701 0
165.976218 0.652645 0
165.148586 1.177246 0
165.234375 2.000000 0
165.207629 1.586939 0
164.783403 1.001191 0
165.650235 0.859272 0
164.897611 1.680641 0
164.453125 2.000000 0
164.488652 1.253714 0
165.628780 0.464968 0
164.257813 1.616714 0
163.420873 1.661618 0
163.671875 2.000000 0
165.613640 1.594086 0
167.187500 2.000000 0
166.127231 1.251345 0
165.800757 1.318303 0
165.953233 0.976838 0
166.406250 2.000000 0
166.015625 2.000000 0
166.032716 1.619902 0
164.585550 1.570231 0
163.979114 1.716103 0
164.041409 1.396490 0
166.815212 0.759417 0
166.390295 0.892201 0
166.794807 1.440390 0
166.411525 1.520648 0
166.544754 1.201566 0
167.831283 1.130655 0
166.796875 2.000000 0
166.653464 1.720721 0
167.364624 1.458121 0
167.073073 1.662710 0
167.090321 1.108452 0
166.800314 1.054097 0
167.404922 0.577548 0
167.461394 1.099783 0
167.145165 0.782287 0
166.406250 0.000000 0
167.007105 0.382526 0
166.372313 0.445636 0
166.796875 0.000000 0
166.015625 0.000000 0
165.930223 0.322355 0
166.694331 0.460574 0
167.968750 2.000000 0
167.578125 2.000000 0
167.382813 1.763954 0
167.799259 1.581260 0
168.446321 1.400806 0
168.359375 2.000000 0
168.554688 1.722436 0
168.090577 1.375523 0
168.164063 1.713981 0
167.968750 0.000000 0
168.405467 0.658629 0
168.293405 1.037011 0
170.312500 2.000000 0
170.312500 0.000000 0
169.531250 2.000000 0
169.140625 1.517631 0
168.876762 1.703303 0
169.140625 2.000000 0
168.869226 1.009009 0
168.586416 1.127884 0
168.834890 1.363469 0
168.893653 0.494574 0
169.818035 0.829448 0
168.705627 0.743443 0
168.359375 0.000000 0
168.554688 0.317259 0
168.159326 0.347737 0
167.988106 0.736180 0
167.578125 0.000000 0
167.382813 0.256172 0
167.765909 0.345713 0
169.531250 0.000000 0
169.371711 1.067605 0
167.653545 0.814834 0
169.140625 0.000000 0
169.152380 0.764656 0
169.335938 0.379416 0
169.791933 0.374171 0
169.495455 0.691773 0
169.921875 0.000000 0
170.328726 0.571782 0
170.017385 0.589632 0
170.117188 0.270914 0
169.869049 1.462354 0
171.093750 0.000000 0
169.499334 1.417483 0
169.718654 1.155967 0
169.652478 1.701225 0
169.921875 2.000000 0
170.117188 1.709391 0
170.403082 1.174081 0
170.179493 1.398667 0
170.162724 0.913210 0
170.010067 1.161501 0
170.703125 0.000000 0
170.898438 0.536357 0
170.507813 0.280578 0
170.898438 0.232617 0
170.631371 0.840158 0
171.408251 1.253812 0
171.093750 2.000000 0
171.068645 0.955271 0
171.527633 0.524746 0
171.239834 0.320961 0
171.484375 0.000000 0
171.218945 0.655579 0
171.502461 0.894931 0
171.679688 0.248055 0
173.437500 2.000000 0
172.208769 1.272151 0
173.437500 0.000000 0
172.656250 0.000000 0
172.119194 0.669710 0
171.810694 1.167652 0
171.791216 0.728617 0
172.071479 0.984685 0
171.915674 1.578199 0
170.906783 1.481826 0
170.526323 1.645357 0
170.752627 1.168053 0
170.703125 2.000000 0
170.898438 1.777655 0
171.484375 2.000000 0
171.289063 1.642948 0
171.593353 1.523328 0
171.106206 1.254973 0
173.199919 1.000000 0
172.639581 0.900215 0
172.528689 0.447900 0
172.409554 0.716859 0
172.265625 0.000000 0
172.070313 0.308159 0
173.046875 0.000000 0
173.242188 0.481820 0
172.878929 0.601784 0
172.851563 0.269819 0
172.656250 2.000000 0
172.265625 2.000000 0
172.460938 1.618598 0
172.179647 1.715262 0
172.580141 1.266837 0
172.887962 1.128614 0
173.232056 1.520587 0
172.844317 1.552438 0
173.046875 2.000000 0
174.218750 0.000000 0
174.269245 1.195273 0
173.828125 0.438842 0
174.218750 2.000000 0
173.710453 1.229769 0
173.524554 0.315785 0
173.828125 0.000000 0
174.439080 0.589395 0
173.557751 0.768375 0
173.992807 0.849643 0
173.485117 1.048379 0
174.122481 0.559250 0
174.309406 0.879789 0
175.200372 1.103497 0
174.729304 1.093540 0
173.985310 1.139003 0
174.044442 1.585115 0
174.975027 0.616474 0
174.955939 1.519509 0
173.828125 2.000000 0
173.632813 1.635735 0
174.968716 0.915039 0
174.609375 2.000000 0
174.567493 1.452906 0
174.722280 1.716207 0
174.351733 1.700070 0
174.609375 0.000000 0
174.804688 0.300831 0
174.414063 0.262868 0
141.015625 0.000000 0
140.944912 0.330127 0
141.220647 0.228041 0
176.562500 2.000000 0
175.781250 2.000000 0
175.390625 2.000000 0
175.585938 1.490112 0
175.267099 1.422519 0
175.195313 1.739826 0
176.562500 0.000000 0
176.171875 1.558020 0
175.781250 0.000000 0
176.171875 2.000000 0
175.861178 1.677032 0
177.248613 1.000000 0
175.964917 0.781930 0
176.780197 1.413989 0
175.915210 1.210825 0
175.562125 1.128293 0
176.409162 1.050744 0
176.205567 1.264645 0
176.514569 1.648753 0
175.481932 0.627647 0
176.428661 0.517029 0
176.827052 0.995011 0
176.587052 0.790030 0
175.675981 0.853310 0
175.390625 0.000000 0
175.585938 0.292052 0
176.003904 0.360237 0
175.214150 0.329354 0
175.772396 0.551481 0
176.171875 0.000000 0
176.367188 0.225279 0
176.270467 0.778463 0
177.343750 2.000000 0
177.343750 0.000000 0
176.960885 0.390689 0
177.041053 0.725423 0
177.587937 0.527757 0
176.953125 0.000000 0
177.300376 0.340438 0
177.734375 0.000000 0
177.929688 0.338388 0
179.687500 2.000000 0
179.687500 0.000000 0
178.158185 1.153814 0
177.947275 0.773188 0
178.906250 0.000000 0
178.515625 0.451023 0
178.242171 0.293189 0
178.515625 0.000000 0
177.688442 1.165358 0
178.340309 0.804150 0
179.311861 1.066410 0
178.906250 2.000000 0
178.852279 0.838243 0
177.552204 0.860111 0
177.933368 1.568741 0
177.312204 1.498476 0
177.734375 2.000000 0
177.606299 1.679363 0
177.412230 1.232421 0
178.938918 0.422962 0
179.296875 0.000000 0
179.209303 0.696050 0
179.283803 0.351889 0
179.947603 0.690984 0
179.577782 0.595670 0
179.584106 0.288895 0
178.849639 1.420498 0
178.560287 1.140988 0
178.406833 1.589370 0
178.176503 1.432108 0
178.515625 2.000000 0
178.163761 1.724571 0
178.712693 1.726392 0
176.953125 2.000000 0
177.074909 1.275454 0
178.993852 1.130018 0
179.349122 1.593784 0
177.013247 1.663738 0
179.873637 1.291722 0
179.680304 0.962995 0
179.296875 2.000000 0
179.719034 1.629690 0
180.468750 2.000000 0
180.078125 2.000000 0
180.273438 1.559953 0
180.010286 1.706522 0
180.330364 1.043035 0
180.859375 1.563255 0
180.166933 1.286630 0
180.565662 1.693618 0
180.576452 1.321874 0
180.996344 0.703289 0
180.706975 0.958670 0
180.468750 0.000000 0
181.149618 1.168592 0
180.549690 0.488821 0
181.287101 1.573757 0
182.812500 0.000000 0
180.859375 0.000000 0
181.054688 0.326944 0
180.078125 0.000000 0
182.812500 2.000000 0
182.031250 2.000000 0
181.640625 2.000000 0
182.061082 1.085218 0
181.835938 1.535753 0
182.031250 0.000000 0
181.631039 0.608989 0
181.299039 0.557520 0
181.414455 0.909546 0
181.756664 0.927829 0
181.567236 1.261661 0
179.538057 1.315432 0
180.013020 1.003961 0
180.859375 2.000000 0
180.287481 0.705559 0
180.131707 0.367941 0
182.427796 1.549997 0
181.571416 1.697675 0
182.135214 1.403787 0
182.857489 0.833906 0
182.421875 2.000000 0
183.030160 1.424483 0
182.506918 1.110509 0
182.315919 0.535194 0
182.044796 0.743624 0
181.975513 0.372951 0
181.640625 0.000000 0
181.508565 0.302491 0
182.831889 1.161921 0
182.532614 0.782616 0
182.713209 0.405846 0
182.421875 0.000000 0
182.763417 1.652519 0
183.860377 0.861216 0
183.593750 0.000000 0
183.203125 0.000000 0
183.398438 0.532349 0
183.398438 0.230346 0
183.072023 0.381347 0
183.844870 0.394136 0
183.674393 0.633594 0
183.387542 1.057764 0
183.984375 0.000000 0
184.416169 0.608966 0
184.086005 0.619928 0
184.241142 0.314924 0
183.593750 2.000000 0
183.187990 0.790806 0
183.501655 1.526473 0
183.203125 2.000000 0
183.297841 1.327848 0
183.733036 1.221895 0
183.984375 2.000000 0
183.908034 1.595014 0
183.221510 1.680725 0
185.937500 0.000000 0
184.348355 1.197971 0
184.044333 1.303490 0
184.317722 1.600446 0
185.937500 2.000000 0
185.156250 2.000000 0
184.765625 2.000000 0
184.960938 1.388825 0
184.960938 1.725620 0
184.632431 1.698483 0
184.631330 1.368235 0
184.825839 0.902995 0
184.505005 0.917600 0
185.156250 0.000000 0
185.751829 0.907195 0
184.871050 0.407591 0
184.765625 0.000000 0
184.569716 0.268674 0
184.702808 0.642002 0
185.411018 0.481842 0
185.160074 0.306251 0
185.108810 0.679054 0
185.546875 0.000000 0
185.874489 0.459702 0
185.650787 0.638942 0
185.633860 0.284599 0
186.718750 0.000000 0
186.671749 0.918791 0
186.328125 0.000000 0
186.523438 0.450606 0
187.109375 0.436946 0
186.213132 0.806488 0
186.197131 0.324410 0
186.820378 0.614125 0
186.718750 2.000000 0
186.103170 1.409677 0
186.032321 1.085144 0
186.397179 1.175492 0
186.911115 1.450012 0
187.249860 0.990372 0
186.498435 1.604263 0
186.700921 1.225185 0
186.328125 2.000000 0
186.132813 1.736404 0
187.109375 0.000000 0
187.109375 2.000000 0
186.914063 1.759678 0
187.433825 1.480594 0
187.304688 1.760966 0
189.062500 0.000000 0
187.182416 1.295311 0
187.708436 0.579420 0
189.062500 2.000000 0
187.371630 0.664917 0
187.431191 0.331566 0
187.746766 1.083528 0
187.470118 1.187345 0
188.589260 0.765958 0
188.121565 0.801519 0
188.281250 0.000000 0
188.281250 2.000000 0
188.328214 0.426023 0
188.271889 1.391369 0
188.017571 0.499677 0
188.671875 0.000000 0
188.867188 0.408500 0
188.073592 1.127825 0
188.420203 1.073399 0
187.859196 1.495517 0
189.133052 1.265182 0
188.713537 1.403796 0
188.593511 0.288409 0
187.890625 2.000000 0
187.638428 1.718445 0
189.035244 0.825941 0
189.019302 1.625057 0
189.843750 2.000000 0
188.671875 2.000000 0
189.453125 2.000000 0
188.476563 1.692608 0
189.648438 1.477807 0
189.648438 1.775429 0
189.327586 1.524586 0
188.129769 1.697942 0
188.776675 1.060468 0
189.569827 0.937414 0
189.277332 1.002545 0
189.843750 0.000000 0
189.410818 0.417480 0
189.136864 0.542481 0
187.890625 0.000000 0
187.735907 0.269705 0
190.234375 1.556275 0
189.453125 0.000000 0
189.945134 0.538354 0
190.234375 2.000000 0
189.990269 1.152167 0
189.950087 1.452221 0
189.703926 1.193821 0
189.878618 0.851811 0
190.879218 0.890970 0
190.380293 0.836253 0
189.421618 1.252094 0
190.357114 1.206352 0
189.643431 0.630622 0
189.366245 0.723921 0
189.717667 0.302468 0
190.234375 0.000000 0
190.429688 0.396777 0
190.039063 0.241942 0
192.187500 0.000000 0
190.653788 0.644478 0
190.225021 0.596288 0
185.323542 1.094080 0
185.680986 1.331844 0
185.378951 1.634770 0
185.389985 0.796639 0
185.033016 1.107082 0
185.250584 1.374741 0
185.546875 2.000000 0
185.742188 1.691666 0
192.187500 2.000000 0
191.406250 2.000000 0
190.874869 1.473625 0
190.548833 1.470087 0
191.683887 1.188319 0
191.015625 2.000000 0
190.820313 1.770221 0
191.210938 1.665765 0
191.241232 1.222804 0
191.653592 1.631280 0
190.944806 1.182803 0
192.176825 1.444548 0
191.796875 2.000000 0
191.992188 1.725925 0
191.874509 1.423872 0
192.238982 0.722694 0
192.968750 2.000000 0
192.058078 1.070720 0
192.578125 2.000000 0
192.382813 1.718418 0
193.032810 1.116277 0
192.621672 1.324362 0
192.413320 1.034345 0
192.773438 1.673366 0
191.406250 0.000000 0
191.128229 0.436905 0
191.430536 0.794510 0
191.832431 0.732399 0
191.574153 0.392494 0
192.027281 0.374594 0
191.796875 0.000000 0
191.171168 0.935853 0
191.015625 0.000000 0
190.792442 0.315403 0
192.968750 0.000000 0
193.359375 1.584132 0
193.079128 1.712288 0
193.359375 2.000000 0
193.880584 0.872428 0
195.312500 2.000000 0
193.498365 1.139217 0
193.256711 1.307893 0
193.294486 0.541283 0
192.766745 0.632050 0
192.578125 0.000000 0
192.773438 0.285883 0
192.400455 0.331042 0
194.531250 2.000000 0
193.867132 1.498587 0
193.277761 0.880712 0
193.577094 0.725335 0
193.618970 0.352041 0
193.359375 0.000000 0
193.164063 0.251117 0
193.591542 1.412493 0
192.737905 0.963107 0
194.140625 2.000000 0
195.312500 0.000000 0
194.612867 1.201383 0
194.335938 1.576560 0
194.072551 1.711837 0
194.159073 1.191634 0
194.921875 2.000000 0
195.117188 1.465337 0
195.117188 1.768343 0
194.733739 1.643217 0
195.181731 0.728255 0
196.093750 2.000000 0
194.995880 1.083348 0
195.703125 1.554299 0
195.465633 1.144426 0
195.420062 1.444572 0
196.411983 0.869826 0
195.972807 1.124297 0
195.724530 1.268155 0
195.703125 2.000000 0
195.701141 0.678847 0
196.483771 1.499931 0
195.455055 0.846721 0
195.411964 0.393729 0
196.093750 0.000000 0
195.703125 0.000000 0
195.898438 0.339997 0
196.377730 0.389231 0
196.083374 0.674540 0
196.484375 0.000000 0
196.936567 0.590920 0
196.612415 0.614023 0
196.699566 0.288134 0
196.098642 1.601685 0
196.310303 1.200553 0
196.889190 1.134599 0
198.437500 0.000000 0
196.912238 1.567794 0
198.437500 2.000000 0
197.656250 2.000000 0
197.265625 2.000000 0
197.555853 1.316341 0
197.460938 1.679481 0
197.227142 1.424399 0
197.656250 0.000000 0
197.311922 0.897532 0
197.173115 1.145451 0
197.019808 0.872078 0
197.393866 0.414154 0
197.215471 0.632547 0
197.265625 0.000000 0
197.070313 0.278318 0
198.046875 0.537669 0
197.744878 0.346342 0
198.046875 0.000000 0
197.697655 0.754886 0
198.242188 0.268835 0
200.000000 1.000000 0
199.000000 0.000000 0
196.484375 2.000000 0
196.663811 1.749749 0
198.046875 1.593434 0
197.765265 1.713803 0
198.046875 2.000000 0
198.133055 1.065552 0
197.980045 0.819556 0
197.890503 1.296930 0
198.635741 1.418594 0
198.386463 1.658098 0
198.317696 1.337048 0
198.735442 0.742233 0
198.557803 1.061576 0
198.405213 0.592642 0
198.727241 0.321044 0
199.218750 2.000000 0
199.306404 1.171926 0
198.924468 1.168549 0
199.111901 1.570014 0
200.000000 1.500000 0
198.828125 2.000000 0
199.500000 2.000000 0
199.556394 1.540630 0
198.814099 1.682109 0
199.678652 1.188635 0
200.000000 1.750000 0
199.750000 2.000000 0
194.531250 0.000000 0
194.140625 0.000000 0
194.335938 0.533185 0
194.335938 0.230820 0
193.992767 0.382002 0
194.737765 0.722072 0
194.921875 0.000000 0
195.024804 0.373761 0
194.392312 0.901306 0
194.666185 0.370655 0
199.336231 0.538110 0
199.118308 0.845465 0
200.000000 0.500000 0
199.506736 0.863744 0
199.671055 0.570249 0
199.500000 0.000000 0
198.997203 0.526462 0
199.750000 0.000000 0
199.250000 0.000000 0

CELLS 6146 24584
3 136 138 135
3 6 1224 1230
3 995 1006 1008
3 3122 3144 3146
3 2700 2686 2665
3 573 566 568
3 2719 9 2703
3 1852 1872 1871
3 878 867 874
3 340 370 359
3 1630 1628 1629
3 13 1646 1662
3 2237 109 2219
3 2476 2479 2471
3 3485 64 3466
3 2908 2913 2940
3 518 520 526
3 245 34 225
3 746 726 744
3 774 776 782
3 1408 1407 1398
3 84 1489 1504
3 2036 2042 2043
3 1781 46 1755
3 2303 2308 2296
3 100 2557 2563
3 1153 1152 1170
3 1106 1115 111
3 3100 3089 3092
3 2820 2823 2815
3 3319 123 3313
3 3358 33 3355
3 324 326 320
3 195 154 194
3 435 438 424
3 459 456 458
3 606 638 625
3 699 689 696
3 1197 1220 1202
3 844 840 841
3 1432 1429 1434
3 1575 1543 1571
3 1337 1326 1325
3 1305 1302 1261
3 1825 93 1820
3 1712 1716 1723
3 1930 1926 1927
3 1988 1985 1982
3 2487 2514 2482
3 2634 2635 2628
3 2394 2397 2389
3 2338 2358 2353
3 2180 2157 2183
3 2106 2115 106
3 3 170 171
3 1066 1064 1065
3 2905 2897 2902
3 2768 2761 2763
3 2988 2989 2990
3 3022 3032 61
3 3194 3230 3235
3 3277 3283 3271
3 3524 3527 129
3 3402 3434 126
3 222 224 220
3 152 151 146
3 286 273 274
3 69 290 296
3 412 349 383
3 393 71 392
3 505 533 548
3 492 490 466
3 673 659 670
3 731 728 730
3 621 630 76
3 582 600 601
3 858 862 845
3 774 789 779
3 922 906 921
3 941 942 944
3 1553 43 1558
3 1600 1573 1602
3 1499 1500 1502
3 1434 1457 23
3 86 1380 1396
3 1347 1377 1363
3 1237 1230 1236
3 1293 1286 1291
3 1755 1746 1754
3 1692 1682 1666
3 1789 1815 1797
3 1824 1825 1834
3 1885 1901 1909
3 1923 95 1920
3 2052 2061 2073
3 2004 2016 2001
3 2615 2614 2599
3 2646 2657 2647
3 100 2546 2557
3 2533 2525 2534
3 102 2439 2449
3 2419 2387 2418
3 2268 2295 2297
3 2348 2333 2341
3 2131 2127 2139
3 1163 1169 1152
3 2186 2187 2182
3 2239 109 2237
3 1059 57 1048
3 1114 1112 1100
3 1009 112 998
3 972 983 967
3 2760 2779 2774
3 2729 2737 2702
3 2813 2838 2844
3 117 2865 2875
3 2960 2950 2978
3 119 2972 2983
3 3114 3116 3119
3 3066 3094 3067
3 3250 3241 3248
3 3312 3308 3306
3 3212 3211 3209
3 3171 3227 3153
3 3413 3434 3402
3 3376 3378 3365
3 3466 3472 3485
3 3521 3522 3508
3 130 140 142
3 144 155 139
3 131 159 158
3 168 132 167
3 132 168 157
3 143 136 135
3 136 137 231
3 135 138 147
3 136 143 133
3 5 230 231
3 138 136 134
3 232 233 230
3 136 133 137
3 147 138 132
3 146 183 154
3 154 163 145
3 186 153 162
3 135 147 142
3 141 144 142
3 143 142 140
3 141 155 144
3 133 143 140
3 135 142 143
3 150 130 151
3 142 144 151
3 184 185 161
3 146 144 139
3 152 154 145
3 156 147 132
3 142 147 141
3 147 156 141
3 160 148 158
3 160 156 157
3 142 151 130
3 154 152 146
3 146 151 144
3 145 150 152
3 151 152 150
3 184 183 146
3 185 155 162
3 194 154 183
3 156 155 141
3 162 155 149
3 156 132 157
3 155 156 149
3 132 138 167
3 148 157 171
3 162 159 131
3 160 157 148
3 149 156 160
3 158 159 160
3 160 159 149
3 153 190 187
3 187 190 161
3 162 149 159
3 187 162 153
3 195 66 199
3 199 163 154
3 209 220 164
3 230 134 231
3 970 976 980
3 233 138 134
3 167 166 168
3 169 168 166
3 3 171 169
3 174 177 968
3 3 169 178
3 169 171 168
3 171 157 168
3 148 171 170
3 174 175 177
3 975 976 973
3 182 166 232
3 179 169 166
3 179 177 178
3 968 969 174
3 178 177 175
3 968 176 967
3 3 178 175
3 178 169 179
3 138 233 167
3 179 176 177
3 974 1191 180
3 179 182 176
3 974 973 971
3 166 182 179
3 971 970 972
3 184 146 139
3 161 196 194
3 185 184 139
3 161 183 184
3 155 185 139
3 185 162 187
3 188 67 189
3 162 131 186
3 185 187 161
3 221 220 207
3 153 188 190
3 161 189 196
3 188 189 190
3 161 190 189
3 67 198 189
3 191 227 211
3 192 201 203
3 200 201 214
3 189 197 196
3 161 194 183
3 194 192 195
3 192 197 201
3 203 195 192
3 189 198 197
3 194 196 192
3 214 193 227
3 192 196 197
3 211 198 67
3 197 198 193
3 163 199 66
3 154 195 199
3 211 227 193
3 206 66 195
3 193 201 197
3 201 200 203
3 204 203 200
3 205 206 202
3 202 206 204
3 209 210 207
3 208 202 204
3 204 206 203
3 203 206 195
3 66 206 205
3 207 210 213
3 213 217 207
3 164 208 209
3 204 210 209
3 204 209 208
3 204 200 210
3 200 214 213
3 215 229 165
3 198 211 193
3 212 216 213
3 200 213 210
3 229 215 216
3 193 214 201
3 213 214 212
3 235 248 236
3 216 217 213
3 229 216 212
3 217 216 215
3 238 234 252
3 222 226 218
3 237 217 215
3 221 207 217
3 225 218 226
3 207 220 209
3 222 220 219
3 217 237 236
3 220 221 219
3 222 219 226
3 220 224 164
3 219 221 236
3 261 255 266
3 247 219 236
3 222 218 224
3 245 225 223
3 226 223 225
3 229 191 228
3 214 227 212
3 227 229 212
3 229 227 191
3 165 229 228
3 1190 230 5
3 232 230 181
3 136 231 134
3 5 231 137
3 182 232 181
3 233 166 167
3 230 233 134
3 166 233 232
3 253 254 248
3 238 235 239
3 236 221 217
3 249 251 246
3 247 251 249
3 239 215 165
3 236 237 235
3 215 239 237
3 239 235 237
3 165 238 239
3 34 245 267
3 275 240 270
3 250 244 249
3 260 264 242
3 249 223 247
3 278 243 267
3 259 278 258
3 249 245 223
3 245 244 278
3 223 226 247
3 246 257 250
3 219 247 226
3 251 236 248
3 235 252 248
3 254 253 35
3 250 249 246
3 245 249 244
3 246 254 257
3 258 250 242
3 236 251 247
3 254 251 248
3 238 252 235
3 253 252 234
3 35 256 257
3 252 253 248
3 254 246 251
3 255 261 277
3 260 250 256
3 250 260 242
3 35 257 254
3 250 257 256
3 258 242 259
3 244 250 258
3 264 269 271
3 243 259 272
3 256 261 260
3 264 261 266
3 277 261 256
3 262 241 265
3 299 288 281
3 255 262 266
3 242 271 259
3 261 264 260
3 264 263 284
3 265 241 281
3 266 263 264
3 262 265 266
3 266 265 263
3 286 274 287
3 267 245 278
3 271 270 272
3 268 270 240
3 272 270 268
3 240 275 276
3 264 271 242
3 270 271 269
3 243 272 268
3 271 272 259
3 284 269 264
3 283 275 270
3 283 274 275
3 283 270 269
3 276 274 273
3 258 278 244
3 274 276 275
3 256 35 277
3 243 278 259
3 263 265 281
3 273 286 291
3 280 299 285
3 279 284 281
3 302 288 299
3 287 279 288
3 321 294 318
3 284 283 269
3 283 279 287
3 281 284 263
3 283 284 279
3 274 283 287
3 281 241 285
3 289 290 69
3 288 279 281
3 282 286 287
3 281 285 299
3 287 288 304
3 296 297 69
3 291 282 290
3 291 290 289
3 273 291 289
3 282 291 286
3 295 314 318
3 320 310 324
3 295 296 298
3 298 290 282
3 308 298 306
3 298 296 290
3 297 295 294
3 306 298 282
3 295 297 296
3 307 312 308
3 301 304 302
3 302 299 303
3 68 316 309
3 280 300 303
3 306 301 309
3 299 280 303
3 301 306 304
3 68 303 300
3 301 302 303
3 287 304 282
3 288 302 304
3 304 306 282
3 306 309 308
3 301 303 309
3 305 313 315
3 342 330 331
3 298 314 295
3 298 308 314
3 68 309 303
3 309 307 308
3 308 312 314
3 352 344 345
3 311 312 313
3 335 343 293
3 313 312 307
3 312 311 314
3 313 316 315
3 313 305 336
3 311 317 314
3 314 317 318
3 309 316 307
3 316 313 307
3 68 315 316
3 335 353 342
3 318 317 310
3 319 320 292
3 294 295 318
3 330 346 329
3 321 310 320
3 321 320 319
3 294 321 319
3 310 321 318
3 341 334 340
3 326 292 320
3 323 331 330
3 327 334 333
3 324 310 331
3 326 324 323
3 327 323 329
3 326 323 327
3 328 292 326
3 337 334 327
3 328 333 325
3 330 329 323
3 333 328 326
3 322 327 329
3 324 331 323
3 347 19 348
3 310 317 331
3 311 331 317
3 339 337 322
3 364 382 376
3 326 327 333
3 322 337 327
3 340 334 332
3 325 333 334
3 311 335 342
3 311 313 336
3 343 336 305
3 311 336 335
3 346 352 345
3 332 334 337
3 363 365 362
3 337 339 332
3 345 339 322
3 339 338 371
3 360 18 359
3 334 341 325
3 311 342 331
3 340 18 341
3 353 335 293
3 346 345 322
3 336 343 335
3 339 345 338
3 345 344 347
3 329 346 322
3 351 352 353
3 356 348 19
3 347 348 345
3 345 348 338
3 367 371 372
3 356 372 348
3 330 352 346
3 352 330 353
3 344 352 351
3 342 353 330
3 351 353 293
3 366 354 362
3 359 18 340
3 362 361 355
3 361 362 356
3 377 374 354
3 367 372 369
3 357 360 373
3 370 374 358
3 370 340 332
3 358 373 360
3 365 363 350
3 358 360 359
3 356 19 361
3 369 362 354
3 401 397 399
3 362 355 363
3 376 381 377
3 385 365 350
3 365 364 366
3 365 366 362
3 376 366 364
3 370 367 374
3 367 370 371
3 354 366 376
3 373 412 357
3 362 369 356
3 374 369 354
3 359 370 358
3 371 370 332
3 339 371 332
3 372 371 338
3 348 372 338
3 372 356 369
3 374 373 358
3 373 368 412
3 374 367 369
3 373 374 368
3 382 405 380
3 382 385 405
3 377 381 368
3 374 377 368
3 354 376 377
3 408 407 70
3 379 387 395
3 376 382 387
3 387 386 395
3 365 385 364
3 388 386 387
3 387 381 376
3 412 381 379
3 385 382 364
3 382 380 387
3 375 411 406
3 412 368 381
3 390 394 384
3 407 409 375
3 389 386 378
3 395 349 379
3 379 381 387
3 388 387 380
3 388 380 405
3 378 386 388
3 397 393 396
3 384 389 396
3 445 423 453
3 384 394 389
3 391 451 446
3 392 396 393
3 451 391 415
3 397 389 378
3 395 394 390
3 386 389 394
3 394 395 386
3 349 395 390
3 384 396 392
3 397 396 389
3 399 397 378
3 391 393 397
3 378 400 399
3 401 391 397
3 405 378 388
3 399 398 401
3 400 405 411
3 398 399 400
3 404 398 408
3 401 398 404
3 403 417 410
3 420 425 414
3 416 401 404
3 414 415 420
3 411 405 385
3 405 400 378
3 404 408 70
3 385 350 406
3 407 408 409
3 409 408 398
3 398 400 409
3 411 409 400
3 406 411 385
3 70 410 418
3 409 411 375
3 349 412 379
3 412 383 357
3 419 425 420
3 416 391 401
3 71 393 448
3 417 415 404
3 442 414 438
3 404 415 416
3 391 416 415
3 418 417 404
3 417 403 421
3 70 418 404
3 410 417 418
3 402 426 422
3 424 425 426
3 415 417 420
3 420 417 421
3 422 421 403
3 420 421 419
3 423 428 430
3 421 422 419
3 449 413 443
3 419 422 426
3 424 428 435
3 426 425 419
3 438 425 424
3 432 430 428
3 424 426 428
3 433 402 431
3 423 435 428
3 432 429 430
3 36 478 480
3 461 454 459
3 433 428 426
3 430 429 461
3 431 427 432
3 433 426 402
3 432 427 464
3 431 432 433
3 428 433 432
3 445 444 449
3 447 437 446
3 445 435 423
3 438 435 434
3 434 443 441
3 453 455 445
3 414 425 438
3 434 441 438
3 71 448 452
3 439 441 443
3 442 451 414
3 447 439 437
3 442 441 440
3 441 442 438
3 442 440 451
3 445 434 435
3 439 443 413
3 450 453 430
3 449 434 445
3 436 444 445
3 446 448 391
3 446 440 447
3 440 441 447
3 439 447 441
3 391 448 393
3 452 448 446
3 413 449 444
3 434 449 443
3 462 36 463
3 445 455 436
3 451 415 414
3 440 446 451
3 430 453 423
3 446 437 452
3 455 453 450
3 503 508 499
3 460 455 458
3 458 455 450
3 457 436 455
3 467 477 476
3 460 469 37
3 459 458 450
3 460 457 455
3 460 458 456
3 461 459 450
3 459 454 472
3 460 456 469
3 460 37 457
3 430 461 450
3 461 429 463
3 461 463 454
3 432 464 429
3 464 463 429
3 427 462 464
3 463 464 462
3 468 477 467
3 479 482 474
3 475 471 472
3 456 471 469
3 468 37 469
3 468 469 477
3 479 478 473
3 488 470 489
3 472 471 456
3 475 484 471
3 459 472 456
3 454 474 475
3 478 479 480
3 475 470 484
3 483 481 482
3 454 475 472
3 475 474 487
3 476 484 488
3 467 476 492
3 469 471 477
3 477 471 484
3 482 479 473
3 463 36 480
3 480 474 454
3 474 480 479
3 454 463 480
3 489 481 491
3 475 487 470
3 483 465 494
3 482 481 487
3 488 484 470
3 482 473 483
3 477 484 476
3 489 491 493
3 490 498 466
3 482 487 474
3 492 488 490
3 489 487 481
3 470 487 489
3 490 488 485
3 491 481 494
3 485 488 489
3 498 497 466
3 492 466 486
3 493 491 500
3 485 489 493
3 467 492 486
3 488 492 476
3 465 501 491
3 508 510 499
3 483 494 481
3 465 491 494
3 493 510 509
3 501 495 499
3 485 509 498
3 498 490 485
3 497 498 512
3 73 502 504
3 499 495 503
3 501 500 491
3 510 500 499
3 73 538 521
3 501 499 500
3 498 509 512
3 504 503 495
3 502 519 508
3 524 530 532
3 503 504 502
3 548 533 560
3 519 521 522
3 509 513 512
3 502 508 503
3 510 508 507
3 493 509 485
3 509 507 513
3 509 510 507
3 510 493 500
3 511 513 518
3 496 511 526
3 511 496 512
3 497 512 496
3 518 513 507
3 512 513 511
3 535 555 536
3 528 527 72
3 518 507 519
3 72 526 520
3 516 528 520
3 531 541 529
3 536 522 517
3 507 508 519
3 520 518 516
3 521 519 502
3 516 518 519
3 523 525 528
3 72 515 526
3 73 521 502
3 522 521 517
3 536 523 522
3 516 519 522
3 514 525 523
3 516 522 523
3 531 530 525
3 524 525 530
3 72 520 528
3 496 526 515
3 518 526 511
3 523 528 516
3 525 524 527
3 527 528 525
3 514 536 555
3 506 550 542
3 531 525 514
3 530 533 532
3 514 555 541
3 529 530 531
3 549 505 548
3 533 530 529
3 505 532 533
3 535 517 538
3 537 534 535
3 542 539 506
3 523 536 514
3 517 535 536
3 521 538 517
3 538 537 535
3 73 537 538
3 544 539 542
3 534 539 544
3 550 552 542
3 514 541 531
3 557 540 552
3 590 587 547
3 544 542 540
3 555 544 540
3 545 550 551
3 544 535 534
3 553 554 558
3 542 552 540
3 556 552 554
3 590 559 587
3 590 556 553
3 560 533 529
3 549 547 546
3 551 543 561
3 547 549 548
3 552 550 545
3 552 545 554
3 550 506 551
3 557 541 540
3 554 561 558
3 563 558 562
3 554 545 561
3 556 554 553
3 544 555 535
3 541 555 540
3 560 547 548
3 557 529 541
3 552 556 557
3 557 556 560
3 11 563 562
3 569 559 590
3 558 568 569
3 578 586 587
3 557 560 529
3 547 560 556
3 551 561 545
3 562 561 543
3 583 574 581
3 561 562 558
3 558 563 568
3 571 573 563
3 609 565 607
3 571 563 11
3 578 588 576
3 573 568 563
3 570 571 572
3 569 568 566
3 569 566 588
3 558 569 553
3 591 577 579
3 576 575 578
3 572 567 594
3 571 570 573
3 574 580 581
3 571 11 572
3 566 573 576
3 579 576 573
3 577 575 576
3 578 589 10
3 579 573 570
3 589 578 575
3 591 570 594
3 585 574 583
3 587 586 546
3 588 578 559
3 591 579 570
3 576 579 577
3 577 584 575
3 580 589 581
3 584 583 581
3 577 593 584
3 582 592 600
3 581 575 584
3 582 602 585
3 591 598 593
3 582 583 584
3 547 587 546
3 582 585 583
3 578 10 586
3 578 587 559
3 569 588 559
3 576 588 566
3 581 589 575
3 10 589 580
3 556 590 547
3 569 590 553
3 596 599 565
3 593 582 584
3 596 604 598
3 612 610 618
3 591 593 577
3 582 593 592
3 572 594 570
3 599 594 567
3 596 598 599
3 567 595 599
3 600 603 612
3 592 598 604
3 564 601 616
3 593 598 592
3 599 598 591
3 599 591 594
3 565 599 595
3 600 592 604
3 601 600 597
3 617 616 601
3 564 585 602
3 582 601 602
3 564 602 601
3 611 628 614
3 604 609 603
3 609 604 596
3 600 604 603
3 614 628 606
3 605 622 607
3 618 625 620
3 614 622 611
3 609 596 565
3 613 614 610
3 607 608 609
3 609 608 613
3 610 612 613
3 620 615 617
3 623 77 611
3 628 77 624
3 600 612 597
3 613 612 603
3 609 613 603
3 614 613 608
3 614 608 622
3 606 610 614
3 597 618 617
3 615 616 617
3 617 601 597
3 615 620 621
3 612 618 597
3 625 610 606
3 625 619 620
3 606 628 636
3 618 620 617
3 619 630 621
3 607 622 608
3 619 621 620
3 623 622 605
3 648 652 656
3 622 623 611
3 652 648 650
3 610 625 618
3 638 606 636
3 641 634 639
3 635 633 627
3 76 630 632
3 77 628 611
3 636 628 624
3 638 630 619
3 650 639 634
3 650 651 635
3 627 637 635
3 632 630 633
3 633 630 627
3 631 632 633
3 634 641 647
3 635 651 633
3 627 636 637
3 639 650 635
3 636 624 637
3 627 630 638
3 645 640 642
3 635 637 639
3 625 638 619
3 627 638 636
3 640 641 642
3 642 641 639
3 643 629 641
3 639 637 642
3 647 629 644
3 637 624 642
3 646 624 77
3 674 669 664
3 641 640 643
3 663 654 662
3 77 645 646
3 646 642 624
3 642 646 645
3 629 647 641
3 647 644 663
3 647 663 634
3 651 733 631
3 652 650 634
3 653 649 654
3 650 648 651
3 733 651 648
3 631 633 651
3 655 654 644
3 626 648 656
3 666 38 677
3 644 629 655
3 658 660 657
3 629 653 655
3 654 655 653
3 661 662 670
3 658 626 656
3 665 654 649
3 656 652 661
3 656 661 660
3 685 657 686
3 656 660 658
3 660 659 686
3 662 661 652
3 660 661 659
3 663 662 652
3 654 669 670
3 663 652 634
3 654 663 644
3 675 674 664
3 669 673 670
3 666 665 649
3 669 665 664
3 681 689 712
3 665 666 664
3 714 717 716
3 665 669 654
3 672 673 674
3 661 670 659
3 654 670 662
3 694 688 690
3 39 680 682
3 680 672 676
3 657 660 686
3 674 673 669
3 686 673 672
3 675 664 677
3 680 676 671
3 683 684 690
3 691 671 700
3 672 674 676
3 700 674 675
3 666 677 664
3 695 677 38
3 683 681 682
3 679 678 692
3 38 679 695
3 687 39 685
3 690 671 691
3 684 680 671
3 682 680 684
3 683 698 681
3 690 684 671
3 682 684 683
3 673 686 659
3 686 672 687
3 687 672 680
3 39 687 680
3 685 686 687
3 688 694 693
3 705 706 702
3 698 690 696
3 696 688 706
3 676 700 671
3 696 690 688
3 695 692 691
3 690 691 694
3 692 678 693
3 695 691 675
3 668 703 701
3 707 702 703
3 691 692 694
3 693 694 692
3 695 675 677
3 679 692 695
3 688 693 702
3 698 696 689
3 722 719 74
3 707 711 697
3 681 698 689
3 690 698 683
3 715 717 724
3 712 714 667
3 674 700 676
3 675 691 700
3 693 701 703
3 693 678 701
3 705 702 697
3 707 703 668
3 693 703 702
3 724 705 697
3 702 707 697
3 706 699 696
3 702 706 688
3 699 706 705
3 710 704 721
3 707 708 710
3 710 721 709
3 707 668 708
3 718 728 713
3 704 710 708
3 711 710 709
3 710 711 707
3 723 711 709
3 689 699 714
3 714 712 689
3 714 716 667
3 714 699 717
3 717 699 724
3 697 711 723
3 699 705 724
3 718 716 717
3 717 715 718
3 715 732 728
3 713 716 718
3 760 771 741
3 704 719 721
3 727 723 725
3 722 721 719
3 725 721 720
3 738 74 736
3 721 722 720
3 725 709 721
3 723 709 725
3 697 723 724
3 724 723 732
3 729 725 720
3 729 727 725
3 726 729 737
3 730 746 75
3 713 728 731
3 724 732 715
3 715 728 718
3 728 727 730
3 729 738 737
3 727 729 726
3 727 726 730
3 730 726 746
3 723 727 732
3 730 75 731
3 728 732 727
3 756 754 755
3 648 626 733
3 74 738 722
3 735 753 853
3 729 720 738
3 736 753 743
3 749 752 771
3 722 738 720
3 736 737 738
3 771 760 759
3 743 737 736
3 744 726 737
3 740 747 750
3 742 744 743
3 750 747 742
3 736 853 753
3 743 741 752
3 743 744 737
3 747 746 742
3 742 746 744
3 745 746 747
3 746 745 75
3 750 752 749
3 745 747 740
3 759 760 761
3 742 752 750
3 739 748 751
3 751 750 749
3 740 750 748
3 750 751 748
3 764 749 762
3 743 752 742
3 752 741 771
3 755 754 734
3 743 753 756
3 780 776 758
3 753 735 754
3 741 743 756
3 754 756 753
3 756 755 760
3 768 769 780
3 759 761 768
3 764 739 751
3 761 755 734
3 768 772 759
3 756 760 741
3 761 760 755
3 757 770 767
3 768 758 772
3 765 775 778
3 764 751 749
3 765 764 762
3 766 765 763
3 766 739 764
3 762 773 765
3 773 775 765
3 770 761 767
3 765 766 764
3 761 734 767
3 768 770 769
3 20 792 791
3 763 778 777
3 769 770 757
3 761 770 768
3 772 771 759
3 749 771 762
3 773 772 758
3 771 772 762
3 772 773 762
3 775 773 776
3 780 790 776
3 782 776 790
3 776 773 758
3 779 777 778
3 790 769 792
3 774 775 776
3 765 778 763
3 778 774 779
3 774 778 775
3 794 782 786
3 21 777 779
3 768 780 758
3 790 780 769
3 828 820 827
3 800 803 783
3 811 785 812
3 774 794 789
3 786 782 781
3 809 808 793
3 797 799 787
3 789 806 779
3 810 20 808
3 797 795 798
3 795 786 812
3 795 797 788
3 806 805 21
3 794 774 782
3 807 806 788
3 792 769 791
3 782 790 781
3 810 792 20
3 769 757 791
3 790 792 781
3 795 794 786
3 785 795 812
3 789 794 788
3 785 798 795
3 794 795 788
3 785 816 815
3 820 802 817
3 797 796 800
3 807 787 805
3 811 816 785
3 797 798 796
3 803 804 783
3 800 799 797
3 783 799 800
3 796 798 815
3 829 803 800
3 817 821 820
3 829 800 796
3 804 802 801
3 779 806 21
3 802 804 803
3 797 807 788
3 788 806 789
3 787 807 797
3 806 807 805
3 809 793 811
3 781 792 810
3 810 786 781
3 808 809 810
3 786 810 809
3 784 818 813
3 816 818 824
3 786 809 812
3 811 812 809
3 830 819 838
3 811 793 813
3 817 829 815
3 785 815 798
3 817 815 814
3 811 813 818
3 814 815 816
3 821 814 823
3 802 803 829
3 818 784 824
3 811 818 816
3 827 836 844
3 820 828 802
3 821 817 814
3 820 819 827
3 825 823 824
3 820 821 838
3 816 824 814
3 819 820 838
3 823 822 830
3 823 825 822
3 814 824 823
3 819 830 833
3 824 784 825
3 828 826 843
3 827 819 837
3 827 826 828
3 843 841 842
3 801 802 828
3 815 829 796
3 802 829 817
3 832 833 79
3 830 831 833
3 858 845 855
3 830 822 831
3 819 832 837
3 79 833 831
3 819 833 832
3 861 897 934
3 855 854 858
3 854 848 849
3 841 840 78
3 851 832 850
3 827 837 836
3 821 823 838
3 830 838 823
3 849 850 847
3 938 836 851
3 852 78 840
3 843 801 828
3 844 841 826
3 841 843 826
3 841 78 842
3 801 843 842
3 827 844 826
3 938 844 836
3 864 860 869
3 936 840 938
3 939 845 937
3 849 847 846
3 79 847 850
3 832 851 837
3 854 849 846
3 850 849 848
3 851 850 848
3 850 832 79
3 855 938 848
3 837 851 836
3 835 859 856
3 936 852 840
3 736 74 853
3 859 857 858
3 845 939 855
3 848 854 855
3 864 870 865
3 854 846 856
3 932 839 935
3 859 858 854
3 898 868 867
3 856 859 854
3 835 863 865
3 857 865 870
3 863 860 864
3 895 876 893
3 857 862 858
3 861 934 937
3 866 871 41
3 859 865 857
3 864 869 874
3 835 865 859
3 864 865 863
3 885 877 866
3 862 868 861
3 867 870 874
3 894 867 878
3 862 857 868
3 870 868 857
3 871 869 860
3 874 869 866
3 874 870 864
3 868 870 867
3 908 902 879
3 869 871 866
3 948 872 947
3 877 874 866
3 878 877 880
3 880 882 875
3 887 40 890
3 876 880 881
3 861 898 897
3 885 41 879
3 877 882 880
3 877 878 874
3 894 878 876
3 901 904 883
3 900 901 902
3 881 880 875
3 878 880 876
3 910 889 884
3 893 876 881
3 885 882 877
3 900 908 899
3 883 904 907
3 875 882 884
3 912 888 910
3 890 881 889
3 41 885 866
3 882 885 879
3 884 901 909
3 909 912 910
3 881 875 889
3 886 887 888
3 884 889 875
3 890 888 887
3 881 890 40
3 888 890 889
3 891 895 892
3 893 881 892
3 881 40 892
3 895 894 876
3 834 934 897
3 868 898 861
3 892 895 893
3 896 895 891
3 894 896 897
3 895 896 894
3 834 897 896
3 867 894 898
3 897 898 894
3 908 41 903
3 904 901 900
3 904 900 899
3 909 901 883
3 902 901 884
3 884 882 902
3 879 902 882
3 907 873 921
3 908 900 902
3 904 905 907
3 925 918 920
3 904 899 905
3 883 916 909
3 873 907 905
3 883 907 906
3 41 908 879
3 899 908 903
3 923 916 883
3 888 912 886
3 889 910 888
3 884 909 910
3 921 906 907
3 909 913 912
3 909 916 913
3 914 886 912
3 913 911 949
3 912 915 914
3 949 947 913
3 915 912 913
3 872 914 915
3 923 883 906
3 913 916 911
3 924 925 917
3 919 917 920
3 956 957 955
3 926 80 931
3 873 919 921
3 922 921 920
3 919 920 921
3 922 920 918
3 953 918 925
3 916 923 911
3 906 922 923
3 923 922 950
3 924 926 931
3 942 943 944
3 917 925 920
3 943 924 931
3 964 958 965
3 924 917 926
3 1208 1212 1209
3 959 958 929
3 1195 1194 81
3 963 964 965
3 941 944 1196
3 966 80 960
3 943 931 930
3 935 839 936
3 834 932 934
3 937 845 862
3 935 934 932
3 934 933 937
3 839 852 936
3 934 935 933
3 844 938 840
3 933 935 936
3 937 862 861
3 939 937 933
3 851 848 938
3 936 938 939
3 936 939 933
3 855 939 938
3 872 915 947
3 940 958 966
3 953 925 942
3 924 942 925
3 957 954 955
3 943 930 944
3 924 943 942
3 959 944 930
3 944 959 1196
3 922 918 950
3 952 957 951
3 953 950 918
3 913 947 915
3 947 951 948
3 911 923 950
3 951 947 946
3 947 949 946
3 946 949 950
3 949 911 950
3 952 951 946
3 945 948 951
3 950 952 946
3 952 953 954
3 954 953 942
3 950 953 952
3 942 941 954
3 955 954 941
3 1195 955 941
3 957 956 945
3 951 957 945
3 955 81 956
3 957 952 954
3 958 959 966
3 963 961 928
3 959 929 1196
3 966 959 930
3 6 1222 1224
3 966 931 80
3 940 961 965
3 1201 1192 1199
3 1213 1205 1217
3 963 962 964
3 1198 964 962
3 929 958 964
3 940 965 958
3 963 965 961
3 931 966 930
3 940 966 960
3 972 176 971
3 983 972 990
3 176 968 177
3 967 984 969
3 182 971 176
3 967 969 968
3 976 970 973
3 182 181 971
3 974 180 973
3 970 980 990
3 176 972 967
3 976 975 172
3 970 971 973
3 971 181 974
3 974 181 1191
3 981 994 978
3 973 180 975
3 989 980 976
3 988 994 977
3 979 977 981
3 173 984 992
3 980 989 981
3 172 979 989
3 990 980 991
3 997 113 1007
3 980 981 978
3 996 985 987
3 983 984 967
3 990 972 970
3 984 983 982
3 987 985 986
3 984 173 969
3 1000 982 991
3 992 987 986
3 992 982 987
3 996 998 985
3 1023 1030 1033
3 999 993 996
3 172 989 976
3 979 981 989
3 991 980 978
3 983 990 982
3 978 999 1000
3 982 990 991
3 173 992 986
3 982 992 984
3 1010 999 995
3 988 1001 994
3 977 994 981
3 1006 1001 988
3 1007 1004 1006
3 1010 1009 993
3 999 996 987
3 998 996 993
3 1000 999 987
3 988 977 997
3 1009 998 993
3 1001 978 994
3 982 1000 987
3 978 1000 991
3 995 999 1001
3 978 1001 999
3 1004 1015 1014
3 1006 995 1001
3 1033 1032 1054
3 1008 1021 1005
3 1017 1020 1014
3 1009 1028 112
3 1007 1006 988
3 1008 1006 1004
3 997 1007 988
3 113 1013 1015
3 1014 1020 1067
3 1008 1005 1010
3 993 999 1010
3 1028 1009 1005
3 1008 1010 995
3 1005 1009 1010
3 1017 1018 1016
3 1013 1011 1014
3 1067 1021 1008
3 1007 1015 1004
3 1014 1011 1017
3 113 1015 1007
3 1014 1015 1013
3 1068 1069 1070
3 1012 1022 1026
3 1018 1002 1058
3 1016 1030 1020
3 1030 1029 1019
3 1017 1011 1018
3 1021 1022 1005
3 1016 1020 1017
3 1019 1021 1067
3 1067 1008 1004
3 1022 1021 1019
3 1022 1019 1029
3 1022 1012 1027
3 1036 1034 1035
3 1036 1039 1038
3 1003 1024 1025
3 1029 1025 1026
3 1026 1025 1024
3 1012 1026 1024
3 1026 1022 1029
3 1022 1028 1005
3 1027 1028 1022
3 112 1028 1027
3 1019 1020 1030
3 1029 1023 1025
3 1031 1036 1035
3 1023 1029 1030
3 1031 1039 1036
3 1057 1058 1034
3 1047 1043 1041
3 1016 1058 1057
3 1050 1054 1032
3 1032 1033 1034
3 1057 1033 1030
3 1040 1037 1039
3 1034 1002 1035
3 1034 1036 1032
3 1068 1052 1042
3 1032 1036 1038
3 1043 1038 1037
3 1050 1043 1047
3 1037 1040 56
3 1038 1039 1037
3 1055 1043 1056
3 1039 1031 1040
3 1087 1085 1086
3 1055 1056 1051
3 1052 1049 1048
3 1052 1048 1042
3 1069 1025 1070
3 1055 1041 1043
3 1038 1050 1032
3 1059 1048 1049
3 1046 1073 1077
3 1047 1045 1050
3 1047 1041 1049
3 1049 1045 1047
3 1049 1041 1059
3 1050 1038 1043
3 1050 1045 1054
3 1080 1082 1079
3 1080 1084 1071
3 1003 1025 1069
3 1045 1049 1052
3 1045 1052 1068
3 1042 1053 1068
3 1033 1054 1070
3 1056 1043 1037
3 1055 1051 1063
3 1037 56 1056
3 1078 56 1077
3 1016 1057 1030
3 1034 1033 1057
3 1018 1058 1016
3 1002 1034 1058
3 1055 1063 1062
3 1061 1063 1072
3 1072 1073 1082
3 1059 1041 1062
3 1066 57 1059
3 1055 1062 1041
3 1066 1062 1061
3 1051 1073 1072
3 1062 1063 1061
3 1066 1061 1075
3 1076 1075 1061
3 1059 1062 1066
3 1066 1065 57
3 1014 1067 1004
3 1019 1067 1020
3 1053 1003 1069
3 1045 1068 1054
3 1070 1025 1023
3 1053 1069 1068
3 1033 1070 1023
3 1068 1070 1054
3 1088 1094 1091
3 1075 1064 1066
3 1051 1072 1063
3 1091 1076 1071
3 1051 1056 1078
3 1079 1044 1080
3 1092 1091 1084
3 1095 1097 1094
3 1076 1061 1072
3 1075 1074 1097
3 1071 1076 1072
3 1074 1075 1076
3 56 1078 1056
3 1078 1073 1051
3 1073 1078 1077
3 1099 1083 1090
3 1046 1079 1082
3 1082 1080 1071
3 1072 1082 1071
3 1137 1089 1136
3 1082 1073 1046
3 1081 1136 1085
3 1098 1060 1094
3 1086 1080 1044
3 1090 1092 1084
3 1092 1090 1083
3 1084 1080 1086
3 1085 1087 1081
3 1086 1085 1090
3 1125 1083 1101
3 1086 1044 1087
3 1064 1075 1097
3 1121 1093 1105
3 1099 1101 1083
3 1086 1090 1084
3 1099 1090 1085
3 1076 1091 1074
3 1084 1091 1071
3 1125 1092 1083
3 1091 1092 1088
3 1091 1094 1074
3 1105 1122 1125
3 1098 1096 1060
3 1094 1097 1074
3 1094 1060 1095
3 1098 1094 1088
3 1064 1097 1095
3 1092 1125 1088
3 1096 1098 1122
3 1136 1099 1085
3 1101 1099 1102
3 1102 1100 1101
3 1113 1120 1118
3 1102 1099 1089
3 1105 1101 1100
3 1138 1104 1089
3 1089 1104 1123
3 1133 1120 1113
3 1089 1123 1102
3 1116 1108 1111
3 1106 1105 1100
3 1122 1105 1093
3 1109 1111 1108
3 1121 1106 111
3 1114 1128 1127
3 1187 1118 1120
3 1115 1111 1109
3 1112 1106 1100
3 1117 1108 1116
3 1109 111 1115
3 1116 1111 1134
3 1102 1123 1100
3 1111 1112 1110
3 1127 1110 1114
3 1146 1144 1150
3 1128 1126 1127
3 1110 1112 1114
3 1106 1112 1115
3 1111 1115 1112
3 1134 1111 1110
3 1116 1118 1117
3 1143 1119 1188
3 1118 1116 1113
3 1107 1117 1118
3 1151 1153 1119
3 1187 1181 1186
3 1129 1133 1113
3 1182 1170 1155
3 1096 1122 1093
3 1106 1121 1105
3 1098 1088 1125
3 1104 1114 1123
3 1100 1123 1114
3 1105 1125 1101
3 1130 1124 1131
3 1125 1122 1098
3 1148 1141 1103
3 1127 1129 1110
3 1128 1114 1104
3 1129 1127 1126
3 1130 1104 110
3 1128 1131 1142
3 1129 1126 1135
3 1134 1129 1113
3 1131 1124 1142
3 1130 1131 1104
3 1104 1131 1128
3 1132 1135 1141
3 1144 1146 1145
3 1135 1133 1129
3 1143 1133 1132
3 1116 1134 1113
3 1110 1129 1134
3 1126 1142 1141
3 1133 1135 1132
3 1137 110 1138
3 1099 1136 1089
3 1137 1138 1089
3 1136 1081 1137
3 110 1104 1138
3 1126 1141 1135
3 1153 1182 1119
3 1140 1141 1142
3 1103 1141 1140
3 1142 1126 1128
3 1140 1142 1124
3 1133 1143 1120
3 1148 1146 1147
3 1143 1132 1147
3 1143 1146 1119
3 1143 1147 1146
3 1179 29 1156
3 1148 1132 1141
3 1145 1148 1103
3 1146 1148 1145
3 1148 1147 1132
3 1154 1152 1153
3 1150 1151 1146
3 1179 1150 1144
3 1151 1150 1149
3 1154 1153 1149
3 1146 1151 1119
3 1164 1162 1159
3 1154 1161 1163
3 1149 1153 1151
3 1152 1169 1184
3 1156 1149 1179
3 1154 1149 1156
3 1139 1185 1180
3 1185 1181 1182
3 1158 2102 2100
3 1156 1161 1154
3 1161 1162 1164
3 1155 1184 28
3 2096 1177 1165
3 1189 1157 2165
3 1154 1163 1152
3 1162 1156 29
3 1161 1160 1163
3 1167 1163 1160
3 1156 1162 1161
3 1165 1173 1167
3 1159 1189 1172
3 1161 1164 1160
3 1165 1167 1178
3 2110 2168 2109
3 1167 1160 1172
3 1176 1177 1166
3 1168 1169 1174
3 1174 1173 1168
3 1184 1183 28
3 1174 1163 1167
3 1183 1184 1168
3 1184 1170 1152
3 1185 1182 1155
3 1172 1160 1164
3 2104 2100 2102
3 1159 1172 1164
3 1172 1171 1178
3 1177 1158 1175
3 1183 1176 1166
3 1163 1174 1169
3 1167 1173 1174
3 1168 1173 1176
3 1165 1177 1173
3 1176 1173 1177
3 2097 2096 1165
3 1177 1175 1166
3 1172 1178 1167
3 2098 2176 2094
3 1187 1186 1107
3 1150 1179 1149
3 1155 28 1180
3 1188 1181 1120
3 1170 1182 1153
3 1188 1182 1181
3 1184 1155 1170
3 1176 1183 1168
3 1168 1184 1169
3 1180 1185 1155
3 1139 1181 1185
3 1118 1187 1107
3 1181 1139 1186
3 1181 1187 1120
3 1143 1188 1120
3 1182 1188 1119
3 230 1191 181
3 1172 1189 1171
3 1190 1191 230
3 180 1191 1190
3 1200 1199 1193
3 1192 1193 1199
3 1195 81 955
3 1196 1195 941
3 1193 1192 1194
3 1194 1195 1193
3 1200 1196 929
3 1196 1193 1195
3 1198 929 964
3 1220 1197 1204
3 962 1209 1204
3 1198 1197 1200
3 1193 1196 1200
3 1199 1202 1201
3 1198 1200 929
3 1197 1199 1200
3 1197 1198 1204
3 1202 1199 1197
3 927 1201 1202
3 962 963 1207
3 1220 927 1202
3 962 1204 1198
3 1204 1203 1220
3 1212 1215 1211
3 1207 928 1206
3 1208 1209 1207
3 928 1207 963
3 1207 1206 1208
3 1275 1276 1274
3 1218 1219 1221
3 1204 1209 1203
3 1207 1209 962
3 1215 1208 1216
3 1203 1209 1212
3 1221 1225 1210
3 1206 1216 1208
3 1211 1221 1219
3 7 1275 1274
3 1206 928 1213
3 1243 1239 1235
3 1208 1215 1212
3 1233 1214 1273
3 1217 1216 1206
3 1214 1215 1216
3 1213 1217 1206
3 1205 1274 1276
3 1211 1219 1212
3 1219 1203 1212
3 1220 1218 927
3 1203 1219 1220
3 1220 1219 1218
3 1221 1211 1225
3 1218 1221 1210
3 1215 1226 1211
3 1225 1223 1224
3 1273 1275 1272
3 1222 1210 1225
3 1230 1224 1223
3 1225 1211 1226
3 1222 1225 1224
3 1214 1226 1215
3 1225 1226 1223
3 1228 1238 1239
3 1233 1234 1223
3 1226 1233 1223
3 1231 6 1230
3 1240 1229 1237
3 1250 1280 1227
3 1230 1229 1231
3 1245 1246 1259
3 1214 1233 1226
3 1234 1233 1232
3 1236 1235 1237
3 1223 1234 1230
3 1230 1234 1236
3 1252 1247 1250
3 1232 1271 1234
3 1234 1271 1236
3 1239 1238 1240
3 1229 1230 1237
3 1246 1247 1242
3 1240 1235 1239
3 1239 1243 1268
3 1229 1240 1238
3 1235 1240 1237
3 1241 1252 1254
3 1269 1268 1270
3 1242 1243 1246
3 1269 1264 1256
3 1235 1259 1246
3 1267 1228 1268
3 1235 1236 1259
3 1272 1277 1278
3 1247 1241 1248
3 1235 1246 1243
3 1246 1245 1247
3 1245 1250 1247
3 1254 1252 1249
3 1257 1248 1241
3 1242 1247 1248
3 1280 1250 1245
3 1252 1250 1251
3 1251 1249 1252
3 1255 1253 1254
3 1250 1227 1251
3 1241 1247 1252
3 1263 1264 1286
3 1285 1284 1266
3 1253 1255 88
3 1241 1254 1253
3 1262 1286 1265
3 1254 1249 1255
3 1248 1257 1270
3 1268 1228 1239
3 1258 1271 1272
3 1280 1281 1282
3 1271 1259 1236
3 1281 1259 1258
3 1292 1301 1289
3 1345 1330 1329
3 1283 1284 1285
3 1284 1262 1266
3 1265 1264 1257
3 1263 1256 1264
3 1264 1265 1286
3 1257 1241 1265
3 1266 1241 1253
3 1262 1265 1266
3 1241 1266 1265
3 1243 1242 1268
3 1264 1269 1257
3 1270 1268 1242
3 1256 1267 1269
3 1268 1269 1267
3 1248 1270 1242
3 1269 1270 1257
3 1272 1271 1232
3 1259 1271 1258
3 1273 1272 1232
3 1278 1277 1244
3 1233 1273 1232
3 1276 1214 1216
3 1272 1275 7
3 1216 1217 1276
3 1214 1275 1273
3 1276 1217 1205
3 1214 1276 1275
3 1278 1244 1282
3 1272 7 1277
3 1272 1278 1258
3 1245 1259 1281
3 1244 1279 1282
3 1227 1280 1279
3 1258 1278 1282
3 1245 1281 1280
3 1280 1282 1279
3 1282 1281 1258
3 1300 1261 1302
3 1292 1295 1301
3 1285 1266 1253
3 1284 1283 1292
3 1253 88 1285
3 1299 88 1298
3 1286 1262 1291
3 1263 1286 89
3 1262 1292 1291
3 1298 1287 1296
3 1293 1290 89
3 1292 1289 1291
3 1292 1262 1284
3 1307 1290 1289
3 1289 1290 1293
3 1296 1294 1295
3 1283 1295 1292
3 1286 1293 89
3 1289 1293 1291
3 1294 1314 1302
3 1288 1290 1307
3 1296 1295 1283
3 1294 1297 1301
3 1283 1285 1299
3 1287 1300 1314
3 1309 1297 1313
3 1307 1316 1288
3 88 1299 1285
3 1299 1296 1283
3 1296 1299 1298
3 1294 1301 1295
3 1296 1314 1294
3 1301 1297 1307
3 1303 1318 1304
3 1302 1312 1294
3 1321 1320 1315
3 1304 1305 1306
3 1309 1260 1308
3 1304 1306 1303
3 1311 1305 1304
3 1301 1307 1289
3 1305 1261 1306
3 1309 1308 1316
3 1294 1312 1313
3 1316 1297 1309
3 1330 1310 1311
3 1311 1302 1305
3 1318 1333 1304
3 1304 1333 1330
3 1311 1310 1312
3 1311 1312 1302
3 1313 1312 1310
3 1313 1310 1356
3 1294 1313 1297
3 1287 1314 1296
3 1302 1314 1300
3 1326 1315 1320
3 1309 1356 1355
3 1288 1316 1308
3 1297 1316 1307
3 1321 1315 1318
3 1333 1343 1329
3 1333 1318 1343
3 1328 1332 1325
3 1303 1319 1321
3 1319 45 1320
3 1303 1321 1318
3 1319 1320 1321
3 1358 1364 1365
3 1363 1371 1322
3 1340 1332 1338
3 1332 1340 1346
3 1328 1320 45
3 1324 1359 1334
3 1328 1326 1320
3 1337 1325 1336
3 1327 1338 1331
3 1328 1325 1326
3 1334 1332 1324
3 1315 1326 1337
3 1345 1310 1330
3 1304 1330 1311
3 1345 1329 1344
3 1328 1338 1332
3 1328 45 1331
3 1349 1350 1340
3 1343 1318 1315
3 1330 1333 1329
3 1359 1358 1336
3 1325 1332 1334
3 1337 1336 1351
3 1360 1362 1358
3 1334 1359 1325
3 1341 1351 1365
3 1315 1337 1342
3 1331 1338 1328
3 1340 1339 1346
3 1386 87 1387
3 1348 1324 1346
3 1338 1327 1340
3 1350 1349 1323
3 1317 1357 1353
3 1344 1329 1352
3 1351 1342 1337
3 1352 1357 1344
3 1315 1342 1343
3 1329 1343 1342
3 1354 1260 1355
3 1342 1352 1329
3 1344 1354 1355
3 1356 1345 1355
3 1348 1346 1339
3 1332 1346 1324
3 1348 1339 1369
3 1361 1335 1362
3 1339 1372 1369
3 1348 1347 1360
3 1367 1392 1393
3 1340 1327 1349
3 1339 1340 1350
3 1351 1336 1365
3 1351 1341 1352
3 1351 1352 1342
3 1357 1352 1341
3 1309 1355 1260
3 1341 44 1353
3 1344 1317 1354
3 1344 1355 1345
3 1313 1356 1309
3 1310 1345 1356
3 1353 1357 1341
3 1317 1344 1357
3 1360 1358 1324
3 1365 1364 44
3 1359 1336 1325
3 1324 1358 1359
3 1348 1360 1324
3 1363 1361 1362
3 1358 1362 1335
3 1362 1347 1363
3 1347 1362 1360
3 1347 1348 1377
3 1322 1361 1363
3 1365 44 1341
3 1358 1335 1364
3 1358 1365 1336
3 1350 1394 1372
3 1382 1399 1400
3 1385 1368 1392
3 1372 1339 1350
3 1369 1377 1348
3 1368 1373 1369
3 1378 1376 1370
3 1369 1373 1374
3 1370 1376 1375
3 1378 1322 1371
3 1394 1350 1323
3 1369 1372 1368
3 1385 1384 1399
3 1374 1373 1366
3 1366 1383 1374
3 1374 1371 1377
3 1375 1374 1383
3 1380 1370 1375
3 1371 1374 1376
3 1375 1376 1374
3 1374 1377 1369
3 1363 1377 1371
3 1436 1435 1379
3 1376 1378 1371
3 1413 1379 1406
3 1396 1380 1375
3 1397 1404 1396
3 1382 1383 1399
3 1397 1396 1382
3 1399 1383 1366
3 1396 1383 1382
3 1373 1385 1366
3 1387 1390 1384
3 1373 1368 1385
3 1385 1392 1391
3 1387 87 1390
3 1384 1391 1387
3 1391 1384 1385
3 1389 1411 1401
3 1409 1398 1381
3 1400 1390 1410
3 1390 1411 1410
3 1367 1386 1391
3 1387 1391 1386
3 1372 1394 1368
3 1367 1391 1392
3 1323 1393 1394
3 1394 1392 1368
3 1394 1393 1392
3 1383 1396 1375
3 1405 1398 1407
3 1397 1382 1381
3 1398 1397 1381
3 1404 86 1396
3 1409 1381 1410
3 1405 1407 1395
3 1385 1399 1366
3 1400 1399 1384
3 1390 1400 1384
3 1382 1400 1381
3 1388 1417 1418
3 1390 87 1401
3 1408 1415 1414
3 1405 1397 1398
3 1397 1405 1404
3 86 1404 1403
3 1395 1403 1405
3 1404 1405 1403
3 1398 1409 1408
3 1407 1406 1395
3 1406 1407 1413
3 1428 1415 1417
3 1407 1408 1413
3 1381 1400 1410
3 1408 1409 1402
3 1390 1401 1411
3 1402 1409 1410
3 1389 1418 1420
3 1402 1410 1411
3 1419 1422 1425
3 1424 1429 1416
3 1408 1402 1415
3 1414 1413 1408
3 1424 1422 1419
3 1414 1424 1436
3 1417 1415 1402
3 1412 1414 1415
3 1402 1411 1420
3 1422 1414 1412
3 1426 1427 1428
3 1423 1425 1412
3 1420 1417 1402
3 1431 1419 1425
3 1389 1420 1411
3 1418 1417 1420
3 1412 1427 1423
3 1440 1427 1421
3 1419 1429 1424
3 22 1437 1439
3 1430 1433 1431
3 1436 1379 1413
3 1414 1422 1424
3 1412 1425 1422
3 1423 1438 1425
3 1428 1427 1412
3 1388 1426 1428
3 1421 1427 1426
3 1415 1428 1412
3 1388 1428 1417
3 1433 1429 1419
3 1432 1416 1429
3 1466 1471 1469
3 1431 1446 1430
3 1437 1444 1438
3 1437 1448 1444
3 1431 1433 1419
3 1434 1429 1433
3 1434 1433 1430
3 1453 23 1457
3 1432 1434 23
3 1414 1436 1413
3 1424 1416 1435
3 1424 1435 1436
3 1423 1427 1440
3 1445 1442 1447
3 1425 1438 1431
3 1440 1438 1423
3 1421 1439 1440
3 1437 1438 1440
3 1437 1440 1439
3 1454 1452 1447
3 1446 1431 1444
3 1438 1444 1431
3 1456 1461 1469
3 1448 1437 22
3 1444 1443 1446
3 1447 1442 1454
3 1443 1448 1447
3 1462 1458 1463
3 1455 1450 1454
3 1448 1443 1444
3 22 1445 1448
3 1447 1448 1445
3 1461 1456 1458
3 1452 1443 1447
3 1460 1477 1480
3 1452 1450 1458
3 1457 1480 1453
3 1458 1462 1452
3 1455 1441 1468
3 1457 1434 1430
3 1450 1452 1454
3 1461 1467 1464
3 1454 1442 1455
3 1481 1471 1449
3 1446 1482 1430
3 1462 1446 1443
3 1461 1464 1459
3 1458 1456 1463
3 1493 1487 1492
3 1483 1465 1484
3 1477 1474 1451
3 1482 1460 1480
3 1467 1458 1450
3 1470 1466 1469
3 1452 1462 1443
3 1482 1462 1460
3 1477 1463 1456
3 1462 1463 1460
3 1468 1464 1467
3 1491 1490 1486
3 1461 1470 1469
3 1479 1475 1473
3 1471 1478 1449
3 1458 1467 1461
3 1468 1467 1450
3 1455 1468 1450
3 1441 1464 1468
3 1470 1461 1459
3 1466 1478 1471
3 1485 1473 1475
3 1466 1470 1475
3 1480 1477 1451
3 1456 1469 1471
3 85 1524 1525
3 1519 1520 1516
3 1470 1485 1475
3 1484 1473 1489
3 1485 1470 1459
3 1449 1474 1481
3 1473 1484 1479
3 1463 1477 1460
3 1466 1479 1478
3 1481 1456 1471
3 1479 1466 1475
3 1449 1478 1476
3 1465 1476 1479
3 1478 1479 1476
3 1453 1480 1451
3 1480 1457 1482
3 1474 1477 1481
3 1456 1481 1477
3 1430 1482 1457
3 1462 1482 1446
3 1479 1484 1465
3 1483 1484 1489
3 1488 1489 1473
3 1494 1492 1487
3 1488 1485 1496
3 1488 1496 1472
3 1459 1495 1491
3 1459 1491 1494
3 1488 1472 1489
3 1473 1485 1488
3 1502 1507 1499
3 1489 84 1483
3 1492 1491 1486
3 1441 1490 1495
3 1495 1459 1464
3 1487 1493 85
3 1487 1496 1494
3 1459 1494 1485
3 1492 1486 1493
3 1491 1492 1494
3 1441 1495 1464
3 1490 1491 1495
3 1494 1496 1485
3 1526 1496 1487
3 1513 1517 1498
3 1537 1497 1528
3 1503 1472 1526
3 1503 1489 1472
3 1503 1502 1504
3 1511 1499 1507
3 1504 1502 1500
3 1508 1507 1502
3 1487 1525 1526
3 1502 1503 1501
3 84 1504 1500
3 1503 1504 1489
3 1510 1541 1508
3 1519 1513 1505
3 1508 1502 1501
3 1518 1523 1509
3 1507 1513 1511
3 1510 1508 1501
3 1505 1507 1508
3 1510 1518 1509
3 1529 1540 1514
3 1527 1518 1501
3 1520 1541 1509
3 1503 1526 1527
3 1513 1507 1505
3 1506 1523 1524
3 1519 1517 1513
3 1498 1511 1513
3 1520 1509 1533
3 1554 1531 1532
3 1519 1505 1541
3 1515 1521 1536
3 1521 1515 1522
3 1521 1517 1516
3 1522 1498 1517
3 1501 1518 1510
3 1523 1518 1512
3 1508 1541 1505
3 1516 1517 1519
3 1537 1528 1533
3 1516 1520 1529
3 1516 1530 1521
3 1536 1542 1515
3 1525 1524 1523
3 1521 1522 1517
3 1523 1506 1534
3 1526 1525 1512
3 1525 1523 1512
3 1487 85 1525
3 1526 1512 1527
3 1526 1472 1496
3 1518 1527 1512
3 1503 1527 1501
3 1546 1549 1550
3 1529 1514 1530
3 1533 1529 1520
3 1539 1538 1545
3 1529 1530 1516
3 1532 1530 1514
3 1532 1521 1530
3 1551 1540 1538
3 1551 1548 1554
3 1532 1531 1536
3 1537 1533 1509
3 1529 1533 1528
3 1532 1536 1521
3 1534 1537 1523
3 1539 1535 1538
3 1542 1536 1531
3 1523 1537 1509
3 1497 1537 1534
3 1528 1545 1529
3 1549 1546 42
3 1545 1540 1529
3 1528 1497 1539
3 1551 1538 1550
3 1509 1541 1510
3 1519 1541 1520
3 1548 1551 1560
3 1558 1542 1531
3 1631 1543 1575
3 1539 1545 1528
3 1540 1545 1538
3 1581 1579 1580
3 1535 1546 1550
3 1514 1551 1554
3 1555 1560 1557
3 1531 1548 1553
3 1549 42 1557
3 1550 1549 1547
3 1551 1550 1547
3 1550 1538 1535
3 1551 1547 1560
3 1540 1551 1514
3 1575 1576 1574
3 1553 1561 1570
3 1548 1560 1561
3 1572 1559 1562
3 1531 1554 1548
3 1514 1554 1532
3 1547 1549 1557
3 1570 43 1553
3 1556 1565 1563
3 1564 1555 1557
3 1564 1552 1567
3 1542 1558 43
3 1531 1553 1558
3 1557 1560 1547
3 1561 1562 1570
3 1561 1560 1555
3 1555 1564 1567
3 1548 1561 1553
3 1567 1561 1555
3 1572 1571 1559
3 1557 1565 1564
3 1557 42 1563
3 1564 1565 1579
3 1563 1565 1557
3 1581 1580 1544
3 1577 1569 1567
3 1559 1566 1570
3 1561 1567 1562
3 1567 1569 1562
3 1616 1582 1573
3 1577 1567 1552
3 1572 1569 1568
3 1559 1570 1562
3 43 1570 1566
3 1569 1572 1562
3 1575 1571 1568
3 1571 1572 1568
3 1602 1586 1587
3 1602 1595 1600
3 1569 1577 1568
3 1600 1612 1573
3 1576 1575 1568
3 1575 1574 1631
3 1583 1552 1578
3 1574 1576 1582
3 1552 1576 1577
3 1568 1577 1576
3 1564 1579 1552
3 1586 1583 1585
3 1556 1579 1565
3 1552 1579 1578
3 1581 1544 1585
3 1579 1556 1580
3 1579 1581 1578
3 1576 1583 1582
3 1584 1589 1588
3 1552 1583 1576
3 1578 1581 1585
3 1583 1578 1585
3 1586 1573 1582
3 1586 1585 1589
3 1583 1586 1582
3 1585 1588 1589
3 82 1591 1590
3 1587 1590 1591
3 1590 1589 1584
3 1585 1544 1588
3 1586 1589 1587
3 1606 1610 83
3 1589 1590 1587
3 1587 1591 1595
3 1595 1601 1594
3 1592 1629 1639
3 1597 1598 1599
3 1621 1610 1594
3 1591 82 1598
3 1595 1594 1600
3 1609 1617 1619
3 1591 1598 1604
3 1604 1601 1595
3 1597 1599 1596
3 1597 1601 1604
3 1606 1594 1610
3 1598 82 1599
3 1594 1606 1600
3 1609 1601 1597
3 1621 1601 1609
3 1586 1602 1573
3 1595 1602 1587
3 1591 1604 1595
3 1616 1607 1631
3 1597 1604 1598
3 1597 1617 1609
3 1626 1628 1633
3 1603 1613 1611
3 1613 1607 1612
3 1606 1612 1600
3 1603 1615 1631
3 1617 1597 1596
3 1624 1627 1608
3 1610 1621 1624
3 1594 1601 1621
3 1614 83 1610
3 1606 1611 1613
3 1606 83 1611
3 1573 1612 1607
3 1607 1613 1603
3 1606 1613 1612
3 1582 1616 1574
3 1624 1614 1610
3 1631 1574 1616
3 1573 1607 1616
3 1619 1617 1620
3 1609 1619 1605
3 1617 1596 1620
3 1596 1618 1620
3 1619 1620 1634
3 1593 1635 1618
3 1634 1620 1635
3 1605 1622 1609
3 1621 1609 1622
3 1623 1627 1630
3 1625 1627 1622
3 1624 1608 1614
3 1605 1625 1622
3 1621 1622 1624
3 1625 1605 1628
3 1623 1608 1627
3 1605 1634 1633
3 1626 1641 1642
3 1622 1627 1624
3 1627 1625 1630
3 1619 1634 1605
3 1629 1628 1626
3 1638 1637 1639
3 1592 1623 1630
3 1628 1630 1625
3 1592 1630 1629
3 1603 1631 1607
3 1631 1615 1543
3 1656 1654 1655
3 1644 1638 1642
3 1605 1633 1628
3 1632 1650 1641
3 1620 1618 1635
3 1633 1634 1632
3 1652 1593 1651
3 1632 1634 1635
3 1626 1633 1641
3 1638 1636 1637
3 1639 1626 1638
3 1658 1642 1640
3 1592 1639 1637
3 1626 1639 1629
3 1641 1650 1640
3 1645 1636 1644
3 1632 1641 1633
3 1642 1641 1640
3 1644 1642 1658
3 1626 1642 1638
3 1656 1655 1649
3 1644 1658 1643
3 1644 1646 1645
3 1636 1638 1644
3 1646 1643 1662
3 1646 1644 1643
3 13 1645 1646
3 1663 1668 1661
3 1651 1647 1649
3 13 1662 1705
3 1649 1632 1652
3 1653 12 1654
3 1632 1649 1650
3 1640 1650 1649
3 1593 1652 1635
3 1635 1652 1632
3 1649 1652 1651
3 1669 1674 1672
3 1647 1653 1656
3 1654 1648 1655
3 1657 1655 1648
3 1640 1649 1655
3 1647 1656 1649
3 1654 1656 1653
3 1655 1657 1640
3 1643 1664 1662
3 1640 1657 1658
3 1643 1658 1657
3 1648 1663 1664
3 1671 1672 1674
3 1681 1661 1668
3 1662 1663 1661
3 1664 1643 1657
3 1662 1661 1705
3 1668 1663 1678
3 1676 1692 1694
3 1648 1664 1657
3 1662 1664 1663
3 1677 1683 1666
3 1666 1682 1677
3 1705 1681 1660
3 1648 1671 1673
3 1677 1682 1667
3 1678 1663 1673
3 1681 1668 1667
3 1671 1648 1654
3 1677 1675 1683
3 1675 1670 1674
3 12 1671 1654
3 1673 1671 1670
3 1670 1677 1678
3 1671 12 1672
3 1648 1673 1663
3 1674 1669 1675
3 1671 1674 1670
3 1665 1684 1679
3 1683 1684 1680
3 1666 1683 1691
3 1706 1660 1676
3 1678 1677 1667
3 1670 1675 1677
3 1668 1678 1667
3 1670 1678 1673
3 1700 1701 1699
3 1675 1669 1679
3 1701 1690 1695
3 1682 1681 1667
3 1660 1681 1676
3 1692 1666 1691
3 1681 1682 1676
3 1684 1683 1675
3 1691 1683 1680
3 1679 1684 1675
3 1689 1684 1665
3 1689 1688 1693
3 1687 1685 1690
3 1694 1710 1659
3 1696 91 1704
3 1684 1689 1680
3 1680 1693 1691
3 1665 1687 1689
3 1689 1687 1690
3 1695 1690 1685
3 1689 1690 1688
3 1680 1689 1693
3 1682 1692 1676
3 1691 1686 1692
3 1694 1659 1706
3 1700 1693 1688
3 1686 1691 1693
3 1692 1686 1694
3 1709 1708 1710
3 1695 1696 1704
3 1686 1693 1700
3 1731 1725 1732
3 1695 1685 1696
3 1742 1745 1741
3 1719 1718 1704
3 1709 1713 1707
3 1701 1700 1688
3 1700 1699 1711
3 1690 1701 1688
3 1701 1695 1718
3 1726 1725 1702
3 1715 1723 90
3 1730 1731 1732
3 1716 1712 1699
3 1733 91 1727
3 1704 1703 1719
3 1686 1711 1709
3 1681 1705 1661
3 1694 1706 1676
3 1707 1708 1709
3 1710 1686 1709
3 1711 1712 1713
3 1659 1710 1708
3 1686 1710 1694
3 1700 1711 1686
3 1712 1711 1699
3 1714 1716 1718
3 1707 1713 1715
3 1711 1713 1709
3 1715 1713 1712
3 1720 1719 1703
3 1720 1722 1714
3 1718 1716 1699
3 1723 1715 1712
3 1723 1714 1722
3 1701 1718 1699
3 1717 1725 1733
3 1718 1695 1704
3 1703 1726 1720
3 1714 1718 1719
3 1736 1734 1735
3 1714 1719 1720
3 1702 1738 1736
3 1724 1735 1721
3 1724 90 1722
3 1714 1723 1716
3 90 1723 1722
3 1725 1726 1733
3 1735 1724 1722
3 1730 1728 1698
3 1720 1726 1702
3 1733 1726 1703
3 1751 1754 1759
3 1733 1704 91
3 1717 1728 1732
3 1737 1744 1738
3 1763 1752 1753
3 1730 1729 1731
3 1739 1729 1737
3 1725 1731 1739
3 1717 1732 1725
3 1730 1732 1728
3 1704 1733 1703
3 1717 1733 1727
3 1739 1737 1738
3 1734 1741 1743
3 1736 1735 1722
3 1721 1735 1734
3 1722 1720 1736
3 1702 1736 1720
3 1742 1737 1729
3 1734 1743 1721
3 1736 1738 1734
3 1739 1738 1702
3 1725 1739 1702
3 1729 1739 1731
3 1730 1698 1762
3 1745 1749 1697
3 1738 1744 1734
3 1744 1742 1741
3 1753 1752 1756
3 1742 1740 1745
3 1742 1744 1737
3 1741 1697 1743
3 1741 1734 1744
3 1747 1748 1746
3 1697 1741 1745
3 1740 1742 1753
3 1749 1748 1747
3 1749 1740 1748
3 1746 1748 1754
3 1697 1749 1747
3 1740 1749 1745
3 1740 1753 1756
3 1753 1729 1761
3 1773 1775 1784
3 1764 1769 1767
3 1754 1748 1759
3 1742 1729 1753
3 1730 1762 1761
3 1759 1748 1756
3 1751 1781 1755
3 1756 1752 1757
3 1751 1755 1754
3 1740 1756 1748
3 1752 1763 1764
3 1752 1767 1757
3 1764 1768 1750
3 1763 1758 1768
3 1756 1757 1759
3 1751 1759 1757
3 1792 1791 1787
3 1772 1751 1757
3 1730 1761 1729
3 1763 1761 1758
3 1765 1762 1698
3 1761 1762 1758
3 1761 1763 1753
3 1768 1764 1763
3 1769 1766 47
3 1764 1766 1769
3 1767 1760 1773
3 1762 1765 1758
3 1764 1750 1766
3 1752 1764 1767
3 1758 1765 1768
3 1750 1768 1765
3 1769 47 1777
3 1767 1769 1760
3 1769 1777 1760
3 1807 1804 1803
3 1781 1794 46
3 1773 1772 1757
3 1782 1794 1783
3 1767 1773 1757
3 1773 1760 1775
3 1775 1779 1785
3 1799 1784 1771
3 1777 1779 1775
3 1776 1779 1778
3 1777 1775 1760
3 1777 1778 1779
3 1790 1788 1774
3 1777 47 1778
3 1779 1787 1785
3 1751 1772 1781
3 1780 1783 1795
3 1772 1784 1799
3 1784 1785 1771
3 1799 1783 1794
3 1780 1782 1783
3 1773 1784 1772
3 1785 1784 1775
3 1793 1787 1779
3 1771 1785 1791
3 1806 1810 1821
3 1771 1791 1783
3 1776 1788 1793
3 1787 1786 1792
3 1770 1796 1797
3 1790 1787 1793
3 1795 1796 1780
3 1808 1800 1812
3 1787 1790 1786
3 1787 1791 1785
3 1791 1789 1795
3 1792 1786 1804
3 1791 1792 1789
3 1776 1793 1779
3 1788 1790 1793
3 46 1794 1782
3 1781 1772 1799
3 1791 1795 1783
3 1797 1796 1795
3 1798 1789 1792
3 1797 1795 1789
3 1789 1798 1815
3 1786 1790 1802
3 1814 1798 1807
3 1783 1799 1771
3 1781 1799 1794
3 1810 1806 1807
3 1802 1774 1801
3 1803 1804 1802
3 1774 1802 1790
3 1802 1801 1803
3 1833 1812 1800
3 1815 1770 1797
3 1792 1804 1798
3 1802 1804 1786
3 1810 1803 1811
3 1798 1804 1807
3 1816 1819 1805
3 1801 1811 1803
3 1806 1816 1814
3 92 1831 1832
3 1801 1774 1808
3 1820 93 1817
3 1803 1810 1807
3 1830 1809 1831
3 1812 1811 1801
3 1809 1810 1811
3 1808 1812 1801
3 1800 1832 1833
3 1806 1814 1807
3 1813 1814 1816
3 1814 1813 1770
3 1798 1814 1815
3 1770 1815 1814
3 1819 1816 1806
3 1813 1816 1805
3 1830 1831 1827
3 1806 1821 1819
3 1828 1841 1837
3 1820 1819 1818
3 1805 1819 1817
3 1819 1820 1817
3 1825 1820 1818
3 1809 1821 1810
3 1819 1821 1818
3 1837 1841 1876
3 1825 1818 1829
3 1827 1829 1830
3 1826 93 1825
3 1838 1824 1834
3 1858 1847 1859
3 1825 1824 1826
3 1851 1835 1827
3 1834 1825 1835
3 1866 1863 1865
3 1818 1821 1830
3 1835 1829 1827
3 1818 1830 1829
3 1821 1809 1830
3 1811 1833 1809
3 1849 1848 1842
3 1812 1833 1811
3 1833 1831 1809
3 1831 1833 1832
3 1825 1829 1835
3 1836 1837 1823
3 1827 1831 1850
3 1828 1834 1843
3 1855 1857 1858
3 1838 1828 1837
3 1838 1837 1836
3 1824 1838 1836
3 1828 1838 1834
3 1860 1866 1839
3 1856 1877 1876
3 1828 1843 1845
3 1870 1872 1856
3 1858 1828 1845
3 1875 1823 1876
3 1834 1835 1843
3 92 1850 1831
3 1835 1851 1845
3 1846 1853 1822
3 1845 1843 1835
3 1847 1845 1844
3 1858 1841 1828
3 1846 1847 1842
3 1860 1857 1855
3 1847 1844 1849
3 1847 1846 1859
3 1847 1849 1842
3 92 1848 1850
3 1851 1850 1844
3 1848 1849 1850
3 1850 1849 1844
3 1850 1851 1827
3 1845 1851 1844
3 1859 1846 1862
3 1856 1840 1857
3 1846 1842 1853
3 1860 1862 1861
3 1860 1861 1854
3 1839 1866 1867
3 1837 1876 1823
3 1857 1839 1874
3 1858 1857 1840
3 1841 1858 1840
3 1858 1845 1847
3 1862 1846 1822
3 1855 1858 1859
3 1863 25 1865
3 1857 1860 1839
3 1859 1862 1855
3 1862 1860 1855
3 1822 1861 1862
3 1897 1901 1885
3 1854 1863 1866
3 1867 1869 1870
3 1966 1881 1895
3 1866 1865 1864
3 1866 1864 1867
3 1866 1860 1854
3 1867 1864 1869
3 1867 1870 1874
3 1892 1894 1890
3 1873 1887 24
3 1864 1884 1883
3 1870 1869 1868
3 1868 1891 1887
3 1870 1856 1874
3 1872 1852 1877
3 1870 1873 1872
3 1873 1870 1868
3 24 1871 1873
3 1872 1873 1871
3 1857 1874 1856
3 1867 1874 1839
3 1841 1840 1876
3 1872 1877 1856
3 1856 1876 1840
3 1852 1875 1877
3 1876 1877 1875
3 1886 1892 1893
3 1884 1864 1865
3 1896 1897 1899
3 1869 1883 1868
3 25 1966 1884
3 1883 1869 1864
3 1894 1895 1890
3 1887 1888 24
3 25 1884 1865
3 1884 1882 1894
3 1902 1901 1897
3 1889 1886 1961
3 1868 1883 1891
3 1883 1892 1891
3 1868 1887 1873
3 1887 1889 1888
3 1961 1886 1893
3 1889 1887 1886
3 1880 1888 1889
3 1882 1966 1895
3 1910 1893 1892
3 1883 1894 1892
3 1887 1891 1886
3 1910 1890 1885
3 1886 1891 1892
3 1908 1909 1901
3 1958 1960 1961
3 1884 1894 1883
3 1895 1894 1882
3 1897 1896 1879
3 1890 1895 1899
3 1900 1906 1913
3 1895 1881 1896
3 1899 1897 1885
3 1890 1899 1885
3 1901 1902 1905
3 1896 1899 1895
3 1900 1905 1906
3 1957 1956 1878
3 1902 1897 1879
3 1905 1908 1901
3 1898 1907 1904
3 1905 1900 1908
3 1913 1919 1900
3 1957 1958 1903
3 1907 1902 1904
3 1902 1879 1904
3 1905 1907 1906
3 94 1915 1911
3 1916 1921 1920
3 1906 1907 1898
3 1902 1907 1905
3 1908 1900 1919
3 1908 1903 1909
3 1958 1909 1903
3 1910 1909 1893
3 1890 1910 1892
3 1909 1910 1885
3 1906 1914 1917
3 1906 1898 1911
3 1913 1917 1912
3 1911 1915 1906
3 1923 1921 1922
3 1941 1933 1944
3 1923 1931 95
3 1968 1915 94
3 1906 1915 1914
3 1906 1917 1913
3 1918 1903 1908
3 1945 1951 1914
3 1913 1922 1919
3 1916 1956 1959
3 1922 1913 1912
3 1908 1919 1918
3 1959 1921 1916
3 1921 1923 1920
3 1922 1921 1918
3 1919 1922 1918
3 1922 1912 1923
3 1912 1917 1929
3 1930 1935 1926
3 1964 1941 1944
3 1950 1937 1947
3 1940 1948 1967
3 1929 1932 1912
3 1931 1932 1934
3 1939 1926 1935
3 1914 1929 1917
3 1928 1930 1934
3 1931 1930 1927
3 1936 1935 1930
3 95 1931 1927
3 1932 1931 1923
3 1912 1932 1923
3 1929 1928 1934
3 1938 1936 1928
3 1964 1962 1963
3 1931 1934 1930
3 1929 1934 1932
3 1936 1930 1928
3 1935 1941 1939
3 1951 1947 1938
3 1933 1935 1936
3 1952 1973 1970
3 1936 1938 1933
3 1947 1948 1950
3 1938 1937 1946
3 1955 1965 1946
3 1941 1935 1933
3 1937 1938 1947
3 1925 1939 1941
3 1952 1970 1969
3 1984 1985 1983
3 1933 1938 1946
3 1942 1987 1986
3 1944 1942 1962
3 1929 1951 1928
3 1968 94 1967
3 1954 1937 1950
3 1933 1946 1944
3 1951 1938 1928
3 1948 1947 1945
3 1967 1948 1945
3 1954 1953 1955
3 1948 1949 1950
3 1948 1940 1949
3 1924 1950 1949
3 1914 1951 1929
3 1947 1951 1945
3 1954 1971 1953
3 1937 1954 1955
3 1944 1965 1942
3 1950 1924 1954
3 1971 1924 1969
3 1955 1953 1965
3 1937 1955 1946
3 1958 1957 1878
3 1957 1903 1959
3 1959 1903 1918
3 1961 1960 1880
3 1958 1893 1909
3 1959 1918 1921
3 1956 1957 1959
3 1889 1961 1880
3 1958 1878 1960
3 1958 1961 1893
3 1995 1942 1986
3 1964 1963 1925
3 1941 1964 1925
3 1962 1943 1963
3 1962 1964 1944
3 1965 1944 1946
3 1970 1975 1953
3 1967 1945 1968
3 1884 1966 1882
3 1968 1914 1915
3 1945 1914 1968
3 1974 1972 1973
3 1971 1954 1924
3 1973 1975 1970
3 1969 1970 1971
3 1953 1971 1970
3 1974 1980 1972
3 1965 1953 1975
3 1974 48 1980
3 1972 1975 1973
3 1988 1986 1987
3 1973 1952 1974
3 1942 1965 1975
3 1990 1998 2000
3 2015 2016 2012
3 2028 2030 2007
3 1989 1993 49
3 2017 2023 1977
3 1994 1982 1985
3 2031 48 2029
3 1984 1980 1979
3 1996 1943 1995
3 2029 1981 2030
3 1942 1975 1987
3 1972 1983 1987
3 1972 1980 1984
3 1984 1979 1985
3 1972 1984 1983
3 2028 1985 1979
3 1994 1992 1993
3 1986 1988 1989
3 1962 1995 1943
3 1972 1987 1975
3 1987 1983 1988
3 1985 1988 1983
3 1989 1988 1982
3 1992 1999 1998
3 1989 49 1996
3 1990 1991 1992
3 1990 1992 1998
3 1993 1989 1982
3 49 1993 1991
3 1994 1993 1982
3 1991 1993 1992
3 1985 1978 1994
3 1999 1994 1978
3 1942 1995 1962
3 1986 1989 1996
3 2006 2010 2024
3 1996 1995 1986
3 2027 2009 2040
3 1992 1994 1999
3 1998 2001 2000
3 2006 1999 1978
3 1997 1998 1999
3 2001 1997 2004
3 2001 1998 1997
3 1976 2000 2001
3 2011 2008 2009
3 2021 2019 2003
3 1997 2006 2008
3 2020 2021 2012
3 2012 2004 2011
3 1997 1999 2006
3 2027 2011 2009
3 2010 2006 1978
3 2006 2005 2008
3 2007 2010 2028
3 2025 1977 2023
3 2005 2022 2008
3 1997 2008 2004
3 2022 2023 2017
3 2027 2002 2011
3 2028 2010 1978
3 2010 2007 2024
3 2012 2011 2002
3 2008 2011 2004
3 2012 2002 2020
3 2015 1976 2016
3 2027 2037 2002
3 2022 2009 2008
3 2043 2020 2034
3 2001 2016 1976
3 2012 2003 2015
3 2012 2016 2004
3 2013 2040 2026
3 2013 2039 2040
3 2050 2038 97
3 2035 2046 2037
3 2034 2020 2002
3 2042 2019 2014
3 2014 2019 2021
3 2012 2021 2003
3 2014 2021 2020
3 2023 2022 2005
3 2017 2009 2022
3 2005 2024 2023
3 2007 2025 2024
3 2024 2005 2006
3 2025 2007 1981
3 2040 2009 2017
3 2024 2025 2023
3 2017 1977 2026
3 2027 2018 2037
3 1985 2028 1978
3 2031 2030 1979
3 2007 2030 1981
3 1980 2031 1979
3 1979 2030 2028
3 48 2031 1980
3 2030 2031 2029
3 2044 2049 2053
3 2075 2073 2060
3 2034 2045 2043
3 2042 96 2019
3 2018 2040 2039
3 2044 2053 2054
3 2050 2047 2048
3 96 2042 2057
3 2037 2034 2002
3 2039 2037 2018
3 2013 2038 2039
3 2035 2037 2039
3 2035 2039 2038
3 2027 2040 2018
3 2040 2017 2026
3 2043 2042 2014
3 2048 2047 2049
3 2059 2057 2042
3 2020 2043 2014
3 2034 2037 2046
3 2046 2050 2048
3 2044 2048 2049
3 2054 2045 2044
3 2036 2043 2045
3 2044 2045 2046
3 2034 2046 2045
3 2050 2046 2035
3 2046 2048 2044
3 2049 2047 2041
3 2033 2062 2051
3 2056 2058 2059
3 2038 2050 2035
3 2047 2050 97
3 2051 2062 2063
3 2041 2051 2063
3 2053 2061 2052
3 2063 2061 2053
3 2054 2053 2052
3 2056 2054 2052
3 2054 2036 2045
3 2092 2091 2073
3 2059 2054 2056
3 2059 2058 2055
3 2057 2059 2055
3 2059 2042 2036
3 2056 2032 2058
3 2054 2059 2036
3 2064 2087 2086
3 2074 2080 2079
3 2063 2053 2049
3 2066 2075 2060
3 2066 2067 2065
3 2063 2062 2060
3 2061 2063 2060
3 2063 2049 2041
3 2062 2066 2060
3 2033 2066 2062
3 2065 2070 2066
3 2076 2032 2078
3 2070 2071 2068
3 2066 2033 2067
3 2088 2069 2081
3 4 2082 2093
3 2072 2074 2079
3 2072 2073 2075
3 2066 2070 2074
3 2070 2065 2071
3 2056 2078 2032
3 2060 2073 2061
3 2092 2085 2078
3 2070 2068 2074
3 2079 2080 2077
3 2066 2074 2075
3 2072 2075 2074
3 2090 0 2084
3 2069 2085 2081
3 2079 2081 2072
3 2052 2091 2056
3 2072 2092 2073
3 2080 2074 2068
3 2081 2079 2077
3 2086 2080 2068
3 2087 2080 2086
3 2090 2089 2077
3 2069 2076 2085
3 2078 2085 2076
3 2071 2093 2068
3 2083 2090 2087
3 2077 2089 2081
3 2072 2081 2085
3 2093 2086 2068
3 2082 2064 2086
3 2083 2087 2064
3 2077 2080 2087
3 2077 2087 2090
3 2089 2088 2081
3 2088 2089 2084
3 0 2090 2083
3 2084 2089 2090
3 2073 2091 2052
3 2078 2056 2091
3 2085 2092 2072
3 2091 2092 2078
3 4 2093 2071
3 2086 2093 2082
3 1165 1178 2097
3 2108 2101 2107
3 2095 2172 2164
3 2164 2172 2165
3 2098 2096 2095
3 1177 2096 2102
3 2172 1178 1171
3 2096 2097 2095
3 2176 2095 2175
3 2105 2099 2108
3 2101 2094 2107
3 2094 2101 2098
3 2104 2098 2101
3 2100 2101 2099
3 1177 2102 1158
3 2096 2098 2104
3 2110 2103 2107
3 2103 2110 2116
3 2100 2104 2101
3 2096 2104 2102
3 2116 2115 2103
3 2106 2105 2108
3 106 2105 2106
3 2168 2094 2176
3 2103 2106 2108
3 2101 2108 2099
3 2103 2108 2107
3 2095 2164 2175
3 2141 2133 2138
3 2094 2110 2107
3 2116 2114 2115
3 2114 2121 2123
3 2126 2119 2122
3 2125 2148 2147
3 2117 106 2115
3 2113 2118 2123
3 2103 2115 2106
3 2115 2118 2117
3 2110 2109 2116
3 2109 2129 2130
3 2123 2121 2122
3 2118 2115 2114
3 2113 2117 2118
3 2121 2126 2122
3 2144 2159 2140
3 2120 2122 2127
3 2128 2113 2120
3 2130 2114 2116
3 2136 2129 2134
3 2127 2122 2119
3 2123 2122 2120
3 2113 2123 2120
3 2114 2123 2118
3 2114 2130 2121
3 2135 2124 2136
3 2147 2146 2112
3 2129 2126 2121
3 2143 2126 2125
3 2151 2143 2147
3 2138 2111 2139
3 2134 2129 2109
3 2131 2128 2120
3 2126 2129 2125
3 2109 2130 2116
3 2121 2130 2129
3 2128 2131 2111
3 2120 2127 2131
3 2109 2168 2171
3 2142 2145 2152
3 2142 2127 2119
3 2124 2148 2136
3 2129 2136 2125
3 2134 107 2135
3 2134 2135 2136
3 2155 2150 2132
3 2141 2127 2140
3 2131 2139 2111
3 2127 2141 2139
3 2144 2127 2142
3 2150 2155 2154
3 2177 2133 2178
3 2139 2141 2138
3 2141 2140 2178
3 2145 2142 2119
3 2144 2142 2137
3 2145 2126 2143
3 2149 2132 2150
3 2159 2137 2154
3 2127 2144 2140
3 2126 2145 2119
3 2145 2143 2152
3 2151 2147 2112
3 2136 2148 2125
3 2125 2147 2143
3 2124 2146 2148
3 2147 2148 2146
3 2156 2153 2155
3 2112 2149 2151
3 2150 2152 2151
3 2149 2150 2151
3 2152 2150 2137
3 2152 2137 2142
3 2143 2151 2152
3 2141 2178 2133
3 2137 2150 2154
3 2158 2154 2153
3 2158 2159 2154
3 2156 55 2163
3 2154 2155 2153
3 2163 2162 2153
3 2155 2132 2156
3 2216 2218 2211
3 2153 2156 2163
3 2157 2179 2159
3 2159 2144 2137
3 2157 2159 2158
3 2193 2198 2195
3 2158 2162 2157
3 2181 2207 2202
3 2153 2162 2158
3 2183 2162 2192
3 2194 2193 2195
3 2162 2163 2161
3 2168 2169 2171
3 2172 2095 2097
3 1189 2165 1171
3 1157 2164 2165
3 2174 2164 2173
3 2173 2166 2174
3 2169 2168 2167
3 2094 2168 2110
3 2167 2174 2169
3 2134 2171 107
3 107 2171 2170
3 2109 2171 2134
3 2169 2166 2170
3 2169 2170 2171
3 1178 2172 2097
3 2165 2172 1171
3 2169 2174 2166
3 2164 1157 2173
3 2174 2167 2175
3 2174 2175 2164
3 2167 2168 2176
3 2095 2176 2098
3 2167 2176 2175
3 2179 2140 2159
3 2177 2178 2180
3 2179 2180 2178
3 2180 2179 2157
3 2140 2179 2178
3 2157 2162 2183
3 2180 54 2177
3 2195 2198 2201
3 2189 2184 2186
3 2187 54 2180
3 2192 2162 2161
3 2183 2182 2187
3 2190 2189 2186
3 2190 2186 2182
3 2186 2185 2187
3 2184 2185 2186
3 54 2187 2185
3 2187 2180 2183
3 2190 2182 2191
3 2211 2218 2206
3 2207 2204 2202
3 2203 2184 2189
3 2183 2192 2182
3 2190 2200 2204
3 2196 2161 2163
3 2200 2188 2204
3 2161 2191 2192
3 2182 2192 2191
3 2199 2197 2198
3 2163 55 2196
3 55 2194 2196
3 2191 2161 2195
3 2194 2195 2196
3 2161 2196 2195
3 2208 2224 2223
3 2200 2201 2220
3 2199 2160 2221
3 2198 2197 2201
3 2190 2191 2200
3 2198 2193 2199
3 2201 2200 2191
3 2201 2191 2195
3 2197 2212 2220
3 2188 2212 2210
3 2209 2181 2202
3 2204 2189 2190
3 2207 2203 2189
3 2188 2202 2204
3 2203 2207 2181
3 2212 2221 2223
3 2210 2202 2188
3 2204 2207 2189
3 2223 2226 2208
3 2202 2213 2209
3 2188 2220 2212
3 2213 2202 2210
3 2209 2211 2206
3 2224 2214 2210
3 2214 2216 2211
3 2221 2212 2197
3 2214 2224 2208
3 2214 2213 2210
3 2209 2213 2211
3 2229 2216 2208
3 2213 2214 2211
3 2215 2216 2229
3 2232 2215 2229
3 2208 2216 2214
3 2219 2217 2218
3 2219 2216 2215
3 2216 2219 2218
3 2217 2206 2218
3 2238 2237 2215
3 109 2217 2219
3 2200 2220 2188
3 2197 2220 2201
3 2199 2221 2197
3 2227 2226 2223
3 2221 2225 2223
3 2160 2222 2225
3 2227 2222 2205
3 2210 2212 2224
3 2223 2224 2212
3 2160 2225 2221
3 2227 2225 2222
3 108 2230 2228
3 2226 2231 2229
3 2227 2223 2225
3 2205 2226 2227
3 2208 2226 2229
3 2226 2205 2228
3 2228 2230 2231
3 2242 2253 2250
3 2231 2232 2229
3 2228 2231 2226
3 2232 2231 2230
3 2248 2246 2240
3 2233 2258 2250
3 2241 2236 2260
3 2281 2248 2240
3 2236 2238 2247
3 2238 2215 2232
3 2243 2235 2241
3 2215 2237 2219
3 2237 2241 2239
3 2249 2245 2230
3 2237 2238 2236
3 2260 2236 2247
3 2241 2237 2236
3 2230 2245 2232
3 2235 2239 2241
3 2259 2247 2238
3 2272 2271 2251
3 2250 2243 2242
3 2258 2235 2243
3 2282 2247 2283
3 2245 2259 2232
3 2249 2230 108
3 2244 2247 2259
3 2248 2281 2283
3 2249 2244 2245
3 2243 2260 2242
3 2270 2286 2234
3 2249 2248 2244
3 108 2246 2249
3 2249 2246 2248
3 2262 2271 2273
3 2250 2253 2256
3 2266 2269 2254
3 2233 2250 2256
3 2284 2280 2263
3 2257 2266 2265
3 2280 2253 2242
3 2256 2253 2252
3 2252 2261 2257
3 2256 2252 2257
3 2255 2256 2265
3 2256 2255 2233
3 2257 2251 2267
3 2255 2265 2254
3 2232 2259 2238
3 2250 2258 2243
3 2244 2259 2245
3 2260 2243 2241
3 2283 2247 2244
3 2280 2252 2253
3 2251 2257 2261
3 2284 2261 2252
3 2272 2273 2271
3 2261 2284 2272
3 2271 2278 2279
3 2293 2276 2307
3 2256 2257 2265
3 2257 2267 2266
3 2268 2266 2264
3 2254 2265 2266
3 2279 2276 2267
3 2266 2267 2264
3 2276 2293 2264
3 2269 2268 15
3 14 2277 2274
3 2268 2269 2266
3 2270 2273 2286
3 2276 2264 2267
3 2261 2272 2251
3 2273 2272 2263
3 2286 2273 2263
3 2262 2273 2270
3 2278 2274 2277
3 2271 2262 2274
3 2308 2315 2296
3 2279 2267 2251
3 2293 2292 2295
3 2304 2277 14
3 2278 2277 2275
3 2275 2276 2279
3 2274 2278 2271
3 2271 2279 2251
3 2275 2279 2278
3 2260 2282 2242
3 2263 2280 2285
3 2285 2287 2234
3 2242 2282 2280
3 2247 2282 2260
3 2280 2282 2281
3 2248 2283 2244
3 2281 2282 2283
3 2272 2284 2263
3 2252 2280 2284
3 2280 2281 2285
3 2287 2285 2281
3 2263 2285 2286
3 2234 2286 2285
3 2298 2290 2294
3 2281 2240 2287
3 2290 2291 2294
3 2303 2296 2305
3 2297 2294 2291
3 2295 2268 2264
3 2299 2290 2298
3 2275 2307 2276
3 2304 2301 2302
3 2291 15 2297
3 2298 2294 2305
3 2293 2295 2264
3 2294 2295 2292
3 2302 2292 2293
3 2309 2308 2303
3 2268 2297 15
3 2294 2297 2295
3 2305 2294 2292
3 2320 2299 2298
3 2310 2312 2311
3 2320 2298 2296
3 2344 2316 2301
3 2302 2303 2292
3 2302 2293 2307
3 2302 2301 2303
3 2310 2289 2312
3 2303 2301 2309
3 2304 2307 2277
3 2344 2300 2316
3 2298 2305 2296
3 2292 2303 2305
3 2335 2289 2330
3 2306 2335 2317
3 2277 2307 2275
3 2302 2307 2304
3 2335 2306 2312
3 2288 2320 2315
3 2316 2310 2311
3 2308 2309 2306
3 2309 2301 2311
3 2311 2306 2309
3 2316 2311 2301
3 2321 2329 2328
3 2306 2311 2312
3 2332 2319 2322
3 2313 2334 2330
3 2317 2319 2323
3 2317 2308 2306
3 2288 2315 2326
3 2344 2301 2304
3 2310 2316 2300
3 2317 2314 2319
3 2308 2317 2323
3 2314 2322 2319
3 104 2341 2333
3 2322 2314 2334
3 2327 2329 2325
3 2299 2320 2288
3 2296 2315 2320
3 2333 2331 104
3 2308 2323 2315
3 2319 2332 2318
3 2327 2319 2318
3 2326 2325 2324
3 2327 2325 2323
3 2326 2323 2325
3 2321 2324 2325
3 2288 2326 2324
3 2323 2326 2315
3 2319 2327 2323
3 2328 2329 2345
3 2325 2329 2321
3 2346 2345 2329
3 2346 2327 2318
3 2332 2336 2333
3 2330 2334 2335
3 2313 2331 2336
3 2322 2336 2332
3 2358 2360 2353
3 2348 2349 2333
3 2334 2314 2335
3 2313 2322 2334
3 2335 2314 2317
3 2289 2335 2312
3 2313 2336 2322
3 2331 2333 2336
3 2347 2361 2375
3 2351 2340 2339
3 2354 2353 2350
3 2340 2341 2342
3 2345 105 2328
3 2340 2342 2339
3 2340 2367 2348
3 2304 2343 2344
3 2341 104 2342
3 2304 14 2343
3 2300 2344 2343
3 2349 2332 2333
3 2318 2349 2345
3 2327 2346 2329
3 2318 2345 2346
3 2340 2351 2367
3 2375 2361 2370
3 2340 2348 2341
3 2348 2347 2349
3 2349 2347 2383
3 2332 2349 2318
3 2354 2350 2351
3 2348 2367 2347
3 2352 2338 2353
3 2350 2361 2367
3 2365 2424 2423
3 2339 2352 2354
3 2362 2364 2360
3 2339 2354 2351
3 2352 2353 2354
3 2362 2381 2356
3 2357 2358 2359
3 2366 2337 2374
3 2357 2359 2384
3 2353 2360 2350
3 2359 2355 2384
3 2360 2358 2357
3 2357 2362 2360
3 2358 2338 2359
3 2366 2363 2364
3 2350 2369 2370
3 2361 2350 2370
3 2362 2357 2384
3 2364 2363 2369
3 2382 2345 2383
3 2350 2360 2369
3 2362 2356 2364
3 2376 2366 2364
3 2376 2364 2356
3 2377 2424 2379
3 2378 2337 2366
3 2350 2367 2351
3 2347 2367 2361
3 2364 2369 2360
3 2371 2368 2373
3 2369 2363 2370
3 2363 2374 2373
3 2373 2372 2375
3 2382 105 2345
3 2366 2374 2363
3 2382 2383 2372
3 2372 2373 2368
3 2363 2373 2370
3 2337 2371 2374
3 2373 2374 2371
3 2373 2375 2370
3 2375 2372 2383
3 2377 2376 2356
3 2378 2379 2365
3 2381 2391 2392
3 2392 2377 2356
3 2366 2376 2379
3 2379 2378 2366
3 2377 2379 2376
3 53 2386 2385
3 2372 2368 2380
3 2381 2385 2386
3 2372 2380 2382
3 105 2382 2380
3 2349 2383 2345
3 2383 2347 2375
3 2385 2384 2355
3 2362 2384 2381
3 2407 2396 2408
3 2384 2385 2381
3 2381 2386 2391
3 2391 2394 2389
3 2412 2418 2387
3 2400 2386 53
3 2399 2427 2397
3 2386 2400 2394
3 2393 2400 2401
3 2392 2391 2389
3 2392 2389 2427
3 2381 2392 2356
3 2393 2402 2398
3 2396 2399 2397
3 2386 2394 2391
3 2411 2405 2407
3 2397 2394 2398
3 2406 52 2399
3 2397 2398 2396
3 2398 2394 2393
3 2406 2405 2404
3 2402 2393 2426
3 2403 2407 2408
3 2425 52 2423
3 2399 2425 2427
3 2401 2390 2426
3 2394 2400 2393
3 2437 2388 2454
3 2400 53 2401
3 2395 2411 2409
3 2410 2413 2415
3 2403 2408 2413
3 2407 2405 2396
3 2406 2396 2405
3 2395 2404 2405
3 52 2406 2404
3 2396 2406 2399
3 2408 2396 2398
3 2412 2411 2403
3 2402 2415 2398
3 2388 2421 2417
3 2450 2446 2452
3 2412 2409 2411
3 2433 2416 2431
3 2405 2411 2395
3 2403 2411 2407
3 2413 2420 2403
3 2387 2409 2412
3 2415 2413 2408
3 2416 2418 2420
3 2398 2415 2408
3 2436 2438 2414
3 2421 2415 2422
3 2420 2418 2412
3 2450 2442 2444
3 2420 2412 2403
3 2390 2417 2422
3 2416 2436 2419
3 2413 2410 2420
3 2416 2419 2418
3 2433 2431 2430
3 2410 2415 2421
3 2422 2415 2402
3 2390 2422 2402
3 2417 2421 2422
3 2379 2424 2365
3 2425 2399 52
3 2377 2427 2425
3 2423 2424 2425
3 2377 2425 2424
3 2401 2426 2393
3 2390 2402 2426
3 2392 2427 2377
3 2397 2427 2389
3 2420 2431 2416
3 2454 2428 2434
3 2435 2439 102
3 2432 2431 2420
3 2434 2457 2432
3 2432 2420 2410
3 2433 2430 2429
3 2434 2432 2410
3 2430 2431 2432
3 2438 2433 2429
3 2433 2438 2436
3 2437 2410 2421
3 2434 2428 2455
3 2419 2436 2414
3 2435 2438 2439
3 2416 2433 2436
3 2388 2437 2421
3 2434 2410 2437
3 2438 2429 2439
3 2438 2435 2414
3 2432 2457 2430
3 2475 2480 2472
3 2453 2462 2447
3 2429 2444 2439
3 2443 2445 2448
3 2469 2447 2462
3 2450 2451 2446
3 2449 2439 2453
3 2444 2442 2453
3 2451 2450 2444
3 2449 2447 2448
3 2455 2456 2458
3 2461 2465 2463
3 2448 2467 2443
3 2449 2448 2445
3 2447 2469 2467
3 102 2449 2445
3 2439 2444 2453
3 2451 2444 2429
3 2446 2458 2452
3 2429 2430 2451
3 2451 2430 2457
3 2460 2459 2461
3 2450 2452 2463
3 2442 2463 2465
3 2449 2453 2447
3 103 2452 2458
3 2437 2454 2434
3 2446 2451 2457
3 2434 2455 2457
3 2455 2428 2456
3 2457 2455 2446
3 2455 2458 2446
3 103 2458 2456
3 2497 2440 2505
3 2463 2460 2461
3 103 2460 2463
3 2453 2442 2465
3 2468 2459 2464
3 2465 2468 2462
3 2450 2463 2442
3 2463 2452 103
3 2488 2443 2467
3 2462 2470 2469
3 2468 2465 2461
3 2453 2465 2462
3 2470 2466 2469
3 2476 2478 2474
3 2447 2467 2448
3 2471 2467 2466
3 2459 2468 2461
3 2468 2464 2470
3 2462 2468 2470
3 2467 2469 2466
3 2505 2498 2464
3 2490 2491 2499
3 2475 2472 2473
3 2488 2471 2441
3 2466 2478 2476
3 2479 2475 2473
3 2476 2471 2466
3 2481 2472 2480
3 2473 2441 2479
3 2480 2475 2493
3 2478 2466 2470
3 2475 2476 2474
3 2491 2474 2478
3 2507 2487 2508
3 2506 2464 2498
3 2496 2490 2503
3 2471 2479 2441
3 2475 2479 2476
3 2493 2475 2474
3 2480 2482 2481
3 2516 2509 2511
3 2482 2480 2477
3 27 2481 2482
3 2507 2513 2514
3 2524 2552 2534
3 2487 2482 2477
3 2518 2521 2520
3 2477 2493 2492
3 2486 2507 2555
3 2508 2487 2512
3 2504 2501 26
3 2471 2488 2467
3 2501 2503 2489
3 2491 2492 2474
3 2478 2506 2499
3 2491 2490 2492
3 2500 2489 2503
3 2477 2492 2495
3 2480 2493 2477
3 2474 2492 2493
3 2509 2518 2508
3 2477 2495 2487
3 2492 2496 2495
3 2512 2494 2509
3 2490 2496 2492
3 2512 2496 2494
3 2489 2500 2502
3 2464 2459 2497
3 2470 2506 2478
3 2478 2499 2491
3 2440 2502 2498
3 2490 2499 2500
3 2499 2498 2502
3 2504 2503 2501
3 2503 2490 2500
3 2502 2500 2499
3 2496 2503 2494
3 2504 26 2511
3 2503 2504 2494
3 2497 2505 2464
3 2440 2498 2505
3 2464 2506 2470
3 2499 2506 2498
3 2485 2530 2555
3 2514 2513 27
3 2487 2495 2512
3 2485 2507 2508
3 2511 2494 2504
3 2516 2521 2518
3 2510 2516 2515
3 2511 2509 2494
3 2511 2515 2516
3 2512 2495 2496
3 2508 2512 2509
3 2482 2514 27
3 2507 2486 2513
3 2507 2514 2487
3 2517 2484 2522
3 2511 26 2515
3 2508 2518 2485
3 2509 2516 2518
3 2510 2517 2527
3 2527 2522 2519
3 2523 2531 2528
3 2485 2518 2520
3 2519 2522 2525
3 2555 2556 2486
3 2516 2510 2527
3 2520 2521 2519
3 2531 2537 2536
3 2527 2519 2521
3 2537 2531 2523
3 2531 2524 2532
3 2567 2552 2554
3 2532 2522 2484
3 2525 2524 2534
3 2485 2520 2530
3 2520 2519 2533
3 2522 2527 2517
3 2516 2527 2521
3 2541 2545 2548
3 2522 2532 2525
3 2529 2567 2530
3 2529 2530 2520
3 2530 2526 2555
3 2538 2535 2537
3 2532 2524 2525
3 2484 2528 2532
3 2531 2532 2528
3 2525 2533 2519
3 2529 2520 2533
3 2552 2524 2548
3 2533 2534 2529
3 2565 2550 2540
3 2524 2531 2536
3 2541 2536 2535
3 2541 2539 2545
3 2535 2538 101
3 2536 2537 2535
3 2549 2541 2553
3 2537 2523 2538
3 2609 2573 2602
3 2549 2553 2544
3 2547 2546 2550
3 2543 2545 2547
3 2554 2551 2483
3 2541 2549 2539
3 2536 2548 2524
3 2584 2586 2542
3 2577 2576 2558
3 2546 2547 2557
3 2545 2543 2548
3 2539 2547 2545
3 2539 2557 2547
3 2550 2546 2540
3 2548 2536 2541
3 2552 2548 2543
3 2553 2541 2535
3 2549 2544 2564
3 2565 2552 2543
3 2543 2547 2550
3 2550 2565 2543
3 2540 2551 2565
3 2534 2552 2529
3 2535 101 2553
3 3151 101 3150
3 2483 2566 2554
3 2554 2566 2567
3 2555 2507 2485
3 2526 2566 2556
3 2549 2564 2562
3 2526 2556 2555
3 2572 2571 2560
3 2585 2587 2569
3 2564 2569 2560
3 2557 2539 2562
3 2563 2559 2561
3 2549 2562 2539
3 2557 2562 2563
3 2563 2562 2560
3 2572 2560 2569
3 2563 2561 100
3 2544 2585 2569
3 2562 2564 2560
3 2551 2554 2565
3 2565 2554 2552
3 2556 2566 2483
3 2567 2566 2526
3 2530 2567 2526
3 2552 2567 2529
3 2588 2591 2590
3 2560 2571 2563
3 2544 2569 2564
3 2572 2569 2579
3 2570 2578 2576
3 2575 2559 2571
3 2575 2571 2570
3 2559 2563 2571
3 2579 2569 2568
3 2570 2571 2572
3 2580 2593 2581
3 2601 2602 2589
3 2575 2570 2577
3 2574 2575 2577
3 2559 2575 2574
3 2572 2579 2570
3 2581 2618 2576
3 2577 2558 2574
3 2570 2576 2577
3 2582 2578 2568
3 2618 2581 2573
3 2568 2578 2579
3 2570 2579 2578
3 2580 2582 2584
3 2593 2573 2581
3 2576 2578 2581
3 2581 2578 2582
3 2542 2590 2592
3 2581 2582 2580
3 2582 2568 2584
3 2583 2585 3152
3 2584 2568 2587
3 2585 2544 3151
3 2586 2587 2583
3 2569 2587 2568
3 2586 2584 2587
3 2587 2585 2583
3 50 2595 2594
3 2596 2591 2588
3 2596 2595 2589
3 2593 2591 2589
3 2584 2592 2580
3 2592 2591 2580
3 2542 2592 2584
3 2591 2592 2590
3 2591 2593 2580
3 2602 2593 2589
3 2598 2628 2624
3 2591 2596 2589
3 2576 2617 2558
3 2588 2594 2596
3 2595 2596 2594
3 2601 2604 2599
3 2613 2614 2679
3 2589 2595 2601
3 50 2606 2595
3 2595 2606 2604
3 2620 2600 2603
3 2602 2601 2599
3 2616 2605 2609
3 2602 2573 2593
3 2610 2621 2623
3 2604 2601 2595
3 2619 2604 2603
3 2610 2607 2630
3 2620 2606 50
3 2614 2613 2599
3 2604 2606 2603
3 2621 2610 2619
3 2672 2631 2676
3 2613 2602 2599
3 2608 2678 2680
3 2609 2605 2617
3 2621 2603 2600
3 2632 2611 2630
3 2633 2630 2611
3 2679 2678 51
3 51 2612 2613
3 2602 2613 2616
3 2616 2613 2612
3 2615 2599 2604
3 2680 2679 2611
3 2604 2619 2633
3 2611 2614 2615
3 2605 2616 2612
3 2602 2616 2609
3 2573 2609 2618
3 2617 2576 2618
3 2617 2618 2609
3 2621 2619 2603
3 2619 2610 2633
3 2624 2622 2598
3 2606 2620 2603
3 2610 2623 2607
3 2623 2625 2624
3 2600 2622 2625
3 2621 2625 2623
3 2626 2639 2627
3 2623 2624 2635
3 2600 2625 2621
3 2622 2624 2625
3 2642 2641 2636
3 2627 2628 2629
3 2635 2607 2623
3 2627 2629 2626
3 2634 2628 2627
3 2630 2607 2631
3 2628 2598 2629
3 2633 2611 2615
3 2676 2634 2638
3 2632 2637 2608
3 2630 2631 2632
3 2637 2632 2631
3 2633 2615 2604
3 2610 2630 2633
3 2639 2653 2627
3 2676 2631 2607
3 2628 2635 2624
3 2607 2635 2634
3 2639 2642 2636
3 2671 2597 2672
3 2634 2627 2653
3 2631 2597 2637
3 2662 2650 2636
3 2640 98 2641
3 2636 2650 2653
3 2649 2652 2646
3 2626 2640 2642
3 2636 2641 2647
3 2626 2642 2639
3 2640 2641 2642
3 2681 2687 2688
3 2686 2694 2643
3 2660 2652 2658
3 2652 2660 2664
3 2649 2641 98
3 2645 2682 2654
3 2649 2647 2641
3 2657 2646 2656
3 2648 2658 2651
3 2649 2646 2647
3 2654 2652 2645
3 2636 2647 2657
3 2634 2650 2669
3 2649 2658 2652
3 2649 98 2651
3 2667 2668 2660
3 2636 2653 2639
3 2634 2653 2650
3 2682 2681 2656
3 2646 2652 2654
3 2663 2674 2661
3 2683 2685 2681
3 2654 2682 2646
3 2670 2675 2688
3 2636 2657 2662
3 2651 2658 2649
3 2660 2659 2664
3 2709 8 2710
3 2666 2645 2664
3 2658 2648 2660
3 2668 2667 2644
3 2657 2656 2675
3 2663 2650 2662
3 2669 2663 2638
3 2674 2663 2662
3 2673 2663 2661
3 2666 2664 2659
3 2652 2664 2645
3 2666 2659 2692
3 2684 2655 2685
3 2659 2695 2692
3 2666 2665 2683
3 2690 2715 2716
3 2660 2648 2667
3 2659 2660 2668
3 2634 2669 2638
3 2650 2663 2669
3 2675 2674 2662
3 2661 2670 2677
3 2631 2672 2597
3 2638 2673 2672
3 2673 2638 2663
3 2661 2671 2673
3 2672 2673 2671
3 2675 2662 2657
3 2661 2674 2670
3 2675 2656 2688
3 2674 2675 2670
3 2634 2676 2607
3 2672 2676 2638
3 2613 2679 51
3 2670 99 2677
3 2632 2680 2611
3 2611 2679 2614
3 2608 2680 2632
3 2679 2680 2678
3 2683 2681 2645
3 2688 2687 99
3 2682 2656 2646
3 2645 2681 2682
3 2666 2683 2645
3 2686 2684 2685
3 2681 2685 2655
3 2685 2665 2686
3 2665 2685 2683
3 2665 2666 2700
3 2643 2684 2686
3 2688 99 2670
3 2681 2655 2687
3 2681 2688 2656
3 2668 2717 2695
3 2705 2722 2723
3 2708 2691 2715
3 2695 2659 2668
3 2692 2700 2666
3 2691 2696 2692
3 2701 2699 2693
3 2692 2696 2697
3 2693 2699 2698
3 2701 2643 2694
3 2717 2668 2644
3 2692 2695 2691
3 2708 2707 2722
3 2697 2696 2689
3 2689 2706 2697
3 2697 2694 2700
3 2698 2697 2706
3 2703 2693 2698
3 2694 2697 2699
3 2698 2699 2697
3 2697 2700 2692
3 2686 2700 2694
3 2739 2738 2731
3 2699 2701 2694
3 2721 2731 2730
3 2719 2703 2698
3 2720 2727 2719
3 2705 2706 2722
3 2720 2719 2705
3 2722 2706 2689
3 2719 2706 2705
3 2696 2708 2689
3 2710 2713 2707
3 2696 2691 2708
3 2708 2715 2714
3 2710 8 2713
3 2707 2714 2710
3 2714 2707 2708
3 2712 2733 2724
3 2725 2734 2732
3 2704 2723 2713
3 2733 2725 2732
3 2690 2709 2714
3 2710 2714 2709
3 2695 2717 2691
3 2690 2714 2715
3 2644 2716 2717
3 2717 2715 2691
3 2717 2716 2715
3 2706 2719 2698
3 2727 9 2719
3 2720 2705 2704
3 2720 2704 2735
3 2727 2721 2728
3 2713 2732 2704
3 2728 2730 2718
3 2708 2722 2689
3 2723 2722 2707
3 2713 2723 2707
3 2705 2723 2704
3 2740 2745 2711
3 2713 8 2724
3 2756 115 2757
3 2721 2727 2720
3 2730 2728 2721
3 9 2727 2726
3 2718 2726 2728
3 2727 2728 2726
3 2734 2735 2732
3 2730 2729 2718
3 2729 2730 2737
3 2725 2740 2739
3 2730 2731 2737
3 2733 2732 2713
3 2725 2739 2734
3 2724 2733 2713
3 2741 2745 2712
3 2731 2721 2734
3 2735 2734 2721
3 2720 2735 2721
3 2732 2735 2704
3 2763 2757 2768
3 2754 2753 2738
3 2731 2738 2737
3 2746 2752 2753
3 2731 2734 2739
3 2737 2753 2702
3 2733 2712 2745
3 2738 2739 2744
3 2750 2743 2758
3 2755 2748 2740
3 2738 2744 2736
3 2745 2740 2725
3 2754 2738 2736
3 2736 2744 2748
3 2739 2740 2744
3 2733 2745 2725
3 2711 2745 2741
3 2736 2748 2750
3 2801 2742 2802
3 2740 2748 2744
3 2747 2748 2755
3 2743 2748 2747
3 2758 2757 2749
3 2763 2762 2750
3 2743 2750 2748
3 2750 2749 2763
3 2742 2751 2752
3 2752 2746 2802
3 2753 2752 2751
3 2702 2753 2751
3 2738 2753 2737
3 2762 2761 2804
3 2753 2754 2746
3 2740 2711 2755
3 2747 2755 2711
3 2781 2774 2779
3 2750 2758 2749
3 2754 2762 2746
3 2743 2756 2758
3 2757 2758 2756
3 2766 2767 2757
3 2772 2765 2764
3 115 2766 2757
3 2771 2809 2803
3 2754 2736 2762
3 2762 2736 2750
3 2757 2763 2749
3 2761 2762 2763
3 2770 2775 2774
3 2769 2764 2765
3 2752 2802 2742
3 2769 2766 115
3 2767 2766 2765
3 2772 2788 2765
3 2767 2771 2805
3 2757 2767 2768
3 2761 2768 2767
3 2783 2785 2781
3 2766 2769 2765
3 2771 2807 2792
3 2767 2765 2788
3 2790 2782 2770
3 2775 2770 2772
3 2770 2782 2788
3 2786 2850 2849
3 2764 2773 2775
3 2773 2760 2774
3 2764 2775 2772
3 2773 2774 2775
3 2783 2806 2777
3 2778 2779 2780
3 2787 2759 2795
3 2778 2780 2810
3 2774 2781 2770
3 2780 2776 2810
3 2781 2779 2778
3 2778 2783 2781
3 2779 2760 2780
3 2787 2784 2785
3 2789 2790 2770
3 2771 2767 2807
3 2783 2778 2810
3 2785 2784 2789
3 2809 2792 2808
3 2770 2781 2789
3 2783 2777 2785
3 2796 2787 2785
3 2796 2785 2777
3 2797 2850 2799
3 2798 2759 2787
3 2770 2788 2772
3 2767 2788 2782
3 2785 2789 2781
3 2789 2784 2790
3 2794 2793 2800
3 2782 2790 2792
3 2794 2790 2784
3 2784 2795 2794
3 2809 2808 114
3 2800 2793 2791
3 2793 2794 2795
3 2792 2790 2794
3 2787 2795 2784
3 2793 2795 2759
3 2797 2796 2777
3 2798 2799 2786
3 2806 2817 2818
3 2818 2797 2777
3 2787 2796 2799
3 2799 2798 2787
3 2797 2799 2796
3 2808 2800 2791
3 2792 2794 2800
3 2804 2746 2762
3 114 2801 2803
3 2761 2767 2805
3 2801 2802 2803
3 2802 2804 2805
3 2804 2761 2805
3 2746 2804 2802
3 2771 2803 2805
3 2805 2803 2802
3 59 2812 2811
3 2806 2811 2812
3 2767 2782 2807
3 2792 2807 2782
3 2803 2809 114
3 2800 2808 2792
3 2792 2809 2771
3 2811 2810 2776
3 2783 2810 2806
3 2833 2822 2834
3 2810 2811 2806
3 2806 2812 2817
3 2817 2820 2815
3 2813 2844 2845
3 2826 2812 59
3 2825 2853 2823
3 2812 2826 2820
3 2819 2826 2827
3 2818 2817 2815
3 2818 2815 2853
3 2806 2818 2777
3 2819 2828 2824
3 2822 2825 2823
3 2812 2820 2817
3 2837 2831 2833
3 2823 2820 2824
3 2832 58 2825
3 2823 2824 2822
3 2824 2820 2819
3 2832 2831 2830
3 2828 2819 2852
3 2829 2833 2834
3 2851 58 2849
3 2825 2851 2853
3 2827 2816 2852
3 2820 2826 2819
3 2863 2814 2880
3 2826 59 2827
3 2821 2837 2835
3 2836 2839 2841
3 2829 2834 2839
3 2833 2831 2822
3 2832 2822 2831
3 2821 2830 2831
3 58 2832 2830
3 2822 2832 2825
3 2834 2822 2824
3 2838 2837 2829
3 2828 2841 2824
3 2814 2847 2843
3 2876 2872 2878
3 2838 2835 2837
3 2859 2842 2857
3 2831 2837 2821
3 2829 2837 2833
3 2839 2846 2829
3 2813 2835 2838
3 2841 2839 2834
3 2842 2844 2846
3 2824 2841 2834
3 2862 2864 2840
3 2847 2841 2848
3 2846 2844 2838
3 2876 2868 2870
3 2846 2838 2829
3 2816 2843 2848
3 2842 2862 2845
3 2839 2836 2846
3 2842 2845 2844
3 2859 2857 2856
3 2836 2841 2847
3 2848 2841 2828
3 2816 2848 2828
3 2843 2847 2848
3 2799 2850 2786
3 2851 2825 58
3 2797 2853 2851
3 2849 2850 2851
3 2797 2851 2850
3 2827 2852 2819
3 2816 2828 2852
3 2818 2853 2797
3 2823 2853 2815
3 2846 2857 2842
3 2880 2854 2860
3 2861 2865 117
3 2858 2857 2846
3 2860 2883 2858
3 2858 2846 2836
3 2859 2856 2855
3 2860 2858 2836
3 2856 2857 2858
3 2864 2859 2855
3 2859 2864 2862
3 2863 2836 2847
3 2860 2854 2881
3 2845 2862 2840
3 2861 2864 2865
3 2842 2859 2862
3 2814 2863 2847
3 2860 2836 2863
3 2864 2855 2865
3 2864 2861 2840
3 2858 2883 2856
3 2906 2898 2901
3 2879 2888 2873
3 2855 2870 2865
3 2869 2871 2874
3 2895 2873 2888
3 2876 2877 2872
3 2875 2865 2879
3 2870 2868 2879
3 2877 2876 2870
3 2875 2873 2874
3 2881 2882 2884
3 2887 2891 2889
3 2874 2893 2869
3 2875 2874 2871
3 2873 2895 2893
3 117 2875 2871
3 2865 2870 2879
3 2877 2870 2855
3 2872 2884 2878
3 2855 2856 2877
3 2877 2856 2883
3 2886 2885 2887
3 2876 2878 2889
3 2868 2889 2891
3 2875 2879 2873
3 116 2878 2884
3 2863 2880 2860
3 2872 2877 2883
3 2860 2881 2883
3 2881 2854 2882
3 2883 2881 2872
3 2881 2884 2872
3 116 2884 2882
3 2923 2866 2931
3 2889 2886 2887
3 116 2886 2889
3 2879 2868 2891
3 2894 2885 2890
3 2891 2894 2888
3 2876 2889 2868
3 2889 2878 116
3 2914 2869 2893
3 2888 2896 2895
3 2894 2891 2887
3 2879 2891 2888
3 2896 2892 2895
3 2902 2904 2900
3 2873 2893 2874
3 2897 2893 2892
3 2885 2894 2887
3 2894 2890 2896
3 2888 2894 2896
3 2893 2895 2892
3 2931 2924 2890
3 2916 2917 2925
3 2901 2898 2899
3 2914 2897 2867
3 2892 2904 2902
3 2905 2901 2899
3 2902 2897 2892
3 2907 2898 2906
3 2899 2867 2905
3 2906 2901 2919
3 2904 2892 2896
3 2901 2902 2900
3 2917 2900 2904
3 2933 2913 2934
3 2932 2890 2924
3 2922 2916 2929
3 2897 2905 2867
3 2901 2905 2902
3 2919 2901 2900
3 2906 2908 2907
3 2942 2935 2937
3 2908 2906 2903
3 30 2907 2908
3 2933 2939 2940
3 2951 2960 2959
3 2913 2908 2903
3 2944 2947 2946
3 2903 2919 2918
3 2912 2933 2981
3 2934 2913 2938
3 2930 2927 31
3 2897 2914 2893
3 2927 2929 2915
3 2917 2918 2900
3 2904 2932 2925
3 2917 2916 2918
3 2926 2915 2929
3 2903 2918 2921
3 2906 2919 2903
3 2900 2918 2919
3 2935 2944 2934
3 2903 2921 2913
3 2918 2922 2921
3 2938 2920 2935
3 2916 2922 2918
3 2938 2922 2920
3 2915 2926 2928
3 2890 2885 2923
3 2896 2932 2904
3 2904 2925 2917
3 2866 2928 2924
3 2916 2925 2926
3 2925 2924 2928
3 2930 2929 2927
3 2929 2916 2926
3 2928 2926 2925
3 2922 2929 2920
3 2930 31 2937
3 2929 2930 2920
3 2923 2931 2890
3 2866 2924 2931
3 2890 2932 2896
3 2925 2932 2924
3 2911 2956 2981
3 2940 2939 30
3 2913 2921 2938
3 2911 2933 2934
3 2937 2920 2930
3 2942 2947 2944
3 2936 2942 2941
3 2937 2935 2920
3 2937 2941 2942
3 2938 2921 2922
3 2934 2938 2935
3 2908 2940 30
3 2933 2912 2939
3 2933 2940 2913
3 2943 2910 2948
3 2937 31 2941
3 2934 2944 2911
3 2935 2942 2944
3 2936 2943 2953
3 2945 2947 2953
3 2949 2957 2954
3 2911 2944 2946
3 2945 2948 2951
3 2981 2982 2912
3 2942 2936 2953
3 2946 2947 2945
3 2957 2963 2962
3 2953 2948 2945
3 2963 2957 2949
3 2957 2950 2958
3 2993 2978 2980
3 2958 2948 2910
3 2951 2950 2960
3 2911 2946 2956
3 2946 2945 2959
3 2953 2943 2948
3 2942 2953 2947
3 2971 2967 2965
3 2948 2958 2951
3 2955 2993 2956
3 2955 2956 2946
3 2956 2952 2981
3 2964 2961 2963
3 2958 2950 2951
3 2910 2954 2958
3 2957 2958 2954
3 2951 2959 2945
3 2955 2946 2959
3 2978 2950 2974
3 2959 2960 2955
3 2955 2960 2978
3 2950 2957 2962
3 2967 2962 2961
3 2974 2967 2971
3 2961 2964 118
3 2962 2963 2961
3 2975 2967 2979
3 2963 2949 2964
3 2984 3018 3017
3 2975 2979 2970
3 2976 2973 2972
3 2976 2972 2966
3 2977 2980 2991
3 2967 2975 2965
3 2962 2974 2950
3 3010 3012 2968
3 3002 3018 3003
3 2983 2972 2973
3 2971 2969 2974
3 2971 2965 2973
3 2973 2969 2971
3 2973 2965 2983
3 2974 2962 2967
3 2974 2969 2978
3 2979 2967 2961
3 2975 2970 2987
3 2991 2980 2978
3 2969 2973 2976
3 2991 2969 2976
3 2966 2977 2991
3 2980 2977 2909
3 2961 118 2979
3 3014 118 3013
3 2909 2992 2980
3 2980 2992 2993
3 2981 2933 2911
3 2952 2992 2982
3 2975 2987 2986
3 2952 2982 2981
3 2985 2987 2995
3 2995 3011 3015
3 2983 2965 2986
3 2990 119 2983
3 2975 2986 2965
3 2990 2986 2985
3 2970 3011 2995
3 2986 2987 2985
3 2990 2985 2997
3 2998 2997 2985
3 2983 2986 2990
3 2990 2989 119
3 2969 2991 2978
3 2991 2976 2966
3 2982 2992 2909
3 2993 2992 2952
3 2956 2993 2952
3 2978 2993 2955
3 3040 3042 3025
3 2990 2997 2988
3 2970 2995 2987
3 2998 2995 3005
3 3004 3002 3003
3 2997 3001 2988
3 2998 2985 2995
3 2997 2996 3001
3 3005 2995 2994
3 2996 2997 2998
3 3005 3008 3004
3 3024 3019 3023
3 3001 2996 3003
3 3000 3001 3003
3 2988 3001 3000
3 2998 3005 2996
3 3024 3021 3016
3 3003 2984 3000
3 3004 3003 2996
3 3010 3006 3008
3 3002 3004 3007
3 3008 3005 2994
3 2996 3005 3004
3 3040 60 3041
3 3002 3007 2999
3 3008 3007 3004
3 3007 3008 3049
3 3010 3008 2994
3 3008 3006 3049
3 3010 2994 3015
3 3013 3009 3011
3 3010 2968 3045
3 2970 2979 3014
3 3012 3015 3009
3 118 3014 2979
3 3012 3010 3015
3 3014 3011 2970
3 3011 3014 3013
3 2995 3015 2994
3 3015 3011 3009
3 3003 3018 2984
3 2999 3019 3002
3 3017 3018 3019
3 3018 3002 3019
3 3019 2999 3023
3 3019 3016 3017
3 3027 3020 3023
3 3033 61 3032
3 3027 3035 3020
3 3021 3024 3022
3 61 3021 3022
3 2999 3043 3027
3 3020 3022 3024
3 3019 3024 3016
3 3024 3023 3020
3 3043 3042 3026
3 3025 3042 3046
3 3051 3048 3034
3 2999 3027 3023
3 3039 3035 3026
3 3061 3031 3048
3 3065 3028 3064
3 3031 3032 3036
3 3036 3020 3035
3 3036 3048 3031
3 3036 3022 3020
3 3033 3031 3030
3 3039 3041 3037
3 3031 3033 3032
3 3039 3037 3051
3 3026 3035 3027
3 3048 3036 3034
3 3036 3032 3022
3 3034 3036 3035
3 3054 3053 3038
3 3054 3052 3053
3 3038 3053 3057
3 3031 3061 3063
3 3035 3039 3034
3 3041 3039 3026
3 3037 3041 60
3 3040 3041 3042
3 3041 3026 3042
3 3026 3027 3043
3 3046 3045 3044
3 3049 2999 3007
3 3043 3049 3046
3 3010 3045 3006
3 3025 3046 3044
3 2968 3044 3045
3 3043 3046 3042
3 3006 3045 3046
3 3034 3039 3051
3 3050 3047 3052
3 3066 3069 3068
3 3046 3049 3006
3 2999 3049 3043
3 3037 3050 3052
3 3037 60 3050
3 3048 3051 3054
3 3052 3047 3053
3 3037 3052 3051
3 3029 3058 3055
3 3058 3056 3057
3 3048 3054 3038
3 3051 3052 3054
3 3028 3065 3094
3 3053 3047 3055
3 3066 3068 3074
3 3053 3055 3058
3 3056 3074 3068
3 3058 3029 3072
3 3053 3058 3057
3 3038 3057 3068
3 3030 3063 3064
3 3062 3048 3038
3 3070 3060 3073
3 3063 3061 3059
3 3059 3061 3062
3 3048 3062 3061
3 3065 3064 3063
3 3031 3063 3030
3 3069 3038 3068
3 3065 3063 3059
3 3065 3059 3067
3 3072 3071 3056
3 3075 3101 3077
3 3069 3059 3062
3 3095 3094 3066
3 3056 3068 3057
3 3069 3066 3067
3 3059 3069 3067
3 3038 3069 3062
3 3083 3079 3080
3 3058 3072 3056
3 3077 3101 3095
3 3029 3070 3072
3 3072 3070 3073
3 3079 3073 3060
3 3072 3073 3071
3 3056 3071 3074
3 3074 3071 3077
3 3071 3079 3081
3 3077 3082 3075
3 3079 3071 3073
3 3100 3098 3099
3 3093 3101 3099
3 3092 3115 120
3 3081 3082 3077
3 3083 3080 121
3 3079 3078 3081
3 3081 3078 3082
3 3079 3060 3080
3 3071 3081 3077
3 3090 3083 3107
3 3075 3082 3089
3 3104 3106 3087
3 3079 3083 3078
3 3082 3078 3090
3 3141 3118 3125
3 3137 3140 3141
3 3107 3083 121
3 3109 3110 3111
3 3090 3091 3089
3 3110 3103 3104
3 3089 3082 3090
3 3092 3089 3085
3 3083 3090 3078
3 3090 3088 3091
3 3091 3088 3105
3 3085 3089 3091
3 3114 3113 3115
3 3098 3076 3099
3 3094 3096 3028
3 3074 3095 3066
3 3067 3094 3065
3 3093 3099 3097
3 3077 3095 3074
3 3094 3095 3093
3 3076 3096 3097
3 3097 3094 3093
3 3094 3097 3096
3 3099 3076 3097
3 120 3098 3100
3 3100 3099 3075
3 3089 3100 3075
3 3100 3092 120
3 3099 3101 3075
3 3095 3101 3093
3 3085 3091 3103
3 3126 3109 3086
3 3104 3103 3105
3 3119 3117 3118
3 3104 3107 3106
3 3108 3086 3109
3 3091 3105 3103
3 3088 3104 3105
3 3107 3088 3090
3 3107 3104 3088
3 121 3106 3107
3 3133 3135 3122
3 3087 3108 3111
3 3117 3110 3102
3 3104 3087 3111
3 3102 3110 3109
3 3109 3111 3108
3 3104 3111 3110
3 3103 3116 3085
3 3113 3114 3112
3 3115 3085 3114
3 3114 3085 3116
3 120 3115 3113
3 3085 3115 3092
3 3103 3117 3116
3 3119 3112 3114
3 3110 3117 3103
3 3118 3117 3102
3 3102 3131 3118
3 3119 3120 3112
3 3117 3119 3116
3 3118 3084 3120
3 3109 3126 3129
3 3118 3120 3119
3 3127 3121 3123
3 3132 3133 3130
3 3121 3149 3132
3 3125 3129 3130
3 3129 3102 3109
3 3144 3135 3139
3 3122 3137 3136
3 3127 3126 3086
3 3129 3126 3123
3 17 3148 3147
3 3126 3127 3123
3 3142 3134 3135
3 3130 3129 3123
3 3125 3131 3129
3 3132 3130 3123
3 3130 3133 3136
3 3118 3131 3125
3 3102 3129 3131
3 3121 3132 3123
3 3133 3132 3128
3 3142 3128 3138
3 3136 3133 3122
3 3153 3162 3171
3 3157 3158 3139
3 3128 3135 3133
3 3139 3135 3134
3 3144 3122 3135
3 3125 3130 3136
3 3141 3140 3084
3 3125 3136 3137
3 3128 3149 3148
3 3228 3174 3164
3 16 3158 3155
3 3146 3124 3137
3 3118 3141 3084
3 3137 3124 3140
3 3137 3141 3125
3 3128 3142 3135
3 3172 3142 3138
3 3139 3145 3144
3 16 3143 3145
3 3146 3145 3143
3 3145 3139 3158
3 3146 3143 3124
3 3122 3146 3137
3 3145 3146 3144
3 3180 3148 17
3 3149 3147 3148
3 3128 3148 3138
3 3132 3149 3128
3 3121 3147 3149
3 101 3151 2553
3 2553 3151 2544
3 3150 2583 3152
3 2585 3151 3152
3 3150 3152 3151
3 3172 3181 3176
3 3162 3154 3163
3 3156 3154 3155
3 3157 3139 3134
3 3154 3156 3163
3 3168 3157 3134
3 3158 3156 3155
3 3158 16 3145
3 3156 3158 3157
3 3134 3172 3176
3 3167 3160 3163
3 3170 3166 3171
3 3167 3163 3156
3 3177 3161 3178
3 3171 3162 3160
3 3162 3163 3160
3 3207 3188 3189
3 3207 3197 3202
3 3167 3156 3168
3 3183 3179 3182
3 3160 3167 3170
3 3212 3207 3202
3 3156 3157 3168
3 3184 3170 3165
3 3134 3142 3172
3 3167 3168 3176
3 3169 3170 3184
3 3166 3169 3174
3 3165 3170 3167
3 3166 3170 3169
3 3170 3171 3160
3 3171 3166 3231
3 3180 17 3177
3 3178 3179 3181
3 3165 3181 3179
3 3187 3175 3173
3 3169 3175 3174
3 3175 3187 3188
3 3184 3175 3169
3 3186 3191 3190
3 3167 3176 3165
3 3134 3176 3168
3 3178 3161 3179
3 3178 3172 3180
3 3180 3172 3138
3 3183 3182 3159
3 3184 3179 3173
3 3180 3138 3148
3 3177 3178 3180
3 3176 3181 3165
3 3178 3181 3172
3 3187 3183 3159
3 3179 3161 3182
3 3179 3183 3173
3 3179 3184 3165
3 3175 3184 3173
3 3187 3173 3183
3 3231 3228 3209
3 3164 3174 3188
3 3188 3187 3191
3 3175 3188 3174
3 3187 3190 3191
3 125 3193 3192
3 3189 3192 3193
3 3192 3191 3186
3 3187 3159 3190
3 3188 3191 3189
3 3208 3196 3223
3 3191 3192 3189
3 3189 3193 3197
3 3197 3203 3196
3 3266 3230 3204
3 3193 125 3200
3 3229 3206 3215
3 3201 3199 3200
3 3197 3196 3202
3 3206 3213 3215
3 3200 3197 3193
3 3200 3203 3197
3 3199 3201 3198
3 3200 3199 3203
3 3208 3202 3196
3 3200 125 3201
3 3202 3208 3211
3 3206 3203 3199
3 3221 3206 3229
3 3199 3213 3206
3 3215 3218 3204
3 3213 3199 3198
3 3226 3230 3205
3 3220 3229 3230
3 3188 3207 3164
3 3197 3207 3189
3 3221 3222 3223
3 3211 3185 3209
3 3185 3227 3231
3 3207 3212 3164
3 3208 3210 3211
3 3225 3210 3208
3 3185 3211 3210
3 3211 3212 3202
3 3228 3212 3209
3 3215 3213 3216
3 3215 3204 3229
3 3213 3198 3216
3 3198 3214 3216
3 3215 3216 3218
3 3195 3219 3214
3 3219 3217 3218
3 3252 3253 3249
3 3238 3244 3243
3 3219 3218 3216
3 3267 3233 3217
3 3214 3219 3216
3 3195 3254 3270
3 3224 124 3225
3 3203 3221 3196
3 3206 3221 3203
3 3221 3220 3222
3 3226 3222 3220
3 3210 3225 124
3 3221 3223 3196
3 3225 3223 3222
3 3223 3225 3208
3 3226 3224 3222
3 3224 3225 3222
3 3230 3226 3220
3 3224 3226 3205
3 3174 3228 3166
3 3231 3166 3228
3 3212 3228 3164
3 3230 3229 3204
3 3221 3229 3220
3 3218 3217 3233
3 3205 3230 3234
3 3185 3231 3209
3 3171 3231 3227
3 3238 3243 3236
3 3235 3239 3194
3 3266 3233 3232
3 3204 3218 3233
3 3266 3235 3230
3 3230 3194 3234
3 3238 3236 3237
3 3240 3242 3267
3 3239 3238 3237
3 3232 3242 3239
3 3242 3238 3239
3 3194 3239 3237
3 3232 3239 3235
3 3249 3245 3246
3 3268 3236 3243
3 3246 3244 3240
3 3248 3241 3244
3 3267 3242 3232
3 3244 3242 3240
3 3238 3242 3244
3 3268 3243 3241
3 3252 62 3253
3 3241 3243 3244
3 3302 3296 3283
3 3246 3248 3244
3 3240 3267 3269
3 3246 3245 3248
3 3262 3245 3253
3 3247 3249 3270
3 63 3241 3250
3 3269 3246 3240
3 3269 3270 3249
3 3273 3256 3259
3 63 3250 3272
3 3280 3281 3260
3 3278 3285 3284
3 3249 3247 3252
3 3249 3253 3245
3 3263 3245 3262
3 3270 3219 3195
3 3257 3259 3256
3 3264 3265 3263
3 3259 3258 3273
3 3271 3273 3277
3 3257 3272 3259
3 3265 3248 3263
3 62 3281 3282
3 3245 3263 3248
3 3280 3278 3279
3 3282 3253 62
3 3262 3261 3263
3 3261 3264 3263
3 3258 3265 3264
3 3286 3280 3260
3 3265 3258 3259
3 3272 3265 3259
3 3248 3265 3250
3 3233 3266 3204
3 3235 3266 3232
3 3233 3267 3232
3 3269 3267 3217
3 3270 3269 3217
3 3241 63 3268
3 3246 3269 3249
3 3219 3270 3217
3 3270 3254 3247
3 3258 3279 3284
3 3256 3271 3275
3 63 3272 3257
3 3265 3272 3250
3 3277 3273 3258
3 3256 3273 3271
3 3294 3299 3295
3 3275 3287 3255
3 3292 3293 3290
3 3287 3275 3271
3 3305 3309 3276
3 3264 3279 3258
3 3283 3277 3274
3 3285 3286 3251
3 3274 3277 3284
3 3261 3279 3264
3 3279 3278 3284
3 3279 3261 3280
3 3261 3262 3282
3 3282 3262 3253
3 3282 3280 3261
3 3280 3282 3281
3 3283 3274 3302
3 3283 3276 3287
3 3284 3277 3258
3 3286 3278 3280
3 3292 3294 3291
3 3274 3284 3285
3 3283 3287 3271
3 3278 3286 3285
3 3287 3276 3309
3 3295 3299 3288
3 3255 3287 3309
3 3296 3302 3295
3 3292 3290 3289
3 3251 3290 3293
3 3293 3274 3285
3 3294 3292 3289
3 3293 3292 3291
3 3293 3291 3302
3 3293 3285 3251
3 3300 3297 122
3 122 3327 3300
3 3296 3295 3288
3 3291 3294 3295
3 3308 3301 3303
3 3283 3296 3305
3 3342 3341 3333
3 3294 3289 3297
3 3320 3311 3322
3 3294 3297 3300
3 3299 3298 3322
3 3298 3299 3300
3 3300 3299 3294
3 3293 3302 3274
3 3309 3305 3303
3 3295 3302 3291
3 3288 3306 3296
3 3305 3306 3303
3 3283 3305 3276
3 3301 3304 3309
3 3306 3305 3296
3 3299 3311 3288
3 3308 3307 3301
3 3288 3311 3312
3 3308 3303 3306
3 3307 3308 3313
3 3301 3309 3303
3 3309 3304 3255
3 3427 3428 3317
3 3333 3334 3335
3 3312 3313 3308
3 3288 3312 3306
3 3313 3312 3311
3 3316 3318 3315
3 3313 123 3307
3 3427 3320 3321
3 3341 3346 3324
3 3318 3319 3317
3 3313 3320 3319
3 3423 3427 3331
3 3319 3318 3316
3 3428 3424 3425
3 123 3319 3316
3 3313 3311 3320
3 3320 3322 3321
3 3317 3319 3320
3 3326 3323 3330
3 3321 3328 3331
3 3299 3322 3311
3 3328 3322 3298
3 3334 3333 3324
3 3325 3331 3328
3 3324 3424 3423
3 3298 3300 3327
3 3325 3326 3330
3 3326 3327 122
3 3327 3326 3325
3 3327 3325 3328
3 3322 3328 3321
3 3327 3328 3298
3 3335 3310 3333
3 3423 3331 3426
3 3332 3330 3323
3 3331 3330 3329
3 3330 3331 3325
3 3329 3334 3426
3 3339 3343 3337
3 3332 3335 3330
3 3333 3310 3342
3 3324 3423 3426
3 3335 3334 3329
3 3330 3335 3329
3 3310 3335 3332
3 3340 3343 3336
3 3338 3336 3339
3 3353 3350 3352
3 3354 32 3364
3 3310 3338 3342
3 3339 3337 3341
3 3360 3357 3358
3 3349 3360 3351
3 3425 3315 3318
3 3333 3341 3324
3 3338 3339 3342
3 3341 3342 3339
3 3336 3343 3339
3 3340 3363 3343
3 3346 3341 3347
3 3345 3347 3350
3 3345 3346 3347
3 3347 3341 3337
3 3346 3345 3424
3 3351 3347 3337
3 3351 3350 3347
3 3337 3343 3349
3 3355 3344 3356
3 3363 3364 3361
3 3407 3386 3391
3 3356 3350 3348
3 3353 3352 3314
3 3349 3351 3337
3 3350 3351 3348
3 3353 3314 3430
3 3350 3344 3352
3 3350 3353 3345
3 3350 3356 3344
3 3340 3336 3354
3 3348 3358 3356
3 3360 3358 3348
3 3363 3349 3343
3 3378 3366 3365
3 3356 3358 3355
3 3383 3358 3357
3 3351 3360 3348
3 3363 3365 3366
3 3366 3360 3349
3 3367 3381 3375
3 3368 3365 3361
3 3364 3363 3340
3 3380 3372 3377
3 3365 3363 3361
3 3354 3364 3340
3 32 3400 3401
3 3371 3367 3368
3 3366 3378 3357
3 3360 3366 3357
3 3363 3366 3349
3 3371 3381 3367
3 33 3383 3382
3 3400 3369 3373
3 3370 3389 3387
3 3373 3368 3361
3 3371 3368 3373
3 3376 3365 3368
3 3374 3359 3375
3 3377 3376 3368
3 3377 3367 3394
3 3361 3364 3401
3 3369 3371 3373
3 3412 3408 3390
3 3369 3374 3381
3 3375 3384 3367
3 3377 3368 3367
3 3376 3372 3378
3 3380 3377 3394
3 3372 3376 3377
3 3393 3378 3372
3 3358 3383 33
3 3379 3380 3394
3 3385 3392 3362
3 3379 3385 3380
3 3387 3389 3385
3 3369 3381 3371
3 3374 3375 3381
3 3357 3378 3383
3 3382 3383 3393
3 3383 3378 3393
3 3399 3359 3398
3 3396 3415 3395
3 3391 3386 3388
3 3393 3389 3370
3 3372 3380 3389
3 3388 3392 3391
3 3385 3362 3387
3 3392 3385 3379
3 3385 3389 3380
3 3396 3379 3384
3 3407 3408 3406
3 3388 3362 3392
3 3391 3390 3407
3 3412 3379 3396
3 3391 3392 3390
3 3389 3393 3372
3 3382 3393 3370
3 3367 3384 3394
3 3379 3394 3384
3 3384 3375 3399
3 3402 3405 3386
3 3384 3399 3415
3 3395 3408 3412
3 3397 3416 3403
3 3415 3396 3384
3 3414 3416 3404
3 3359 3399 3375
3 3414 3415 3398
3 32 3401 3364
3 3401 3373 3361
3 3373 3401 3400
3 3407 3406 3413
3 3411 3413 3406
3 127 3418 3417
3 3398 3359 3403
3 3409 3411 3406
3 3409 3406 3408
3 3402 126 3405
3 3421 3410 3411
3 3407 3402 3386
3 3408 3407 3390
3 3390 3392 3412
3 3409 3408 3395
3 3414 3409 3395
3 3402 3407 3413
3 3454 3447 3449
3 3444 3450 3431
3 3404 3422 3409
3 3418 3422 3419
3 3379 3412 3392
3 3395 3412 3396
3 3411 3410 3413
3 3434 3413 3441
3 3416 3414 3398
3 3409 3414 3404
3 3398 3415 3399
3 3395 3415 3414
3 3403 3416 3398
3 3419 3416 3397
3 3455 3456 3463
3 3416 3419 3404
3 3418 3421 3422
3 3397 3417 3419
3 3418 3419 3417
3 3422 3421 3411
3 3446 3448 3458
3 3464 3418 127
3 3409 3422 3411
3 3419 3422 3404
3 3324 3346 3424
3 3423 3428 3427
3 3430 3345 3353
3 3425 3429 3315
3 3428 3318 3317
3 3425 3430 3429
3 3329 3426 3331
3 3324 3426 3334
3 3320 3427 3317
3 3331 3427 3321
3 3424 3428 3423
3 3318 3428 3425
3 3430 3424 3345
3 3430 3425 3424
3 3314 3429 3430
3 3439 3435 3440
3 3432 3438 3440
3 3436 3438 3432
3 3436 126 3437
3 3441 3413 3410
3 3434 3433 3437
3 3457 3435 3439
3 3442 3450 3444
3 3434 3437 126
3 3436 3437 3438
3 3438 3437 3433
3 3439 3438 3433
3 3438 3439 3440
3 3433 3441 3439
3 3462 3456 3457
3 3445 3440 3435
3 3443 3432 3440
3 3434 3441 3433
3 3462 3441 3410
3 3439 3462 3457
3 3448 3442 3445
3 3431 3443 3444
3 3440 3445 3444
3 3440 3444 3443
3 3448 3445 3435
3 3444 3445 3442
3 3481 3482 3577
3 3468 3447 3467
3 3458 3435 3457
3 3442 3452 3450
3 3486 3452 3453
3 3446 3453 3448
3 3450 3449 3431
3 3450 3452 3454
3 3476 3475 3465
3 3485 3472 3471
3 3453 3442 3448
3 3467 3451 3472
3 3453 3446 3474
3 3442 3453 3452
3 3450 3454 3449
3 3451 3454 3452
3 3464 3456 3421
3 3421 3456 3410
3 3459 3455 3461
3 3459 3456 3455
3 3458 3448 3435
3 3459 3458 3457
3 3420 3475 3477
3 3456 3459 3457
3 3460 3461 3420
3 3446 3458 3460
3 3459 3460 3458
3 3441 3462 3439
3 3459 3461 3460
3 3456 3462 3410
3 3418 3464 3421
3 3464 3463 3456
3 3463 3464 127
3 3454 3467 3447
3 3476 3484 3474
3 3471 3472 3480
3 3451 3467 3454
3 3468 3466 64
3 3500 3502 3505
3 3466 3468 3467
3 3495 3502 3470
3 3480 3486 3474
3 3496 3478 3490
3 3469 3479 3485
3 3467 3472 3466
3 3480 3472 3451
3 3482 3483 65
3 3480 3481 3471
3 3476 3477 3475
3 3474 3473 3480
3 3476 3465 3484
3 3420 3477 3460
3 3477 3474 3446
3 3474 3477 3476
3 3446 3460 3477
3 3479 3492 3490
3 3490 3478 3487
3 64 3479 3491
3 3480 3451 3486
3 3481 3480 3473
3 3482 3481 3473
3 3471 3481 3469
3 3482 3484 3483
3 3573 3576 3574
3 3484 3473 3474
3 3484 3482 3473
3 3465 3483 3484
3 3469 3485 3471
3 64 3485 3479
3 3452 3486 3451
3 3453 3474 3486
3 3574 3576 3577
3 3494 3496 3489
3 3510 3497 3580
3 3470 3493 3495
3 3487 3491 3490
3 3492 3479 3469
3 64 3491 3487
3 3479 3490 3491
3 3581 3469 3575
3 3489 3490 3492
3 3489 3499 3494
3 3496 3495 3493
3 3520 3504 3521
3 3493 3478 3496
3 3495 3494 3502
3 3489 3496 3490
3 3494 3495 3496
3 3577 3469 3481
3 3510 3513 3507
3 3489 3581 3578
3 3506 3470 3500
3 3497 3509 3499
3 3501 3494 3499
3 3501 3505 3502
3 3515 3504 3507
3 3504 3505 3509
3 3502 3500 3470
3 3494 3501 3502
3 3503 3514 3518
3 3498 3506 3520
3 3501 3499 3509
3 3504 3503 3521
3 3505 3501 3509
3 3520 3505 3504
3 3510 3507 3509
3 3520 3506 3500
3 3503 3515 3514
3 3503 3518 3522
3 3498 3520 3546
3 3510 3509 3497
3 3509 3507 3504
3 3580 3579 3488
3 3512 3511 3513
3 3514 3513 3511
3 3513 3510 3512
3 3510 3488 3512
3 3504 3515 3503
3 128 3519 3516
3 3519 3517 3518
3 3507 3513 3515
3 3514 3515 3513
3 3559 3551 3552
3 3514 3511 3516
3 3546 3547 129
3 3519 3518 3514
3 3518 3517 3534
3 3516 3519 3514
3 3519 128 3538
3 3520 3500 3505
3 3546 3520 3508
3 3522 3521 3503
3 3520 3521 3508
3 3533 3528 3530
3 3508 3522 3524
3 3549 3526 3529
3 3540 3542 3535
3 3556 3558 3554
3 3533 3534 3532
3 3526 3527 3529
3 3529 3530 3528
3 3524 3530 3529
3 3550 3526 3549
3 3524 3529 3527
3 3528 3553 3549
3 3524 3522 3530
3 3533 3530 3522
3 3536 3532 3534
3 3537 3531 3535
3 3531 3540 3535
3 3534 3533 3522
3 3528 3533 3532
3 3518 3534 3522
3 3536 3534 3517
3 3517 3519 3538
3 3543 3540 3541
3 3538 3536 3517
3 3542 3536 3535
3 128 3537 3538
3 3535 3536 3538
3 3535 3538 3537
3 3564 3569 3554
3 3532 3536 3542
3 3540 3543 3539
3 3540 3539 3542
3 3542 3539 3552
3 3540 3531 3541
3 3528 3532 3542
3 3544 3570 3586
3 3541 3523 3543
3 3557 3560 3589
3 3589 3545 3591
3 129 3547 3524
3 3524 3547 3508
3 3546 3508 3547
3 3542 3552 3553
3 3551 3556 3553
3 3528 3549 3529
3 3548 3555 3550
3 3539 3543 3559
3 3548 3550 3549
3 3555 3525 3550
3 3552 3539 3559
3 3552 3551 3553
3 3549 3553 3548
3 3553 3528 3542
3 3559 3558 3551
3 3562 3568 3564
3 3548 3553 3556
3 3555 3554 3569
3 3554 3555 3556
3 3548 3556 3555
3 3523 3545 3560
3 3563 3584 3562
3 3551 3558 3556
3 3586 3584 3583
3 3560 3543 3523
3 3558 3559 3557
3 3557 3559 3560
3 3560 3559 3543
3 3564 3568 3561
3 3563 3564 3554
3 3558 3563 3554
3 3557 3563 3558
3 3564 3563 3562
3 3570 3568 3562
3 3555 3569 3525
3 3568 3572 3567
3 3565 3568 3570
3 3561 3566 3569
3 3568 3571 3572
3 3561 3568 3567
3 3561 3569 3564
3 3569 3566 3525
3 3586 3570 3562
3 3565 3570 3544
3 3510 3580 3488
3 3568 3565 3571
3 3571 2 3572
3 3499 3578 3497
3 65 3574 3577
3 3492 3581 3489
3 3579 3582 3573
3 3577 3576 3575
3 3469 3577 3575
3 3577 3482 65
3 3489 3578 3499
3 3575 3576 3582
3 3497 3578 3580
3 3579 3580 3582
3 3580 3578 3582
3 3469 3581 3492
3 3578 3581 3575
3 3575 3582 3578
3 3573 3582 3576
3 3585 3590 1
3 3587 3544 3586
3 3563 3557 3584
3 3589 3584 3557
3 3584 3586 3562
3 3585 3587 3590
3 3586 3583 3587
3 3587 3583 3588
3 3544 3587 3585
3 3545 3589 3560
3 3583 3591 3588
3 3584 3589 3583
3 3587 3588 3590
3 3589 3591 3583

CELL_TYPES 6146
5
5
5
5
5
5
5
5
5
5
5
5
5
5
5
5
5
5
5
5
5
5
5
5
5
5
5
5
5
5
5
5
5
5
5
5
5
5
5
5
5
5
5
5
5
5
5
5
5
5
5
5
5
5
5
5
5
5
5
5
5
5
5
5
5
5
5
5
5
5
5
5
5
5
5
5
5
5
5
5
5
5
5
5
5
5
5
5
5
5
5
5
5
5
5
5
5
5
5
5
5
5
5
5
5
5
5
5
5
5
5
5
5
5
5
5
5
5
5
5
5
5
5
5
5
5
5
5
5
5
5
5
5
5
5
5
5
5
5
5
5
5
5
5
5
5
5
5
5
5
5
5
5
5
5
5
5
5
5
5
5
5
5
5
5
5
5
5
5
5
5
5
5
5
5
5
5
5
5
5
5
5
5
5
5
5
5
5
5
5
5
5
5
5
5
5
5
5
5
5
5
5
5
5
5
5
5
5
5
5
5
5
5
5
5
5
5
5
5
5
5
5
5
5
5
5
5
5
5
5
5
5
5
5
5
5
5
5
5
5
5
5
5
5
5
5
5
5
5
5
5
5
5
5
5
5
5
5
5
5
5
5
5
5
5
5
5
5
5
5
5
5
5
5
5
5
5
5
5
5
5
5
5
5
5
5
5
5
5
5
5
5
5
5
5
5
5
5
5
5
5
5
5
5
5
5
5
5
5
5
5
5
5
5
5
5
5
5
5
5
5
5
5
5
5
5
5
5
5
5
5
5
5
5
5
5
5
5
5
5
5
5
5
5
5
5
5
5
5
5
5
5
5
5
5
5
5
5
5
5
5
5
5
5
5
5
5
5
5
5
5
5
5
5
5
5
5
5
5
5
5
5
5
5
5
5
5
5
5
5
5
5
5
5
5
5
5
5
5
5
5
5
5
5
5
5
5
5
5
5
5
5
5
5
5
5
5
5
5
5
5
5
5
5
5
5
5
5
5
5
5
5
5
5
5
5
5
5
5
5
5
5
5
5
5
5
5
5
5
5
5
5
5
5
5
5
5
5
5
5
5
5
5
5
5
5
5
5
5
5
5
5
5
5
5
5
5
5
5
5
5
5
5
5
5
5
5
5
5
5
5
5
5
5
5
5
5
5
5
5
5
5
5
5
5
5
5
5
5
5
5
5
5
5
5
5
5
5
5
5
5
5
5
5
5
5
5
5
5
5
5
5
5
5
5
5
5
5
5
5
5
5
5
5
5
5
5
5
5
5
5
5
5
5
5
5
5
5
5
5
5
5
5
5
5
5
5
5
5
5
5
5
5
5
5
5
5
5
5
5
5
5
5
5
5
5
5
5
5
5
5
5
5
5
5
5
5
5
5
5
5
5
5
5
5
5
5
5
5
5
5
5
5
5
5
5
5
5
5
5
5
5
5
5
5
5
5
5
5
5
5
5
5
5
5
5
5
5
5
5
5
5
5
5
5
5
5
5
5
5
5
5
5
5
5
5
5
5
5
5
5
5
5
5
5
5
5
5
5
5
5
5
5
5
5
5
5
5
5
5
5
5
5
5
5
5
5
5
5
5
5
5
5
5
5
5
5
5
5
5
5
5
5
5
5
5
5
5
5
5
5
5
5
5
5
5
5
5
5
5
5
5
5
5
5
5
5
5
5
5
5
5
5
5
5
5
5
5
5
5
5
5
5
5
5
5
5
5
5
5
5
5
5
5
5
5
5
5
5
5
5
5
5
5
5
5
5
5
5
5
5
5
5
5
5
5
5
5
5
5
5
5
5
5
5
5
5
5
5
5
5
5
5
5
5
5
5
5
5
5
5
5
5
5
5
5
5
5
5
5
5
5
5
5
5
5
5
5
5
5
5
5
5
5
5
5
5
5
5
5
5
5
5
5
5
5
5
5
5
5
5
5
5
5
5
5
5
5
5
5
5
5
5
5
5
5
5
5
5
5
5
5
5
5
5
5
5
5
5
5
5
5
5
5
5
5
5
5
5
5
5
5
5
5
5
5
5
5
5
5
5
5
5
5
5
5
5
5
5
5
5
5
5
5
5
5
5
5
5
5
5
5
5
5
5
5
5
5
5
5
5
5
5
5
5
5
5
5
5
5
5
5
5
5
5
5
5
5
5
5
5
5
5
5
5
5
5
5
5
5
5
5
5
5
5
5
5
5
5
5
5
5
5
5
5
5
5
5
5
5
5
5
5
5
5
5
5
5
5
5
5
5
5
5
5
5
5
5
5
5
5
5
5
5
5
5
5
5
5
5
5
5
5
5
5
5
5
5
5
5
5
5
5
5
5
5
5
5
5
5
5
5
5
5
5
5
5
5
5
5
5
5
5
5
5
5
5
5
5
5
5
5
5
5
5
5
5
5
5
5
5
5
5
5
5
5
5
5
5
5
5
5
5
5
5
5
5
5
5
5
5
5
5
5
5
5
5
5
5
5
5
5
5
5
5
5
5
5
5
5
5
5
5
5
5
5
5
5
5
5
5
5
5
5
5
5
5
5
5
5
5
5
5
5
5
5
5
5
5
5
5
5
5
5
5
5
5
5
5
5
5
5
5
5
5
5
5
5
5
5
5
5
5
5
5
5
5
5
5
5
5
5
5
5
5
5
5
5
5
5
5
5
5
5
5
5
5
5
5
5
5
5
5
5
5
5
5
5
5
5
5
5
5
5
5
5
5
5
5
5
5
5
5
5
5
5
5
5
5
5
5
5
5
5
5
5
5
5
5
5
5
5
5
5
5
5
5
5
5
5
5
5
5
5
5
5
5
5
5
5
5
5
5
5
5
5
5
5
5
5
5
5
5
5
5
5
5
5
5
5
5
5
5
5
5
5
5
5
5
5
5
5
5
5
5
5
5
5
5
5
5
5
5
5
5
5
5
5
5
5
5
5
5
5
5
5
5
5
5
5
5
5
5
5
5
5
5
5
5
5
5
5
5
5
5
5
5
5
5
5
5
5
5
5
5
5
5
5
5
5
5
5
5
5
5
5
5
5
5
5
5
5
5
5
5
5
5
5
5
5
5
5
5
5
5
5
5
5
5
5
5
5
5
5
5
5
5
5
5
5
5
5
5
5
5
5
5
5
5
5
5
5
5
5
5
5
5
5
5
5
5
5
5
5
5
5
5
5
5
5
5
5
5
5
5
5
5
5
5
5
5
5
5
5
5
5
5
5
5
5
5
5
5
5
5
5
5
5
5
5
5
5
5
5
5
5
5
5
5
5
5
5
5
5
5
5
5
5
5
5
5
5
5
5
5
5
5
5
5
5
5
5
5
5
5
5
5
5
5
5
5
5
5
5
5
5
5
5
5
5
5
5
5
5
5
5
5
5
5
5
5
5
5
5
5
5
5
5
5
5
5
5
5
5
5
5
5
5
5
5
5
5
5
5
5
5
5
5
5
5
5
5
5
5
5
5
5
5
5
5
5
5
5
5
5
5
5
5
5
5
5
5
5
5
5
5
5
5
5
5
5
5
5
5
5
5
5
5
5
5
5
5
5
5
5
5
5
5
5
5
5
5
5
5
5
5
5
5
5
5
5
5
5
5
5
5
5
5
5
5
5
5
5
5
5
5
5
5
5
5
5
5
5
5
5
5
5
5
5
5
5
5
5
5
5
5
5
5
5
5
5
5
5
5
5
5
5
5
5
5
5
5
5
5
5
5
5
5
5
5
5
5
5
5
5
5
5
5
5
5
5
5
5
5
5
5
5
5
5
5
5
5
5
5
5
5
5
5
5
5
5
5
5
5
5
5
5
5
5
5
5
5
5
5
5
5
5
5
5
5
5
5
5
5
5
5
5
5
5
5
5
5
5
5
5
5
5
5
5
5
5
5
5
5
5
5
5
5
5
5
5
5
5
5
5
5
5
5
5
5
5
5
5
5
5
5
5
5
5
5
5
5
5
5
5
5
5
5
5
5
5
5
5
5
5
5
5
5
5
5
5
5
5
5
5
5
5
5
5
5
5
5
5
5
5
5
5
5
5
5
5
5
5
5
5
5
5
5
5
5
5
5
5
5
5
5
5
5
5
5
5
5
5
5
5
5
5
5
5
5
5
5
5
5
5
5
5
5
5
5
5
5
5
5
5
5
5
5
5
5
5
5
5
5
5
5
5
5
5
5
5
5
5
5
5
5
5
5
5
5
5
5
5
5
5
5
5
5
5
5
5
5
5
5
5
5
5
5
5
5
5
5
5
5
5
5
5
5
5
5
5
5
5
5
5
5
5
5
5
5
5
5
5
5
5
5
5
5
5
5
5
5
5
5
5
5
5
5
5
5
5
5
5
5
5
5
5
5
5
5
5
5
5
5
5
5
5
5
5
5
5
5
5
5
5
5
5
5
5
5
5
5
5
5
5
5
5
5
5
5
5
5
5
5
5
5
5
5
5
5
5
5
5
5
5
5
5
5
5
5
5
5
5
5
5
5
5
5
5
5
5
5
5
5
5
5
5
5
5
5
5
5
5
5
5
5
5
5
5
5
5
5
5
5
5
5
5
5
5
5
5
5
5
5
5
5
5
5
5
5
5
5
5
5
5
5
5
5
5
5
5
5
5
5
5
5
5
5
5
5
5
5
5
5
5
5
5
5
5
5
5
5
5
5
5
5
5
5
5
5
5
5
5
5
5
5
5
5
5
5
5
5
5
5
5
5
5
5
5
5
5
5
5
5
5
5
5
5
5
5
5
5
5
5
5
5
5
5
5
5
5
5
5
5
5
5
5
5
5
5
5
5
5
5
5
5
5
5
5
5
5
5
5
5
5
5
5
5
5
5
5
5
5
5
5
5
5
5
5
5
5
5
5
5
5
5
5
5
5
5
5
5
5
5
5
5
5
5
5
5
5
5
5
5
5
5
5
5
5
5
5
5
5
5
5
5
5
5
5
5
5
5
5
5
5
5
5
5
5
5
5
5
5
5
5
5
5
5
5
5
5
5
5
5
5
5
5
5
5
5
5
5
5
5
5
5
5
5
5
5
5
5
5
5
5
5
5
5
5
5
5
5
5
5
5
5
5
5
5
5
5
5
5
5
5
5
5
5
5
5
5
5
5
5
5
5
5
5
5
5
5
5
5
5
5
5
5
5
5
5
5
5
5
5
5
5
5
5
5
5
5
5
5
5
5
5
5
5
5
5
5
5
5
5
5
5
5
5
5
5
5
5
5
5
5
5
5
5
5
5
5
5
5
5
5
5
5
5
5
5
5
5
5
5
5
5
5
5
5
5
5
5
5
5
5
5
5
5
5
5
5
5
5
5
5
5
5
5
5
5
5
5
5
5
5
5
5
5
5
5
5
5
5
5
5
5
5
5
5
5
5
5
5
5
5
5
5
5
5
5
5
5
5
5
5
5
5
5
5
5
5
5
5
5
5
5
5
5
5
5
5
5
5
5
5
5
5
5
5
5
5
5
5
5
5
5
5
5
5
5
5
5
5
5
5
5
5
5
5
5
5
5
5
5
5
5
5
5
5
5
5
5
5
5
5
5
5
5
5
5
5
5
5
5
5
5
5
5
5
5
5
5
5
5
5
5
5
5
5
5
5
5
5
5
5
5
5
5
5
5
5
5
5
5
5
5
5
5
5
5
5
5
5
5
5
5
5
5
5
5
5
5
5
5
5
5
5
5
5
5
5
5
5
5
5
5
5
5
5
5
5
5
5
5
5
5
5
5
5
5
5
5
5
5
5
5
5
5
5
5
5
5
5
5
5
5
5
5
5
5
5
5
5
5
5
5
5
5
5
5
5
5
5
5
5
5
5
5
5
5
5
5
5
5
5
5
5
5
5
5
5
5
5
5
5
5
5
5
5
5
5
5
5
5
5
5
5
5
5
5
5
5
5
5
5
5
5
5
5
5
5
5
5
5
5
5
5
5
5
5
5
5
5
5
5
5
5
5
5
5
5
5
5
5
5
5
5
5
5
5
5
5
5
5
5
5
5
5
5
5
5
5
5
5
5
5
5
5
5
5
5
5
5
5
5
5
5
5
5
5
5
5
5
5
5
5
5
5
5
5
5
5
5
5
5
5
5
5
5
5
5
5
5
5
5
5
5
5
5
5
5
5
5
5
5
5
5
5
5
5
5
5
5
5
5
5
5
5
5
5
5
5
5
5
5
5
5
5
5
5
5
5
5
5
5
5
5
5
5
5
5
5
5
5
5
5
5
5
5
5
5
5
5
5
5
5
5
5
5
5
5
5
5
5
5
5
5
5
5
5
5
5
5
5
5
5
5
5
5
5
5
5
5
5
5
5
5
5
5
5
5
5
5
5
5
5
5
5
5
5
5
5
5
5
5
5
5
5
5
5
5
5
5
5
5
5
5
5
5
5
5
5
5
5
5
5
5
5
5
5
5
5
5
5
5
5
5
5
5
5
5
5
5
5
5
5
5
5
5
5
5
5
5
5
5
5
5
5
5
5
5
5
5
5
5
5
5
5
5
5
5
5
5
5
5
5
5
5
5
5
5
5
5
5
5
5
5
5
5
5
5
5
5
5
5
5
5
5
5
5
5
5
5
5
5
5
5
5
5
5
5
5
5
5
5
5
5
5
5
5
5
5
5
5
5
5
5
5
5
5
5
5
5
5
5
5
5
5
5
5
5
5
5
5
5
5
5
5
5
5
5
5
5
5
5
5
5
5
5
5
5
5
5
5
5
5
5
5
5
5
5
5
5
5
5
5
5
5
5
5
5
5
5
5
5
5
5
5
5
5
5
5
5
5
5
5
5
5
5
5
5
5
5
5
5
5
5
5
5
5
5
5
5
5
5
5
5
5
5
5
5
5
5
5
5
5
5
5
5
5
5
5
5
5
5
5
5
5
5
5
5
5
5
5
5
5
5
5
5
5
5
5
5
5
5
5
5
5
5
5
5
5
5
5
5
5
5
5
5
5
5
5
5
5
5
5
5
5
5
5
5
5
5
5
5
5
5
5
5
5
5
5
5
5
5
5
5
5
5
5
5
5
5
5
5
5
5
5
5
5
5
5
5
5
5
5
5
5
5
5
5
5
5
5
5
5
5
5
5
5
5
5
5
5
5
5
5
5
5
5
5
5
5
5
5
5
5
5
5
5
5
5
5
5
5
5
5
5
5
5
5
5
5
5
5
5
5
5
5
5
5
5
5
5
5
5
5
5
5
5
5
5
5
5
5
5
5
5
5
5
5
5
5
5
5
5
5
5
5
5
5
5
5
5
5
5
5
5
5
5
5
5
5
5
5
5
5
5
5
5
5
5
5
5
5
5
5
5
5
5
5
5
5
5
5
5
5
5
5
5
5
5
5
5
5
5
5
5
5
5
5
5
5
5
5
5
5
5
5
5
5
5
5
5
5
5
5
5
5
5
5
5
5
5
5
5
5
5
5
5
5
5
5
5
5
5
5
5
5
5
5
5
5
5
5
5
5
5
5
5
5
5
5
5
5
5
5
5
5
5
5
5
5
5
5
5
5
5
5
5
5
5
5
5
5
5
5
5
5
5
5
5
5
5
5
5
5
5
5
5
5
5
5
5
5
5
5
5
5
5
5
5
5
5
5
5
5
5
5
5
5
5
5
5
5
5
5
5
5
5
5
5
5
5
5
5
5
5
5
5
5
5
5
5
5
5
5
5
5
5
5
5
5
5
5
5
5
5
5
5
5
5
5
5
5
5
5
5
5
5
5
5
5
5
5
5
5
5
5
5
5
5
5
5
5
5
5
5
5
5
5
5
5
5
5
5
5
5
5
5
5
5
5
5
5
5
5
5
5
5
5
5
5
5
5
5
5
5
5
5
5
5
5
5
5
5
5
5
5
5
5
5
5
5
5
5
5
5
5
5
5
5
5
5
5
5
5
5
5
5
5
5
5
5
5
5
5
5
5
5
5
5
5
5
5
5
5
5
5
5
5
5
5
5
5
5
5
5
5
5
5
5
5
5
5
5
5
5
5
5
5
5
5
5
5
5
5
5
5
5
5
5
5
5
5
5
5
5
5
5
5
5
5
5
5
5
5
5
5
5
5
5
5
5
5
5
5
5
5
5
5
5
5
5
5
5
5
5
5
5
5
5
5
5
5
5
5
5
5
5
5
5
5
5
5
5
5
5
5
5
5
5
5
5
5
5
5
5
5
5
5
5
5
5
5
5
5
5
5
5
5
5
5
5
5
5
5
5
5
5
5
5
5
5
5
5
5
5
5
5
5
5
5
5
5
5
5
5
5
5
5
5
5
5
5
5
5
5
5
5
5
5
5
5
5
5
5
5
5
5
5
5
5
5
5
5
5
5
5
5
5
5
5
5
5
5
5
5
5
5
5
5
5
5
5
5
5
5
5
5
5
5
5
5
5
5
5
5
5
5
5
5
5
5
5
5
5
5
5
5
5
5
5
5
5
5
5
5
5
5
5
5
5
5
5
5
5
5
5
5
5
5
5
5
5
5
5
5
5
5
5
5
5
5
5
5
5
5
5
5
5
5
5
5
5
5
5
5
5
5
5
5
5
5
5
5
5
5
5
5
5
5
5
5
5
5
5
5
5
5
5
5
5
5
5
5
5
5
5
5
5
5
5
5
5
5
5
5
5
5
5
5
5
5
5
5
5
5
5
5
5
5
5
5
5
5
5
5
5
5
5
5
5
5
5
5
5
5
5
5
5
5
5
5
5
5
5
5
5
5
5
5
5
5
5
5
5
5
5
5
5
5
5
5
5
5
5
5
5
5
5
5
5
5
5
5
5
5
5
5
5
5
5
5
5
5
5
5
5
5
5
5
5
5
5
5
5
5
5
5
5
5
5
5
5
5
5
5
5
5
5
5
5
5
5
5
5
5
5
5
5
5
5
5
5
5
5
5
5
5
5
5
5
5
5
5
5
5
5
5
5
5
5
5
5
5
5
5
5
5
5
5
5
5
5
5
5
5
5
5
5
5
5
5
5
5
5
5
5
5
5
5
5
5
5
5
5
5
5
5
5
5
5
5
5
5
5
5
5
5
5
5
5
5
5
5
5
5
5
5
5
5
5
5
5
5
5
5
5
5
5
5
5
5
5
5
5
5
5
5
5
5
5
5
5
5
5
5
5
5
5
5
5
5
5
5
5
5
5
5
5
5
5
5
5
5
5
5
5
5
5
5
5
5
5
5
5
5
5
5
5
5
5
5
5
5
5
5
5
5
5
5
5
5
5
5
5
5
5
5
5
5
5
5
5
5
5
5
5
5
5
5
5
5
5
5
5
5
5
5
5
5
5
5
5
5
5
5
5
5
5
5
5
5
5
5
5
5
5
5
5
5
5
5
5
5
5
5
5
5
5
5
5
5
5
5
5
5
5
5
5
5
5
5
5
5
5
5
5
5
5
5
5
5
5
5
5
5
5
5
5
5
5
5
5
5
5
5
5
5
5
5
5
5
5
5
5
5
5
5
5
5
5
5
5
5
5
5
5
5
5
5
5
5
5
5
5
5
5
5
5
5
5
5
5
5
5
5
5
5
5
5
5
5
5
5
5
5
5
5
5
5
5
5
5
5
5
5
5
5
5
5
5
5
5
5
5
5
5
5
5
5
5
5
5
5
5
5
5
5
5
5
5
5
5
5
5
5
5
5
5
5
5
5
5
5
5
5
5
5
5
5
5
5
5
5
5
5
5
5
5
5
5
5
5
5
5
5
5
5
5
5
5
5
5
5
5
5
5
5
5
5
5
5
5
5
5
5
5
5
5
5
5
5
5
5
5
5
5
5
5
5
5
5
5
5
5
5
5
5
5
5
5
5
5
5
5
5
5
5
5
5
5
5
5
5
5
5
5
5
5
5
5
5
5
5
5
5
5
5
5
5
5
5
5
5
5
5
5
5
5
5
5
5
5
5
5
5
5
5
5
5
5
5
5
5
5
5
5
5
5
5
5
5
5
5
5
5
5
5
5
5
5
5
5
5
5
5
5
5
5
5
5
5
5
5
5
5
5
5
5
5
5
5
5
5
5
5
5
5
5
5
5
5
5
5
5
5
5
5
5
5
5
5
5
5
5
5
5
5
5
5
5
5
5
5
5
5
5
5
5
5
5
5
5
5
5
5
5
5
5
5
5
5
5
5
5
5
5
5
5
5
5
5
5
5
5
5
5
5
5
5
5
5
5
5
5
5
5
5
5
5
5
5
5
5
5
5
5
5
5
5
5
5
5
5
5
5
5
5
5
5
5
5
5
5
5
5
5
5
5
5
5
5
5
5
5
5
5
5
5
5
5
5
5
5
5
5
5
5
5
5
5
5
5
5
5
5
5
5
5
5
5
5
5
5
5
5
5
5
5
5
5
5
5
5
5
5
5
5
5
5
5
5
5
5
5
5
5
5
5
5
5
5
5
5
5
5
5
5
5
5
5
5
5
5
5
5
5
5
5
5
5
5
5
5
5
5
5
5
5
5
5
5
5
5
5
5
5
5
5
5
5
5
5
5
5
5
5
5
5
5
5
5
5
5
5
5
5
5
5
5
5
5
5
5
5
5
5
5
5
5
5
5
5
5
5
5
5
5
5
5
5
5
5
5
5
5
5
5
5
5
5
5
5
5
5
5
5
5
5
5
5
5
5
5
5
5
5
5
5
5
5
5
5
5
5
5
5
5
5
5
5
5
5
5
5
5
5
5
5
5
5
5
5
5
5
5
5
5
5
5
5
5
5
5
5
5
5
5
5
5
5
5
5
5
5
5
5
5
5
5
5
5
5
5
5
5
5
5
5
5
5
5
5
5
5
5
5
5
5
5
5
5
5
5
5
5
5
5
5
5
5
5
5
5
5
5
5
5
5
5
5
5
5
5
5
5
5
5
5
5
5
5
5
5
5
5
5
5
5
5
5
5
5
5
5
5
5
5
5
5
5
5
5
5
5
5
5
5
5
5
5
5
5
5
5
5
5
5
5
5
5
5
5
5
5
5
5
5
5
5
5
5
5
5
5
5
5
5
5
5
5
5
5
5
5
5
5
5
5
5
5
5
5
5
5
5
5
5
5
5
5
5
5
5
5
5
5
5
5
5
5
5
5
5
5
5
5
5
5
5
5
5
5
5
5
5
5
5
5
5
5
5
5
5
5
5
5
5
5
5
5
5
5
5
5
5
5
5
5
5
5
5
5
5
5
5
5
5
5
5
5
5
5
5
5
5
5
5
5
5
5
5
5
5
5
5
5
5
5
5
5
5
5
5
5
5
5
5
5
5
5
5
5
5
5
5
5
5
5
5
5
5
5
5
5
5
5
5
5
5
5
5
5
5
5
5
5
5
5
5
5
5
5
5
5
5
5
5
5
5
5
5
5
5
5
5
5
5
5
5
5
5
5
5
5
5
5
5
5
5
5
5
5
5
5
5
5
5
5
5
5
5
5
5
5
5
5
5
5
5
5
5
5
5
5
5
5
5
5
5
5
5
5
5
5
5
5
5
5
5
5
5
5
5
5
5
5
5
5
5
5
5
5
5
5
5
5
5
5
5
5
5
5
5
5
5
5
5
5
5
5
5
5
5
5
5
5
5
5
5
5
5
5
5
5
5
5
5
5
5
5
5
5
5
5
5
5
5
5
5
5
5
5
5
5
5
5
5
5
5
5
5
5
5
5
5
5
5
5
5
5
5
5
5
5
5
5
5
5
5
5
5
5
5
5
5
5
5
5
5
5
5
5
5
5
5
5
5
5
5
5
5
5
5
5
5
5
5
5
5
5
5
5
5
5
5
5
5
5
5
5
5
5
5
5
5
5
5
5
5
5
5
5
5
5
5
5
5
5
5
5
5
5
5
5
5
5
5
5
5
5
5
5
5
5
5
5
5
5
5
5
5
5
5
5
5
5
5
5
5
5
5
5
5
5
5
5
5
5
5
5
5
5
5
5
5
5
5
5
5
5
5
5
5
5
5
5
5
5
5
5
5
5
5
5
5
5
5
5
5
5
5
5
5
5
5
5
5
5
5
5
5
5
5
5
5
5
5
5
5
5
5
5
5
5
5
5
5
5
5
5
5
5
5
5
5
5
5
5
5
5
5
5
5
5
5
5
5
5
5
5
5
5
5
5
5
5
5
5
5
5
5
5
5
5
5
5
5
5
5
5
5
5
5
5
5
5
5
5
5
5
5
5
5
5
5
5
5
5
5
5
5
5
5
5
5
5
5
5
5
5
5
5
5
5
5
5
5
5
5
5
5
5
5
5
5
5
5
5
5
5
5
5
5
5
5
5
5
5
5
5
5
5
5
5
5
5
5
5
5
5
5
5
5
5
5
5
5
5
5
5
5
5
5
5
5
5
5
5
5
5
5
5
5
5
5
5
5
5
5
5
5
5
5
5
5
5
5
5
5
5
5
5
5
5
5
5
5
5
5
5
5
5
5
5
5
5
5
5
5
5
5
5
5
5
5
5
5
5
5
5
5
5
5
5
5
5
5
5
5
5
5
5
5
5
5
5
5
5
5
5
5
5
5
5
5
5
5
5
5
5
5
5
5
5
5
5
5
5
5
5
5
5
5
5
5
5
5
5
5
5
5
5
5
5
5
5
5
5
5
5
5
5
5
5
5
5
5
5
5
5
5
5
5
5
5
5
5
5
5
5
5
5
5
5
5
5
5
5
5
5
5
5
5
5
5
5
5
5
5
5
5
5
5
5
5
5
5
5
5
5
5
5
5
5
5
5
5
5
5
5
5
5
5
5
5
5
5
5
5
5
5
5
5
5
5
5
5
5
5
5
5
5
5
5
5
5
5
5
5
5
5
5
5
5
5
5
5
5
5
5
5
5
5
5
5
5
5
5
5
5
5
5
5
5
5
5
5
5
5
5
5
5
5
5
5
5
5
5
5
5
5
5
5
5
5
5
5
5
5
5
5
5
5
5
5
5
5
5
5
5
5
5
5
5
5
5
5
5
5
5
5
5
5
5
5
5
5
5
5
5
5
5
5
5
5
5
5
5
5
5
5
5
5
5
5
5
5
5
5
5
5
5
5
5
5
5
5
5
5
5
5
5
5
5
5
5
5
5
5
5
5
5
5
5
5
5
5
5
5
5
5
5
5
5
5
5
5
5
5
5
5
5
5
5
5
5
5
5
5
5
5
5
5
5
5
5
5
5
5
5
5
5
5
5
5
5
5
5
5
5
5
5
5
5
5
5
5
5
5
5
5
5
5
5
5
5
5
5
5
5
5
5
5
5
5
5
5
5
5
5
5
5
5
5
5
5
5
5
5
5
5
5
5
5
5
5
5
5
5
5
5
5
5
5
5
5
5
5
5
5
5
5
5
5
5
5
5
5
5
5
5
5
5
5
5
5
5
5
5
5
5
5
5
5
5
5
5
5
5
5
5
5
5
5
5
5
5
5
5
5
5
5
5
5
5
5
5
5
5
5
5
5
5
5
5
5
5
5
5
5
5
5
5
5
5
5
5
5
5
5
5
5
5
5
5
5
5
5
5
5
5
5
5
5
5
5
5
5
5
5
5
5
5
5
5
5
5
5
5
5
5
5
5
5
5
5
5
5
5
5
5
5
5
5
5
5
5
5
5
5
5
5
5
5
5
5
5
5
5
5
5
5
5
5
5
5
5
5
5
5
5
5
5
5
5
5
5
5
5
5
5
5
5
5
5
5
5
5
5
5
5
5
5
5
5
5
5
5
5
5
5
5
5
5
5
5
5
5
5
5
5
5
5
5
5
5
5
5
5
5
5
5
5
5
5
5
5
5
5
5
5
5
5
5
5
5
5
5
5
5
5
5
5
5
5
5
5
5
5
5
5
5
5
5
5
5
5
5
5
5
5
5
5
5
5
5
5
5
5
5
5
5
5
5
5
5
5
5
5
5
5
5
5
5
5
5
5
5
5
5
5
5
5
5
5
5
5
5
5
5
5
5
5

POINT_DATA 3592
SCALARS pressure float 1
LOOKUP_TABLE default
0
0
0
0
0
0
0
0
0
0
0
0
0
0
0
0
0
0
0
0
0
0
0
0
0
0
0
0
0
0
0
0
0
0
0
0
0
0
0
0
0
0
0
0
0
0
0
0
0
0
0
0
0
0
0
0
0
0
0
0
0
0
0
0
0
0
0
0
0
0
0
0
0
0
0
0
0
0
0
0
0
0
0
0
0
0
0
0
0
0
0
0
0
0
0
0
0
0
0
0
0
0
0
0
0
0
0
0
0
0
0
0
0
0
0
0
0
0
0
0
0
0
0
0
0
0
0
0
0
0
0
0
0
0
0
0
0
0
0
0
0
0
0
0
0
0
0
0
0
0
0
0
0
0
0
0
0
0
0
0
0
0
0
0
0
0
0
0
0
0
0
0
0
0
0
0
0
0
0
0
0
0
0
0
0
0
0
0
0
0
0
0
0
0
0
0
0
0
0
0
0
0
0
0
0
0
0
0
0
0
0
0
0
0
0
0
0
0
0
0
0
0
0
0
0
0
0
0
0
0
0
0
0
0
0
0
0
0
0
0
0
0
0
0
0
0
0
0
0
0
0
0
0
0
0
0
0
0
0
0
0
0
0
0
0
0
0
0
0
0
0
0
0
0
0
0
0
0
0
0
0
0
0
0
0
0
0
0
0
0
0
0
0
0
0
0
0
0
0
0
0
0
0
0
0
0
0
0
0
0
0
0
0
0
0
0
0
0
0
0
0
0
0
0
0
0
0
0
0
0
0
0
0
0
0
0
0
0
0
0
0
0
0
0
0
0
0
0
0
0
0
0
0
0
0
0
0
0
0
0
0
0
0
0
0
0
0
0
0
0
0
0
0
0
0
0
0
0
0
0
0
0
0
0
0
0
0
0
0
0
0
0
0
0
0
0
0
0
0
0
0
0
0
0
0
0
0
0
0
0
0
0
0
0
0
0
0
0
0
0
0
0
0
0
0
0
0
0
0
0
0
0
0
0
0
0
0
0
0
0
0
0
0
0
0
0
0
0
0
0
0
0
0
0
0
0
0
0
0
0
0
0
0
0
0
0
0
0
0
0
0
0
0
0
0
0
0
0
0
0
0
0
0
0
0
0
0
0
0
0
0
0
0
0
0
0
0
0
0
0
0
0
0
0
0
0
0
0
0
0
0
0
0
0
0
0
0
0
0
0
0
0
0
0
0
0
0
0
0
0
0
0
0
0
0
0
0
0
0
0
0
0
0
0
0
0
0
0
0
0
0
0
0
0
0
0
0
0
0
0
0
0
0
0
0
0
0
0
0
0
0
0
0
0
0
0
0
0
0
0
0
0
0
0
0
0
0
0
0
0
0
0
0
0
0
0
0
0
0
0
0
0
0
0
0
0
0
0
0
0
0
0
0
0
0
0
0
0
0
0
0
0
0
0
0
0
0
0
0
0
0
0
0
0
0
0
0
0
0
0
0
0
0
0
0
0
0
0
0
0
0
0
0
0
0
0
0
0
0
0
0
0
0
0
0
0
0
0
0
0
0
0
0
0
0
0
0
0
0
0
0
0
0
0
0
0
0
0
0
0
0
0
0
0
0
0
0
0
0
0
0
0
0
0
0
0
0
0
0
0
0
0
0
0
0
0
0
0
0
0
0
0
0
0
0
0
0
0
0
0
0
0
0
0
0
0
0
0
0
0
0
0
0
0
0
0
0
0
0
0
0
0
0
0
0
0
0
0
0
0
0
0
0
0
0
0
0
0
0
0
0
0
0
0
0
0
0
0
0
0
0
0
0
0
0
0
0
0
0
0
0
0
0
0
0
0
0
0
0
0
0
0
0
0
0
0
0
0
0
0
0
0
0
0
0
0
0
0
0
0
0
0
0
0
0
0
0
0
0
0
0
0
0
0
0
0
0
0
0
0
0
0
0
0
0
0
0
0
0
0
0
0
0
0
0
0
0
0
0
0
0
0
0
0
0
0
0
0
0
0
0
0
0
0
0
0
0
0
0
0
0
0
0
0
0
0
0
0
0
0
0
0
0
0
0
0
0
0
0
0
0
0
0
0
0
0
0
0
0
0
0
0
0
0
0
0
0
0
0
0
0
0
0
0
0
0
0
0
0
0
0
0
0
0
0
0
0
0
0
0
0
0
0
0
0
0
0
0
0
0
0
0
0
0
0
0
0
0
0
0
0
0
0
0
0
0
0
0
0
0
0
0
0
0
0
0
0
0
0
0
0
0
0
0
0
0
0
0
0
0
0
0
0
0
0
0
0
0
0
0
0
0
0
0
0
0
0
0
0
0
0
0
0
0
0
0
0
0
0
0
0
0
0
0
0
0
0
0
0
0
0
0
0
0
0
0
0
0
0
0
0
0
0
0
0
0
0
0
0
0
0
0
0
0
0
0
0
0
0
0
0
0
0
0
0
0
0
0
0
0
0
0
0
0
0
0
0
0
0
0
0
0
0
0
0
0
0
0
0
0
0
0
0
0
0
0
0
0
0
0
0
0
0
0
0
0
0
0
0
0
0
0
0
0
0
0
0
0
0
0
0
0
0
0
0
0
0
0
0
0
0
0
0
0
0
0
0
0
0
0
0
0
0
0
0
0
0
0
0
0
0
0
0
0
0
0
0
0
0
0
0
0
0
0
0
0
0
0
0
0
0
0
0
0
0
0
0
0
0
0
0
0
0
0
0
0
0
0
0
0
0
0
0
0
0
0
0
0
0
0
0
0
0
0
0
0
0
0
0
0
0
0
0
0
0
0
0
0
0
0
0
0
0
0
0
0
0
0
0
0
0
0
0
0
0
0
0
0
0
0
0
0
0
0
0
0
0
0
0
0
0
0
0
0
0
0
0
0
0
0
0
0
0
0
0
0
0
0
0
0
0
0
0
0
0
0
0
0
0
0
0
0
0
0
0
0
0
0
0
0
0
0
0
0
0
0
0
0
0
0
0
0
0
0
0
0
0
0
0
0
0
0
0
0
0
0
0
0
0
0
0
0
0
0
0
0
0
0
0
0
0
0
0
0
0
0
0
0
0
0
0
0
0
0
0
0
0
0
0
0
0
0
0
0
0
0
0
0
0
0
0
0
0
0
0
0
0
0
0
0
0
0
0
0
0
0
0
0
0
0
0
0
0
0
0
0
0
0
0
0
0
0
0
0
0
0
0
0
0
0
0
0
0
0
0
0
0
0
0
0
0
0
0
0
0
0
0
0
0
0
0
0
0
0
0
0
0
0
0
0
0
0
0
0
0
0
0
0
0
0
0
0
0
0
0
0
0
0
0
0
0
0
0
0
0
0
0
0
0
0
0
0
0
0
0
0
0
0
0
0
0
0
0
0
0
0
0
0
0
0
0
0
0
0
0
0
0
0
0
0
0
0
0
0
0
0
0
0
0
0
0
0
0
0
0
0
0
0
0
0
0
0
0
0
0
0
0
0
0
0
0
0
0
0
0
0
0
0
0
0
0
0
0
0
0
0
0
0
0
0
0
0
0
0
0
0
0
0
0
0
0
0
0
0
0
0
0
0
0
0
0
0
0
0
0
0
0
0
0
0
0
0
0
0
0
0
0
0
0
0
0
0
0
0
0
0
0
0
0
0
0
0
0
0
0
0
0
0
0
0
0
0
0
0
0
0
0
0
0
0
0
0
0
0
0
0
0
0
0
0
0
0
0
0
0
0
0
0
0
0
0
0
0
0
0
0
0
0
0
0
0
0
0
0
0
0
0
0
0
0
0
0
0
0
0
0
0
0
0
0
0
0
0
0
0
0
0
0
0
0
0
0
0
0
0
0
0
0
0
0
0
0
0
0
0
0
0
0
0
0
0
0
0
0
0
0
0
0
0
0
0
0
0
0
0
0
0
0
0
0
0
0
0
0
0
0
0
0
0
0
0
0
0
0
0
0
0
0
0
0
0
0
0
0
0
0
0
0
0
0
0
0
0
0
0
0
0
0
0
0
0
0
0
0
0
0
0
0
0
0
0
0
0
0
0
0
0
0
0
0
0
0
0
0
0
0
0
0
0
0
0
0
0
0
0
0
0
0
0
0
0
0
0
0
0
0
0
0
0
0
0
0
0
0
0
0
0
0
0
0
0
0
0
0
0
0
0
0
0
0
0
0
0
0
0
0
0
0
0
0
0
0
0
0
0
0
0
0
0
0
0
0
0
0
0
0
0
0
0
0
0
0
0
0
0
0
0
0
0
0
0
0
0
0
0
0
0
0
0
0
0
0
0
0
0
0
0
0
0
0
0
0
0
0
0
0
0
0
0
0
0
0
0
0
0
0
0
0
0
0
0
0
0
0
0
0
0
0
0
0
0
0
0
0
0
0
0
0
0
0
0
0
0
0
0
0
0
0
0
0
0
0
0
0
0
0
0
0
0
0
0
0
0
0
0
0
0
0
0
0
0
0
0
0
0
0
0
0
0
0
0
0
0
0
0
0
0
0
0
0
0
0
0
0
0
0
0
0
0
0
0
0
0
0
0
0
0
0
0
0
0
0
0
0
0
0
0
0
0
0
0
0
0
0
0
0
0
0
0
0
0
0
0
0
0
0
0
0
0
0
0
0
0
0
0
0
0
0
0
0
0
0
0
0
0
0
0
0
0
0
0
0
0
0
0
0
0
0
0
0
0
0
0
0
0
0
0
0
0
0
0
0
0
0
0
0
0
0
0
0
0
0
0
0
0
0
0
0
0
0
0
0
0
0
0
0
0
0
0
0
0
0
0
0
0
0
0
0
0
0
0
0
0
0
0
0
0
0
0
0
0
0
0
0
0
0
0
0
0
0
0
0
0
0
0
0
0
0
0
0
0
0
0
0
0
0
0
0
0
0
0
0
0
0
0
0
0
0
0
0
0
0
0
0
0
0
0
0
0
0
0
0
0
0
0
0
0
0
0
0
0
0
0
0
0
0
0
0
0
0
0
0
0
0
0
0
0
0
0
0
0
0
0
0
0
0
0
0
0
0
0
0
0
0
0
0
0
0
0
0
0
0
0
0
0
0
0
0
0
0
0
0
0
0
0
0
0
0
0
0
0
0
0
0
0
0
0
0
0
0
0
0
0
0
0
0
0
0
0
0
0
0
0
0
0
0
0
0
0
0
0
0
0
0
0
0
0
0
0
0
0
0
0
0
0
0
0
0
0
0
0
0
0
0
0
0
0
0
0
0
0
0
0
0
0
0
0
0
0
0
0
0
0
0
0
0
0
0
0
0
0
0
0
0
0
0
0
0
0
0
0
0
0
0
0
0
0
0
0
0
0
0
0
0
0
0
0
0
0
0
0
0
0
0
0
0
0
0
0
0
0
0
0
0
0
0
0
0
0
0
0
0
0
0
0
0
0
0
0
0
0
0
0
0
0
0
0
0
0
0
0
0
0
0
0
0
0
0
0
0
0
0
0
0
0
0
0
0
0
0
0
0
0
0
0
0
0
0
0
0
0
0
0
0
0
0
0
0
0
0
0
0
0
0
0
0
0
0
0
0
0
0
0
0
0
0
0
0
0
0
0
0
0
0
0
0
0
0
0
0
0
0
0
0
0
0
0
0
0
0
0
0
0
0
0
0
0
0
0
0
0
0
0
0
0
0
0
0
0
0
0
0
0
0
0
0
0
0
0
0
0
0
0
0
0
0
0
0
0
0
0
0
0
0
0
0
0
0
0
0
0
0
0
0
0
0
0
0
0
0
0
0
0
0
0
0
0
0
0
0
0
0
0
0
0
0
0
0
0
0
0
0
0
0
0
0
0
0
0
0
0
0
0
0
0
0
0
0
0
0
0
0
0
0
0
0
0
0
0
0
0
0
0
0
0
0
0
0
0
0
0
0
0
0
0
0
0
0
0
0
0
0
0
0
0
0
0
0
0
0
0
0
0
0
0
0
0
0
0
0
0
0
0
0
0
0
0
0
0
0
0
0
0
0
0
0
0
0
0
0
0
0
0
0
0
0
0
0
0
0
0
0
0
0
0
0
0
0
0
0
0
0
0
0
0
0
0
0
0
0
0
0
0
0
0
0
0
0
0
0
0
0
0
0
0
0
0
0
0
0
0
0
0
0
0
0
0
0
0
0
0
0
0
0
0
0
0
0
0
0
0
0
0
0
0
0
0
0
0
0
0
0
0
0
0
0
0
0
0
0
0
0
0
0
0
0
0
0
0
0
0
0
0
0
0
0
0
0
0
0
0
0
0
0
0
0
0
0
0
0
0
0
0
0
0
0
0
0
0
0
0
0
0
0
0
0
0
0
0
0
0
0
0
0
0
0
0
0
0
0
0
0
0
0
0
0
0
0
0
0
0
0
0
0
0
0
0
0
0
0
0
0
0
0
0
0
0
0
0
0
0
0
0
0
0
0
0
0
0
0
0
0
0
0
0
0
0
0
0
0
0
0
0
0
0
0
0
0
0
0
0
0
0
0
0
0
0
0
0
0
0
0
0
0
0
0
0
0
0
0
0
0
0
0
0
0
0
0
0
0
0
0
0
0
0
0
0
0
0
0
0
0
0
0
0
0
0
0
0
0
0
0
0
0
0
0
0
0
0
0
0
0
0
0
0
0
0
0
0
0
0
0
0
0
0
0
0
0
0
0
0
0
0
0
0
0
0
0
0
0
0
0
0
0
0
0
0
0
0
0
0
0
0
0
0
0
0
0
0
0
0
0
0
0
0
0
0
0
0
0
0
0
0
0
0
0
0
0
0
0
0
0
0
0
0
0
0
0
0
0
0
0
0
0
0
0
0
0
0
0
0
0
0
0
0
0
0
0
0
0
0
0
0
0
0
0
0
0
0
0
0
0
0
0
0
0
0
0
0
0
0
0
0
0
0
0
0
0
0
0
0
0
0
0
0
0
0
0
0
0
0
0
0
0
0
0
0
0
0
0
0
0
0
0
0
0
0
0
0
0
0
0
0
0
0
0
0
0
0
0
0
0
0
0
0
0
0
0
0
0
0
0
0
0
0
0
0
0
0
0
0
0
0
0
0
0
0
0
0
0
0
0
0
0
0
0
0
0
0
0
0
0
0
0
0
0
0
0
0
0
0
0
0
0
0
0
0
0
0
0
0
0
0
0
0
0
0
0
0
0
0
0
0
0
0
0
0
0
0
0
0
0
0
0
0
0
0
0
0
0
0
0
0
0
0
0
0
0
0
0
0
0
0
0
0
0
0
0
0
0
0
0
0
0
0
0
0
0
0
0
0
0
0
0
0
0
0
0
0
0
0
0
0
0
0
0
0
0
0
0
0
0
0
0
0
0
0
0
0
0
0
0
0
0
0
0
0
0
0
0
0
0
0
0
0
0
0
0
0
0
0
0
0
0
0
0
0
0
0
0
0
0
0
0
0
0
0
0
0
0
0
0
0
0
0
0
0
0
0
0
0
0
0
0
0
0
0
0
0
0
0
0
0
0
0
0
0
0
0
0
0
0
0
0
0
0
0
0
0
0
0
0
0
0
0
0
0
0
0
0
0
0
0
0
0
0
0
0
0
0
0
0
0
0
0
0
0
0
0
0
0
0
0
0
0
0
0
0
0
0
0
0
0
0
0
0
0
0
0
0
0
0
0
0
0
0
0
0
0
0
0
0
0
0
0
0
0
0
0
0
0
0
0
0
0
0
0
0
0
0
0
0
0
0
0
0
0
0
0
0
0
0
0
0
0
0
0
0
0
0
0
0
0
0
0
0
0
0
0
0
0
0
0
0
0
0
0
0
0
0
0
0
0
0
0
0
0
0
0
0
0
0
0
0
0
0
0
0
0
0
0
0
0
0
0
0
0
0
0
0
0
0
0
0
0
0
0
0
0
0
0
0
0
0
0
0
0
0
0
0
0
0
0
0
0
0
0
0
0
0
0
0
0
0
0
0
0
0
0
0
0
0
0
0
0
0
0
0
0
0
0
0
0
0
0
0
0
0
0
0
0
0
0
0
0
0
0
0
0
0
0
0
0
0
0
0
0
0
0
0
0
0
0
0
0
0
0
0
0
0
0
0
0
0
0
0
0
0
0
0
0
0
0
0
0
0
0
0
0
0
0
0
0
0
0
0
0
0
0
0
0
0
0
0
0
0
0
0
0
0
0
0
0
0
0
0
0
0
0
0
0
0
VECTORS displacement float
0 0 0
0 0 0
0 0 0
-0.00193575 -0.387124 0
0 0 0
0.0019405 -0.38712 0
-0.00628662 -0.266347 0
0.00628542 -0.266347 0
0.00532128 -0.169177 0
-0.00532216 -0.169177 0
-0.0025332 -0.381163 0
0.00253467 -0.381164 0
0.0064052 -0.0969517 0
-0.00640149 -0.0969526 0
0.00472098 -0.299316 0
-0.00471792 -0.299315 0
-0.00374238 -0.0512616 0
0.00374121 -0.0512629 0
-0.00020497 -0.398323 0
0.000213616 -0.398325 0
0.00468151 -0.335679 0
-0.0046776 -0.335677 0
0.0069808 -0.18223 0
-0.00698013 -0.18223 0
-0.00419871 -0.0286565 0
0.00419432 -0.0286604 0
0.00529405 -0.236128 0
-0.00529346 -0.236128 0
-0.0035989 -0.351919 0
0.00359988 -0.351916 0
-0.00480425 -0.105281 0
0.00480347 -0.105282 0
0.00213844 -0.0138978 0
-0.00213777 -0.0138968 0
0.000910176 -0.39608 0
-0.000906295 -0.396089 0
0.00137309 -0.3934 0
-0.0013718 -0.3934 0
0.00365107 -0.361776 0
-0.00365344 -0.361774 0
-0.00557017 -0.303532 0
0.00557115 -0.303535 0
0.00687488 -0.138709 0
-0.00687402 -0.138708 0
-0.00676726 -0.225391 0
0.00676887 -0.225391 0
-0.00552909 -0.0593685 0
0.0055247 -0.0593661 0
0.00236682 -0.00780386 0
-0.00236012 -0.00780183 0
0.00537577 -0.202697 0
-0.00537556 -0.202697 0
-0.0050746 -0.268619 0
0.00507429 -0.268618 0
-0.00422692 -0.327367 0
0.00422798 -0.327365 0
0.00283737 -0.372121 0
-0.00283498 -0.372116 0
-0.00513104 -0.136421 0
0.00513176 -0.136421 0
0.0043393 -0.0766079 0
-0.00434121 -0.0766067 0
0.00300929 -0.0300771 0
-0.00301119 -0.0300741 0
-0.00113219 -0.00360301 0
0.001128 -0.00360703 0
0.00143672 -0.392409 0
-0.00143839 -0.392408 0
-0.00036066 -0.398082 0
0.000360139 -0.398078 0
0.000790431 -0.396776 0
-0.000786852 -0.396773 0
-0.00196337 -0.388191 0
0.00195734 -0.388194 0
0.00418115 -0.349534 0
-0.00417883 -0.349534 0
-0.00310707 -0.372333 0
0.00310349 -0.372344 0
-0.00514733 -0.320299 0
0.00514669 -0.320304 0
0.00595226 -0.285497 0
-0.00595506 -0.285497 0
0.00668935 -0.117466 0
-0.0066881 -0.117466 0
-0.00696968 -0.160388 0
0.00697064 -0.160388 0
-0.00691068 -0.203977 0
0.00691301 -0.203977 0
0.00655719 -0.246249 0
-0.00655715 -0.246248 0
-0.00602442 -0.0774748 0
0.00602393 -0.0774744 0
0.00492683 -0.0429773 0
-0.00491608 -0.0429773 0
0.00334741 -0.0167961 0
-0.00334875 -0.0167966 0
-0.00124718 -0.00209051 0
0.0012451 -0.00208567 0
0.00536597 -0.185895 0
-0.00536599 -0.185895 0
-0.00535136 -0.219476 0
0.00535167 -0.219477 0
-0.00520013 -0.252543 0
0.0052021 -0.252544 0
0.00491469 -0.284244 0
-0.00491338 -0.284243 0
-0.00393143 -0.340135 0
0.00393326 -0.340135 0
0.00448913 -0.313724 0
-0.00448946 -0.313726 0
0.00323654 -0.362613 0
-0.00323068 -0.362613 0
-0.00240137 -0.380323 0
0.0024013 -0.380324 0
-0.00524396 -0.15265 0
0.00524356 -0.15265 0
0.00498389 -0.120596 0
-0.00498616 -0.120597 0
0.00459041 -0.0905813 0
-0.00459146 -0.090584 0
-0.00405843 -0.0634639 0
0.00405546 -0.0634651 0
0.00259252 -0.0213037 0
-0.00259618 -0.021305 0
-0.00339287 -0.0400997 0
0.00339185 -0.040097 0
-0.00165186 -0.00796295 0
0.00164771 -0.00796561 0
0.000574272 -0.000923091 0
-0.000573256 -0.000928117 0
0.00169168 -0.389961 0
-0.00168444 -0.389959 0
5.16053e-07 -0.388623 0
0.00181337 -0.388589 0
0.000938595 -0.387892 0
0.000895844 -0.388839 0
0.0012871 -0.388364 0
0.00187575 -0.387868 0
0.000548586 -0.388378 0
2.20371e-05 -0.390384 0
0.00175137 -0.389286 0
0.00024137 -0.38952 0
0.00101239 -0.389651 0
0.00126205 -0.389182 0
0.000529712 -0.390058 0
0.00156202 -0.391234 0
0.000733628 -0.390965 0
0.00037841 -0.389007 0
-0.00181286 -0.388591 0
-0.000738866 -0.389735 0
0.00162965 -0.39061 0
0.00110573 -0.390307 0
0.00122007 -0.390941 0
-0.00156681 -0.391239 0
0.000842035 -0.391859 0
-0.000196027 -0.389879 0
-0.000352951 -0.38921 0
-0.00091117 -0.388467 0
-0.00175061 -0.389287 0
-0.00128482 -0.389641 0
-0.00119836 -0.389028 0
-0.000350315 -0.391595 0
-0.000869693 -0.390691 0
0.00150396 -0.391831 0
0.00117568 -0.394457 0
-0.00117598 -0.394456 0
-0.000273623 -0.387316 0
2.81913e-05 -0.387945 0
-0.000635282 -0.387881 0
-0.0010996 -0.387174 0
-0.00187505 -0.387864 0
-0.00125162 -0.387934 0
0.00217443 -0.383903 0
-0.00217174 -0.383904 0
-0.00205471 -0.38556 0
-0.0019967 -0.386351 0
-0.000490984 -0.385806 0
-0.00129704 -0.385978 0
-0.0013916 -0.3866 0
-0.000599111 -0.386597 0
0.00205804 -0.385562 0
0.00079525 -0.386416 0
6.85395e-05 -0.386305 0
0.000303904 -0.391509 0
0.000148486 -0.390961 0
-0.000339623 -0.390775 0
-0.00162692 -0.390603 0
-0.000930166 -0.391324 0
-0.00149937 -0.391833 0
-0.000805959 -0.392151 0
-0.00106593 -0.391755 0
-0.00130731 -0.393481 0
8.36469e-05 -0.392437 0
-0.000771642 -0.392981 0
0.00035614 -0.392019 0
0.000751104 -0.39257 0
-0.000302329 -0.392109 0
-0.000494457 -0.392587 0
-0.000980512 -0.392562 0
0.00106097 -0.392228 0
0.000173607 -0.39354 0
-6.85743e-05 -0.393019 0
0.00130565 -0.393481 0
0.0004786 -0.393083 0
0.000735955 -0.393579 0
0.00137166 -0.392953 0
0.000922196 -0.392979 0
0.0003431 -0.394409 0
0.00124401 -0.393982 0
0.000795736 -0.394243 0
0.000466473 -0.393976 0
-0.00137155 -0.392961 0
-0.000554644 -0.393757 0
-7.96425e-05 -0.39408 0
-0.000265348 -0.393435 0
-0.000598727 -0.394372 0
-0.000426045 -0.394095 0
-0.00013054 -0.394592 0
0.0010402 -0.395319 0
0.000346152 -0.395192 0
0.000701272 -0.394788 0
0.000218116 -0.394818 0
0.00073007 -0.39517 0
0.000496603 -0.395772 0
0.00110982 -0.394902 0
0.000978969 -0.39572 0
0.000519074 -0.395456 0
-0.000875937 -0.393417 0
-0.00124237 -0.393977 0
-0.000833761 -0.39403 0
0.00114159 -0.387125 0
0.00142477 -0.38759 0
0.000414501 -0.387067 0
0.000474734 -0.38762 0
-0.0010407 -0.395317 0
-0.000573575 -0.395019 0
-0.000116021 -0.395164 0
-0.000454029 -0.394712 0
-0.00110654 -0.394903 0
-0.000833818 -0.3947 0
0.000637029 -0.397298 0
-0.000633571 -0.397295 0
3.6354e-05 -0.396783 0
0.00077413 -0.396747 0
0.000366047 -0.396355 0
0.000584518 -0.396089 0
-0.000218685 -0.395988 0
6.25581e-05 -0.395635 0
-0.000448611 -0.395543 0
0.000164708 -0.396019 0
-5.21724e-05 -0.396398 0
-0.000207036 -0.395718 0
-0.000712411 -0.395311 0
-0.000975459 -0.39572 0
-0.000601685 -0.395929 0
-0.000773433 -0.396746 0
-0.000498673 -0.396402 0
-0.000417962 -0.396162 0
0.000164231 -0.396554 0
0.000397607 -0.396829 0
-0.000249836 -0.396646 0
-0.000519869 -0.396686 0
-0.000702802 -0.397034 0
-0.000220436 -0.397201 0
-0.000196986 -0.396942 0
-0.000465457 -0.397185 0
-0.000502288 -0.396947 0
0.000843507 -0.396428 0
0.000705222 -0.397035 0
0.000144229 -0.397159 0
0.000422327 -0.397196 0
0.000187677 -0.396946 0
0.000516734 -0.396989 0
0.000501302 -0.397744 0
0.000318047 -0.397559 0
0.000436011 -0.397386 0
0.000565199 -0.39753 0
-0.000842051 -0.396428 0
0.00054687 -0.396564 0
2.20685e-06 -0.397498 0
-0.000501689 -0.397741 0
-0.000321894 -0.397539 0
0.000112319 -0.397961 0
0.000206112 -0.397393 0
-2.72181e-05 -0.397302 0
-0.000569023 -0.397533 0
0.000271152 -0.397794 0
0.000117613 -0.397693 0
-0.000117052 -0.397714 0
0.000429162 -0.397923 0
0.000249747 -0.398029 0
0.000319877 -0.397904 0
7.86265e-05 -0.398421 0
-8.04854e-05 -0.398423 0
0.000221281 -0.398309 0
0.00016191 -0.398234 0
0.000240494 -0.398136 0
0.000287008 -0.398203 0
9.12209e-05 -0.398137 0
-0.000307963 -0.397746 0
-0.000430104 -0.397919 0
-0.000123579 -0.397976 0
-0.000171513 -0.397842 0
-0.000279936 -0.397933 0
-3.66827e-06 -0.397857 0
-0.000216652 -0.398305 0
-1.98014e-06 -0.398055 0
-0.000145078 -0.398183 0
-2.30754e-05 -0.398185 0
-0.000198287 -0.398067 0
3.85184e-05 -0.398413 0
-4.91502e-05 -0.398349 0
-6.76092e-05 -0.398265 0
-0.000164 -0.398281 0
4.42686e-05 -0.398305 0
-0.000285917 -0.398207 0
-0.000245306 -0.398164 0
1.33307e-05 -0.398371 0
0.000114696 -0.398344 0
0.000147507 -0.398376 0
7.29459e-05 -0.398426 0
0.000118539 -0.398382 0
6.45114e-06 -0.398471 0
8.2435e-06 -0.39847 0
3.14496e-05 -0.398448 0
-6.52123e-05 -0.398428 0
2.04733e-05 -0.39846 0
-1.30638e-05 -0.398472 0
9.038e-06 -0.398438 0
2.31275e-06 -0.398477 0
-1.7166e-05 -0.398466 0
-7.66933e-06 -0.39845 0
-4.71222e-05 -0.398397 0
-2.01662e-05 -0.398456 0
-6.04643e-05 -0.398437 0
-8.49179e-05 -0.398406 0
-0.000138164 -0.398347 0
-1.88619e-05 -0.398448 0
6.45173e-05 -0.398405 0
2.09553e-05 -0.398443 0
-0.0001157 -0.398381 0
-0.000132458 -0.39839 0
-3.96016e-05 -0.398442 0
-0.000145945 -0.398374 0
6.85246e-05 -0.398427 0
3.51329e-05 -0.398457 0
4.07874e-06 -0.39847 0
0.000133785 -0.398392 0
0.000125549 -0.398383 0
-0.000494012 -0.397778 0
0.00049866 -0.397778 0
-4.17802e-06 -0.398442 0
8.58017e-06 -0.398462 0
-3.11683e-05 -0.398454 0
5.49828e-05 -0.39813 0
0.000350316 -0.398099 0
0.000146807 -0.398262 0
-0.000349613 -0.398105 0
-0.0001565 -0.398254 0
-0.000162849 -0.398315 0
-0.000278584 -0.398231 0
0.000279266 -0.398227 0
0.00020619 -0.398133 0
0.000420601 -0.397956 0
0.000195364 -0.397896 0
0.000342806 -0.397889 0
0.000158312 -0.398037 0
-5.20376e-06 -0.398293 0
-0.000166236 -0.398064 0
7.04649e-05 -0.398234 0
-7.45177e-05 -0.398329 0
1.27596e-05 -0.398376 0
8.35905e-05 -0.398341 0
-0.000222645 -0.398148 0
-7.79193e-05 -0.398197 0
0.000641569 -0.397333 0
-1.78949e-05 -0.397959 0
-4.55818e-05 -0.398078 0
-4.20445e-05 -0.397385 0
-0.000240351 -0.397844 0
3.85468e-05 -0.397693 0
-0.000144732 -0.397958 0
7.0883e-05 -0.397846 0
-0.000420898 -0.39795 0
-0.000643381 -0.397334 0
0.000321809 -0.397644 0
-0.000225352 -0.397599 0
-0.000121173 -0.397758 0
-6.02074e-05 -0.397559 0
-0.000347301 -0.397318 0
-0.000567815 -0.39757 0
-0.00012182 -0.396781 0
-0.000717538 -0.397066 0
-0.000425192 -0.396953 0
-0.000443137 -0.397473 0
-0.000372457 -0.397688 0
-0.000493937 -0.397139 0
-0.000170605 -0.397139 0
0.000308056 -0.397068 0
7.65674e-05 -0.39718 0
0.000241793 -0.397411 0
0.000103122 -0.396929 0
0.00107615 -0.395314 0
0.000932859 -0.396098 0
0.000434754 -0.396699 0
0.000177116 -0.39759 0
0.000566402 -0.397569 0
0.000715033 -0.397068 0
0.000546505 -0.396944 0
0.000470178 -0.397225 0
0.000864267 -0.396449 0
0.000431338 -0.397455 0
-0.000288341 -0.397965 0
-0.00108125 -0.395314 0
7.86472e-05 -0.395985 0
0.000129457 -0.396442 0
0.000184612 -0.396688 0
0.000523219 -0.396305 0
0.000614335 -0.396512 0
0.000586165 -0.395797 0
0.000277298 -0.396194 0
0.00067646 -0.396051 0
0.00100724 -0.395725 0
-1.50609e-05 -0.394822 0
0.000185825 -0.395418 0
0.000283046 -0.39573 0
0.000631197 -0.395372 0
0.00122775 -0.394414 0
0.000399462 -0.39502 0
0.00051205 -0.394301 0
0.000328307 -0.394659 0
0.00115571 -0.394882 0
0.000765759 -0.394733 0
0.000871857 -0.395118 0
-0.000446687 -0.395311 0
-0.000100785 -0.395197 0
-0.00122304 -0.394416 0
-0.000929463 -0.3961 0
-0.000168955 -0.395662 0
-0.00100689 -0.395725 0
-0.00042095 -0.396115 0
-0.000589012 -0.395707 0
-0.000203569 -0.39595 0
-0.00074658 -0.395404 0
-0.00115527 -0.394877 0
-0.000617204 -0.39468 0
-0.000504693 -0.396546 0
-0.000701089 -0.395972 0
-0.000571755 -0.396754 0
-0.000762148 -0.395027 0
-0.000193805 -0.394136 0
-0.000203247 -0.396468 0
-0.000863565 -0.396449 0
-0.000271654 -0.394527 0
0.000391051 -0.393378 0
-0.000783868 -0.39412 0
-0.000525427 -0.393366 0
-0.00129633 -0.393922 0
-0.000504911 -0.393816 0
-3.09797e-05 -0.393677 0
-0.000917777 -0.39358 0
0.00020896 -0.394029 0
0.00130167 -0.39392 0
0.000838654 -0.393689 0
0.000925781 -0.394188 0
0.0016727 -0.391023 0
-0.00166829 -0.391029 0
-0.00151957 -0.39227 0
-0.00144656 -0.39285 0
-0.000965604 -0.39309 0
-4.41538e-05 -0.391993 0
-0.000411441 -0.39266 0
-6.70927e-05 -0.393104 0
0.00151979 -0.392269 0
0.000579815 -0.392574 0
8.57505e-05 -0.392646 0
-0.000833953 -0.391987 0
-0.000971546 -0.392536 0
0.00144572 -0.392847 0
0.00107731 -0.39258 0
0.000926004 -0.393147 0
0.000857505 -0.391673 0
0.00108642 -0.392098 0
0.00159457 -0.391664 0
-0.000430623 -0.39222 0
-0.00048254 -0.390902 0
-0.00159236 -0.391657 0
0.000476438 -0.392075 0
-0.000458964 -0.391535 0
0.000238007 -0.391337 0
-0.00102627 -0.391213 0
0.000906071 -0.390905 0
-0.00114836 -0.39164 0
0.000219821 -0.390561 0
0.00120078 -0.391285 0
0.00181038 -0.389662 0
-0.00181173 -0.389665 0
-0.00174078 -0.39036 0
-0.00107161 -0.39056 0
0.000948945 -0.390031 0
0.000701753 -0.390479 0
0.00174198 -0.39036 0
0.00107624 -0.388969 0
0.00126633 -0.389517 0
0.00188854 -0.38894 0
-0.00224682 -0.384905 0
0.00224568 -0.384902 0
-2.6026e-05 -0.389455 0
0.00061946 -0.389507 0
-0.000447627 -0.390134 0
0.000244431 -0.389983 0
-0.000971496 -0.389331 0
-0.00104956 -0.389952 0
-0.000516057 -0.389621 0
-1.09374e-06 -0.386879 0
-0.00188631 -0.388936 0
-0.000383539 -0.388201 0
0.000831545 -0.387806 0
-0.000451814 -0.388905 0
0.000326711 -0.388751 0
-0.00115075 -0.388458 0
0.000851824 -0.388426 0
0.000251564 -0.388119 0
-0.000144624 -0.387566 0
-0.00209716 -0.386602 0
-0.00106294 -0.387002 0
-0.0013553 -0.388939 0
-0.00202925 -0.387409 0
-0.000993359 -0.387757 0
-0.000746333 -0.385535 0
-0.00137929 -0.386153 0
-0.000613481 -0.386393 0
-0.00217078 -0.385769 0
-0.00153444 -0.385361 0
0.00210431 -0.386601 0
0.00104821 -0.386791 0
0.000544063 -0.387241 0
0.00203753 -0.387412 0
0.00147853 -0.387825 0
0.00217265 -0.385765 0
0.000462736 -0.38577 0
-0.000185547 -0.38591 0
0.0013536 -0.385364 0
0.00239425 -0.383085 0
0.00111635 -0.386075 0
0.00130355 -0.384036 0
-0.00238778 -0.383091 0
-0.00124038 -0.384041 0
-0.00160207 -0.384647 0
-0.00232242 -0.384008 0
0.0015956 -0.384679 0
0.00231967 -0.384014 0
0.000572712 -0.384786 0
3.13953e-05 -0.383541 0
0.000563412 -0.384055 0
0.000501201 -0.386443 0
-0.000338883 -0.384461 0
-8.05124e-05 -0.385179 0
0.00111847 -0.382732 0
-0.00108442 -0.38267 0
-0.000915974 -0.384855 0
0.00161864 -0.383313 0
0.00246422 -0.382144 0
0.00150223 -0.381683 0
-0.0028259 -0.376975 0
0.00282352 -0.37698 0
4.42049e-05 -0.381807 0
0.00268122 -0.379126 0
0.000786833 -0.382046 0
0.000167165 -0.382688 0
0.00146712 -0.380187 0
0.00179318 -0.380915 0
0.00260782 -0.380162 0
0.000726846 -0.381001 0
-0.00267864 -0.379127 0
-0.000982411 -0.38027 0
-0.000226252 -0.3809 0
0.000223689 -0.379594 0
-0.00131535 -0.381462 0
0.000681423 -0.380228 0
-0.0026069 -0.38016 0
-0.00179511 -0.379668 0
-0.00149128 -0.378095 0
-0.00190836 -0.378822 0
-0.000816418 -0.379171 0
-0.00275013 -0.378066 0
-0.00246685 -0.382142 0
-0.00183872 -0.382639 0
-0.000714931 -0.382001 0
-0.00179403 -0.380661 0
-0.000763366 -0.383431 0
0.00137383 -0.378862 0
0.000119245 -0.377869 0
-3.85579e-05 -0.378755 0
0.00190023 -0.37947 0
0.00275363 -0.378062 0
0.00147253 -0.377478 0
-0.000987401 -0.376139 0
0.000918036 -0.378166 0
0.00190946 -0.378187 0
-0.000804227 -0.377259 0
-0.00178524 -0.376822 0
-0.00214767 -0.377552 0
0.000461616 -0.376449 0
0.00067863 -0.377256 0
0.00296722 -0.374708 0
0.000313596 -0.373572 0
0.00289679 -0.375862 0
0.0015056 -0.375317 0
0.00189638 -0.376446 0
-2.45546e-06 -0.375059 0
0.00180225 -0.373838 0
-0.000177308 -0.375903 0
0.000673895 -0.37561 0
0.000894176 -0.374474 0
-0.00296387 -0.374714 0
-0.00289451 -0.375857 0
-0.00187825 -0.375311 0
-0.000939155 -0.375204 0
-0.00167581 -0.373564 0
-0.00210545 -0.374394 0
-0.00303827 -0.373544 0
0.00209884 -0.374651 0
0.00303957 -0.373536 0
0.00138151 -0.37219 0
-0.000674493 -0.374123 0
-0.00337469 -0.367269 0
-0.00071055 -0.371709 0
0.00117689 -0.373145 0
0.00337762 -0.367271 0
-0.00183026 -0.372305 0
-0.00324526 -0.369858 0
-0.00317704 -0.371112 0
-0.00184965 -0.370976 0
0.000380103 -0.368735 0
-0.000506993 -0.37012 0
0.000226999 -0.372422 0
0.000573783 -0.371057 0
-0.00081742 -0.372866 0
0.000646306 -0.369893 0
0.0032451 -0.369861 0
0.00197489 -0.368958 0
0.00192271 -0.370538 0
0.00331382 -0.368571 0
0.00146561 -0.367139 0
0.00317694 -0.371112 0
0.00231785 -0.371747 0
0.00128537 -0.368192 0
-0.00162712 -0.368429 0
0.00351225 -0.364574 0
-0.000682432 -0.369038 0
-0.00175944 -0.369713 0
-0.000406672 -0.367061 0
0.00344903 -0.365933 0
0.00171799 -0.36529 0
0.00249 -0.366621 0
-0.00192036 -0.366946 0
-0.00351259 -0.364578 0
-0.00344085 -0.365936 0
-0.00104655 -0.364714 0
-0.00228636 -0.365282 0
-0.00111303 -0.365997 0
0.000334037 -0.365812 0
0.000544923 -0.36679 0
0.0020019 -0.363215 0
0.00239488 -0.36431 0
0.00358081 -0.363193 0
-0.00391345 -0.355852 0
0.00391872 -0.35586 0
0.000531989 -0.364121 0
-7.28778e-05 -0.364918 0
-0.000410836 -0.360925 0
-0.000875966 -0.36282 0
-0.000488934 -0.363825 0
0.000628175 -0.362619 0
0.00196001 -0.361508 0
-0.000224798 -0.361985 0
0.00266489 -0.362324 0
0.00378438 -0.35887 0
0.00371912 -0.360336 0
-0.00198707 -0.361532 0
-0.00378176 -0.358872 0
-0.00371912 -0.360338 0
-0.00187344 -0.359565 0
-0.0014539 -0.360597 0
-0.00358132 -0.36319 0
-0.00223302 -0.363842 0
-0.00251409 -0.362634 0
0.000825759 -0.358147 0
-0.00223123 -0.357401 0
-0.000285714 -0.359338 0
0.00103281 -0.360249 0
0.00242474 -0.359628 0
0.0024535 -0.358013 0
0.00139426 -0.35915 0
0.00267219 -0.360674 0
-0.000708123 -0.357832 0
0.000726496 -0.354789 0
-0.0016819 -0.35844 0
-0.00100368 -0.355853 0
0.000797631 -0.361408 0
0.00384974 -0.357379 0
0.00154532 -0.356453 0
0.00282704 -0.35664 0
0.00404911 -0.352748 0
0.000300831 -0.356046 0
0.000224389 -0.357191 0
0.00247464 -0.354947 0
0.00398195 -0.354316 0
0.0018314 -0.352873 0
0.002865 -0.353677 0
0.00169423 -0.354073 0
-0.00384615 -0.357376 0
-0.00404932 -0.352749 0
-0.00245444 -0.355962 0
-0.00195274 -0.353777 0
-0.00397863 -0.354317 0
-0.00182698 -0.354977 0
-0.00312248 -0.35355 0
0.00411452 -0.351153 0
0.00174583 -0.350374 0
0.00292917 -0.351971 0
0.00308296 -0.350362 0
-0.000139924 -0.353037 0
-0.000593734 -0.354362 0
0.000756033 -0.351691 0
-0.00111722 -0.349279 0
-0.00124765 -0.351335 0
-0.00265013 -0.352064 0
0.000167228 -0.350233 0
-0.00266545 -0.350383 0
-0.00411454 -0.351154 0
-0.00137907 -0.352632 0
-0.00331144 -0.368575 0
0.00442923 -0.342802 0
0.00430522 -0.34621 0
0.00231543 -0.347912 0
0.000518074 -0.348422 0
0.001655 -0.349072 0
-0.00443406 -0.342801 0
-0.00430515 -0.346215 0
0.000341823 -0.344231 0
-0.00152335 -0.346547 0
0.000916761 -0.346326 0
-0.000828626 -0.347856 0
-0.00424017 -0.347886 0
-0.00251973 -0.348233 0
-0.00294834 -0.346829 0
-0.00436586 -0.344521 0
-0.00207478 -0.343691 0
-0.00256158 -0.34526 0
-0.00339686 -0.343679 0
-0.000995314 -0.345077 0
0.0026108 -0.346246 0
0.00436903 -0.344521 0
0.00243032 -0.343687 0
0.00173359 -0.345052 0
0.00455961 -0.339286 0
0.00042935 -0.340116 0
0.000948789 -0.3422 0
0.00124332 -0.343396 0
0.00283612 -0.341814 0
-0.00122179 -0.341654 0
-0.00455401 -0.339287 0
-0.00290716 -0.342041 0
-0.00253771 -0.339996 0
-0.00449549 -0.341056 0
0.00449372 -0.341057 0
0.00168617 -0.340907 0
0.0022865 -0.338579 0
0.00316134 -0.340192 0
-0.000381247 -0.342921 0
1.5436e-05 -0.341339 0
-0.00105942 -0.340185 0
-0.00143671 -0.336846 0
-0.00162781 -0.33856 0
0.000332758 -0.337941 0
-0.00461769 -0.337495 0
-0.00324243 -0.338412 0
-0.00316303 -0.336606 0
0.00106328 -0.338999 0
0.00208216 -0.336008 0
0.000240933 -0.336112 0
-0.00491918 -0.328173 0
0.00492103 -0.328171 0
0.00094266 -0.331295 0
0.00105927 -0.333792 0
-0.0048024 -0.331969 0
-0.00197273 -0.33388 0
-0.00215349 -0.335442 0
0.00162059 -0.337358 0
0.0046155 -0.337494 0
0.00345011 -0.336606 0
0.00480092 -0.331972 0
-0.000432424 -0.334581 0
-0.00049908 -0.332629 0
-0.00191368 -0.329663 0
-0.00250852 -0.331769 0
-0.00073314 -0.330933 0
-0.00485648 -0.330084 0
-0.00351392 -0.329148 0
-0.0050316 -0.324285 0
-0.00258702 -0.326262 0
-0.00347344 -0.327566 0
-0.00497918 -0.326236 0
-0.00474083 -0.333836 0
-0.003517 -0.334775 0
-0.00336793 -0.33309 0
0.00474309 -0.333837 0
0.00293516 -0.332928 0
0.00327935 -0.334778 0
0.00304993 -0.330779 0
0.0016186 -0.332512 0
0.00486022 -0.330083 0
0.00119299 -0.327559 0
-3.65095e-05 -0.329112 0
0.00184561 -0.329347 0
-0.000800411 -0.327247 0
0.00351467 -0.329145 0
0.000931371 -0.322809 0
-0.000619509 -0.324782 0
0.000402162 -0.326105 0
0.00503514 -0.32428 0
0.00288573 -0.325684 0
0.00335865 -0.327392 0
0.00498046 -0.326237 0
-0.00222766 -0.321925 0
-0.000826585 -0.323029 0
-0.00276131 -0.32407 0
-0.00203812 -0.328143 0
0.00301364 -0.323498 0
0.00508919 -0.322301 0
0.00271218 -0.321025 0
0.0036345 -0.322155 0
-0.00536401 -0.312085 0
0.00536538 -0.312086 0
-1.52887e-05 -0.32009 0
0.00111898 -0.32122 0
0.001438 -0.324584 0
-0.00525284 -0.316236 0
-0.00264428 -0.319193 0
-0.00345531 -0.3207 0
-0.00509037 -0.322301 0
-0.00356392 -0.322714 0
-0.0015933 -0.320452 0
0.000355516 -0.314634 0
0.0052583 -0.316236 0
0.00519929 -0.318278 0
0.0021851 -0.317285 0
0.00387872 -0.317274 0
0.00300335 -0.319076 0
0.0012422 -0.318824 0
-0.00519741 -0.318279 0
0.00424078 -0.347886 0
0.00306563 -0.314723 0
0.00166507 -0.315694 0
0.00530984 -0.314171 0
0.00185545 -0.311378 0
0.00176998 -0.313319 0
0.00362805 -0.312908 0
0.00546959 -0.307847 0
-0.00176369 -0.311704 0
-9.13469e-05 -0.312739 0
0.00542075 -0.309977 0
0.00297783 -0.308936 0
0.00374653 -0.310992 0
0.00310805 -0.30572 0
-0.000183114 -0.308993 0
-9.48043e-05 -0.310874 0
0.00378803 -0.307347 0
0.00140425 -0.309708 0
0.00552349 -0.305699 0
-0.00576871 -0.294664 0
0.00576918 -0.294664 0
0.0013814 -0.307296 0
-0.000839068 -0.303131 0
-0.00152531 -0.306191 0
0.000813219 -0.304938 0
-0.000290254 -0.30733 0
0.0028152 -0.302907 0
-0.000793514 -0.304757 0
-0.00314018 -0.303996 0
0.000991488 -0.303121 0
0.00134767 -0.297827 0
5.78519e-05 -0.300421 0
0.00228747 -0.304399 0
-0.00566896 -0.299136 0
-0.00562522 -0.301342 0
-0.00289762 -0.30026 0
-0.00252599 -0.302175 0
-0.0042422 -0.302453 0
-0.00546864 -0.307846 0
-0.00552265 -0.305701 0
-0.00352132 -0.305964 0
-0.00285683 -0.308615 0
-0.00395732 -0.307473 0
-0.00541698 -0.309979 0
-0.003449 -0.310555 0
-0.00167033 -0.309947 0
0.00567174 -0.299137 0
0.00280269 -0.300166 0
0.00135948 -0.299454 0
0.00152455 -0.301425 0
0.005623 -0.301341 0
0.00367442 -0.297996 0
0.00571959 -0.296911 0
0.00275072 -0.29513 0
0.00408777 -0.296272 0
0.00388447 -0.301518 0
-0.0013195 -0.298125 0
-0.00139058 -0.299733 0
-0.000286901 -0.295281 0
-0.00364487 -0.298056 0
-0.00244886 -0.296103 0
-0.00571851 -0.29691 0
-0.00427645 -0.295801 0
-9.83121e-05 -0.296967 0
0.00586453 -0.290119 0
0.00102908 -0.290649 0
0.00581868 -0.2924 0
0.00352572 -0.291278 0
0.00407959 -0.293548 0
0.00175481 -0.292956 0
0.00120298 -0.294538 0
0.00331481 -0.287832 0
0.00263004 -0.28962 0
0.00590706 -0.287814 0
-0.0061263 -0.276051 0
0.00612731 -0.276053 0
5.20523e-07 -0.281434 0
0.00247916 -0.284229 0
0.00386415 -0.285799 0
-0.00531099 -0.31417 0
-0.0025235 -0.315228 0
-0.00340153 -0.313148 0
-0.00409655 -0.315217 0
-0.00336338 -0.317218 0
-0.00128058 -0.314022 0
-0.000859658 -0.317469 0
-0.000907992 -0.315773 0
0.00604144 -0.28081 0
-0.00165772 -0.285425 0
0.000300901 -0.28774 0
0.00179241 -0.286243 0
0.000352028 -0.284643 0
-0.00586407 -0.290117 0
-0.00283516 -0.292402 0
-0.00402155 -0.293905 0
-0.00581609 -0.292399 0
-0.00194653 -0.294193 0
-0.000518116 -0.292388 0
-0.00435037 -0.291272 0
-0.00195405 -0.289625 0
-0.000215538 -0.289421 0
-0.0017945 -0.287533 0
-0.00377433 -0.28633 0
-0.0059098 -0.287816 0
-0.00403788 -0.288982 0
0.00302883 -0.28125 0
0.00157828 -0.28254 0
0.00599671 -0.283158 0
0.00608571 -0.278439 0
0.00126272 -0.276732 0
0.00379971 -0.277262 0
0.0020908 -0.279024 0
0.00417783 -0.279443 0
0.0040256 -0.282964 0
-0.00118074 -0.384767 0
-0.00146242 -0.385344 0
-0.00211562 -0.384748 0
0.000490696 -0.384437 0
0.000369753 -0.385408 0
-0.000300872 -0.384846 0
0.0012889 -0.385011 0
0.00102558 -0.385716 0
0.00211669 -0.384745 0
0.00131864 -0.384152 0
0.00229067 -0.382161 0
0.000353949 -0.38255 0
0.00223303 -0.383042 0
0.000652538 -0.383488 0
0.00135582 -0.382625 0
-0.000670312 -0.383592 0
-0.000710906 -0.384288 0
-0.00139263 -0.383876 0
-0.00228686 -0.382159 0
-0.00223219 -0.383042 0
-0.0012375 -0.382628 0
0.00131873 -0.381273 0
0.00141663 -0.383393 0
1.64628e-05 -0.383885 0
-8.39539e-05 -0.383157 0
-0.00155745 -0.383212 0
-0.00131896 -0.381273 0
0.000921811 -0.381986 0
-1.47805e-07 -0.381038 0
-0.00159153 -0.381959 0
0.00234383 -0.381251 0
-0.00234614 -0.381256 0
-0.000505215 -0.381946 0
-0.00054569 -0.38264 0
0.000214889 -0.381762 0
0.00262909 -0.376389 0
-0.00262464 -0.376391 0
0.000946803 -0.379756 0
-0.000946499 -0.37976 0
0.000769035 -0.380627 0
0.00158508 -0.38049 0
1.00089e-06 -0.38004 0
-0.00151894 -0.380416 0
-0.00075009 -0.380723 0
0.00251471 -0.378401 0
-0.00251138 -0.378398 0
0.00245974 -0.379374 0
0.00156863 -0.37891 0
0.00172957 -0.379719 0
0.00143244 -0.377428 0
0.00178398 -0.378135 0
0.00257094 -0.377409 0
-3.66335e-05 -0.378364 0
0.000881003 -0.37834 0
-0.000278177 -0.379214 0
-0.00127264 -0.378462 0
-0.000823535 -0.37675 0
-0.00256799 -0.377408 0
-0.00177077 -0.37692 0
-0.00178062 -0.377769 0
-0.0024609 -0.379374 0
-0.00171796 -0.379663 0
-0.000726236 -0.377711 0
0.00031881 -0.377305 0
0.00273308 -0.374294 0
0.000654228 -0.375168 0
0.000149283 -0.3762 0
0.00140554 -0.376171 0
0.00267929 -0.375354 0
0.00172687 -0.374845 0
0.00154818 -0.373236 0
0.000953995 -0.37415 0
0.00193878 -0.373999 0
0.0027885 -0.373214 0
-0.000585693 -0.372533 0
-0.00273192 -0.374295 0
0.000397687 -0.373157 0
0.00303845 -0.367522 0
-0.000977763 -0.374268 0
0.00293941 -0.369857 0
-0.000488085 -0.373478 0
-0.00278563 -0.37322 0
-0.00162967 -0.373305 0
8.93923e-07 -0.37444 0
0.00100429 -0.37113 0
-0.00186351 -0.37416 0
-0.00267962 -0.375353 0
-0.000653332 -0.375389 0
0.000404377 -0.372066 0
0.00152553 -0.372122 0
0.000778827 -0.376668 0
0.00190145 -0.376772 0
-0.00168059 -0.372162 0
-0.00303894 -0.367521 0
-0.000727921 -0.370694 0
-0.000907778 -0.371636 0
6.8764e-05 -0.371199 0
-0.00293676 -0.369861 0
-0.00288574 -0.370993 0
-0.0017906 -0.370961 0
0.000520616 -0.379084 0
-0.00167034 -0.375195 0
-0.00184321 -0.376049 0
-0.00107786 -0.376025 0
0.000721095 -0.368667 0
0.000317882 -0.369928 0
0.00162756 -0.369968 0
-0.00131735 -0.368722 0
-0.00152976 -0.369858 0
-0.00059503 -0.369469 0
0.00289207 -0.370998 0
0.00194995 -0.371255 0
0.00298718 -0.368699 0
0.00188587 -0.36813 0
0.00313638 -0.365105 0
0.00158048 -0.369038 0
0.000103883 -0.365724 0
0.00074254 -0.36714 0
0.00168957 -0.365854 0
0.00203636 -0.366971 0
0.00309019 -0.366322 0
-0.000966509 -0.367072 0
0.00163476 -0.363889 0
0.000855431 -0.36624 0
-0.000316576 -0.368094 0
-9.4012e-05 -0.366676 0
-0.0031364 -0.365104 0
-0.00189813 -0.367724 0
-0.00299048 -0.368701 0
-0.00308869 -0.366323 0
-0.00213894 -0.369138 0
-0.00199495 -0.366616 0
0.00098432 -0.364917 0
-0.000746959 -0.36313 0
-0.000280799 -0.364426 0
0.000476349 -0.36343 0
0.00342013 -0.357411 0
0.00164 -0.36225 0
-0.00185487 -0.364249 0
-0.00200664 -0.362996 0
-0.0034226 -0.35741 0
-0.00332754 -0.36005 0
-0.00327999 -0.361342 0
-0.000947053 -0.360722 0
-0.00221361 -0.360714 0
-0.00128548 -0.361964 0
-0.00161422 -0.358682 0
0.000218206 -0.36173 0
-0.00236658 -0.361968 0
-0.0023098 -0.359576 0
-0.00337392 -0.358738 0
-0.00253932 -0.358089 0
0.000120664 -0.354916 0
-0.00101563 -0.356699 0
-0.00318345 -0.36387 0
-0.00197613 -0.365434 0
0.000728777 -0.362524 0
0.00333091 -0.360049 0
-0.000903133 -0.365319 0
0.00106855 -0.359574 0
0.000257746 -0.360508 0
0.00160569 -0.360864 0
-0.000293917 -0.359217 0
0.00327987 -0.361341 0
0.00257322 -0.360708 0
0.0008898 -0.357532 0
-0.000554053 -0.357938 0
-0.00124495 -0.359696 0
0.000602865 -0.358596 0
0.00210554 -0.364851 0
0.00318601 -0.363871 0
0.00227267 -0.363056 0
-0.00350847 -0.354698 0
0.00337693 -0.358738 0
0.00201259 -0.358394 0
0.00226227 -0.359562 0
0.000298985 -0.356297 0
0.00351055 -0.354699 0
0.00346857 -0.356063 0
0.00183724 -0.355388 0
0.00144999 -0.356502 0
0.00254006 -0.356751 0
0.00201706 -0.353333 0
0.00242602 -0.354396 0
0.00119123 -0.354287 0
-0.000596597 -0.351917 0
-5.53967e-05 -0.353386 0
0.00096698 -0.352179 0
-0.0020607 -0.353287 0
0.00228058 -0.352041 0
0.00377157 -0.346155 0
-0.00376685 -0.346157 0
0.00368815 -0.349071 0
0.00143155 -0.349874 0
0.00153691 -0.351095 0
0.00364139 -0.350505 0
0.00012852 -0.350626 0
0.00266114 -0.349802 0
-0.000778325 -0.347543 0
-0.00368514 -0.349071 0
5.40173e-05 -0.348984 0
-0.0019419 -0.350308 0
-0.000961018 -0.350863 0
-0.00104309 -0.352917 0
0.00192369 -0.347625 0
0.00200764 -0.348824 0
-0.00145551 -0.348896 0
-0.000743258 -0.349772 0
-0.00372649 -0.347619 0
-0.00253566 -0.349301 0
-0.00225071 -0.347643 0
0.000569252 -0.347731 0
0.00355663 -0.35332 0
-0.00355732 -0.353316 0
-0.00174728 -0.35507 0
-0.000881709 -0.354258 0
-0.00364072 -0.350506 0
-0.00211501 -0.351801 0
-0.00251988 -0.354275 0
-0.00346692 -0.356062 0
-0.00231872 -0.356751 0
-0.000756787 -0.355616 0
0.00372724 -0.347623 0
0.00199693 -0.386353 0
0.00140181 -0.386209 0
-0.0060386 -0.280807 0
-0.00313694 -0.282466 0
-0.00599802 -0.28316 0
-0.00335405 -0.284423 0
-0.00115856 -0.28319 0
-0.00275408 -0.278433 0
-0.000314056 -0.278612 0
-0.00386992 -0.280356 0
-0.00192862 -0.280887 0
-0.00608154 -0.278438 0
-0.00444149 -0.277257 0
-0.00176891 -0.275197 0
-0.00143732 -0.277078 0
0.00620686 -0.27123 0
0.00344511 -0.273663 0
0.00284752 -0.275554 0
0.000662162 -0.27385 0
-1.54428e-05 -0.275502 0
-0.00620656 -0.27123 0
-0.00231758 -0.271362 0
-0.00130156 -0.273184 0
0.00616487 -0.273646 0
0.00192642 -0.269155 0
0.00025113 -0.271133 0
0.00261508 -0.271443 0
0.00443928 -0.272013 0
-0.00616549 -0.273652 0
-0.00370677 -0.273672 0
-0.00362019 -0.275571 0
-0.00426806 -0.271753 0
-0.00624446 -0.268796 0
-0.00266778 -0.267591 0
-0.00467571 -0.267584 0
-0.0037086 -0.269612 0
-0.00120765 -0.269371 0
0.00643117 -0.256405 0
-0.00642834 -0.256404 0
-0.00635701 -0.261406 0
-0.00345659 -0.263899 0
-0.00632195 -0.26388 0
0.000795218 -0.264955 0
-0.000291836 -0.267135 0
-0.00150845 -0.265168 0
-0.00171495 -0.25893 0
-0.000864252 -0.262039 0
-0.00351952 -0.261086 0
-0.00639422 -0.258911 0
-0.00406422 -0.257671 0
-0.00457535 -0.259498 0
0.000557383 -0.251812 0
-0.001234 -0.255175 0
-0.00218075 -0.256962 0
0.0063583 -0.261404 0
0.00230798 -0.257554 0
9.44932e-05 -0.257035 0
0.0018512 -0.254564 0
8.21546e-05 -0.253722 0
0.00649574 -0.251351 0
0.00403745 -0.255748 0
0.00646426 -0.253884 0
0.00394134 -0.252631 0
0.00365848 -0.248818 0
0.00456533 -0.250662 0
0.0065285 -0.248805 0
-0.00649565 -0.251352 0
-0.00298627 -0.25194 0
0.00275717 -0.26191 0
0.000858398 -0.259906 0
-0.00666911 -0.235902 0
0.00667093 -0.235902 0
-0.00140612 -0.247018 0
-0.00652761 -0.248806 0
-0.00449847 -0.25009 0
-0.00195963 -0.249565 0
0.000802692 -0.248842 0
-0.00646064 -0.253885 0
-0.00401338 -0.255003 0
-0.00489022 -0.252628 0
-0.00255446 -0.2538 0
0.000977555 -0.262926 0
0.00378863 -0.264731 0
0.00242129 -0.266769 0
0.00624584 -0.268797 0
0.00444716 -0.267585 0
0.00415341 -0.26981 0
0.006321 -0.263882 0
0.00468194 -0.262654 0
0.00639587 -0.258912 0
0.00446962 -0.257898 0
0.00309134 -0.259691 0
0.00493245 -0.260168 0
0.00237411 -0.244445 0
0.000945751 -0.24642 0
0.00323062 -0.246571 0
-0.00408863 -0.247417 0
0.00661674 -0.241098 0
-0.00661527 -0.241096 0
-0.00332817 -0.243479 0
-0.00658839 -0.243679 0
-0.00299974 -0.245595 0
-0.000462846 -0.243899 0
-0.00496572 -0.244972 0
0.00187575 -0.239447 0
0.0013723 -0.242029 0
0.00411445 -0.242298 0
-0.00181382 -0.240076 0
0.00658819 -0.243679 0
0.0045999 -0.244773 0
0.00664466 -0.238505 0
-0.000695272 -0.241836 0
0.003926 -0.237215 0
0.00672144 -0.230667 0
0.00376554 -0.233298 0
0.00466852 -0.235219 0
0.0066982 -0.233288 0
-0.00410469 -0.241088 0
-0.00664385 -0.238503 0
-0.00356736 -0.237216 0
0.000180729 -0.235832 0
0.00237237 -0.235141 0
0.00176957 -0.237292 0
-0.000458319 -0.238129 0
0.00440429 -0.239762 0
0.00174154 -0.228045 0
-0.004601 -0.239041 0
-0.00671983 -0.230665 0
0.00374051 -0.230292 0
0.00674658 -0.228033 0
0.00424993 -0.226721 0
0.0048364 -0.228623 0
-0.00684947 -0.21474 0
0.00684866 -0.214741 0
-0.000597214 -0.220535 0
0.00126641 -0.224083 0
0.0022573 -0.225973 0
0.00681168 -0.220081 0
0.00427543 -0.22369 0
-0.00012754 -0.231733 0
0.000727668 -0.233732 0
0.00679025 -0.22274 0
0.00243262 -0.221205 0
0.00210211 -0.231823 0
0.000632641 -0.222153 0
-0.00681007 -0.220082 0
-0.0028165 -0.224362 0
-0.000651672 -0.226355 0
0.00480069 -0.22137 0
0.00196574 -0.216163 0
0.00382533 -0.21853 0
-0.00400199 -0.227835 0
-0.000782434 -0.229087 0
0.00107622 -0.23002 0
-0.00341168 -0.231139 0
-0.00234257 -0.234052 0
0.0012218 -0.218669 0
-0.00255269 -0.216189 0
-0.000289791 -0.216861 0
0.00683011 -0.217415 0
0.00456897 -0.216028 0
-0.00265336 -0.226364 0
-0.00271928 -0.229319 0
-0.00674596 -0.228032 0
-0.00669742 -0.233289 0
-0.00467196 -0.234605 0
-0.0018671 -0.236064 0
-0.00490447 -0.229695 0
-0.00376529 -0.221253 0
-0.00184252 -0.222373 0
-0.00265013 -0.218849 0
-0.00683058 -0.217415 0
-0.00494787 -0.218755 0
-0.0049024 -0.216083 0
-0.00679079 -0.222741 0
-0.00500899 -0.224073 0
-0.000342464 -0.208553 0
0.00688305 -0.209372 0
0.00306359 -0.211796 0
-0.000423541 -0.213134 0
-0.00688267 -0.209371 0
-0.00396938 -0.212634 0
0.00317561 -0.214146 0
0.000709459 -0.210865 0
-0.00202376 -0.210717 0
-0.00378814 -0.207605 0
-0.00448365 -0.210165 0
-0.00235683 -0.214056 0
-0.00686601 -0.212059 0
-0.00695538 -0.193131 0
-0.00689693 -0.206677 0
-0.000242346 -0.2014 0
-0.00121717 -0.204968 0
-0.00177173 -0.207004 0
0.00300602 -0.205837 0
0.00250423 -0.20865 0
0.00689836 -0.206677 0
0.00515707 -0.205332 0
0.00695591 -0.193131 0
0.00693632 -0.198563 0
0.00371737 -0.201641 0
0.00486072 -0.20803 0
0.00479886 -0.210311 0
0.00686705 -0.212059 0
0.00518739 -0.213405 0
-0.00693581 -0.198563 0
-0.00410477 -0.204723 0
-0.00248517 -0.202703 0
-0.00315668 -0.198965 0
0.000689226 -0.206404 0
0.0012635 -0.203709 0
0.00692461 -0.201272 0
0.00203992 -0.196662 0
-0.00692348 -0.201273 0
-0.00485333 -0.20246 0
-0.0051629 -0.199922 0
-0.00694648 -0.195849 0
-0.00488696 -0.197209 0
-0.00152843 -0.195625 0
-0.000270816 -0.198469 0
0.0018374 -0.199915 0
0.00434151 -0.199072 0
0.00173682 -0.191043 0
-0.00420625 -0.194306 0
-0.00150556 -0.192186 0
0.000900098 -0.193924 0
-0.00697 -0.187685 0
0.00401631 -0.194228 0
0.00694692 -0.195848 0
-0.00160131 -0.18673 0
0.00448402 -0.19663 0
0.00697047 -0.187685 0
-0.000647113 -0.189443 0
0.00277933 -0.186905 0
-0.00394894 -0.189081 0
0.000562154 -0.187493 0
0.00696381 -0.19041 0
0.00419939 -0.189463 0
0.00398231 -0.191842 0
-0.00446311 -0.186217 0
-0.00224149 -0.182027 0
0.0008044 -0.183916 0
-0.00697568 -0.184959 0
-0.00267826 -0.184482 0
-0.0045773 -0.182875 0
-0.00696342 -0.190409 0
-0.00460608 -0.191668 0
0.00410844 -0.183875 0
0.00246838 -0.184963 0
0.00697656 -0.184959 0
0.00505746 -0.186324 0
0.00698572 -0.171305 0
0.00698596 -0.176769 0
0.00239986 -0.179049 0
0.00243147 -0.181756 0
0.00698408 -0.1795 0
1.01814e-05 -0.180432 0
0.00480416 -0.178135 0
0.00482443 -0.180866 0
-0.00698521 -0.171305 0
0.00376036 -0.174037 0
-0.00698519 -0.176769 0
0.00279652 -0.176466 0
-0.00698316 -0.1795 0
0.00494182 -0.175913 0
0.00698643 -0.174037 0
-0.00175765 -0.173247 0
-0.00426132 -0.180105 0
0.000906202 -0.174308 0
0.0017366 -0.168324 0
-0.00172338 -0.17705 0
0.000590976 -0.171214 0
0.00028889 -0.178152 0
-0.000966672 -0.175142 0
0.00378576 -0.170812 0
-0.00698003 -0.165844 0
-0.0032201 -0.169175 0
0.002364 -0.172413 0
0.00517435 -0.172436 0
-0.00170647 -0.170929 0
-0.000769501 -0.168585 0
-0.0043074 -0.171648 0
-0.000216742 -0.161708 0
-0.00291433 -0.165037 0
-0.00698583 -0.174037 0
-0.0024078 -0.167154 0
-0.00698334 -0.168574 0
-0.00427368 -0.175403 0
-0.00524321 -0.16976 0
-0.00489727 -0.167208 0
-0.00478917 -0.177755 0
-0.00503208 -0.173532 0
-0.00205613 -0.179358 0
-0.00697519 -0.163115 0
-0.00513565 -0.164478 0
0.000536919 -0.165081 0
0.00698074 -0.165844 0
0.00366475 -0.162609 0
-0.00117066 -0.163693 0
-0.00363867 -0.161281 0
0.00698388 -0.168574 0
0.00441745 -0.167208 0
0.00477439 -0.164789 0
0.00697596 -0.163115 0
0.00270984 -0.165717 0
0.00502047 -0.169172 0
0.00150824 -0.163092 0
0.00693236 -0.149512 0
-0.00693266 -0.149512 0
-0.00695424 -0.154943 0
-0.00696252 -0.157664 0
-0.00123489 -0.15597 0
-0.00424798 -0.1563 0
-0.00161462 -0.158996 0
-0.0046574 -0.158878 0
-0.00319014 -0.151942 0
0.00695428 -0.154943 0
-0.00472336 -0.153878 0
-0.00247618 -0.154083 0
0.00242933 -0.152195 0
0.000184765 -0.153678 0
-0.00694439 -0.152225 0
0.00306227 -0.157054 0
-0.00515329 -0.150865 0
-5.46389e-05 -0.143893 0
-0.00690683 -0.144099 0
-0.00214331 -0.147707 0
-0.0046359 -0.14834 0
0.00244478 -0.154662 0
-0.00295643 -0.149751 0
0.000246514 -0.14984 0
-0.00407001 -0.145297 0
-0.00692015 -0.146802 0
0.0046655 -0.155365 0
0.00696325 -0.157664 0
0.00475659 -0.159023 0
0.00193392 -0.15974 0
0.000637525 -0.15761 0
0.00355222 -0.148958 0
0.000779288 -0.146828 0
-0.00177194 -0.145428 0
-0.00408052 -0.141395 0
-0.00233185 -0.143066 0
0.00213459 -0.150276 0
0.00694462 -0.152225 0
0.00690746 -0.144099 0
-0.0049141 -0.143351 0
0.00468936 -0.15117 0
0.00341191 -0.144493 0
0.00692054 -0.146802 0
0.00153584 -0.145026 0
-0.000954014 -0.151739 0
-0.00689129 -0.1414 0
-0.00679304 -0.128016 0
0.00679236 -0.128015 0
0.00304921 -0.146737 0
0.00689282 -0.141402 0
0.00240219 -0.139938 0
-0.00100365 -0.139915 0
0.00484269 -0.14005 0
0.00353677 -0.142075 0
0.00121297 -0.141936 0
0.000741254 -0.132502 0
-0.00370783 -0.138205 0
-0.000757168 -0.141873 0
0.000718837 -0.136402 0
0.00683614 -0.133347 0
0.00409918 -0.136721 0
-0.00510721 -0.139663 0
-0.00683625 -0.133346 0
0.000707309 -0.138574 0
-0.00142243 -0.137474 0
-0.00356597 -0.13466 0
0.00685707 -0.136024 0
0.00259901 -0.134463 0
0.00489695 -0.134564 0
-0.00685544 -0.136025 0
-0.000981821 -0.13444 0
-0.00384344 -0.130669 0
-0.00243542 -0.132567 0
-0.00478188 -0.136392 0
-0.00681501 -0.130676 0
-0.0046854 -0.132737 0
-1.60378e-07 -0.123409 0
-0.00281548 -0.126552 0
-0.00442181 -0.128341 0
-0.000628523 -0.129271 0
-0.000870977 -0.13128 0
0.00324052 -0.129533 0
0.0038377 -0.132119 0
0.0068167 -0.130677 0
0.00526363 -0.12934 0
0.000161542 -0.126385 0
0.0013796 -0.128269 0
0.00674445 -0.122723 0
0.00388603 -0.125307 0
0.0017217 -0.124807 0
0.00317477 -0.12124 0
0.00677058 -0.125363 0
0.0044998 -0.123108 0
0.00671809 -0.120087 0
0.00431395 -0.118766 0
-0.00655893 -0.107096 0
0.00656063 -0.107098 0
-0.00114425 -0.117713 0
0.00145096 -0.118927 0
0.00662815 -0.112255 0
0.00368902 -0.114843 0
0.00471417 -0.116694 0
0.00665748 -0.114856 0
-0.000922524 -0.120626 0
0.0011801 -0.116108 0
0.00103778 -0.121516 0
-0.00674416 -0.12272 0
0.00279018 -0.117378 0
-0.000498152 -0.109654 0
-0.00401437 -0.119405 0
-0.00336312 -0.122988 0
-0.00662952 -0.112258 0
0.00102892 -0.11269 0
-0.00385105 -0.116373 0
-0.00671541 -0.120088 0
-0.00287736 -0.12104 0
-0.00501324 -0.121396 0
-0.00665958 -0.114856 0
-0.0067697 -0.125365 0
-0.00185867 -0.12457 0
0.00378562 -0.111987 0
0.0065961 -0.109671 0
0.00188934 -0.11035 0
0.00417999 -0.109599 0
-0.00141957 -0.114504 0
-0.00137225 -0.111996 0
-0.00659566 -0.109671 0
-0.0039551 -0.113212 0
-0.00354727 -0.109853 0
-0.002278 -0.105426 0
-0.00480549 -0.111412 0
-0.00213511 -0.107851 0
-0.00422162 -0.106771 0
-0.00498171 -0.108561 0
-0.00449579 -0.124993 0
0.00228882 -0.105393 0
1.33379e-05 -0.106493 0
0.00234005 -0.107886 0
0.0044449 -0.107458 0
-0.00648461 -0.101995 0
-0.00652218 -0.10454 0
-0.00402031 -0.103252 0
-0.00472576 -0.104982 0
-2.03182e-05 -0.101807 0
-0.000288949 -0.104146 0
-0.00192922 -0.102773 0
-0.00274962 -0.0987345 0
-0.00341799 -0.100976 0
-0.00644782 -0.0994648 0
-0.00475908 -0.0981949 0
0.0064884 -0.101997 0
0.00176035 -0.0974479 0
0.00322353 -0.102246 0
0.00162102 -0.103469 0
0.00652271 -0.10454 0
0.00447243 -0.105263 0
0.00644689 -0.0994648 0
0.00420593 -0.0981931 0
0.00237714 -0.0998735 0
0.00450371 -0.100462 0
-0.000182068 -0.0991862 0
-0.00152029 -0.100583 0
-0.00623043 -0.0870651 0
-0.00632076 -0.0919739 0
-0.00319723 -0.0944397 0
-0.00323854 -0.0966087 0
-0.000491366 -0.0955437 0
-0.00119304 -0.0974366 0
0.0062283 -0.0870623 0
0.000482095 -0.0893266 0
-0.000737465 -0.0923085 0
-0.0014302 -0.0939893 0
0.00631904 -0.091973 0
0.00293384 -0.0937537 0
0.00352122 -0.095979 0
0.0063657 -0.0944549 0
0.00156217 -0.0952882 0
0.00481398 -0.0932014 0
0.00359301 -0.0901756 0
-0.00333415 -0.0894984 0
0.00156774 -0.0915107 0
0.000927647 -0.09339 0
0.00627684 -0.0895096 0
0.00280807 -0.0868102 0
-0.00318023 -0.0919557 0
-0.00139192 -0.0902935 0
0.00231583 -0.0886836 0
0.00444666 -0.0882127 0
0.00612433 -0.0822297 0
-0.00159264 -0.085039 0
0.00617842 -0.0846348 0
0.0029916 -0.083409 0
0.00457347 -0.0858339 0
0.00479914 -0.083418 0
0.000262102 -0.0867717 0
-0.0015964 -0.0880412 0
0.00154811 -0.0850158 0
-0.00381854 -0.087132 0
0.00338479 -0.0798226 0
0.00607757 -0.079843 0
-0.00579178 -0.0682243 0
0.00579102 -0.0682288 0
-0.0003814 -0.0811673 0
0.000866418 -0.0829379 0
0.00228032 -0.0814961 0
6.69664e-07 -0.0733331 0
0.00247887 -0.0761377 0
0.00390934 -0.0777454 0
-0.00636164 -0.094451 0
-0.00627764 -0.0895111 0
-0.00612874 -0.0822304 0
-0.00617824 -0.0846374 0
-0.00373465 -0.0834125 0
-0.00435433 -0.0852652 0
-0.00165253 -0.0828906 0
-0.0035254 -0.0800541 0
-0.00435924 -0.0816965 0
-0.000852293 -0.0775363 0
-0.00607352 -0.0798395 0
-0.0015441 -0.0794707 0
0.00590987 -0.0728042 0
0.00101691 -0.079129 0
0.000994053 -0.0772524 0
-0.000224611 -0.0754664 0
-0.00590536 -0.0728078 0
-0.00337742 -0.0756462 0
-0.00306797 -0.0778476 0
-0.00597031 -0.075129 0
0.00297045 -0.0731871 0
0.0015551 -0.0744442 0
0.00596829 -0.0751329 0
0.00585047 -0.0705045 0
0.0012301 -0.0688262 0
0.00363887 -0.0693413 0
0.00204976 -0.0710132 0
0.0040622 -0.0714573 0
0.00399623 -0.07489 0
-0.00291485 -0.0726562 0
-0.00435718 -0.0739814 0
-0.0018592 -0.0743268 0
-0.000901928 -0.0706495 0
-0.00128641 -0.0722679 0
0.000468863 -0.0716719 0
-0.0021314 -0.0670126 0
-0.00360881 -0.0699262 0
-0.000815323 -0.0685742 0
-0.00585154 -0.0705047 0
-0.00247619 -0.0710714 0
-0.00384301 -0.0679841 0
-0.00566374 -0.0637464 0
-0.00572642 -0.0659759 0
-0.00341705 -0.0648332 0
-0.00412714 -0.0663485 0
0.00565961 -0.0637471 0
-0.00314066 -0.0615185 0
0.00104997 -0.0636058 0
0.000411862 -0.0661787 0
-0.00395368 -0.0631292 0
-0.00559495 -0.0615397 0
-0.00111921 -0.0644202 0
-0.000780025 -0.062 0
0.00339773 -0.0663308 0
-0.00219904 -0.0630392 0
0.00225975 -0.0603515 0
0.00187008 -0.0671788 0
0.00418329 -0.0677953 0
0.00194146 -0.065198 0
0.00335673 -0.0633654 0
0.00572823 -0.0659731 0
0.00559705 -0.061543 0
0.00204168 -0.062116 0
0.00432624 -0.0648538 0
0.0040887 -0.0604336 0
-0.00523813 -0.0509339 0
-0.00125243 -0.0570042 0
-0.00147791 -0.0595295 0
0.000298928 -0.0603428 0
0.00523812 -0.050932 0
0.00125964 -0.0578457 0
0.00538839 -0.0550963 0
0.00352085 -0.0581895 0
0.00545491 -0.0572161 0
0.00271256 -0.0555295 0
-0.00538733 -0.0550935 0
-0.00350874 -0.059516 0
-0.00545738 -0.0572176 0
-0.00337247 -0.0561271 0
-0.000309154 -0.0583464 0
0.000550311 -0.0557613 0
0.00114669 -0.05157 0
0.001406 -0.0537315 0
0.00531557 -0.0530002 0
-0.00190157 -0.0530021 0
0.00332586 -0.0519376 0
-0.00132203 -0.0549421 0
-0.00013077 -0.0527991 0
0.00324364 -0.05377 0
-0.00384856 -0.0578106 0
-0.00358413 -0.0541253 0
-0.00531321 -0.0530017 0
-0.00357054 -0.0519442 0
-0.00130716 -0.0502491 0
-0.00231842 -0.0581874 0
0.00508345 -0.0468932 0
0.00287301 -0.048872 0
0.00242188 -0.0504773 0
0.000627688 -0.0490514 0
0.00015853 -0.0504519 0
-0.00508327 -0.046894 0
-0.00190024 -0.0470683 0
-0.00101722 -0.0485276 0
0.00516712 -0.0489039 0
0.00151289 -0.0451068 0
0.000207554 -0.0467617 0
0.00217885 -0.046976 0
0.00367205 -0.0475248 0
-0.00516465 -0.0489001 0
-0.00306437 -0.0490895 0
-0.00280345 -0.0505875 0
-0.00353998 -0.047483 0
-0.00500437 -0.0449202 0
-0.00199775 -0.0439064 0
-0.00309888 -0.04554 0
-0.0036354 -0.0439233 0
-0.00104371 -0.0454312 0
0.00457943 -0.0355343 0
-0.00457762 -0.0355353 0
-0.00475618 -0.0391837 0
-0.00261715 -0.0410312 0
-0.00483726 -0.041074 0
0.000686702 -0.0417405 0
-0.00126317 -0.0372973 0
-0.00115007 -0.0421799 0
0.000165706 -0.04363 0
0.00260321 -0.043057 0
0.00500179 -0.0449177 0
0.00330902 -0.0455441 0
-0.00264811 -0.0389059 0
-0.000635486 -0.0398683 0
-0.0046649 -0.0373452 0
-0.00293738 -0.0364062 0
-0.00336369 -0.0377362 0
0.000376346 -0.0322795 0
-0.000871156 -0.0346042 0
-0.00156715 -0.0358784 0
0.0047506 -0.039189 0
-0.00128972 -0.0386697 0
0.00204502 -0.0393602 0
0.000571067 -0.0379905 0
0.00278963 -0.0370449 0
0.00190657 -0.03801 0
0.00483905 -0.0410631 0
0.00349143 -0.040102 0
0.00339792 -0.0416818 0
0.000827651 -0.0402254 0
-0.00439108 -0.032022 0
0.00466742 -0.0373538 0
0.00439105 -0.0320215 0
0.00177173 -0.0345166 0
-0.00204251 -0.0324621 0
0.000420342 -0.0337843 0
0.00050864 -0.0359875 0
0.00190752 -0.0359116 0
0.00243025 -0.0325487 0
0.00447848 -0.0337593 0
0.0032918 -0.0346164 0
0.00430196 -0.0303219 0
0.00139619 -0.0294338 0
0.00294397 -0.0294549 0
0.00221393 -0.0308813 0
0.000681807 -0.0307641 0
-0.0013727 -0.0287599 0
-8.5634e-05 -0.029471 0
-0.00157322 -0.030608 0
-0.00429517 -0.0303204 0
-0.00304579 -0.0311399 0
-0.0028554 -0.0294545 0
-0.0008677 -0.0317394 0
-0.0044896 -0.0337606 0
-0.00282115 -0.0345084 0
-0.00337109 -0.0328643 0
-0.00379045 -0.022395 0
0.00379585 -0.0223931 0
-0.0039986 -0.025447 0
0.00399948 -0.0254549 0
0.00219407 -0.0269999 0
0.000209671 -0.0274042 0
0.00213648 -0.0283223 0
0.000388253 -0.0235748 0
-0.00194626 -0.0264424 0
-0.00276094 -0.0278368 0
-0.00410052 -0.0270355 0
-0.00312455 -0.0262156 0
0.000813856 -0.0254885 0
-0.00111716 -0.0274387 0
-0.000519824 -0.0260671 0
-0.0016943 -0.024216 0
0.00107346 -0.0266231 0
0.00240145 -0.0253969 0
0.00389698 -0.0238977 0
0.00215723 -0.0231026 0
0.00356975 -0.0195078 0
0.00155441 -0.0242821 0
0.000352469 -0.0201047 0
0.000831498 -0.0218074 0
0.00238055 -0.0215213 0
-0.00150741 -0.0215282 0
0.00368669 -0.0209294 0
0.00139682 -0.0207322 0
0.00175194 -0.01887 0
0.00254581 -0.0201822 0
-0.000282698 -0.0211833 0
-0.000586828 -0.0225417 0
-0.000416355 -0.0246804 0
0.0034669 -0.0181289 0
-0.000713563 -0.0174298 0
0.000257462 -0.0185658 0
0.00132851 -0.016808 0
0.00239802 -0.0174251 0
-0.00357378 -0.0195066 0
0.000412371 -0.017427 0
-0.0015538 -0.0194386 0
-0.000461161 -0.0193711 0
-0.00345648 -0.0181278 0
-0.00252932 -0.0187803 0
-0.00147328 -0.0182877 0
-0.00201697 -0.0170265 0
0.00287494 -0.0119096 0
-0.00286757 -0.0119126 0
-0.00311801 -0.0142614 0
-0.00322956 -0.0155067 0
-0.000470147 -0.0146023 0
-0.000148202 -0.0160168 0
-0.00188337 -0.0148368 0
-0.00223625 -0.0159209 0
-0.00121851 -0.0162229 0
-0.00137521 -0.0128831 0
-0.00111037 -0.0152828 0
-0.0020769 -0.0137578 0
-0.00108165 -0.0138146 0
0.000951527 -0.0128022 0
6.0613e-05 -0.0135219 0
-0.00299655 -0.0130626 0
0.00311347 -0.0142714 0
-0.00217835 -0.0124495 0
-0.000524557 -0.00968648 0
-0.00262574 -0.00975795 0
-0.000943895 -0.0112298 0
0.00139905 -0.0148587 0
-0.000220457 -0.012241 0
0.00106218 -0.0138303 0
0.00207347 -0.0141061 0
0.002992 -0.0130657 0
0.00196428 -0.0130533 0
0.000410935 -0.015127 0
0.00262206 -0.00975615 0
0.00111826 -0.010807 0
0.00163379 -0.0118746 0
0.000622945 -0.0116627 0
-0.00368149 -0.0209311 0
-0.00274174 -0.0216316 0
-0.00254377 -0.0230478 0
-0.00249021 -0.0203448 0
-0.0038937 -0.0239003 0
-0.002924 -0.0246423 0
-0.00161154 -0.010253 0
-0.00274608 -0.0108166 0
-0.00196095 -0.0113267 0
1.62919e-05 -0.0106234 0
0.00410164 -0.0270286 0
0.00322803 -0.0155052 0
0.00227242 -0.0161129 0
0.002749 -0.0108123 0
0.00186685 -0.0102417 0
0.00197813 -0.0110984 0
0.00133191 -0.00870189 0
0.00182424 -0.00940099 0
0.00249299 -0.00874903 0
0.000682888 -0.00961826 0
-0.00182274 -0.00450109 0
0.00182379 -0.00450594 0
-1.75275e-06 -0.00610246 0
0.000932917 -0.00719451 0
0.0015227 -0.0078649 0
0.00208739 -0.00604991 0
-0.000672292 -0.00758416 0
1.18864e-05 -0.00854506 0
0.00068872 -0.00798906 0
0.000130798 -0.0073236 0
-0.00118905 -0.00867787 0
5.64593e-05 -0.00924422 0
-0.00060897 -0.00825129 0
-0.00151724 -0.00787908 0
-0.00210881 -0.0060477 0
-0.00223339 -0.00690175 0
-0.00110035 -0.00641243 0
-0.00124315 -0.00713963 0
-0.000451716 -0.00678646 0
-0.00176551 -0.00938341 0
-0.00249242 -0.00874777 0
-0.000795085 -0.00503544 0
-0.00132351 -0.00565872 0
-0.000641119 -0.00579029 0
-0.00196817 -0.00524511 0
-0.00136873 -0.00482883 0
-0.000257726 -0.0030831 0
-0.00154582 -0.00317424 0
-0.00064132 -0.00397369 0
0.000506653 -0.00457587 0
3.15584e-05 -0.00521813 0
0.00100401 -0.00570684 0
-0.000211112 -0.00450641 0
0.000193723 -0.00373502 0
0.00041239 -0.00566893 0
-0.000286699 -0.00356882 0
-0.000918615 -0.00332925 0
0.00154839 -0.00317564 0
-0.00075789 -0.00248741 0
-0.00168274 -0.00381472 0
-0.00125366 -0.00411683 0
0.00102845 -0.00392635 0
0.000626641 -0.0029265 0
-0.0013883 -0.00259368 0
-0.000660413 -0.0028923 0
-0.00110449 -0.00284082 0
0.000584172 -0.00406527 0
0.00118088 -0.00457791 0
0.000897042 -0.00507257 0
0.00196352 -0.00524543 0
0.0016912 -0.00381394 0
0.000224649 -0.00320532 0
0.000732541 -0.00639549 0
0.00223083 -0.00689687 0
0.00151072 -0.00642489 0
0.00163362 -0.00716857 0
-0.000812978 -0.000901196 0
0.000632977 -0.00057922 0
4.00951e-05 -0.00226912 0
0.000692621 -0.00223727 0
-0.00045106 -0.00163348 0
0.000409731 -0.0024966 0
0.0013918 -0.002594 0
0.0010812 -0.00284001 0
0.00102602 -0.00334729 0
0.00094961 -0.00121271 0
-0.000776534 -0.00200477 0
-0.000392617 -0.00213435 0
0.000253409 -0.00153815 0
-4.21601e-05 -0.00181561 0
0.000353497 -0.00192539 0
0.00108748 -0.00160791 0
0.00070205 -0.00168474 0
0.00051044 -0.00118699 0
0.000891948 -0.00200074 0
0.000802959 -0.000870028 0
-0.000136868 -0.000904085 0
0.000134474 -0.00113488 0
-0.000223726 -0.00125323 0
-0.00103137 -0.00144077 0
-0.000540066 -0.00103743 0
-0.00114097 -0.00174041 0
-0.000920021 -0.00114842 0
-0.000669337 -0.00138355 0
0.000272455 -0.000637363 0
0.000134124 -0.000835052 0
0.000514198 -0.000673727 0
0.000450563 -0.000876855 0
0 0 0
0.000412235 -0.000279718 0
0.000290134 -0.000342341 0
0.000523216 -0.000425186 0
9.17687e-05 -5.93659e-05 0
-0.0004047 -0.000275735 0
0.000229239 -0.000185681 0
0.000211379 -0.000113392 0
-0.000121414 -0.000307249 0
-6.37183e-05 -0.000561027 0
7.12702e-05 -0.000187207 0
0.00011441 -0.000403258 0
-0.00061898 -0.000542536 0
-8.26237e-05 -5.5074e-05 0
-0.000427411 -0.000655794 0
-6.24886e-05 -0.000148623 0
6.39161e-06 -4.04465e-05 0
-0.00022177 -0.000185658 0
0 0 0
0 0 0
-0.000211 -0.000119213 0
-0.000376475 -0.000356399 0
2.14118e-05 2.39062e-06 0
-1.94134e-05 1.63605e-07 0
-0.000309094 -0.000187757 0
-0.00016166 -0.000102184 0
-6.6933e-05 -2.21524e-05 0
-0.00034796 -0.000822734 0
-0.000242312 -0.000483977 0
7.67521e-05 -2.38846e-05 0
-0.000625411 -0.343199 0
0.000204589 -0.345425 0
-0.00166389 -0.345844 0
3.53004e-05 -0.346639 0
-0.000969574 -0.344601 0
-0.00384893 -0.343178 0
-0.00381086 -0.344677 0
-0.00223281 -0.343535 0
-0.002819 -0.34543 0
-0.00189391 -0.341281 0
-0.0020737 -0.344635 0
-0.00389114 -0.341664 0
-0.00301674 -0.34091 0
-0.00162505 -0.342486 0
-0.00287543 -0.342434 0
0.00101513 -0.340756 0
-0.000337908 -0.341589 0
-0.00408302 -0.333866 0
0.00408462 -0.333867 0
-0.0040093 -0.337032 0
-0.00166571 -0.338564 0
-0.00265901 -0.339557 0
-0.000849956 -0.340019 0
-0.00396945 -0.338591 0
-0.00284559 -0.337824 0
-0.000228062 -0.334921 0
-0.00228379 -0.335716 0
-0.000644691 -0.336877 0
-0.00108359 -0.335762 0
-0.00192171 -0.336957 0
0.00400788 -0.337029 0
0.00171106 -0.336363 0
0.000416257 -0.336088 0
-0.00194326 -0.333597 0
-0.00404439 -0.335455 0
0.000806171 -0.338566 0
-0.000427986 -0.338836 0
-0.00289597 -0.334519 0
0.00415811 -0.330645 0
-0.00415814 -0.330645 0
0.00229246 -0.339519 0
0.00397062 -0.33859 0
0.00251124 -0.337824 0
0.00088106 -0.331717 0
-0.0041212 -0.332263 0
-0.00311451 -0.333075 0
-0.00157203 -0.331114 0
-0.00295529 -0.331466 0
-0.000219689 -0.333138 0
0.00183841 -0.334042 0
-0.000444302 -0.331831 0
0.000616852 -0.334037 0
0.00404644 -0.335456 0
0.00299834 -0.334673 0
0.00300202 -0.336253 0
0.00412249 -0.332264 0
0.00260226 -0.331469 0
0.00291315 -0.333078 0
0.00165793 -0.332759 0
0.00233785 -0.329026 0
0.00158035 -0.330364 0
0.00293677 -0.330192 0
0.00419486 -0.329015 0
-0.000588045 -0.328274 0
0.00077569 -0.329036 0
-0.000243805 -0.330263 0
0.00436334 -0.320648 0
0.00151504 -0.326127 0
0.000748143 -0.327491 0
0.00257335 -0.32739 0
0.0019888 -0.345811 0
0.00271295 -0.346732 0
0.00385314 -0.343178 0
0.00154429 -0.343662 0
0.00100573 -0.342271 0
0.00252084 -0.342472 0
0.0038927 -0.341665 0
0.00258602 -0.340986 0
0.00120889 -0.346711 0
0.00380974 -0.344675 0
0.00279135 -0.343939 0
0.00127129 -0.344852 0
0.000216264 -0.34416 0
-0.00419352 -0.329013 0
-0.00266682 -0.329806 0
-0.00134562 -0.329429 0
-0.00242158 -0.327895 0
-0.004366 -0.320647 0
-0.00112739 -0.325549 0
-0.000525835 -0.326853 0
-0.00429716 -0.324034 0
-0.00426263 -0.325708 0
-0.0027453 -0.324884 0
-0.00287755 -0.326421 0
-0.000509249 -0.321668 0
-0.00255158 -0.32264 0
-0.00140583 -0.323894 0
0.00050626 -0.324435 0
0.000232615 -0.325752 0
0.00429776 -0.324034 0
0.00426368 -0.325707 0
0.00275049 -0.324884 0
0.00302552 -0.326159 0
0.00240212 -0.32236 0
0.00304004 -0.323553 0
0.00433157 -0.322349 0
-0.00015366 -0.323114 0
0.00126429 -0.323232 0
-0.00228721 -0.320593 0
-0.00432868 -0.322347 0
-0.00174525 -0.321715 0
0.00443156 -0.317211 0
-0.00442665 -0.31721 0
-0.003284 -0.321494 0
0.000542946 -0.31791 0
-0.00439653 -0.318937 0
-0.000508679 -0.31965 0
-0.00224381 -0.318088 0
0.0012785 -0.320666 0
-0.00180733 -0.319356 0
-0.000832266 -0.318269 0
-0.00103166 -0.31472 0
-0.00133887 -0.316523 0
-0.00445905 -0.315474 0
-0.00294334 -0.316633 0
-0.00286414 -0.314611 0
0.000821589 -0.321952 0
0.00281942 -0.32086 0
0.0043977 -0.318936 0
0.00230733 -0.318911 0
0.000874863 -0.319301 0
0.00332749 -0.319675 0
0.00235428 -0.316794 0
0.00320412 -0.317862 0
0.00446084 -0.315474 0
0.000571378 -0.315919 0
0.00236693 -0.314543 0
0.00180225 -0.315675 0
0.00064258 -0.314154 0
-0.00460854 -0.306609 0
0.00460754 -0.306608 0
-0.00455185 -0.310191 0
-0.00180219 -0.311716 0
-0.00300842 -0.312915 0
-0.000671031 -0.313036 0
-0.00452059 -0.311964 0
0.00455325 -0.310191 0
-0.00324388 -0.311087 0
-0.00108259 -0.308038 0
-0.00284405 -0.309084 0
0.00212125 -0.311727 0
0.00177843 -0.313185 0
0.00452127 -0.311964 0
0.000161467 -0.311181 0
0.00341053 -0.311086 0
0.00326627 -0.312854 0
-0.00278682 -0.307191 0
0.000425239 -0.302818 0
-0.000800851 -0.305304 0
-0.00144663 -0.306619 0
-0.00466494 -0.302984 0
-0.00463587 -0.304802 0
-0.00273029 -0.305166 0
-0.0016458 -0.303343 0
-0.00458043 -0.308406 0
0.000592708 -0.312492 0
-0.00116868 -0.309894 0
-0.000384565 -0.303967 0
0.0046674 -0.302983 0
0.00228411 -0.304995 0
-0.00140302 -0.299996 0
-0.00320399 -0.303644 0
-0.00282008 -0.30157 0
-0.000959452 -0.301718 0
-0.00310342 -0.299889 0
-0.00469134 -0.301155 0
0.0046379 -0.304803 0
0.00254558 -0.302891 0
0.00144523 -0.303834 0
0.00340539 -0.304056 0
0.00469261 -0.301156 0
0.00160053 -0.300059 0
8.85101e-05 -0.300537 0
0.00328303 -0.300245 0
0.00229172 -0.301403 0
0.000951624 -0.301575 0
0.000906312 -0.306872 0
0.00252707 -0.308771 0
0.000590862 -0.309055 0
0.00145992 -0.310336 0
0.000757132 -0.305321 0
0.00275956 -0.306788 0
0.00350743 -0.30562 0
0.00458043 -0.308406 0
-0.00482146 -0.291857 0
0.00482116 -0.291856 0
-0.00477105 -0.295606 0
-0.0047453 -0.297466 0
-0.00142471 -0.296551 0
6.22232e-05 -0.298275 0
-0.0032208 -0.296546 0
-0.00216499 -0.298277 0
-0.00234224 -0.293659 0
-0.00361127 -0.298398 0
-0.00331587 -0.294937 0
-0.00479587 -0.293736 0
0.00477289 -0.295605 0
0.00157928 -0.295468 0
0.000281598 -0.296585 0
-0.000358632 -0.29453 0
0.00246394 -0.297761 0
-0.00177366 -0.295074 0
0.00184565 -0.292461 0
0.00139974 -0.298681 0
-0.000509426 -0.292164 0
0.00113564 -0.29392 0
0.00479683 -0.293737 0
0.00296862 -0.293906 0
0.0033831 -0.292422 0
0.00487008 -0.288069 0
0.00257328 -0.289743 0
-0.00262875 -0.291443 0
0.00317767 -0.295492 0
0.00086991 -0.290755 0
-0.00061997 -0.286294 0
0.0006103 -0.28837 0
-0.00351847 -0.292677 0
-0.00486894 -0.288068 0
0.00269364 -0.28749 0
-0.00114661 -0.289774 0
-0.00484585 -0.289967 0
-0.00304897 -0.289027 0
-0.00349647 -0.290344 0
-0.00153225 -0.287937 0
-0.00489254 -0.28616 0
-0.00324501 -0.287122 0
0.00484641 -0.289967 0
0.00489316 -0.28616 0
0.00112252 -0.286663 0
0.00285756 -0.285212 0
0.00353841 -0.288657 0
0.00359347 -0.290894 0
0.00353643 -0.286399 0
-0.00499845 -0.276494 0
0.00499876 -0.276493 0
0.0049573 -0.280386 0
0.00277766 -0.282326 0
0.00343413 -0.283748 0
0.0049376 -0.282318 0
0.00474512 -0.297465 0
0.00351645 -0.296841 0
-0.00254565 -0.284811 0
-0.00209201 -0.286219 0
4.35292e-05 -0.283436 0
0.00170754 -0.283926 0
0.000473011 -0.285046 0
0.00128333 -0.278454 0
0.00275892 -0.28011 0
0.00497895 -0.278443 0
0.00313741 -0.277476 0
0.00356906 -0.278879 0
0.00503805 -0.272569 0
-0.000174766 -0.273415 0
0.0027979 -0.274543 0
0.00352575 -0.275942 0
0.00501852 -0.274537 0
0.00129678 -0.27622 0
0.000264079 -0.280853 0
0.00110071 -0.274536 0
-0.00180377 -0.277328 0
-0.000675293 -0.275602 0
-0.00503668 -0.272571 0
-0.00299643 -0.275312 0
0.00173092 -0.281238 0
-0.00495598 -0.280385 0
-5.53668e-05 -0.277335 0
-0.000931321 -0.279192 0
-0.00497703 -0.278444 0
-0.00241863 -0.281527 0
-0.00305923 -0.279423 0
-0.00354085 -0.277475 0
-0.00121283 -0.280659 0
-0.00168762 -0.274219 0
-0.00230963 -0.271233 0
-0.00501752 -0.274536 0
-0.00340698 -0.273494 0
-0.00493682 -0.282318 0
0.00221487 -0.271623 0
-0.0032858 -0.283135 0
-0.00163088 -0.283416 0
0.00334746 -0.272912 0
0.00505622 -0.270599 0
0.00310788 -0.269616 0
-0.00514219 -0.26063 0
0.00514356 -0.26063 0
0.000119543 -0.269502 0
0.00511022 -0.264638 0
0.00158829 -0.270149 0
0.000128596 -0.271473 0
0.00285197 -0.266638 0
0.00158545 -0.268172 0
-0.00510932 -0.264637 0
-0.00160368 -0.26613 0
-0.000282873 -0.267585 0
0.000747517 -0.265323 0
-0.00261852 -0.268382 0
0.00356958 -0.268073 0
0.0050923 -0.266632 0
0.00282999 -0.26434 0
-0.0016189 -0.26227 0
-0.0050923 -0.266631 0
-0.00346084 -0.26564 0
-0.00363062 -0.267191 0
-0.00209772 -0.264203 0
-0.000236009 -0.263647 0
-0.00512627 -0.262637 0
0.00152699 -0.260491 0
-0.00372312 -0.263642 0
-0.00346421 -0.261639 0
0.000200945 -0.261824 0
-0.00517318 -0.256598 0
0.00150215 -0.263101 0
-0.0028056 -0.258623 0
0.00512724 -0.262637 0
-0.00363811 -0.260019 0
-0.00515765 -0.258617 0
-0.00118514 -0.26012 0
0.00328492 -0.26164 0
0.00368436 -0.263092 0
-0.00505616 -0.270598 0
-0.00383075 -0.27159 0
-0.00347503 -0.269893 0
0.00383255 -0.265474 0
-0.0015611 -0.269718 0
0.00517333 -0.256598 0
-0.00139976 -0.254581 0
-9.61308e-05 -0.257311 0
-0.00119321 -0.258501 0
0.000533977 -0.258997 0
-0.00215629 -0.256586 0
0.00312816 -0.258345 0
-0.00518728 -0.254573 0
-0.00365724 -0.257224 0
0.00310596 -0.259999 0
-0.00329114 -0.255008 0
-0.00283184 -0.252687 0
0.00525206 -0.244371 0
-0.00525066 -0.244371 0
0.00116169 -0.251161 0
-0.00522696 -0.248467 0
-0.000615596 -0.252502 0
-0.00521417 -0.250508 0
0.00227012 -0.254489 0
-0.00174894 -0.249152 0
-0.0036167 -0.249491 0
-0.00365248 -0.251194 0
0.00116148 -0.253014 0
0.000439404 -0.254716 0
0.00316656 -0.252657 0
-0.000624987 -0.250642 0
0.00515857 -0.258617 0
0.00316354 -0.256314 0
0.00518723 -0.254573 0
0.00168397 -0.257314 0
0.00374553 -0.254074 0
0.00522733 -0.248468 0
0.00521475 -0.250508 0
0.00297786 -0.249493 0
0.0006755 -0.248492 0
0.0027728 -0.251097 0
0.00295098 -0.246426 0
0.00151062 -0.249719 0
-0.00149775 -0.245306 0
-0.00321334 -0.247069 0
0.0022743 -0.24797 0
-0.000959032 -0.247276 0
0.000757411 -0.245751 0
-0.00344336 -0.245128 0
-0.00527316 -0.240258 0
-0.00526245 -0.242317 0
-0.00138129 -0.241294 0
-0.00346045 -0.241292 0
-0.00230011 -0.243275 0
-0.00242833 -0.238031 0
0.00024593 -0.243259 0
-0.00395548 -0.243347 0
-0.00361504 -0.239447 0
-0.00528334 -0.238195 0
-0.00391533 -0.237164 0
-0.00532672 -0.227825 0
0.00532711 -0.227825 0
-0.00110874 -0.231987 0
-0.00531085 -0.231983 0
-0.00168403 -0.235032 0
-0.00523896 -0.246422 0
0.00527368 -0.240258 0
0.00186473 -0.24026 0
0.000449245 -0.241433 0
-0.000268067 -0.239126 0
-0.00189348 -0.23966 0
0.00220191 -0.237057 0
-0.00051064 -0.23692 0
0.000799322 -0.237893 0
0.00523908 -0.246421 0
0.00273717 -0.243871 0
0.00218866 -0.242095 0
0.00356622 -0.240902 0
0.00528372 -0.238195 0
0.00526256 -0.242317 0
0.00336261 -0.238879 0
0.00391608 -0.237164 0
0.00380175 -0.245065 0
0.00130016 -0.244341 0
-0.00320678 -0.233165 0
-0.00166165 -0.23346 0
0.00117492 -0.234291 0
0.0053109 -0.231983 0
0.0033449 -0.234966 0
-7.82104e-05 -0.235344 0
-0.00530236 -0.234057 0
-0.00363775 -0.235095 0
0.00530291 -0.234057 0
0.00291289 -0.232547 0
0.00531941 -0.229906 0
0.000900436 -0.232279 0
0.00229112 -0.229565 0
0.000176319 -0.230196 0
0.00207468 -0.231168 0
0.00390609 -0.228868 0
0.00534061 -0.223655 0
0.00146054 -0.225403 0
0.0023171 -0.227397 0
-0.00275776 -0.229445 0
0.00385411 -0.230947 0
0.00533431 -0.225742 0
-0.000523667 -0.227442 0
-0.00143641 -0.230395 0
0.00347555 -0.224701 0
0.00394246 -0.226785 0
0.00084218 -0.228561 0
0.000888134 -0.226833 0
0.00295171 -0.221569 0
0.00188239 -0.223362 0
0.00377303 -0.223041 0
0.00534664 -0.221567 0
-0.0011507 -0.220339 0
-0.00534024 -0.223655 0
0.000746415 -0.22147 0
0.00536787 -0.211096 0
-0.00188016 -0.223726 0
0.00179123 -0.217558 0
-0.000946681 -0.222156 0
-0.00534617 -0.221568 0
-0.00315119 -0.221905 0
4.97692e-05 -0.224049 0
0.000713767 -0.219367 0
-0.00360771 -0.223578 0
-0.00533344 -0.225742 0
-0.00119749 -0.225584 0
0.00286154 -0.219422 0
-0.00321933 -0.226786 0
-0.00351328 -0.231241 0
-0.00531896 -0.229906 0
-0.00321933 -0.219756 0
-0.00536797 -0.211096 0
-0.00536053 -0.21529 0
-0.00152799 -0.216804 0
-0.00535619 -0.217384 0
-0.00178551 -0.218619 0
-0.00338544 -0.217465 0
9.40905e-06 -0.217721 0
-0.0037657 -0.225225 0
-0.00380267 -0.228255 0
-0.00207482 -0.22796 0
0.00109118 -0.212953 0
0.000405832 -0.215306 0
-0.00247066 -0.213191 0
-0.00311429 -0.215289 0
-0.0013515 -0.214685 0
-0.00102064 -0.208129 0
-0.0053646 -0.213193 0
-0.00391556 -0.213894 0
-0.00265893 -0.210399 0
-0.00372257 -0.211872 0
-0.000783228 -0.211677 0
-0.000506966 -0.213287 0
0.00192315 -0.209715 0
-0.000952132 -0.209907 0
0.000923239 -0.211184 0
0.00536121 -0.21529 0
0.00315427 -0.211629 0
0.00288301 -0.215332 0
0.00536466 -0.213193 0
0.00287783 -0.213471 0
0.00537298 -0.206898 0
0.00192098 -0.206189 0
0.00537078 -0.208998 0
0.00335728 -0.207949 0
0.00375625 -0.209887 0
0.000972458 -0.207953 0
0.0053747 -0.204798 0
0.00294601 -0.203748 0
0.00379007 -0.205848 0
-0.00537502 -0.194292 0
0.00537511 -0.194292 0
-0.00123956 -0.203425 0
0.00537649 -0.198494 0
0.000799464 -0.204282 0
-0.00102513 -0.205773 0
0.00302658 -0.200596 0
0.00068512 -0.201696 0
-0.00537256 -0.206898 0
0.00371515 -0.20219 0
-0.000378817 -0.196381 0
-0.00537629 -0.198494 0
-0.00303839 -0.206954 0
0.000806052 -0.198908 0
-0.00239782 -0.200195 0
-0.00537438 -0.204798 0
-0.00342755 -0.203748 0
-0.00255673 -0.202075 0
-0.00100886 -0.20126 0
-0.00378333 -0.205418 0
-0.00537052 -0.208998 0
-0.00267793 -0.208658 0
0.0014748 -0.200333 0
0.00537637 -0.200596 0
0.00305076 -0.198257 0
0.00537604 -0.196393 0
0.00148413 -0.197048 0
0.00319788 -0.195342 0
0.00382082 -0.196835 0
0.00537167 -0.190092 0
0.00301973 -0.192191 0
0.00376197 -0.19373 0
0.0053735 -0.192192 0
-0.00127936 -0.198346 0
-0.00325787 -0.196249 0
-0.00332934 -0.198367 0
-0.000537616 -0.199746 0
0.000838324 -0.193894 0
0.00154368 -0.195392 0
0.00138717 -0.187991 0
-0.00537589 -0.196393 0
-0.00232962 -0.193119 0
0.00298705 -0.189786 0
0.005369 -0.187993 0
0.00337691 -0.186943 0
0.00385283 -0.188457 0
-0.00534784 -0.177519 0
0.00534839 -0.177519 0
-0.000470487 -0.182049 0
0.00100277 -0.184848 0
0.00179192 -0.186347 0
0.00535803 -0.181703 0
0.00338123 -0.184542 0
3.18344e-06 -0.190838 0
0.00536237 -0.183798 0
0.00191744 -0.182578 0
0.00173928 -0.191004 0
0.00050044 -0.183325 0
-0.00535815 -0.181703 0
-0.00222935 -0.185071 0
-0.000517031 -0.186648 0
0.00378429 -0.182713 0
0.00153699 -0.178619 0
0.00300408 -0.180476 0
-0.00537127 -0.190092 0
-0.000596404 -0.188785 0
-0.00261516 -0.19049 0
0.000960265 -0.180584 0
-0.00199863 -0.178644 0
-0.000226934 -0.179166 0
0.00535359 -0.17961 0
0.00357315 -0.178517 0
-0.0014427 -0.191692 0
-0.00321645 -0.187727 0
-0.00537351 -0.192191 0
-0.00403027 -0.193241 0
-0.00411691 -0.191141 0
-0.00218626 -0.188949 0
-0.0020865 -0.186635 0
-0.00175707 -0.194991 0
-0.00536887 -0.187993 0
-0.00537624 -0.200596 0
-0.00412929 -0.201646 0
-0.00396129 -0.199842 0
-0.00296742 -0.182617 0
-0.00145556 -0.183498 0
-0.00208164 -0.180727 0
-0.00535325 -0.17961 0
-0.00388454 -0.180655 0
-0.00383647 -0.178563 0
-0.00536207 -0.183798 0
-0.00396349 -0.184845 0
-0.00027121 -0.172702 0
0.00533606 -0.173343 0
0.00238144 -0.175215 0
-0.00033244 -0.176255 0
-0.00533585 -0.173343 0
-0.00309238 -0.175871 0
0.00247608 -0.177045 0
0.000548323 -0.174493 0
-0.00157263 -0.174382 0
-0.00293128 -0.171982 0
-0.00347995 -0.173953 0
-0.00184077 -0.176977 0
-0.00534227 -0.17543 0
-0.00528723 -0.160883 0
-0.00532941 -0.171258 0
-0.00021799 -0.167238 0
-0.000955336 -0.169961 0
-0.00137909 -0.171523 0
0.00231423 -0.170598 0
0.00193576 -0.172773 0
0.00532909 -0.171259 0
0.00397446 -0.170216 0
0.0052873 -0.160883 0
0.00530553 -0.165023 0
0.00284396 -0.167358 0
0.00376 -0.172298 0
0.00372499 -0.174067 0
0.00534231 -0.175429 0
0.00404283 -0.176472 0
-0.00530532 -0.165023 0
-0.00317458 -0.169765 0
-0.00191889 -0.168238 0
-0.00244179 -0.165393 0
0.00053052 -0.171044 0
0.000961105 -0.168982 0
0.005314 -0.167099 0
0.00145838 -0.163427 0
-0.00531403 -0.167099 0
-0.00373647 -0.168022 0
-0.00398704 -0.166059 0
-0.00529615 -0.162951 0
-0.00371039 -0.163984 0
-0.00120085 -0.162994 0
0.00137473 -0.165663 0
0.00335445 -0.165429 0
-7.85067e-05 -0.164486 0
-0.00092264 -0.165822 0
0.000901754 -0.158435 0
-0.00314065 -0.161736 0
-0.000879875 -0.160374 0
0.000348779 -0.161852 0
0.00280459 -0.161298 0
0.00529652 -0.162952 0
-0.00526645 -0.156758 0
0.0052665 -0.156758 0
0.00127559 -0.160249 0
0.00337263 -0.16315 0
-0.00213784 -0.157424 0
0.0052764 -0.158819 0
0.00306278 -0.158937 0
0.00254838 -0.15621 0
0.00221178 -0.157682 0
-0.0052772 -0.158819 0
-0.00385376 -0.157785 0
-0.00350996 -0.159761 0
-0.000846466 -0.158614 0
0.00389756 -0.160226 0
0.00525467 -0.154702 0
0.00290398 -0.153671 0
0.00405554 -0.155727 0
-0.00519155 -0.144492 0
0.00519179 -0.144492 0
-0.000394645 -0.154491 0
-0.00018595 -0.156598 0
0.00103961 -0.155412 0
0.00521905 -0.148561 0
0.00294588 -0.150599 0
0.00362724 -0.152147 0
0.000759354 -0.152094 0
0.00121285 -0.153726 0
0.00523079 -0.150604 0
0.00134089 -0.146516 0
-0.00226373 -0.152112 0
0.00289966 -0.148259 0
0.00520527 -0.146524 0
0.00326842 -0.145502 0
0.0037368 -0.146971 0
0.00516237 -0.140446 0
-0.000180977 -0.141291 0
0.00288537 -0.14246 0
0.00365406 -0.143911 0
0.00517746 -0.142465 0
0.00134401 -0.144188 0
9.52875e-05 -0.1492 0
0.00113499 -0.142446 0
-0.00187977 -0.145341 0
-0.000700283 -0.143546 0
-0.0051632 -0.140445 0
-0.00310037 -0.143254 0
0.0017401 -0.149445 0
-5.86582e-05 -0.145347 0
-0.000977965 -0.147311 0
-0.00521884 -0.148562 0
-0.00255553 -0.149459 0
-0.00520565 -0.146523 0
-0.0031297 -0.14711 0
-0.00366517 -0.145406 0
-0.00173997 -0.14212 0
-0.00235672 -0.139058 0
-0.00517784 -0.142466 0
-0.00350319 -0.141383 0
-0.00371339 -0.148501 0
-0.00525554 -0.154702 0
-0.00338643 -0.155704 0
-0.00352744 -0.153672 0
-0.00165483 -0.155681 0
-0.0018668 -0.153724 0
0.00226288 -0.139459 0
-0.000757417 -0.150918 0
-0.00523127 -0.150603 0
-0.0038853 -0.151623 0
0.00343463 -0.140783 0
0.00514747 -0.138429 0
0.00315201 -0.137419 0
-0.00506217 -0.128452 0
0.005061 -0.128452 0
0.000121859 -0.137298 0
0.00509724 -0.132423 0
0.00161532 -0.137956 0
0.000131293 -0.139304 0
0.00286335 -0.134412 0
0.00160115 -0.135952 0
-0.0050979 -0.132423 0
-0.00160846 -0.133898 0
-0.000284734 -0.13536 0
0.000746887 -0.133089 0
-0.00264574 -0.13617 0
0.00360184 -0.135861 0
0.00511503 -0.134418 0
0.00282103 -0.132112 0
-0.00160324 -0.130054 0
-0.00511469 -0.134419 0
-0.00346479 -0.133415 0
-0.00365328 -0.134972 0
-0.00209062 -0.131975 0
-0.000234543 -0.131416 0
-0.00508004 -0.130434 0
0.00150146 -0.128295 0
-0.00370153 -0.131423 0
-0.00342199 -0.129436 0
0.00019845 -0.129609 0
-0.00502399 -0.12451 0
0.00149137 -0.130874 0
-0.0027441 -0.12647 0
0.00507936 -0.130434 0
-0.0035752 -0.127843 0
-0.0050436 -0.126477 0
-0.00116565 -0.127931 0
0.00324403 -0.129436 0
0.00365654 -0.130876 0
-0.0051472 -0.13843 0
-0.00391313 -0.139433 0
-0.00352989 -0.137702 0
0.00383417 -0.13325 0
-0.00158402 -0.137515 0
0.00502427 -0.12451 0
-0.00135136 -0.122539 0
-9.26681e-05 -0.125185 0
-0.00116636 -0.126347 0
0.000522191 -0.12683 0
-0.0020945 -0.124484 0
0.00305447 -0.126197 0
-0.00500487 -0.122549 0
-0.00356001 -0.125109 0
0.00305101 -0.12782 0
-0.00318066 -0.122959 0
-0.00271491 -0.120721 0
0.00489816 -0.11287 0
-0.00490049 -0.112869 0
0.00110696 -0.119257 0
-0.00494364 -0.116717 0
-0.000591364 -0.12054 0
-0.00496465 -0.118653 0
0.00218933 -0.122452 0
-0.00165804 -0.117349 0
-0.00343312 -0.117678 0
-0.00348501 -0.119297 0
0.00111391 -0.121031 0
0.000423474 -0.122667 0
0.00303643 -0.120695 0
-0.000596009 -0.118762 0
0.00504305 -0.126477 0
0.00306868 -0.124221 0
0.00500548 -0.122549 0
0.00163867 -0.125186 0
0.00360705 -0.122057 0
0.00494348 -0.116715 0
0.00496427 -0.118653 0
0.0028255 -0.117676 0
0.000638759 -0.116721 0
0.00264446 -0.119199 0
0.00277092 -0.11478 0
0.00143421 -0.117884 0
-0.00140308 -0.113726 0
-0.00302558 -0.115385 0
0.00214598 -0.116232 0
-0.00090422 -0.115575 0
0.000708475 -0.11414 0
-0.00322204 -0.113566 0
-0.00485353 -0.109056 0
-0.00487674 -0.110958 0
-0.00127485 -0.109994 0
-0.00319539 -0.109998 0
-0.00213958 -0.111832 0
-0.00221789 -0.106999 0
0.000226267 -0.111814 0
-0.00367897 -0.111907 0
-0.00331832 -0.108302 0
-0.00482975 -0.107164 0
-0.00356549 -0.106215 0
-0.00470121 -0.0978491 0
0.00470109 -0.0978482 0
-0.000994913 -0.101531 0
-0.00475484 -0.101544 0
-0.00152322 -0.104271 0
-0.0049225 -0.114788 0
0.00485302 -0.109056 0
0.00171721 -0.109047 0
0.000414711 -0.110126 0
-0.000245188 -0.107998 0
-0.00173754 -0.10849 0
0.00200952 -0.106118 0
-0.000462701 -0.105983 0
0.000730078 -0.10687 0
0.00492271 -0.114789 0
0.00254914 -0.112389 0
0.00202257 -0.11074 0
0.00329033 -0.109646 0
0.00482948 -0.107164 0
0.00487692 -0.110957 0
0.0030822 -0.107785 0
0.00356914 -0.106215 0
0.00355437 -0.113508 0
0.00121135 -0.112823 0
-0.00288248 -0.102592 0
-0.00149612 -0.102854 0
0.00106521 -0.103601 0
0.00475554 -0.101545 0
0.00302575 -0.104222 0
-6.99265e-05 -0.104548 0
-0.00477995 -0.103408 0
-0.00329226 -0.104337 0
0.00477929 -0.103408 0
0.00261896 -0.102045 0
0.00472829 -0.0996909 0
0.000811645 -0.101788 0
0.00205389 -0.0994025 0
0.000154391 -0.0999189 0
0.00186325 -0.100819 0
0.00346285 -0.0987615 0
0.00464631 -0.0941952 0
0.00119027 -0.0956802 0
0.00200522 -0.0974491 0
-0.00245261 -0.099274 0
0.00344192 -0.100609 0
0.00467311 -0.0960158 0
-0.000474851 -0.097508 0
-0.00127949 -0.100109 0
0.00299412 -0.0950952 0
0.00344769 -0.0969238 0
0.000775271 -0.0984666 0
0.000749394 -0.0969491 0
0.00256033 -0.0923731 0
0.00159966 -0.0939035 0
0.00327342 -0.0936591 0
0.00461722 -0.0923852 0
-0.000958758 -0.0912074 0
-0.00464778 -0.094195 0
0.000652234 -0.0922293 0
0.00447229 -0.0834982 0
-0.00166619 -0.0940945 0
0.00158525 -0.0889602 0
-0.000819888 -0.0927662 0
-0.00461866 -0.0923812 0
-0.00271203 -0.0924975 0
-5.94644e-06 -0.0944591 0
0.000644729 -0.0904531 0
-0.00315941 -0.0939361 0
-0.00467433 -0.0960165 0
-0.00118506 -0.0958347 0
0.00245502 -0.0905551 0
-0.0028917 -0.0969219 0
-0.00313977 -0.100873 0
-0.00472861 -0.0996911 0
-0.00272821 -0.0906259 0
-0.004472 -0.083498 0
-0.0011441 -0.0882706 0
-0.00145697 -0.0897633 0
0.000106059 -0.0890643 0
-0.00453332 -0.0870162 0
-0.00456273 -0.0887975 0
-0.00282647 -0.0887066 0
-0.00266036 -0.095387 0
-0.00337164 -0.0982342 0
-0.00186524 -0.0979356 0
0.00108129 -0.0851542 0
0.000488888 -0.0870729 0
-0.00198194 -0.0852469 0
-0.00235841 -0.0869819 0
-0.00091122 -0.0863744 0
-0.000576712 -0.0806161 0
-0.00450188 -0.0852515 0
-0.00325267 -0.0858901 0
-0.00204182 -0.0826925 0
-0.00296829 -0.0840009 0
-0.000485862 -0.0839168 0
-0.000243993 -0.0852196 0
0.00188006 -0.0825128 0
-0.000444427 -0.0822598 0
0.000972322 -0.0836707 0
0.00453187 -0.0870188 0
0.00276821 -0.0842953 0
0.00251268 -0.0871615 0
0.00450348 -0.0852525 0
0.00455948 -0.0887948 0
0.00309512 -0.089176 0
0.0024313 -0.0857027 0
-0.0044091 -0.0800276 0
-0.00443855 -0.0817566 0
-0.00340336 -0.0826182 0
-0.00257019 -0.0807647 0
-0.00175106 -0.0779145 0
-0.00437549 -0.0783098 0
-0.00314881 -0.0774478 0
-0.00165114 -0.0794753 0
-0.00313492 -0.0791579 0
0.00440674 -0.0800264 0
0.00149135 -0.0780928 0
-0.000161719 -0.0785815 0
-0.00420407 -0.069924 0
0.00420373 -0.0699243 0
-0.00427644 -0.0732387 0
-0.0022304 -0.0749032 0
-0.00304686 -0.0760479 0
-0.00430695 -0.0749188 0
-4.04331e-05 -0.0760721 0
-0.000557523 -0.0773003 0
-0.00157488 -0.0762216 0
0.00218806 -0.0759708 0
0.000723731 -0.0719972 0
0.00111453 -0.0767834 0
0.00437417 -0.0783103 0
0.00297515 -0.0774472 0
0.00286395 -0.0791774 0
0.00116154 -0.0799247 0
0.00443885 -0.0817561 0
0.00331307 -0.0826181 0
0.00289373 -0.0809126 0
0.00427488 -0.073239 0
-0.000289739 -0.0739026 0
0.000820757 -0.0814047 0
0.00430885 -0.0749172 0
0.00101336 -0.0748483 0
0.00266184 -0.074065 0
0.002659 -0.0721149 0
0.00131745 -0.0733756 0
0.00424079 -0.0715748 0
0.00179893 -0.0698398 0
0.00173517 -0.071154 0
0.00307686 -0.0707382 0
-0.00196258 -0.0717843 0
0.00413046 -0.0666659 0
-0.00178555 -0.0733612 0
-0.000663907 -0.0724216 0
-0.00298913 -0.072711 0
-0.00424035 -0.0715748 0
-0.00299445 -0.0707381 0
-0.000731388 -0.0695252 0
-0.00168067 -0.0704684 0
0.000365423 -0.0705363 0
-0.000683572 -0.0711821 0
0.00416804 -0.0682884 0
0.00192298 -0.0674584 0
0.00301046 -0.0690953 0
0.00318401 -0.0674673 0
0.000666801 -0.0685681 0
-0.00104115 -0.0653513 0
-0.0041301 -0.0666663 0
0.000183923 -0.0667491 0
0.00194412 -0.0648658 0
0.00279532 -0.0660514 0
0.00409372 -0.0650588 0
0.00141868 -0.0661316 0
0.000429611 -0.0649641 0
0.00306294 -0.0642514 0
-0.00390538 -0.0572411 0
-0.00109457 -0.0620956 0
0.00390374 -0.0572427 0
0.00398213 -0.0603228 0
0.00133076 -0.0624594 0
-0.000682043 -0.0637059 0
0.00110302 -0.0637863 0
6.06973e-05 -0.0626481 0
-0.00234284 -0.0632874 0
-0.0019999 -0.067426 0
-0.0026998 -0.0690145 0
-0.000699642 -0.0680627 0
-0.00416884 -0.068288 0
-0.00322705 -0.0674676 0
-0.00409299 -0.0650591 0
-0.00264535 -0.0658482 0
-0.00213746 -0.0645972 0
-0.00105351 -0.0665966 0
-5.06886e-07 -0.0581509 0
0.000396985 -0.0603677 0
0.00220359 -0.0608164 0
0.00113343 -0.0612911 0
0.00401778 -0.061887 0
0.00279387 -0.0626636 0
0.0039396 -0.0587745 0
0.00203287 -0.0579904 0
0.00157574 -0.05942 0
0.00289203 -0.0595358 0
-0.00397959 -0.0603241 0
-0.00401817 -0.0618876 0
-0.00247499 -0.0610902 0
-0.00288114 -0.0622232 0
-0.00106527 -0.0606085 0
-0.000509255 -0.059382 0
-0.00204258 -0.0580287 0
-0.00218909 -0.0595624 0
-0.00394294 -0.0587746 0
0.00382451 -0.0542186 0
-0.000746141 -0.0540056 0
0.00216739 -0.0557074 0
-0.00382628 -0.0542202 0
-0.000890723 -0.0561559 0
0.00266365 -0.0568908 0
0.00386211 -0.055724 0
0.00155872 -0.0533596 0
0.000900517 -0.0567505 0
0.000577907 -0.0550662 0
-0.000187455 -0.0570344 0
0.00168843 -0.0545718 0
0.000458292 -0.0538509 0
-0.000384539 -0.0504911 0
-0.000354398 -0.0522569 0
-0.00053606 -0.0550958 0
-0.002247 -0.0548732 0
0.00143494 -0.0513377 0
-0.00194632 -0.0514105 0
-0.00386527 -0.0557227 0
-0.00246861 -0.0564678 0
0.000316961 -0.0513558 0
-0.00378468 -0.0527329 0
-0.0017144 -0.0528738 0
-0.00270096 -0.0522947 0
-0.0026673 -0.0537011 0
0.00378206 -0.052733 0
0.00263007 -0.0519847 0
0.00280274 -0.0534635 0
0.00535667 -0.217384 0
0.00358744 -0.217764 0
0.00413679 -0.216286 0
-0.00357074 -0.0455473 0
-0.00365912 -0.0483718 0
-0.00369703 -0.0498082 0
-0.00180337 -0.0490694 0
-0.00156982 -0.0502475 0
-0.00275273 -0.0505212 0
0.00356749 -0.0455443 0
-0.00201672 -0.0469324 0
0.0036567 -0.0483683 0
-0.00361528 -0.0469457 0
-0.00246913 -0.048066 0
-6.20663e-07 -0.0430951 0
0.000792749 -0.0476764 0
-0.00146842 -0.0447476 0
-0.000766912 -0.0478575 0
-0.000472549 -0.0491523 0
-0.000183359 -0.0460696 0
-0.000955666 -0.0468032 0
-0.00232096 -0.0457007 0
0.00137292 -0.0494486 0
0.00173236 -0.0460054 0
1.82457e-05 -0.044578 0
0.000750411 -0.0454333 0
0.000536928 -0.0487306 0
0.00370046 -0.0498074 0
0.00260381 -0.0490738 0
0.00232199 -0.0475407 0
0.00249343 -0.0504507 0
0.00163883 -0.0483817 0
0.00361399 -0.0469468 0
0.00278165 -0.0462336 0
0.000798804 -0.0465703 0
-0.00348305 -0.0427844 0
0.00348185 -0.0427904 0
0.00214802 -0.044114 0
0.000964307 -0.0438234 0
0.00163051 -0.0419184 0
0.00352722 -0.0441573 0
0.00229969 -0.0429239 0
0.00343716 -0.0414326 0
0.00225642 -0.0407498 0
-0.00320671 -0.0349346 0
0.00320357 -0.0349366 0
-0.000521246 -0.0399608 0
0.000774224 -0.0406784 0
0.00330066 -0.0374791 0
0.001837 -0.0387628 0
0.00238699 -0.039687 0
0.00334307 -0.038782 0
-0.000569376 -0.0415673 0
0.000658075 -0.039346 0
-0.000216199 -0.0361276 0
-0.00329833 -0.0374825 0
0.000532661 -0.037635 0
0.000482301 -0.0420382 0
-0.00194202 -0.0407331 0
-0.00173627 -0.0428785 0
-0.00343758 -0.0414308 0
-0.00234468 -0.0418605 0
-0.000808605 -0.042525 0
0.00190108 -0.0373588 0
0.0032543 -0.0362008 0
0.000989881 -0.0364631 0
0.0021088 -0.0362274 0
0.000979382 -0.034083 0
0.00130289 -0.035269 0
0.00228762 -0.0352563 0
-0.00139072 -0.0376487 0
-0.000471954 -0.0386066 0
-0.00197972 -0.0391302 0
-0.00146452 -0.0399023 0
-0.0033463 -0.0387799 0
-0.00245441 -0.0399536 0
-0.00241389 -0.0381114 0
-0.00352759 -0.0441561 0
-0.000968059 -0.0437048 0
-0.000428646 -0.037167 0
-0.00192767 -0.0360117 0
-0.00233504 -0.0439302 0
-0.000929617 -0.0343194 0
0.000116514 -0.0349349 0
-0.00325412 -0.0362039 0
-0.00201519 -0.0348217 0
-0.0031095 -0.032471 0
-0.00315565 -0.0336946 0
-0.00175557 -0.0330609 0
-0.00223793 -0.0338948 0
-0.000135263 -0.0328754 0
-0.00172286 -0.0312458 0
-0.000901313 -0.0333897 0
-0.00214754 -0.0321554 0
-0.000996424 -0.0321098 0
0.000900636 -0.0308207 0
0.000125613 -0.0317052 0
0.00310623 -0.0324706 0
-0.000510354 -0.0303533 0
0.00158217 -0.0321983 0
-0.00172384 -0.0299486 0
0.00280688 -0.0255284 0
0.00306115 -0.0312635 0
0.00204091 -0.0306527 0
0.00315645 -0.033698 0
-0.00280837 -0.0255308 0
-0.00290815 -0.0277611 0
-0.00295714 -0.0289118 0
-0.000246517 -0.0276488 0
-0.00157251 -0.0283138 0
0.00290605 -0.0277688 0
0.00115642 -0.0289155 0
0.00132724 -0.0299086 0
0.000269478 -0.0295557 0
0.00021212 -0.0285414 0
-0.000776418 -0.0291015 0
-0.00101746 -0.0353952 0
-1.32911e-05 -0.0338732 0
-0.00305769 -0.031266 0
0.000920651 -0.0330101 0
0.00199141 -0.0335079 0
-0.00157104 -0.0266 0
-0.00207249 -0.0291017 0
-0.00116926 -0.0274391 0
0.000463486 -0.0253743 0
-0.00286031 -0.0266379 0
-0.00117874 -0.0248985 0
-0.000315417 -0.0263669 0
0.0013329 -0.0269207 0
0.00074311 -0.0276993 0
0.00182699 -0.0279095 0
0.00295665 -0.0289103 0
0.00207475 -0.0292881 0
-0.000453358 -0.0254447 0
0.000617767 -0.0262945 0
0.00167211 -0.0257903 0
0.00285648 -0.0266355 0
-0.00183585 -0.0256521 0
0.000368247 -0.0226286 0
0.00269834 -0.0233756 0
0.0027551 -0.0244424 0
0.00127495 -0.0238843 0
0.00209754 -0.0238945 0
0.00171306 -0.0247851 0
0.00161365 -0.0226808 0
0.000984794 -0.0231321 0
-0.000158111 -0.0239068 0
0.00264689 -0.0223293 0
0.00101122 -0.0211743 0
0.000998161 -0.0220342 0
0.00178608 -0.0216368 0
-0.00269997 -0.0233739 0
0.000574465 -0.0244554 0
-0.00142873 -0.0236062 0
-0.00275495 -0.0244462 0
-0.000899454 -0.0241561 0
-0.000594782 -0.0229732 0
-0.00264877 -0.0223301 0
-0.00158152 -0.0225144 0
-0.00187216 -0.0243752 0
0.00236582 -0.017421 0
-0.000514961 -0.0213445 0
-0.000800618 -0.0221455 0
-0.00156067 -0.021433 0
-0.00237012 -0.0174235 0
-0.00248166 -0.0193205 0
-0.00253874 -0.0203004 0
-0.000976757 -0.0197838 0
-0.00182169 -0.019794 0
-0.00178442 -0.0206239 0
-0.000942385 -0.0206169 0
0.000246143 -0.0201187 0
0.000211176 -0.0209382 0
0.00248044 -0.0193234 0
0.000223911 -0.0178349 0
0.00149373 -0.0200153 0
0.00253567 -0.0202995 0
0.0018748 -0.020787 0
0.00091076 -0.0204348 0
0.00126521 -0.0186699 0
0.00172028 -0.0192941 0
0.000797753 -0.019409 0
0.00242449 -0.01836 0
0.00128374 -0.0175505 0
0.000868995 -0.0180827 0
0.00172386 -0.0181337 0
0.00225154 -0.0156132 0
0.000182068 -0.0156901 0
0.00230703 -0.0165087 0
0.00125351 -0.0160357 0
0.00123426 -0.0147249 0
0.000449757 -0.016743 0
0.00157372 -0.016796 0
0.000862204 -0.0153601 0
-0.00225553 -0.0156173 0
-0.000960166 -0.0170054 0
-0.000199714 -0.0171674 0
-0.000403634 -0.0163175 0
-0.00100204 -0.0151597 0
2.1094e-05 -0.0144045 0
-0.00138204 -0.0160947 0
-0.000506376 -0.0156254 0
-0.00231111 -0.0165087 0
-0.00172443 -0.0169493 0
0.00219794 -0.0147478 0
-0.00219744 -0.0147459 0
-0.00168922 -0.0151663 0
-0.00103056 -0.0140156 0
-0.00164966 -0.0143049 0
0.00189621 -0.0107388 0
-0.000646507 -0.0145572 0
0.000885745 -0.0134297 0
-0.00189683 -0.0107411 0
0.000721515 -0.0141436 0
0.00143351 -0.0140264 0
-0.000176898 -0.013342 0
-0.000402145 -0.0139307 0
0.000459734 -0.0116247 0
0.00040587 -0.0125628 0
0.00202037 -0.0122702 0
-0.002018 -0.0122699 0
0.00115191 -0.0121563 0
-0.000791768 -0.0122616 0
0.00102976 -0.012787 0
0.00195604 -0.0114951 0
0.00114051 -0.0110915 0
-0.000262831 -0.0126632 0
-0.000148021 -0.0119586 0
-0.00103267 -0.0131127 0
-0.000500781 -0.010574 0
-0.000789915 -0.0113851 0
0.00140196 -0.0116324 0
-0.00207835 -0.013073 0
-0.00152168 -0.0135861 0
0.000328216 -0.0107597 0
-0.0011917 -0.0108024 0
-0.00177138 -0.00929978 0
-0.0019556 -0.0114934 0
-0.00184001 -0.0100101 0
-0.00137801 -0.011861 0
-0.000862843 -0.00962827 0
-0.00139876 -0.00963689 0
-0.000972457 -0.010216 0
-0.00142475 -0.0125614 0
-0.000118072 -0.0112571 0
0.000112084 -0.00976257 0
-6.04383e-06 -0.0103021 0
0.00177492 -0.00930338 0
0.00107142 -0.0100655 0
0.000862429 -0.0105746 0
0.00207431 -0.0130759 0
0.00153425 -0.0133827 0
-0.000951867 -0.00859817 0
0.00183823 -0.0100119 0
0.000809835 -0.00909904 0
-0.00171154 -0.00862837 0
-0.00026668 -0.00901233 0
-0.000795506 -0.0090874 0
-0.000348363 -0.00952095 0
0.00025977 -0.00920808 0
0.000176952 -0.00751453 0
0.000274044 -0.0083394 0
-0.000464497 -0.0100361 0
-0.000349662 -0.00837823 0
0.000665335 -0.00963352 0
0.000508728 -0.010139 0
0.00124888 -0.00951133 0
0.00170781 -0.00862231 0
0.00101252 -0.00826849 0
0.00131978 -0.00894455 0
0.00139424 -0.00558164 0
0.00058322 -0.00788598 0
0.000690109 -0.00860912 0
-0.000232119 -0.0188752 0
-0.000798709 -0.0180083 0
-0.00155501 -0.0187514 0
0.000498178 -0.0187149 0
-0.00026698 -0.0195962 0
-0.000924439 -0.0190589 0
-0.00242713 -0.0183604 0
-0.00165824 -0.0178728 0
-0.00139249 -0.00557999 0
-0.00152325 -0.00672259 0
-0.000761948 -0.00753142 0
-0.000778477 -0.00806552 0
-0.000276794 -0.00627222 0
-0.00158455 -0.00733296 0
-0.00124636 -0.00763039 0
-0.00103412 -0.00700677 0
-0.000344495 -0.00694253 0
-0.000935862 -0.00632691 0
-0.000293083 -0.007411 0
-0.000621477 -0.00556608 0
-0.00146047 -0.00613815 0
-0.00103429 -0.00583822 0
-0.000612759 -0.0059961 0
0.000382676 -0.00547616 0
-0.00126118 -0.00454229 0
-0.000101956 -0.00572758 0
-0.00132553 -0.00504829 0
-0.000975732 -0.00529328 0
-0.000146687 -0.00442723 0
-0.000431376 -0.00495764 0
-4.67314e-05 -0.00523368 0
-0.000870219 -0.00477251 0
0.00152143 -0.0067214 0
0.000881311 -0.0071274 0
0.000310255 -0.00665061 0
0.000387869 -0.00605537 0
0.000906266 -0.0064462 0
0.000886248 -0.00578572 0
0.00145806 -0.00613906 0
9.8155e-05 -0.00705195 0
0.00158252 -0.00733163 0
0.00110849 -0.00767285 0
0.00126269 -0.00454201 0
-0.000700039 -0.00403898 0
-0.000888287 -0.00438805 0
-0.00119454 -0.0040658 0
0.000140064 -0.00342222 0
-0.000852725 -0.00204752 0
-0.000165977 -0.00386079 0
-0.000372527 -0.00415228 0
0.000553055 -0.00411112 0
0.000476103 -0.00476709 0
0.00132812 -0.00505047 0
0.000922438 -0.00477671 0
0.00090671 -0.00526805 0
-0.000996354 -0.0027749 0
-0.000551183 -0.0034495 0
0.000141334 -0.00412234 0
0.000317315 -0.0037699 0
0.000743648 -0.00373706 0
0.00119231 -0.00406281 0
0.000920438 -0.00428151 0
-0.000474728 -0.00375729 0
4.61058e-05 -0.00480358 0
-0.00106207 -0.00318042 0
0.000854934 -0.00205007 0
-0.000197675 -0.00265597 0
-0.000592548 -0.00294664 0
-0.000766551 -0.00323441 0
-0.000203243 -0.0031226 0
-0.000928916 -0.00239826 0
-0.000416434 -0.00219016 0
-0.000683858 -0.00220242 0
-0.000615673 -0.00255492 0
0.000238803 -0.00213083 0
-0.000720053 -0.00143771 0
-7.72468e-05 -0.00229369 0
-0.000436537 -0.00170456 0
-0.000119322 -0.00188511 0
-0.000375832 -0.00193106 0
8.4744e-05 -0.00117287 0
-9.36505e-05 -0.00148058 0
-0.000212522 -0.00167506 0
-0.000789672 -0.00173047 0
0.000250443 -0.001696 0
-0.000322136 -0.00113658 0
0.000125998 -0.00189045 0
0.000507147 -0.00194124 0
0.000716491 -0.0014321 0
0.000787844 -0.00172728 0
0.00049505 -0.00155461 0
0.00040457 -0.00121018 0
0.000233647 -0.00140644 0
0.000648642 -0.00116511 0
0.000230313 -0.000857953 0
0.000238567 -0.00104845 0
0.000429856 -0.00100807 0
-0.00043039 -0.00140109 0
-0.000136043 -0.00124405 0
-7.80317e-05 -0.000874467 0
0.000282303 -0.000243146 0
-0.000325447 -0.000876741 0
-0.00028586 -0.000247291 0
-0.000433505 -0.000525457 0
-0.000506894 -0.000713378 0
-0.000141277 -0.0005358 0
-0.000315842 -0.000594257 0
-0.000216933 -0.000701388 0
0.000431442 -0.000529629 0
4.83485e-05 -0.000651635 0
-7.38626e-05 -0.000722767 0
6.97473e-05 -0.000802169 0
0.000279888 -0.000622888 0
0.000186526 -0.000703757 0
0.000499701 -0.00071402 0
0.000388871 -0.000796104 0
0.000163442 -0.000343363 0
0.000269103 -0.000469366 0
0.000360665 -0.000372486 0
0.000102837 -0.000470939 0
0.000233628 -0.000284344 0
0 0 0
0.000169867 -0.000115729 0
-0.000649546 -0.0011614 0
-0.000462352 -0.00103374 0
-0.000215524 -0.000348108 0
-0.000293714 -0.000458978 0
-0.000357638 -0.000368908 0
-2.17832e-05 -0.000303078 0
6.87548e-05 -0.000361113 0
-0.000116623 -0.000395307 0
-0.000104863 -0.000159507 0
-0.000196495 -0.000238361 0
-0.000104262 -0.000246146 0
5.99789e-05 -0.000131455 0
-1.86419e-05 -0.000173551 0
0.000119375 -0.000220447 0
0.000156113 -0.000147184 0
-0.000137863 -7.55923e-05 0
-2.02688e-05 -2.82315e-05 0
-3.53046e-05 -9.09462e-05 0
-9.10939e-05 -6.98885e-05 0
0 0 0
-0.000212176 -0.000155795 0
-8.90538e-05 -5.09397e-05 0
-3.93917e-05 -1.36342e-05 0
-0.000146109 -0.000131987 0
-8.59099e-06 -9.22241e-07 0
0 0 0
-4.52441e-05 -2.39104e-05 0
0.000988617 -0.00277505 0
0.00106298 -0.00317678 0
0.000479932 -0.0029414 0
0.000788788 -0.00295591 0
0.0006696 -0.0033126 0
0.000266119 -0.00253588 0
0.000922247 -0.00239979 0
0.000566621 -0.00228209 0
9.82979e-05 -0.00287823 0
0.000609507 -0.00261955 0
5.35112e-05 -3.31355e-05 0
2.65936e-05 -5.38948e-05 0
0 0 0
1.26426e-05 -7.55677e-06 0
2.09332e-05 -3.99843e-06 0
8.21678e-05 -4.23807e-05 0
8.73984e-05 -8.28798e-05 0
4.03036e-05 -1.99645e-05 0
0.000126072 -7.28669e-05 0

CELL_DATA 6146
TENSORS efStress float
6.53934e+06 -476942 0
-476942 153621 0
0    0    2.00789e+06

4.90779e+06 58811.4 0
58811.4 190420 0
0    0    1.52946e+06

179454 35216.1 0
35216.1 362901 0
0    0    162706

3.65866e+06 -51078.6 0
-51078.6 81954.5 0
0    0    1.12218e+06

338637 66320.4 0
66320.4 -42673.1 0
0    0    88789.3

-4.38435e+06 -472754 0
-472754 -723835 0
0    0    -1.53245e+06

1.40802e+06 57959.1 0
57959.1 3067.89 0
0    0    423325

-1.86305e+07 -258283 0
-258283 -28547 0
0    0    -5.59771e+06

1.13361e+06 477759 0
477759 781427 0
0    0    574511

9.06907e+06 701982 0
701982 441598 0
0    0    2.8532e+06

-4.46878e+06 -127694 0
-127694 -314664 0
0    0    -1.43503e+06

-5.84182e+06 -422444 0
-422444 412472 0
0    0    -1.6288e+06

-3.53309e+06 39487.5 0
39487.5 188768 0
0    0    -1.0033e+06

-1.48777e+06 -28717.1 0
-28717.1 -36767.1 0
0    0    -457360

8.94106e+06 589671 0
589671 -254618 0
0    0    2.60593e+06

3.30436e+06 280852 0
280852 52774.3 0
0    0    1.00714e+06

8.19908e+06 -493764 0
-493764 591690 0
0    0    2.63723e+06

1.32038e+07 226903 0
226903 -349122 0
0    0    3.85639e+06

3.00336e+06 107261 0
107261 -198582 0
0    0    841434

-618107 -172482 0
-172482 87524.1 0
0    0    -159175

842677 -162274 0
-162274 59669.3 0
0    0    270704

-919133 -97693.3 0
-97693.3 37173.2 0
0    0    -264588

-1.17678e+07 669001 0
669001 -1.00218e+06 0
0    0    -3.831e+06

-1.29804e+07 -494462 0
-494462 -455755 0
0    0    -4.03084e+06

-464105 196908 0
196908 102737 0
0    0    -108410

-596297 106509 0
106509 71459.2 0
0    0    -157451

-1.32449e+06 681082 0
681082 -427824 0
0    0    -525696

-6.5022e+06 460056 0
460056 420113 0
0    0    -1.82463e+06

4.17374e+06 207824 0
207824 218810 0
0    0    1.31777e+06

-25186.9 261894 0
261894 -79002.8 0
0    0    -31256.9

7.36289e+06 -517163 0
-517163 -666026 0
0    0    2.00906e+06

1.14476e+07 180051 0
180051 -315568 0
0    0    3.33961e+06

9.06746e+06 -540061 0
-540061 342555 0
0    0    2.823e+06

6.57088e+06 -564258 0
-564258 59233.9 0
0    0    1.98904e+06

1.49669e+06 35369.3 0
35369.3 88027.7 0
0    0    475414

5.388e+06 -248050 0
-248050 450871 0
0    0    1.75166e+06

3.10244e+06 -4183.78 0
-4183.78 8001.23 0
0    0    933132

3.50534e+06 -655552 0
-655552 145782 0
0    0    1.09534e+06

4.7178e+06 -434107 0
-434107 843042 0
0    0    1.66825e+06

6.10656e+06 -559973 0
-559973 -54850.1 0
0    0    1.81551e+06

601711 -129837 0
-129837 -12523 0
0    0    176756

-4.35257e+06 -267838 0
-267838 -205409 0
0    0    -1.36739e+06

-706633 -452643 0
-452643 -65072.6 0
0    0    -231512

-3.12191e+06 -119208 0
-119208 375750 0
0    0    -823849

-1.04077e+07 -463255 0
-463255 -315414 0
0    0    -3.21692e+06

-6.21716e+06 162400 0
162400 -391015 0
0    0    -1.98245e+06

-2.1888e+07 -137690 0
-137690 -547262 0
0    0    -6.73058e+06

-6.37673e+06 -2.03689e+06 0
-2.03689e+06 -298479 0
0    0    -2.00256e+06

-1.25396e+06 27242.3 0
27242.3 -37971.8 0
0    0    -387580

-51264.7 124538 0
124538 38554.4 0
0    0    -3813.12

30443.5 -10639.8 0
-10639.8 86855 0
0    0    35189.6

2.5336e+06 89037.9 0
89037.9 -206332 0
0    0    698180

-1.01478e+06 149694 0
149694 308479 0
0    0    -211889

-5.53415e+06 -259316 0
-259316 50492.3 0
0    0    -1.6451e+06

-1.16424e+07 521780 0
521780 325672 0
0    0    -3.39502e+06

-9.75811e+06 309540 0
309540 335483 0
0    0    -2.82679e+06

2.84945e+06 321197 0
321197 3749.82 0
0    0    855960

-461912 81876.1 0
81876.1 59767.1 0
0    0    -120643

5.63802e+06 -117181 0
-117181 -164434 0
0    0    1.64207e+06

4.38853e+06 198919 0
198919 -175194 0
0    0    1.264e+06

5.74583e+06 233316 0
233316 121324 0
0    0    1.76015e+06

1.73419e+06 -303842 0
-303842 -687852 0
0    0    313902

1.29332e+07 -238545 0
-238545 120937 0
0    0    3.91625e+06

6.99442e+06 497596 0
497596 -642699 0
0    0    1.90552e+06

8.09202e+06 -452411 0
-452411 -623484 0
0    0    2.24056e+06

7.86768e+06 1.15207e+06 0
1.15207e+06 231189 0
0    0    2.42966e+06

7.84695e+06 503448 0
503448 -84253.2 0
0    0    2.32881e+06

8.53591e+06 80392.7 0
80392.7 -825173 0
0    0    2.31322e+06

1.39415e+07 -502161 0
-502161 -584939 0
0    0    4.00698e+06

1.33599e+07 21666.4 0
21666.4 -221061 0
0    0    3.94166e+06

9.47141e+06 152480 0
152480 -530334 0
0    0    2.68232e+06

1.03471e+07 1.15679e+06 0
1.15679e+06 -128744 0
0    0    3.0655e+06

1.81903e+06 -657590 0
-657590 91504.9 0
0    0    573159

8.07953e+06 52733.2 0
52733.2 -240796 0
0    0    2.35162e+06

1.3196e+07 454976 0
454976 -372399 0
0    0    3.84708e+06

7.49874e+06 491493 0
491493 -443721 0
0    0    2.11651e+06

-538299 209214 0
209214 39648.9 0
0    0    -149595

5.11213e+06 -833234 0
-833234 -661819 0
0    0    1.33509e+06

-4.36556e+06 273475 0
273475 -214403 0
0    0    -1.37399e+06

-267088 129700 0
129700 50115.8 0
0    0    -65091.6

-2.28363e+06 -229621 0
-229621 89143.5 0
0    0    -658346

-90578.5 -713351 0
-713351 122380 0
0    0    9540.56

-1.60996e+06 -109184 0
-109184 -6181.98 0
0    0    -484842

426939 -144683 0
-144683 -61113.8 0
0    0    109748

2.68323e+06 -104344 0
-104344 33138.9 0
0    0    814910

1.14332e+06 -327488 0
-327488 -218362 0
0    0    277486

3.92584e+06 -87077.6 0
-87077.6 116447 0
0    0    1.21269e+06

3.89145e+06 132576 0
132576 140214 0
0    0    1.2095e+06

-1.36035e+07 132288 0
132288 -585220 0
0    0    -4.25661e+06

-2.27918e+06 -331818 0
-331818 -332085 0
0    0    -783378

-7.43681e+06 590710 0
590710 -1.06159e+06 0
0    0    -2.54952e+06

-8.94763e+06 -670782 0
-670782 370667 0
0    0    -2.57309e+06

3.12497e+06 -1.66159e+06 0
-1.66159e+06 -1.10426e+06 0
0    0    606213

-2.11141e+07 -870278 0
-870278 -473159 0
0    0    -6.47617e+06

-3.84916e+06 628077 0
628077 -823606 0
0    0    -1.40183e+06

-1.8701e+07 -1.8163e+06 0
-1.8163e+06 -956612 0
0    0    -5.89727e+06

-38395.6 115314 0
115314 -14775.4 0
0    0    -15951.3

-129027 95616.3 0
95616.3 -24543.7 0
0    0    -46071.1

-1.04293e+06 21713.6 0
21713.6 -81878.8 0
0    0    -337444

267497 119304 0
119304 37435.3 0
0    0    91479.7

-1.68576e+06 238665 0
238665 262175 0
0    0    -427075

-3.05338e+06 86247.6 0
86247.6 -119457 0
0    0    -951850

-3.37694e+06 -157041 0
-157041 -97440.5 0
0    0    -1.04232e+06

2.69064e+06 4157.85 0
4157.85 29758.6 0
0    0    816121

-5.01652e+06 -216185 0
-216185 843480 0
0    0    -1.25191e+06

-1.45827e+06 -403235 0
-403235 -92343.7 0
0    0    -465184

-4.36368e+06 179407 0
179407 -264973 0
0    0    -1.3886e+06

-6.06286e+06 112621 0
112621 -47715.9 0
0    0    -1.83317e+06

-9.90409e+06 -305155 0
-305155 -758076 0
0    0    -3.19865e+06

-1.91208e+06 -471499 0
-471499 -113858 0
0    0    -607782

-1.09419e+07 -317374 0
-317374 -515342 0
0    0    -3.43717e+06

-3.56043e+06 633606 0
633606 -143560 0
0    0    -1.1112e+06

-1.79846e+06 19549.8 0
19549.8 148123 0
0    0    -495100

1.74891e+06 65400.8 0
65400.8 37227.9 0
0    0    535843

2.27193e+06 58423 0
58423 -159238 0
0    0    633806

2.69277e+06 -199350 0
-199350 -316865 0
0    0    712770

-798452 351039 0
351039 -185090 0
0    0    -295063

5.44902e+06 231894 0
231894 398233 0
0    0    1.75418e+06

4.5388e+06 -173963 0
-173963 414873 0
0    0    1.4861e+06

3.07953e+06 420451 0
420451 141291 0
0    0    966245

5.45627e+06 375925 0
375925 22548.8 0
0    0    1.64365e+06

2.59073e+06 70130.8 0
70130.8 -401430 0
0    0    656789

4.83771e+06 307621 0
307621 398121 0
0    0    1.57075e+06

8.30226e+06 -312541 0
-312541 -174119 0
0    0    2.43844e+06

6.67614e+06 -175286 0
-175286 -23377 0
0    0    1.99583e+06

1.37441e+06 -113542 0
-113542 -210373 0
0    0    349210

5.57302e+06 -619194 0
-619194 -36893.6 0
0    0    1.66084e+06

2.15201e+06 -8264.93 0
-8264.93 143241 0
0    0    688576

1.15166e+07 172209 0
172209 -160702 0
0    0    3.40677e+06

-1.06307e+06 -342881 0
-342881 -500141 0
0    0    -468963

-1.28135e+07 44524.6 0
44524.6 73102.6 0
0    0    -3.82213e+06

-177885 -424327 0
-424327 219594 0
0    0    12512.8

-3.70478e+06 672898 0
672898 -546057 0
0    0    -1.27525e+06

8.01805e+06 -77179.5 0
-77179.5 -944334 0
0    0    2.12212e+06

8.62598e+06 -52550.3 0
-52550.3 201264 0
0    0    2.64817e+06

3.3231e+06 633985 0
633985 -422949 0
0    0    870045

8.48845e+06 -349909 0
-349909 98531.5 0
0    0    2.57609e+06

8.78713e+06 -570809 0
-570809 -785830 0
0    0    2.40039e+06

6.09114e+06 609997 0
609997 -38465.2 0
0    0    1.8158e+06

2.92357e+06 -194218 0
-194218 -215772 0
0    0    812340

1.21267e+07 351073 0
351073 40338.3 0
0    0    3.6501e+06

2.86883e+06 -206068 0
-206068 3863.86 0
0    0    861809

6.41004e+06 435680 0
435680 62290.8 0
0    0    1.9417e+06

1.12682e+07 558560 0
558560 -1916.09 0
0    0    3.37989e+06

-1.15591e+07 26440.1 0
26440.1 252342 0
0    0    -3.39203e+06

6.51751e+06 -112769 0
-112769 311.318 0
0    0    1.95535e+06

3.60651e+06 -166616 0
-166616 307547 0
0    0    1.17422e+06

7.47843e+06 208820 0
208820 -1.01604e+06 0
0    0    1.93872e+06

2.26359e+06 547512 0
547512 100289 0
0    0    709163

1.22307e+07 689461 0
689461 456239 0
0    0    3.8061e+06

7.01108e+06 -364338 0
-364338 889179 0
0    0    2.37008e+06

1.21394e+07 -139704 0
-139704 231391 0
0    0    3.71124e+06

7.68636e+06 261667 0
261667 34045.7 0
0    0    2.31612e+06

-2.88254e+06 82597.9 0
82597.9 -436386 0
0    0    -995676

4.53965e+06 -18936.2 0
-18936.2 312747 0
0    0    1.45572e+06

8.48309e+06 275271 0
275271 438573 0
0    0    2.6765e+06

-563974 510554 0
510554 -99708 0
0    0    -199105

2.72412e+06 733917 0
733917 -514069 0
0    0    663017

2.41536e+06 -172938 0
-172938 429205 0
0    0    853370

-1.21994e+07 -42894.6 0
-42894.6 -273474 0
0    0    -3.74185e+06

-5.84704e+06 937079 0
937079 -498844 0
0    0    -1.90377e+06

7.81454e+06 -235629 0
-235629 -383640 0
0    0    2.22927e+06

6.97189e+06 -941367 0
-941367 -294513 0
0    0    2.00321e+06

5.0156e+06 -554044 0
-554044 495261 0
0    0    1.65326e+06

1.29655e+07 29470 0
29470 -382525 0
0    0    3.77489e+06

8.86817e+06 -260886 0
-260886 147411 0
0    0    2.70468e+06

2.36463e+06 -960563 0
-960563 249919 0
0    0    784366

-2.05345e+06 890026 0
890026 452975 0
0    0    -480143

1.93357e+06 620648 0
620648 -426734 0
0    0    452051

-1.73942e+06 -44270.5 0
-44270.5 -513551 0
0    0    -675891

-6.17544e+06 -322738 0
-322738 -9786.84 0
0    0    -1.85557e+06

-2.39371e+06 -383936 0
-383936 483501 0
0    0    -573062

-1.81274e+06 838767 0
838767 782169 0
0    0    -309172

-162859 363123 0
363123 31604.9 0
0    0    -39376.1

-8.3025e+06 525277 0
525277 266713 0
0    0    -2.41074e+06

-8.07853e+06 277142 0
277142 -331443 0
0    0    -2.52299e+06

-8.09236e+06 -309035 0
-309035 -39570.2 0
0    0    -2.43958e+06

-5.58429e+06 -495166 0
-495166 431594 0
0    0    -1.54581e+06

-8.57218e+06 -296779 0
-296779 107235 0
0    0    -2.53948e+06

-8.35428e+06 798602 0
798602 -986947 0
0    0    -2.80237e+06

-8.33456e+06 -923816 0
-923816 -195311 0
0    0    -2.55896e+06

-7.2338e+06 45211.6 0
45211.6 -192137 0
0    0    -2.22778e+06

-6.32511e+06 -1.12051e+06 0
-1.12051e+06 675797 0
0    0    -1.69479e+06

-6.64431e+06 348025 0
348025 118559 0
0    0    -1.95773e+06

8.29526e+06 251390 0
251390 -152432 0
0    0    2.44285e+06

8.76535e+06 -614894 0
-614894 -1.07457e+06 0
0    0    2.30724e+06

7.90217e+06 -50705.9 0
-50705.9 -63905.7 0
0    0    2.35148e+06

6.6011e+06 392183 0
392183 604586 0
0    0    2.16171e+06

3.22358e+06 413547 0
413547 -269209 0
0    0    886310

3.46108e+06 -229233 0
-229233 340065 0
0    0    1.14034e+06

-1.72015e+06 864576 0
864576 -778046 0
0    0    -749460

-4.52817e+06 -339301 0
-339301 301239 0
0    0    -1.26808e+06

-7.99367e+06 -637612 0
-637612 211032 0
0    0    -2.33479e+06

-7.0935e+06 -19110.6 0
-19110.6 693853 0
0    0    -1.91989e+06

-8.29239e+06 742784 0
742784 -56753.2 0
0    0    -2.50474e+06

-7.00255e+06 804241 0
804241 16664 0
0    0    -2.09577e+06

-5.82079e+06 -720545 0
-720545 52567.6 0
0    0    -1.73047e+06

-1.18988e+07 -360650 0
-360650 405854 0
0    0    -3.4479e+06

-1.12668e+07 19477.9 0
19477.9 -14217 0
0    0    -3.38432e+06

6.57043e+06 422380 0
422380 -566242 0
0    0    1.80126e+06

-33518.2 920882 0
920882 103473 0
0    0    20986.4

-3.01487e+06 655929 0
655929 463169 0
0    0    -765509

-7.78076e+06 433757 0
433757 -534105 0
0    0    -2.49446e+06

-1.21134e+07 102696 0
102696 -677897 0
0    0    -3.83738e+06

-7.55922e+06 48067.8 0
48067.8 604732 0
0    0    -2.08635e+06

-5.54857e+06 750053 0
750053 -599972 0
0    0    -1.84456e+06

-1.21106e+07 -13304.5 0
-13304.5 -651273 0
0    0    -3.82856e+06

-6.66773e+06 -373354 0
-373354 -110306 0
0    0    -2.03341e+06

3.23805e+06 5580.47 0
5580.47 -429.335 0
0    0    971287

-3.31545e+06 -527247 0
-527247 638885 0
0    0    -802969

8.17572e+06 -295136 0
-295136 349832 0
0    0    2.55767e+06

-3.12059e+06 367211 0
367211 113382 0
0    0    -902162

6.39525e+06 -232884 0
-232884 13412.2 0
0    0    1.9226e+06

-1.75649e+06 -484576 0
-484576 -704568 0
0    0    -738319

2.4184e+06 13686.9 0
13686.9 226417 0
0    0    793444

843331 579391 0
579391 -460211 0
0    0    114936

-2.54027e+06 281895 0
281895 -585694 0
0    0    -937790

674044 914831 0
914831 -313139 0
0    0    108272

416359 1.15533e+06 0
1.15533e+06 -12768.5 0
0    0    121077

-1.82383e+06 629997 0
629997 1.36595e+06 0
0    0    -137364

-7.66001e+06 -762873 0
-762873 -1.17106e+06 0
0    0    -2.64932e+06

-1.17936e+07 55851.7 0
55851.7 99542.7 0
0    0    -3.50821e+06

-1.10087e+07 575545 0
575545 366890 0
0    0    -3.19254e+06

-2.48648e+06 430152 0
430152 407224 0
0    0    -623776

3.77551e+06 621762 0
621762 -83296 0
0    0    1.10766e+06

-1.34036e+07 429651 0
429651 -730243 0
0    0    -4.24015e+06

-2.27137e+06 619388 0
619388 216419 0
0    0    -616486

-7.734e+06 16298.2 0
16298.2 1.21682e+06 0
0    0    -1.95515e+06

-6.48881e+06 -664474 0
-664474 -419657 0
0    0    -2.07254e+06

-7.90084e+06 -41769.5 0
-41769.5 988539 0
0    0    -2.07369e+06

-1.2774e+07 395947 0
395947 -712160 0
0    0    -4.04586e+06

905366 933185 0
933185 -289168 0
0    0    184860

-980223 999087 0
999087 -704593 0
0    0    -505445

-4.53126e+06 -465468 0
-465468 -1.02387e+06 0
0    0    -1.66654e+06

2.51521e+06 -13628.4 0
-13628.4 433603 0
0    0    884644

3.244e+06 650660 0
650660 -564850 0
0    0    803745

-167277 -578975 0
-578975 -81774.6 0
0    0    -74715.4

4.13543e+06 -530104 0
-530104 516513 0
0    0    1.39558e+06

-7.12009e+06 609125 0
609125 -153114 0
0    0    -2.18196e+06

1.26867e+06 -258161 0
-258161 767144 0
0    0    610745

-7.08121e+06 577866 0
577866 -411678 0
0    0    -2.24787e+06

-2.9795e+06 539397 0
539397 -250696 0
0    0    -969060

-1.3209e+07 -391597 0
-391597 -545674 0
0    0    -4.12639e+06

-6.99084e+06 -502050 0
-502050 -21539.1 0
0    0    -2.10371e+06

1.32575e+07 499257 0
499257 478901 0
0    0    4.12092e+06

7.16252e+06 103162 0
103162 1.14633e+06 0
0    0    2.49266e+06

-8.05452e+06 -642011 0
-642011 33992.5 0
0    0    -2.40616e+06

8.58948e+06 -490301 0
-490301 -474501 0
0    0    2.43449e+06

-4.47742e+06 383687 0
383687 -263346 0
0    0    -1.42223e+06

1.7673e+06 -644799 0
-644799 612525 0
0    0    713947

4.79918e+06 722949 0
722949 -178786 0
0    0    1.38612e+06

1.26438e+07 -433892 0
-433892 -397760 0
0    0    3.6738e+06

8.2426e+06 868702 0
868702 -640197 0
0    0    2.28072e+06

4.2805e+06 732499 0
732499 -18524.8 0
0    0    1.27859e+06

1.22012e+07 -352618 0
-352618 550733 0
0    0    3.82557e+06

7.32809e+06 -617959 0
-617959 -361119 0
0    0    2.09009e+06

6.45947e+06 988458 0
988458 270411 0
0    0    2.01897e+06

1.24184e+07 621968 0
621968 -489724 0
0    0    3.57861e+06

3.7956e+06 -80358.6 0
-80358.6 244681 0
0    0    1.21209e+06

-934873 402802 0
402802 -123190 0
0    0    -317419

1.34677e+07 4456.13 0
4456.13 479044 0
0    0    4.18404e+06

7.47937e+06 669535 0
669535 -638653 0
0    0    2.05221e+06

8.04264e+06 125714 0
125714 78429.7 0
0    0    2.43632e+06

4.79956e+06 -585494 0
-585494 161967 0
0    0    1.48846e+06

-748905 -745783 0
-745783 582461 0
0    0    -49933

-8.85072e+06 448464 0
448464 102417 0
0    0    -2.62449e+06

-8.44264e+06 555458 0
555458 -132343 0
0    0    -2.57249e+06

-5.34002e+06 614281 0
614281 -851365 0
0    0    -1.85742e+06

1.32438e+06 803039 0
803039 -292731 0
0    0    309495

-6.92973e+06 -476678 0
-476678 -247248 0
0    0    -2.15309e+06

-2.80161e+06 -315722 0
-315722 528821 0
0    0    -681838

-2.01826e+06 382199 0
382199 -409065 0
0    0    -728196

-5.53626e+06 -469378 0
-469378 511094 0
0    0    -1.50755e+06

-968331 -874430 0
-874430 764355 0
0    0    -61192.8

-5.04141e+06 631099 0
631099 101603 0
0    0    -1.48194e+06

-4.08832e+06 705914 0
705914 -367840 0
0    0    -1.33685e+06

-1.26211e+07 364190 0
364190 368117 0
0    0    -3.6759e+06

8.54869e+06 219377 0
219377 -839729 0
0    0    2.31269e+06

-5.93542e+06 323063 0
323063 -272718 0
0    0    -1.86244e+06

3.21973e+06 -271844 0
-271844 337850 0
0    0    1.06728e+06

1.21005e+07 139621 0
139621 502094 0
0    0    3.78079e+06

7.9309e+06 -269268 0
-269268 129333 0
0    0    2.41807e+06

7.94272e+06 511735 0
511735 201003 0
0    0    2.44312e+06

-1.42221e+06 -512700 0
-512700 112028 0
0    0    -393054

4.31435e+06 -592453 0
-592453 6122.92 0
0    0    1.29614e+06

6.67377e+06 -592587 0
-592587 -394459 0
0    0    1.88379e+06

1.29216e+07 269919 0
269919 318354 0
0    0    3.97199e+06

2.74553e+06 825999 0
825999 299755 0
0    0    913585

-8.44326e+06 -515207 0
-515207 600348 0
0    0    -2.35287e+06

741208 -818115 0
-818115 -229115 0
0    0    153628

1.36378e+07 133686 0
133686 290834 0
0    0    4.1786e+06

8.32409e+06 -715023 0
-715023 124001 0
0    0    2.53443e+06

6.37542e+06 348275 0
348275 -513312 0
0    0    1.75863e+06

-1.24325e+07 628699 0
628699 402651 0
0    0    -3.60895e+06

-5.84548e+06 -454172 0
-454172 128800 0
0    0    -1.715e+06

-8.58734e+06 175766 0
175766 651720 0
0    0    -2.38069e+06

-8.76257e+06 -564085 0
-564085 352439 0
0    0    -2.52304e+06

-1.26623e+07 -501281 0
-501281 524582 0
0    0    -3.64131e+06

1.09923e+07 346920 0
346920 93651.2 0
0    0    3.32578e+06

5.08193e+06 729057 0
729057 454624 0
0    0    1.66096e+06

8.36646e+06 -115751 0
-115751 -369474 0
0    0    2.3991e+06

1.25061e+07 214372 0
214372 -146042 0
0    0    3.70803e+06

2.39243e+06 -707415 0
-707415 360353 0
0    0    825836

16500.4 -177163 0
-177163 -69674 0
0    0    -15952.1

6.15944e+06 76821.6 0
76821.6 -5226.75 0
0    0    1.84626e+06

2.98721e+06 201438 0
201438 290958 0
0    0    983450

-7.64489e+06 11291.3 0
11291.3 229387 0
0    0    -2.22465e+06

-9.18938e+06 175548 0
175548 -203585 0
0    0    -2.81789e+06

-1.48112e+06 -138884 0
-138884 -5581.2 0
0    0    -446010

-3.01604e+06 512736 0
512736 -686462 0
0    0    -1.11075e+06

2.05947e+06 -204249 0
-204249 27098 0
0    0    625971

-9.1256e+06 -122037 0
-122037 -311510 0
0    0    -2.83113e+06

-4.83944e+06 791816 0
791816 -340955 0
0    0    -1.55412e+06

-6.37632e+06 793047 0
793047 -4331.57 0
0    0    -1.9142e+06

-6.87947e+06 -662394 0
-662394 -213721 0
0    0    -2.12796e+06

-1.35229e+07 8140.54 0
8140.54 -99673.6 0
0    0    -4.08677e+06

1.27715e+07 -581997 0
-581997 -395819 0
0    0    3.71271e+06

8.47303e+06 43807.6 0
43807.6 -813491 0
0    0    2.29786e+06

1.91419e+06 724868 0
724868 -385952 0
0    0    458470

-4.14922e+06 178092 0
178092 -399780 0
0    0    -1.3647e+06

1.64094e+06 -140633 0
-140633 -991751 0
0    0    194757

1.36871e+07 -224447 0
-224447 514077 0
0    0    4.26034e+06

7.10266e+06 -537272 0
-537272 710737 0
0    0    2.34402e+06

6.863e+06 571269 0
571269 154683 0
0    0    2.1053e+06

8.38041e+06 215665 0
215665 -1.21717e+06 0
0    0    2.14897e+06

6.87329e+06 -10767 0
-10767 609589 0
0    0    2.24486e+06

-1.97472e+06 561677 0
561677 -23716.6 0
0    0    -599530

3.65538e+06 561591 0
561591 271900 0
0    0    1.17818e+06

-2.07027e+06 276178 0
276178 -320437 0
0    0    -717212

-6.74703e+06 726622 0
726622 -1.06475e+06 0
0    0    -2.34353e+06

-1.37278e+07 15962 0
15962 -705291 0
0    0    -4.32993e+06

-411843 -587922 0
-587922 645789 0
0    0    70183.7

5.34324e+06 -805136 0
-805136 347563 0
0    0    1.70724e+06

-7.01107e+06 -352726 0
-352726 -1.14296e+06 0
0    0    -2.44621e+06

628906 -623534 0
-623534 1.02977e+06 0
0    0    497601

-1.44953e+06 1.15437e+06 0
1.15437e+06 18496.2 0
0    0    -429311

-7.16585e+06 326364 0
326364 159633 0
0    0    -2.10187e+06

-9.00486e+06 -583668 0
-583668 257254 0
0    0    -2.62428e+06

-1.25772e+07 -348211 0
-348211 204470 0
0    0    -3.71181e+06

-7.7133e+06 -524195 0
-524195 359833 0
0    0    -2.20604e+06

-9.49229e+06 739451 0
739451 472113 0
0    0    -2.70605e+06

-2.60352e+06 126992 0
126992 505863 0
0    0    -629298

-1.34671e+07 370883 0
370883 -344657 0
0    0    -4.14352e+06

-3.81618e+06 -315891 0
-315891 348370 0
0    0    -1.04034e+06

-635487 584973 0
584973 -172396 0
0    0    -242365

-7.96277e+06 -18321.9 0
-18321.9 111691 0
0    0    -2.35532e+06

-6.24685e+06 736434 0
736434 -567623 0
0    0    -2.04434e+06

2.77723e+06 772964 0
772964 -832357 0
0    0    583463

2.48234e+06 -205830 0
-205830 -361264 0
0    0    636322

2.77475e+06 -587432 0
-587432 902434 0
0    0    1.10316e+06

9.55507e+06 -604302 0
-604302 -128670 0
0    0    2.82792e+06

-8.3955e+06 887548 0
887548 -842183 0
0    0    -2.7713e+06

-8.67959e+06 718232 0
718232 -637732 0
0    0    -2.7952e+06

-8.63715e+06 -510716 0
-510716 731811 0
0    0    -2.3716e+06

-1.37617e+07 201415 0
201415 -754521 0
0    0    -4.35486e+06

-7.953e+06 320488 0
320488 -138766 0
0    0    -2.42753e+06

-1.37516e+07 125400 0
125400 -96481.8 0
0    0    -4.15444e+06

3.01636e+06 -76072.6 0
-76072.6 -355531 0
0    0    798248

-3.66305e+06 -122813 0
-122813 529088 0
0    0    -940189

-3.58591e+06 1.37636e+06 0
1.37636e+06 -793754 0
0    0    -1.3139e+06

-8.38205e+06 380775 0
380775 -217474 0
0    0    -2.57986e+06

-3.91796e+06 -904418 0
-904418 1.0551e+06 0
0    0    -858858

-8.67367e+06 -265383 0
-265383 409410 0
0    0    -2.47928e+06

-9.11522e+06 421751 0
421751 -687252 0
0    0    -2.94074e+06

7.72967e+06 115736 0
115736 -352575 0
0    0    2.21313e+06

8.87601e+06 406160 0
406160 19475.2 0
0    0    2.66865e+06

8.08482e+06 -493457 0
-493457 817584 0
0    0    2.67072e+06

1.31256e+07 198237 0
198237 -259689 0
0    0    3.85976e+06

8.21121e+06 298075 0
298075 -951862 0
0    0    2.1778e+06

1.40852e+07 -460665 0
-460665 332208 0
0    0    4.32524e+06

723333 377876 0
377876 -23772.1 0
0    0    209868

2.78415e+06 837750 0
837750 -630878 0
0    0    645983

1.36987e+07 498388 0
498388 753561 0
0    0    4.33568e+06

7.45635e+06 -52334.4 0
-52334.4 337213 0
0    0    2.33807e+06

-1.27559e+06 -162577 0
-162577 -112013 0
0    0    -416281

8.59778e+06 379236 0
379236 184964 0
0    0    2.63482e+06

7.2743e+06 -657827 0
-657827 -241913 0
0    0    2.10972e+06

4.35183e+06 -339283 0
-339283 545208 0
0    0    1.46911e+06

1.25717e+07 -281315 0
-281315 393444 0
0    0    3.88955e+06

5.89124e+06 570306 0
570306 -9932.15 0
0    0    1.76439e+06

9.36602e+06 653289 0
653289 -980436 0
0    0    2.51567e+06

-1.27404e+07 257774 0
257774 -630268 0
0    0    -4.0112e+06

8.22083e+06 419068 0
419068 -217272 0
0    0    2.40107e+06

-7.18851e+06 -1.08844e+06 0
-1.08844e+06 138481 0
0    0    -2.11501e+06

1.00015e+07 -701904 0
-701904 372955 0
0    0    3.11232e+06

-1.34194e+07 501659 0
501659 -814601 0
0    0    -4.27019e+06

-1.19628e+06 596234 0
596234 853365 0
0    0    -102875

-4.72553e+06 -436318 0
-436318 580300 0
0    0    -1.24357e+06

-113032 967557 0
967557 177012 0
0    0    19193.9

1.00468e+07 -897697 0
-897697 240245 0
0    0    3.0861e+06

3.42489e+06 399529 0
399529 11506 0
0    0    1.03092e+06

3.23811e+06 -569342 0
-569342 362305 0
0    0    1.08012e+06

-5.40841e+06 187229 0
187229 662332 0
0    0    -1.42382e+06

-1.27863e+06 -500644 0
-500644 -262799 0
0    0    -462428

3.90416e+06 451067 0
451067 410616 0
0    0    1.29443e+06

-1.27527e+07 886724 0
886724 -520922 0
0    0    -3.9821e+06

1.33685e+07 116444 0
116444 -69118.7 0
0    0    3.98983e+06

-2.89594e+06 -407105 0
-407105 -280808 0
0    0    -953024

3.6307e+06 -62375.7 0
-62375.7 95062.5 0
0    0    1.11773e+06

-7.85128e+06 -825829 0
-825829 1.14367e+06 0
0    0    -2.01228e+06

378860 -593746 0
-593746 -23259.9 0
0    0    106680

1.43701e+07 -392527 0
-392527 407593 0
0    0    4.4333e+06

8.97628e+06 -39020.1 0
-39020.1 611923 0
0    0    2.87646e+06

8.5095e+06 58919.8 0
58919.8 -990261 0
0    0    2.25577e+06

1.43181e+07 381186 0
381186 735083 0
0    0    4.51594e+06

6.70382e+06 754757 0
754757 144967 0
0    0    2.05464e+06

7.87467e+06 18171.2 0
18171.2 -94966 0
0    0    2.33391e+06

3.66022e+06 -27683.1 0
-27683.1 -722597 0
0    0    881287

7.33141e+06 -619844 0
-619844 -68814.1 0
0    0    2.17878e+06

3.4682e+06 -53611.6 0
-53611.6 -295286 0
0    0    951876

-1.00037e+06 601410 0
601410 127663 0
0    0    -261811

8.81097e+06 257830 0
257830 229431 0
0    0    2.71212e+06

1.29042e+07 -288123 0
-288123 340739 0
0    0    3.97348e+06

3.56364e+06 136376 0
136376 -72073.9 0
0    0    1.04747e+06

9.55801e+06 778383 0
778383 -1.09334e+06 0
0    0    2.5394e+06

-2.86282e+06 -799021 0
-799021 590951 0
0    0    -681560

-4.39106e+06 -254017 0
-254017 -457184 0
0    0    -1.45447e+06

-8.84277e+06 34696.8 0
34696.8 -160803 0
0    0    -2.70107e+06

-9.9822e+06 -522322 0
-522322 -529563 0
0    0    -3.15353e+06

-1.36699e+07 395647 0
395647 526120 0
0    0    -3.94313e+06

-4.27792e+06 344975 0
344975 -299801 0
0    0    -1.37332e+06

-8.60755e+06 -707173 0
-707173 869563 0
0    0    -2.3214e+06

-128921 483145 0
483145 -423627 0
0    0    -165764

-1.33104e+07 -631866 0
-631866 395109 0
0    0    -3.8746e+06

-4.66504e+06 479013 0
479013 135000 0
0    0    -1.35901e+06

2.93177e+06 375815 0
375815 -1.32302e+06 0
0    0    482623

-3.08451e+06 586998 0
586998 -26834.4 0
0    0    -933405

466848 72380 0
72380 937776 0
0    0    421387

-1.34223e+06 -319221 0
-319221 715587 0
0    0    -187993

-7.96892e+06 -524134 0
-524134 -550208 0
0    0    -2.55574e+06

-1.33951e+07 7263.73 0
7263.73 116573 0
0    0    -3.98355e+06

-6.73737e+06 -609106 0
-609106 -824647 0
0    0    -2.26861e+06

3.01587e+06 486079 0
486079 159144 0
0    0    952504

2.38024e+06 -491209 0
-491209 -272028 0
0    0    632465

-8.92757e+06 696660 0
696660 700198 0
0    0    -2.46821e+06

-6.47652e+06 360772 0
360772 -737482 0
0    0    -2.1642e+06

58499.1 634693 0
634693 192123 0
0    0    75186.6

-9.45558e+06 717580 0
717580 994164 0
0    0    -2.53842e+06

-2.73027e+06 89213.8 0
89213.8 883394 0
0    0    -554064

-1.28497e+07 -377660 0
-377660 -334156 0
0    0    -3.95514e+06

-7.07048e+06 633179 0
633179 -279497 0
0    0    -2.20499e+06

-3.35658e+06 195422 0
195422 -544162 0
0    0    -1.17022e+06

-9.8023e+06 403400 0
403400 40961.7 0
0    0    -2.9284e+06

-8.63209e+06 3654.54 0
3654.54 680588 0
0    0    -2.38545e+06

2.19022e+06 -223694 0
-223694 121406 0
0    0    693488

2.21815e+06 93102 0
93102 -743071 0
0    0    442523

-6.48086e+06 740132 0
740132 -34714.6 0
0    0    -1.95467e+06

-9.27859e+06 -569339 0
-569339 -941151 0
0    0    -3.06592e+06

-1.45976e+07 -156316 0
-156316 -208493 0
0    0    -4.44182e+06

-8.79275e+06 365622 0
365622 1.16434e+06 0
0    0    -2.28852e+06

3.78488e+06 -413386 0
-413386 -339320 0
0    0    1.03367e+06

1.34776e+07 173787 0
173787 250124 0
0    0    4.11833e+06

7.8557e+06 544909 0
544909 -162404 0
0    0    2.30799e+06

-5.15858e+06 282845 0
282845 -1.11809e+06 0
0    0    -1.883e+06

8.92154e+06 -299375 0
-299375 632568 0
0    0    2.86623e+06

8.54497e+06 -77883.3 0
-77883.3 -1.01515e+06 0
0    0    2.25895e+06

1.46522e+07 267670 0
267670 774438 0
0    0    4.62798e+06

6.8376e+06 493357 0
493357 250742 0
0    0    2.1265e+06

8.56055e+06 -384026 0
-384026 -627390 0
0    0    2.37995e+06

8.85149e+06 -42121.9 0
-42121.9 -160131 0
0    0    2.60741e+06

-1.08935e+06 416996 0
416996 -328765 0
0    0    -425435

7.78801e+06 -908067 0
-908067 -518579 0
0    0    2.18083e+06

3.49546e+06 548702 0
548702 -79358.4 0
0    0    1.02483e+06

4.74574e+06 696264 0
696264 -307941 0
0    0    1.33134e+06

2.0795e+06 1.47861e+06 0
1.47861e+06 -1.18188e+06 0
0    0    269288

5.02595e+06 -566633 0
-566633 272682 0
0    0    1.58959e+06

1.35915e+07 186643 0
186643 195268 0
0    0    4.13603e+06

5.16617e+06 742566 0
742566 401480 0
0    0    1.67029e+06

1.45434e+07 82756 0
82756 304982 0
0    0    4.45452e+06

794508 -443231 0
-443231 640085 0
0    0    430378

9.08495e+06 -372691 0
-372691 -528202 0
0    0    2.56703e+06

1.61998e+06 540729 0
540729 351729 0
0    0    591514

2.48295e+06 -647566 0
-647566 -36681.7 0
0    0    733882

-1.54263e+07 116962 0
116962 162240 0
0    0    -4.57923e+06

256768 790736 0
790736 758001 0
0    0    304431

-1.81004e+06 -1.04355e+06 0
-1.04355e+06 -67893.8 0
0    0    -563380

-1.91779e+06 794820 0
794820 -969679 0
0    0    -866240

-936819 110271 0
110271 1.22231e+06 0
0    0    85646.2

8.64342e+06 738663 0
738663 205653 0
0    0    2.65472e+06

3.22988e+06 -518532 0
-518532 305144 0
0    0    1.06051e+06

8.05655e+06 845758 0
845758 775496 0
0    0    2.64961e+06

9.11283e+06 294703 0
294703 -228257 0
0    0    2.66537e+06

-4.77991e+06 -260004 0
-260004 -956359 0
0    0    -1.72088e+06

-8.92575e+06 -21669.5 0
-21669.5 -14085.2 0
0    0    -2.68195e+06

-1.39458e+07 -338948 0
-338948 -515275 0
0    0    -4.33831e+06

-7.72259e+06 -887624 0
-887624 -87470.3 0
0    0    -2.34302e+06

-7.9247e+06 -476839 0
-476839 -1.41471e+06 0
0    0    -2.80182e+06

3.50631e+06 -665231 0
-665231 -62274 0
0    0    1.03321e+06

-9.46717e+06 -300999 0
-300999 -392920 0
0    0    -2.95803e+06

3.36001e+06 -212230 0
-212230 586497 0
0    0    1.18395e+06

-2.24723e+06 -606682 0
-606682 302759 0
0    0    -583341

-1.07273e+06 337427 0
337427 -234448 0
0    0    -392154

1.45717e+07 -218226 0
-218226 659283 0
0    0    4.5693e+06

1.31399e+07 147371 0
147371 202628 0
0    0    4.00275e+06

-2.9433e+06 1.29312e+06 0
1.29312e+06 787594 0
0    0    -646712

1.41303e+07 -169405 0
-169405 128100 0
0    0    4.27751e+06

-9.59105e+06 71451.9 0
71451.9 -376888 0
0    0    -2.99038e+06

-5.81611e+06 533928 0
533928 -521027 0
0    0    -1.90114e+06

-9.11337e+06 786525 0
786525 1.00662e+06 0
0    0    -2.43202e+06

-6.38402e+06 -579599 0
-579599 276411 0
0    0    -1.83228e+06

-1.28108e+07 -279675 0
-279675 -334004 0
0    0    -3.94346e+06

-858730 -280764 0
-280764 647415 0
0    0    -63394.6

-9.31191e+06 505161 0
505161 406979 0
0    0    -2.67148e+06

-9.32298e+06 144581 0
144581 -431560 0
0    0    -2.92636e+06

-9.29296e+06 61564.9 0
61564.9 -361896 0
0    0    -2.89646e+06

-8.09563e+06 1.23972e+06 0
1.23972e+06 -262092 0
0    0    -2.50732e+06

-309944 -12223.5 0
-12223.5 653483 0
0    0    103062

-7.77739e+06 -894109 0
-894109 969205 0
0    0    -2.04246e+06

-4.8231e+06 527499 0
527499 -27086.6 0
0    0    -1.45505e+06

-9.28731e+06 -1.02692e+06 0
-1.02692e+06 -1.04984e+06 0
0    0    -3.10114e+06

-1.42084e+07 -283951 0
-283951 -224197 0
0    0    -4.32977e+06

-5.60074e+06 907347 0
907347 1.06208e+06 0
0    0    -1.3616e+06

-1.47254e+07 10410.2 0
10410.2 202053 0
0    0    -4.35701e+06

-6.2078e+06 -444116 0
-444116 -546095 0
0    0    -2.02617e+06

8.98045e+06 -111097 0
-111097 -707372 0
0    0    2.48192e+06

-1.35699e+07 426915 0
426915 517207 0
0    0    -3.91582e+06

-7.98588e+06 -637351 0
-637351 1.09259e+06 0
0    0    -2.06799e+06

2.51913e+06 -383796 0
-383796 191731 0
0    0    813260

-3.94124e+06 38589.5 0
38589.5 176711 0
0    0    -1.12936e+06

1.40923e+07 557328 0
557328 711279 0
0    0    4.44106e+06

4.1709e+06 252746 0
252746 -56169.1 0
0    0    1.23442e+06

4.12396e+06 -425655 0
-425655 -697300 0
0    0    1.028e+06

8.99129e+06 -608403 0
-608403 -256585 0
0    0    2.62041e+06

-1.51319e+07 -70875.4 0
-70875.4 46486.4 0
0    0    -4.52564e+06

1.01176e+07 658676 0
658676 226117 0
0    0    3.10311e+06

-1.31319e+07 610205 0
610205 -906622 0
0    0    -4.21155e+06

-2.93015e+06 846956 0
846956 493262 0
0    0    -731065

-1.13393e+06 -238003 0
-238003 -142331 0
0    0    -382877

-1.3371e+07 -654550 0
-654550 634859 0
0    0    -3.82084e+06

1.58039e+06 1.05333e+06 0
1.05333e+06 -570386 0
0    0    303000

-9.46044e+06 201968 0
201968 -271402 0
0    0    -2.91955e+06

-5.356e+06 735970 0
735970 249315 0
0    0    -1.53201e+06

-8.48491e+06 397196 0
397196 703096 0
0    0    -2.33455e+06

-5.739e+06 334223 0
334223 -406467 0
0    0    -1.84364e+06

3.69089e+06 -663265 0
-663265 -131329 0
0    0    1.06787e+06

-478408 -131708 0
-131708 -21320.7 0
0    0    -149919

-1.73139e+06 540079 0
540079 169744 0
0    0    -468493

9.51734e+06 -747009 0
-747009 -493117 0
0    0    2.70727e+06

-8.19355e+06 157585 0
157585 12464.3 0
0    0    -2.45433e+06

-2.55471e+06 -269214 0
-269214 -665144 0
0    0    -965957

7.85841e+06 -547914 0
-547914 -246028 0
0    0    2.28371e+06

4.736e+06 -197014 0
-197014 959924 0
0    0    1.70878e+06

-1.07144e+06 265325 0
265325 -331492 0
0    0    -420879

-5.44171e+06 187876 0
187876 -303408 0
0    0    -1.72353e+06

-5.33689e+06 -561548 0
-561548 -390876 0
0    0    -1.71833e+06

-5.01515e+06 931047 0
931047 -426479 0
0    0    -1.63249e+06

8.17941e+06 453504 0
453504 -68062.7 0
0    0    2.43341e+06

9.50528e+06 163305 0
163305 -371797 0
0    0    2.74004e+06

830192 491643 0
491643 48927.5 0
0    0    263736

5.85638e+06 -727297 0
-727297 -147896 0
0    0    1.71254e+06

-2.30804e+06 1.06113e+06 0
1.06113e+06 546075 0
0    0    -528590

-3.08604e+06 383725 0
383725 235957 0
0    0    -855024

5.05026e+06 -316297 0
-316297 725389 0
0    0    1.73269e+06

3.58625e+06 634329 0
634329 -72733.1 0
0    0    1.05406e+06

467843 -920776 0
-920776 587536 0
0    0    316614

-1.47174e+07 148969 0
148969 -191281 0
0    0    -4.4726e+06

7.36828e+06 615871 0
615871 -44341.3 0
0    0    2.19718e+06

972713 670866 0
670866 -290996 0
0    0    204515

5.33787e+06 -191000 0
-191000 -316306 0
0    0    1.50647e+06

-8.46105e+06 -1.07351e+06 0
-1.07351e+06 -953109 0
0    0    -2.82425e+06

3.82167e+06 794240 0
794240 1.58545e+06 0
0    0    1.62214e+06

3.17626e+06 -799286 0
-799286 -32667.1 0
0    0    943078

7.40996e+06 -614463 0
-614463 41581.1 0
0    0    2.23546e+06

-7.22646e+06 -152732 0
-152732 35195 0
0    0    -2.15738e+06

-1.66191e+06 -20431.4 0
-20431.4 108869 0
0    0    -465912

-1.46151e+07 109626 0
109626 -57101.3 0
0    0    -4.40167e+06

5.88799e+06 665982 0
665982 -80809.5 0
0    0    1.74215e+06

1.47721e+07 141811 0
141811 242665 0
0    0    4.50443e+06

-1.4302e+07 -66378.9 0
-66378.9 -97775 0
0    0    -4.31993e+06

5.27862e+06 788364 0
788364 -165437 0
0    0    1.53395e+06

9.53429e+06 -299133 0
-299133 91452.8 0
0    0    2.88772e+06

4.20802e+06 584878 0
584878 334633 0
0    0    1.3628e+06

1.94527e+06 -602179 0
-602179 468401 0
0    0    724102

-1.18524e+06 637403 0
637403 -1.10275e+06 0
0    0    -686396

911771 -383130 0
-383130 -384513 0
0    0    158177

8.58307e+06 -257335 0
-257335 258372 0
0    0    2.65243e+06

1.00758e+07 -519423 0
-519423 -408270 0
0    0    2.90026e+06

2.22577e+06 -29211.6 0
-29211.6 -168573 0
0    0    617159

1.0116e+07 463705 0
463705 18549.1 0
0    0    3.04038e+06

2.68543e+06 -43536.4 0
-43536.4 -668447 0
0    0    605096

8.9347e+06 104054 0
104054 -1.20347e+06 0
0    0    2.31937e+06

2.59487e+06 1.04757e+06 0
1.04757e+06 856700 0
0    0    1.03547e+06

3.22008e+06 -404597 0
-404597 -353937 0
0    0    859843

9.90321e+06 -225294 0
-225294 -74526 0
0    0    2.9486e+06

6.85571e+06 -617454 0
-617454 635197 0
0    0    2.24727e+06

9.96591e+06 -110431 0
-110431 157240 0
0    0    3.03694e+06

1.44102e+07 -107351 0
-107351 197126 0
0    0    4.38221e+06

1.46038e+07 703184 0
703184 488122 0
0    0    4.52758e+06

7.62598e+06 452719 0
452719 -21460.7 0
0    0    2.28136e+06

1.29999e+06 962863 0
962863 263505 0
0    0    469048

2.82127e+06 203129 0
203129 -105949 0
0    0    814598

-1.71145e+06 -661864 0
-661864 687214 0
0    0    -307272

2.79672e+06 83896.9 0
83896.9 -8538.25 0
0    0    836455

1.15933e+06 -427149 0
-427149 253006 0
0    0    423701

-966954 -31684.8 0
-31684.8 130294 0
0    0    -250998

-4.24278e+06 -116686 0
-116686 918169 0
0    0    -997384

-5.37237e+06 628843 0
628843 137883 0
0    0    -1.57034e+06

-7.48619e+06 -847068 0
-847068 -566496 0
0    0    -2.41581e+06

-6.59831e+06 35929.5 0
35929.5 177814 0
0    0    -1.92615e+06

-1.32256e+07 38868.3 0
38868.3 206890 0
0    0    -3.90562e+06

-3.56267e+06 204856 0
204856 1.87129e+06 0
0    0    -507412

-2.49104e+06 33564.9 0
33564.9 -134285 0
0    0    -787598

-1.71235e+06 413321 0
413321 -1.55413e+06 0
0    0    -979945

-9.70509e+06 -398354 0
-398354 -643440 0
0    0    -3.10456e+06

-4.23391e+06 707213 0
707213 -827781 0
0    0    -1.51851e+06

-9.85177e+06 358902 0
358902 -134790 0
0    0    -2.99597e+06

-1.32234e+07 353372 0
353372 -172438 0
0    0    -4.01876e+06

-1.02982e+07 -85915 0
-85915 -25008.1 0
0    0    -3.09695e+06

-1e+07 206015 0
206015 513927 0
0    0    -2.84583e+06

-5.87098e+06 -127838 0
-127838 -610323 0
0    0    -1.94439e+06

-1.00632e+07 -667321 0
-667321 -729287 0
0    0    -3.23774e+06

-9.49175e+06 -562210 0
-562210 764301 0
0    0    -2.61823e+06

-1.45865e+07 731920 0
731920 -592943 0
0    0    -4.55384e+06

-9.70833e+06 -146595 0
-146595 211388 0
0    0    -2.84908e+06

9.71256e+06 478216 0
478216 -190107 0
0    0    2.85674e+06

1.36694e+07 640621 0
640621 -391355 0
0    0    3.98342e+06

-4.17527e+06 621757 0
621757 566410 0
0    0    -1.08266e+06

-2.38767e+06 -160355 0
-160355 647388 0
0    0    -522085

8.1701e+06 142347 0
142347 -1.67859e+06 0
0    0    1.94745e+06

-7.57821e+06 228610 0
228610 -284556 0
0    0    -2.35883e+06

2.7333e+06 -863398 0
-863398 189280 0
0    0    876773

-2.33972e+06 -402789 0
-402789 6539.16 0
0    0    -699953

-2.00802e+06 -646745 0
-646745 388538 0
0    0    -485843

-8.06716e+06 -550756 0
-550756 -865548 0
0    0    -2.67981e+06

-9.03446e+06 10104.3 0
10104.3 1.14198e+06 0
0    0    -2.36774e+06

-1.00047e+07 -808081 0
-808081 768971 0
0    0    -2.77073e+06

-8.71719e+06 -44399.2 0
-44399.2 1.35994e+06 0
0    0    -2.20717e+06

-1.34291e+07 267594 0
267594 -122262 0
0    0    -4.06541e+06

-3.8257e+06 811535 0
811535 285403 0
0    0    -1.06209e+06

-2.50994e+06 -177702 0
-177702 1.06638e+06 0
0    0    -433068

-9.70338e+06 -184805 0
-184805 -580420 0
0    0    -3.08514e+06

-1.47527e+07 -361038 0
-361038 -734015 0
0    0    -4.64601e+06

-7.69593e+06 -760764 0
-760764 -454550 0
0    0    -2.44514e+06

-5.11254e+06 20348.3 0
20348.3 -1.72489e+06 0
0    0    -2.05123e+06

-1.00765e+07 907232 0
907232 -164588 0
0    0    -3.07234e+06

9.32721e+06 -433680 0
-433680 -760864 0
0    0    2.5699e+06

-8.61856e+06 -422158 0
-422158 -23232.7 0
0    0    -2.59254e+06

-3.17967e+06 457583 0
457583 -69432.4 0
0    0    -974731

-8.74557e+06 -486716 0
-486716 -321767 0
0    0    -2.7202e+06

-2.92348e+06 -253914 0
-253914 -382821 0
0    0    -991891

-4.56461e+06 251109 0
251109 167732 0
0    0    -1.31906e+06

-4.91568e+06 -584876 0
-584876 -505441 0
0    0    -1.62634e+06

-1.52228e+07 55695.5 0
55695.5 511285 0
0    0    -4.41346e+06

1.23002e+06 -444620 0
-444620 412190 0
0    0    492663

-5.76001e+06 -1.07196e+06 0
-1.07196e+06 430997 0
0    0    -1.5987e+06

-1.41263e+07 -174767 0
-174767 -63428.1 0
0    0    -4.25693e+06

-3.38492e+06 449811 0
449811 802439 0
0    0    -774743

-7.5978e+06 406246 0
406246 29390.1 0
0    0    -2.27052e+06

-3.49725e+06 738025 0
738025 -1.47674e+06 0
0    0    -1.4922e+06

-1.38821e+07 -252289 0
-252289 238206 0
0    0    -4.09317e+06

-1.13667e+07 -517471 0
-517471 615699 0
0    0    -3.22531e+06

-9.97819e+06 -291583 0
-291583 -90760.4 0
0    0    -3.02069e+06

-1.04042e+07 616790 0
616790 48007.8 0
0    0    -3.10686e+06

-9.40563e+06 -291492 0
-291492 -149824 0
0    0    -2.86664e+06

8.33097e+06 302601 0
302601 -1.10341e+06 0
0    0    2.16827e+06

9.58101e+06 167555 0
167555 411675 0
0    0    2.9978e+06

1.60944e+06 806332 0
806332 -952438 0
0    0    197102

1.82592e+06 901103 0
901103 -112884 0
0    0    513912

8.31138e+06 614460 0
614460 365887 0
0    0    2.60318e+06

8.76837e+06 -311372 0
-311372 1.04535e+06 0
0    0    2.94412e+06

-1.6867e+06 694144 0
694144 -316734 0
0    0    -601031

6.37189e+06 -719038 0
-719038 33671.6 0
0    0    1.92167e+06

1.51441e+07 -932960 0
-932960 591293 0
0    0    4.72061e+06

9.89216e+06 -772708 0
-772708 -415938 0
0    0    2.84287e+06

2.56469e+06 813803 0
813803 -403456 0
0    0    648370

1.52304e+07 -129953 0
-129953 471515 0
0    0    4.71057e+06

6.53844e+06 540286 0
540286 -236310 0
0    0    1.89064e+06

3.09396e+06 737820 0
737820 -751026 0
0    0    702879

3.15465e+06 727177 0
727177 998408 0
0    0    1.24592e+06

6.67763e+06 -465833 0
-465833 23987.4 0
0    0    2.01048e+06

1.47359e+07 577333 0
577333 702599 0
0    0    4.63155e+06

2.15427e+06 -913058 0
-913058 1.12654e+06 0
0    0    984242

7.11464e+06 -685579 0
-685579 808104 0
0    0    2.37682e+06

1.32694e+07 280561 0
280561 268114 0
0    0    4.06127e+06

7.96341e+06 -333627 0
-333627 342497 0
0    0    2.49177e+06

8.67361e+06 952645 0
952645 -689676 0
0    0    2.39518e+06

8.2537e+06 -573925 0
-573925 1.67067e+06 0
0    0    2.97731e+06

1.0081e+07 639504 0
639504 75502.9 0
0    0    3.04695e+06

8.19238e+06 187628 0
187628 427336 0
0    0    2.58591e+06

9.35884e+06 1.06184e+06 0
1.06184e+06 -1.93684e+06 0
0    0    2.2266e+06

1.46379e+07 614003 0
614003 629541 0
0    0    4.58023e+06

9.31498e+06 -676051 0
-676051 -666439 0
0    0    2.59456e+06

-1.38488e+07 192517 0
192517 31202.4 0
0    0    -4.14529e+06

8.15951e+06 -285838 0
-285838 -471325 0
0    0    2.30645e+06

-1.06609e+06 -958395 0
-958395 -1.1813e+06 0
0    0    -674217

6.75786e+06 -1.29427e+06 0
-1.29427e+06 -250779 0
0    0    1.95212e+06

1.16171e+06 249175 0
249175 3137.21 0
0    0    349454

1.30514e+07 -831594 0
-831594 606284 0
0    0    4.09729e+06

2.54098e+06 952350 0
952350 -1.02142e+06 0
0    0    455870

-7.65606e+06 710381 0
710381 45304.2 0
0    0    -2.28323e+06

9.22494e+06 306631 0
306631 104483 0
0    0    2.79883e+06

5.71622e+06 -407524 0
-407524 360050 0
0    0    1.82288e+06

1.44038e+07 147349 0
147349 412261 0
0    0    4.44481e+06

8.97805e+06 -42125.6 0
-42125.6 -211539 0
0    0    2.62995e+06

9.55871e+06 -432079 0
-432079 -524987 0
0    0    2.71012e+06

1.97153e+06 515205 0
515205 -43824.4 0
0    0    578312

9.43977e+06 -621540 0
-621540 -390347 0
0    0    2.71483e+06

5.12939e+06 189890 0
189890 -168172 0
0    0    1.48836e+06

300558 -982408 0
-982408 -47429.8 0
0    0    75938.6

187216 -34197.4 0
-34197.4 -813859 0
0    0    -187993

9.90315e+06 83261.1 0
83261.1 294392 0
0    0    3.05926e+06

1.48107e+07 267767 0
267767 376765 0
0    0    4.55624e+06

-2.72049e+06 309918 0
309918 -172920 0
0    0    -868022

-6.41237e+06 665825 0
665825 449895 0
0    0    -1.78874e+06

-3.95444e+06 127094 0
127094 -96077.9 0
0    0    -1.21515e+06

-9.42067e+06 505051 0
505051 197030 0
0    0    -2.76709e+06

-8.80231e+06 -814469 0
-814469 -491527 0
0    0    -2.78815e+06

-1.45341e+07 62245.8 0
62245.8 -431400 0
0    0    -4.48965e+06

-9.61853e+06 535179 0
535179 182556 0
0    0    -2.83079e+06

1.43992e+07 304540 0
304540 531245 0
0    0    4.47914e+06

-1.0036e+07 -393976 0
-393976 -62151.9 0
0    0    -3.02944e+06

-26491.2 1.09499e+06 0
1.09499e+06 -1.06994e+06 0
0    0    -328931

5.10754e+06 -13503.4 0
-13503.4 304625 0
0    0    1.62365e+06

1.46924e+07 215643 0
215643 420905 0
0    0    4.534e+06

8.81954e+06 -113907 0
-113907 -384696 0
0    0    2.53045e+06

-1.45351e+07 -11307 0
-11307 -368687 0
0    0    -4.47113e+06

-32256 755191 0
755191 -197821 0
0    0    -69023.2

4.5914e+06 -584635 0
-584635 -133840 0
0    0    1.33727e+06

4.40695e+06 -505820 0
-505820 648837 0
0    0    1.51673e+06

609549 -190088 0
-190088 117154 0
0    0    218011

-3.95166e+06 1.05801e+06 0
1.05801e+06 506932 0
0    0    -1.03342e+06

-9.88777e+06 -379713 0
-379713 119253 0
0    0    -2.93055e+06

-145835 108505 0
108505 240831 0
0    0    28498.8

-1.02006e+07 415815 0
415815 -38012.5 0
0    0    -3.07157e+06

-1.33936e+06 -829754 0
-829754 626027 0
0    0    -213998

-4.63957e+06 -1.05199e+06 0
-1.05199e+06 -569961 0
0    0    -1.56286e+06

4.06532e+06 -526757 0
-526757 5727.42 0
0    0    1.22131e+06

1.11253e+07 -529596 0
-529596 -306450 0
0    0    3.24567e+06

9.37566e+06 419528 0
419528 670307 0
0    0    3.01379e+06

3.67247e+06 -510555 0
-510555 -1.06537e+06 0
0    0    782131

-1.00172e+07 452247 0
452247 379993 0
0    0    -2.89117e+06

-9.25896e+06 -95676.3 0
-95676.3 337579 0
0    0    -2.67642e+06

-5.23766e+06 -844037 0
-844037 -62077 0
0    0    -1.58992e+06

-9.23495e+06 885900 0
885900 100466 0
0    0    -2.74034e+06

-9.29717e+06 187534 0
187534 110819 0
0    0    -2.75591e+06

-7.1039e+06 -65070.4 0
-65070.4 38860 0
0    0    -2.11951e+06

-603890 655926 0
655926 -110365 0
0    0    -214277

-1.5224e+07 392352 0
392352 -134935 0
0    0    -4.60767e+06

-8.04792e+06 -645521 0
-645521 -369170 0
0    0    -2.52513e+06

3.99268e+06 -297671 0
-297671 -152419 0
0    0    1.15208e+06

-1.4507e+07 -189767 0
-189767 20284.7 0
0    0    -4.34601e+06

8.88484e+06 -217840 0
-217840 20609.2 0
0    0    2.67163e+06

-1.8745e+06 -171883 0
-171883 -109186 0
0    0    -595107

8.89034e+06 -79105.3 0
-79105.3 296259 0
0    0    2.75598e+06

-5.44045e+06 584894 0
584894 518709 0
0    0    -1.47652e+06

8.94092e+06 -381637 0
-381637 666320 0
0    0    2.88217e+06

-3.67855e+06 424923 0
424923 -346000 0
0    0    -1.20737e+06

-2.16658e+06 -916385 0
-916385 -13763.2 0
0    0    -654103

3.46693e+06 -90272.6 0
-90272.6 -609488 0
0    0    857232

-7.53361e+06 147045 0
147045 -972182 0
0    0    -2.55174e+06

3.88312e+06 -224825 0
-224825 355069 0
0    0    1.27146e+06

1.43754e+07 473146 0
473146 710522 0
0    0    4.52579e+06

1.46008e+07 -272575 0
-272575 -323659 0
0    0    4.28314e+06

-7.17374e+06 -245228 0
-245228 -1.04287e+06 0
0    0    -2.46498e+06

-2.04393e+06 -51949.4 0
-51949.4 -475202 0
0    0    -755740

1.39803e+07 658800 0
658800 -345212 0
0    0    4.09053e+06

7.3541e+06 436705 0
436705 442657 0
0    0    2.33903e+06

-1.34797e+07 37818.3 0
37818.3 -75564 0
0    0    -4.06657e+06

-5.02766e+06 -411020 0
-411020 133379 0
0    0    -1.46829e+06

-1.00582e+07 -467318 0
-467318 83541.8 0
0    0    -2.99239e+06

-9.75969e+06 612648 0
612648 1.07637e+06 0
0    0    -2.605e+06

-1.84897e+06 192327 0
192327 -313916 0
0    0    -648866

-1.3566e+07 -258400 0
-258400 -673244 0
0    0    -4.27176e+06

3.60033e+06 -97137.6 0
-97137.6 -95831 0
0    0    1.05135e+06

8.86251e+06 36746.8 0
36746.8 231778 0
0    0    2.72829e+06

8.15825e+06 -264679 0
-264679 -990597 0
0    0    2.1503e+06

-1.36401e+07 -441219 0
-441219 -666060 0
0    0    -4.29186e+06

-8.60067e+06 118689 0
118689 1.20974e+06 0
0    0    -2.21728e+06

-7.8757e+06 321721 0
321721 584792 0
0    0    -2.18727e+06

-6.65182e+06 617991 0
617991 -800245 0
0    0    -2.23562e+06

-1.00364e+07 -222953 0
-222953 -576173 0
0    0    -3.18378e+06

-7.45757e+06 -64873.1 0
-64873.1 666324 0
0    0    -2.03737e+06

8.85098e+06 178453 0
178453 352160 0
0    0    2.76094e+06

-1.5366e+07 -698255 0
-698255 -453090 0
0    0    -4.74574e+06

-4.47527e+06 505737 0
505737 -157277 0
0    0    -1.38976e+06

1.44939e+07 -111527 0
-111527 471557 0
0    0    4.48963e+06

-9.24761e+06 786486 0
786486 1.21645e+06 0
0    0    -2.40935e+06

9.75001e+06 113269 0
113269 111610 0
0    0    2.95849e+06

-1.44318e+06 -134833 0
-134833 592310 0
0    0    -255261

3.7176e+06 -620807 0
-620807 -829704 0
0    0    866368

-7.9407e+06 -528686 0
-528686 62887 0
0    0    -2.36334e+06

-2.07886e+06 586004 0
586004 16476.1 0
0    0    -618715

3.8875e+06 -169120 0
-169120 616903 0
0    0    1.35132e+06

3.9771e+06 696344 0
696344 736338 0
0    0    1.41403e+06

413547 -915317 0
-915317 -132585 0
0    0    84288.5

-1.36545e+06 -909622 0
-909622 1.03379e+06 0
0    0    -99498.1

3.79302e+06 55529.6 0
55529.6 11106.3 0
0    0    1.14124e+06

1.11814e+07 -514913 0
-514913 -53139.1 0
0    0    3.33847e+06

8.25559e+06 -258964 0
-258964 -539102 0
0    0    2.31495e+06

1.40714e+07 324390 0
324390 700017 0
0    0    4.43142e+06

3.17336e+06 -636437 0
-636437 -918541 0
0    0    676447

8.76116e+06 -109430 0
-109430 523053 0
0    0    2.78527e+06

-3.80754e+06 285469 0
285469 -622041 0
0    0    -1.32887e+06

1.31958e+07 108338 0
108338 953845 0
0    0    4.2449e+06

-368656 527618 0
527618 -386764 0
0    0    -226626

1.0552e+07 1.18337e+06 0
1.18337e+06 -331747 0
0    0    3.06608e+06

7.90211e+06 -371149 0
-371149 177223 0
0    0    2.4238e+06

4.54097e+06 420278 0
420278 -629353 0
0    0    1.17349e+06

-3.68616e+06 -762071 0
-762071 -890565 0
0    0    -1.37302e+06

-2.54904e+06 -932010 0
-932010 200734 0
0    0    -704493

2.50846e+06 161899 0
161899 -1.01244e+06 0
0    0    448806

-7.00186e+06 -373191 0
-373191 -250328 0
0    0    -2.17566e+06

2.79193e+06 -543129 0
-543129 231913 0
0    0    907151

7.65724e+06 -238415 0
-238415 964360 0
0    0    2.58648e+06

1.48191e+07 -351385 0
-351385 -326228 0
0    0    4.34786e+06

-8.33502e+06 686689 0
686689 595769 0
0    0    -2.32178e+06

-5.591e+06 -152663 0
-152663 -143972 0
0    0    -1.72049e+06

-2.12928e+06 304418 0
304418 710284 0
0    0    -425700

-2.12147e+06 166633 0
166633 -770482 0
0    0    -867584

1.15478e+06 350376 0
350376 -671112 0
0    0    145100

1.1325e+06 -900250 0
-900250 188957 0
0    0    396437

7.62896e+06 748042 0
748042 130526 0
0    0    2.32784e+06

8.57166e+06 -480715 0
-480715 -592584 0
0    0    2.39372e+06

8.1861e+06 137070 0
137070 -187545 0
0    0    2.39957e+06

1.4293e+07 700144 0
700144 -429248 0
0    0    4.15913e+06

6.92549e+06 428890 0
428890 198777 0
0    0    2.13728e+06

2.23086e+06 259008 0
259008 -763685 0
0    0    440152

1.33984e+07 -105955 0
-105955 505208 0
0    0    4.1711e+06

6.73889e+06 -45519.8 0
-45519.8 -1.12815e+06 0
0    0    1.68322e+06

-3.45718e+06 -17158.9 0
-17158.9 49673.7 0
0    0    -1.02225e+06

-8.96203e+06 -395892 0
-395892 901827 0
0    0    -2.41806e+06

4.12357e+06 -446408 0
-446408 277439 0
0    0    1.3203e+06

9.05038e+06 -342191 0
-342191 -435592 0
0    0    2.58444e+06

65572 221877 0
221877 -814695 0
0    0    -224737

5.10202e+06 -251274 0
-251274 140597 0
0    0    1.57279e+06

1.47241e+07 -466930 0
-466930 114006 0
0    0    4.45144e+06

9.03859e+06 500493 0
500493 369213 0
0    0    2.82234e+06

1.48448e+07 -118551 0
-118551 199747 0
0    0    4.51337e+06

-7.37311e+06 -1.05808e+06 0
-1.05808e+06 -705541 0
0    0    -2.42359e+06

-1.31992e+07 541937 0
541937 -552455 0
0    0    -4.1255e+06

-1.42382e+07 -396112 0
-396112 -146282 0
0    0    -4.31535e+06

1.25016e+06 -293712 0
-293712 616751 0
0    0    560073

-5.61323e+06 571292 0
571292 1.64659e+06 0
0    0    -1.18999e+06

-5.80256e+06 674023 0
674023 -252974 0
0    0    -1.81666e+06

-9.44225e+06 427360 0
427360 -176767 0
0    0    -2.8857e+06

-1.56549e+07 12785.9 0
12785.9 -206522 0
0    0    -4.75843e+06

-8.05689e+06 -432633 0
-432633 1.13985e+06 0
0    0    -2.07511e+06

-1.34566e+07 77230.3 0
77230.3 -447613 0
0    0    -4.17127e+06

-8.54986e+06 436276 0
436276 -63154.3 0
0    0    -2.5839e+06

955161 -302410 0
-302410 698905 0
0    0    496220

-3.60535e+06 481278 0
481278 411285 0
0    0    -958219

8.32941e+06 385181 0
385181 -969633 0
0    0    2.20793e+06

-7.9256e+06 383986 0
383986 -425043 0
0    0    -2.50519e+06

-2.90584e+06 478166 0
478166 547256 0
0    0    -707575

-9.76581e+06 386041 0
386041 -326692 0
0    0    -3.02775e+06

-7.45912e+06 -429918 0
-429918 1.37461e+06 0
0    0    -1.82535e+06

-4.35248e+06 159037 0
159037 299046 0
0    0    -1.21603e+06

-3.80562e+06 86216.7 0
86216.7 174857 0
0    0    -1.08923e+06

-3.45771e+06 -233079 0
-233079 -371007 0
0    0    -1.14862e+06

4.62569e+06 364030 0
364030 -318189 0
0    0    1.29225e+06

2.27977e+06 823670 0
823670 488989 0
0    0    830629

5.19825e+06 -529599 0
-529599 -537189 0
0    0    1.39832e+06

1.275e+07 -524676 0
-524676 146314 0
0    0    3.8689e+06

-1.42481e+07 188139 0
188139 534561 0
0    0    -4.11406e+06

1.00659e+07 531906 0
531906 -1.00401e+06 0
0    0    2.71858e+06

-7.8854e+06 -753904 0
-753904 -73683.2 0
0    0    -2.38773e+06

-2.71017e+06 686802 0
686802 1.57182e+06 0
0    0    -341506

-1.46705e+07 -560376 0
-560376 -719352 0
0    0    -4.61697e+06

779334 -594677 0
-594677 557853 0
0    0    401156

-5.41101e+06 -374978 0
-374978 -1.11254e+06 0
0    0    -1.95706e+06

-8.16803e+06 -102054 0
-102054 207334 0
0    0    -2.38821e+06

-8.86069e+06 -490486 0
-490486 -1.10021e+06 0
0    0    -2.98827e+06

337354 -622526 0
-622526 40899.2 0
0    0    113476

-8.18109e+06 174374 0
174374 -501439 0
0    0    -2.60476e+06

-3.30078e+06 360246 0
360246 -444810 0
0    0    -1.12368e+06

7.10852e+06 -814097 0
-814097 -62145.7 0
0    0    2.11391e+06

872773 232015 0
232015 -76765.8 0
0    0    238802

1.13344e+06 329969 0
329969 473132 0
0    0    481973

1.36378e+06 -113019 0
-113019 -277740 0
0    0    325813

-1.38665e+07 -458212 0
-458212 -447884 0
0    0    -4.29433e+06

4.71893e+06 513277 0
513277 620961 0
0    0    1.60197e+06

-4.85952e+06 -960115 0
-960115 -873449 0
0    0    -1.71989e+06

9.81854e+06 332080 0
332080 153911 0
0    0    2.99173e+06

5.15019e+06 181313 0
181313 515150 0
0    0    1.6996e+06

6.14273e+06 50965.4 0
50965.4 -90702.2 0
0    0    1.81561e+06

-8.7707e+06 -706830 0
-706830 99786 0
0    0    -2.60127e+06

-1.35039e+07 -621212 0
-621212 181658 0
0    0    -3.99667e+06

8.82391e+06 9763.72 0
9763.72 -596448 0
0    0    2.46824e+06

-1.04182e+07 681680 0
681680 632243 0
0    0    -2.9358e+06

-7.43751e+06 701831 0
701831 60259 0
0    0    -2.21317e+06

-8.30519e+06 552220 0
552220 -119388 0
0    0    -2.52737e+06

-1.44627e+07 30710.6 0
30710.6 -561682 0
0    0    -4.50731e+06

-8.80657e+06 -281153 0
-281153 899973 0
0    0    -2.37198e+06

3.58362e+06 689315 0
689315 811943 0
0    0    1.31867e+06

-4.34993e+06 86917.9 0
86917.9 -342026 0
0    0    -1.40759e+06

-9.52954e+06 500513 0
500513 119337 0
0    0    -2.82306e+06

-108889 245017 0
245017 27087.2 0
0    0    -24540.7

-221644 284331 0
284331 -207898 0
0    0    -128863

-369298 584640 0
584640 809910 0
0    0    132184

-4.36076e+06 631125 0
631125 1.06288e+06 0
0    0    -989364

5.99912e+06 -293371 0
-293371 -406784 0
0    0    1.6777e+06

-1.44207e+07 224768 0
224768 -402846 0
0    0    -4.44707e+06

-8.02866e+06 -508860 0
-508860 -194644 0
0    0    -2.46699e+06

1.39356e+07 -117374 0
-117374 23091.7 0
0    0    4.18759e+06

-1.44757e+07 -541928 0
-541928 -644829 0
0    0    -4.53615e+06

-32248.4 938201 0
938201 473335 0
0    0    132326

-3.75265e+06 -759896 0
-759896 -548594 0
0    0    -1.29037e+06

624175 138342 0
138342 199890 0
0    0    247219

9.27867e+06 -629108 0
-629108 -860109 0
0    0    2.52557e+06

-3.41899e+06 877345 0
877345 1.09783e+06 0
0    0    -696348

7.12835e+06 620588 0
620588 406008 0
0    0    2.26031e+06

-7.85115e+06 280126 0
280126 -1.72237e+06 0
0    0    -2.87206e+06

1.40922e+07 -289509 0
-289509 505461 0
0    0    4.37931e+06

1.51547e+07 8545.63 0
8545.63 -450350 0
0    0    4.41129e+06

5.79488e+06 894335 0
894335 -1.46409e+06 0
0    0    1.29924e+06

-7.05413e+06 -884356 0
-884356 -662033 0
0    0    -2.31485e+06

-552509 -678046 0
-678046 -798073 0
0    0    -405175

4.86929e+06 102680 0
102680 692190 0
0    0    1.66844e+06

9.40968e+06 -54002.2 0
-54002.2 -162196 0
0    0    2.77425e+06

9.25967e+06 39612.5 0
39612.5 454209 0
0    0    2.91416e+06

-1.70275e+06 -99607.2 0
-99607.2 -926546 0
0    0    -788788

4.34727e+06 -290641 0
-290641 687135 0
0    0    1.51032e+06

4.56682e+06 189060 0
189060 -164344 0
0    0    1.32074e+06

1.06504e+07 -452510 0
-452510 -132666 0
0    0    3.15532e+06

-4.29023e+06 -414792 0
-414792 -639931 0
0    0    -1.47905e+06

7.20404e+06 -610572 0
-610572 329489 0
0    0    2.26006e+06

9.49659e+06 -244746 0
-244746 476949 0
0    0    2.99206e+06

9.75483e+06 653505 0
653505 -516487 0
0    0    2.7715e+06

1.28971e+07 148063 0
148063 43015 0
0    0    3.88203e+06

7.76395e+06 -1.12096e+06 0
-1.12096e+06 1.14374e+06 0
0    0    2.67231e+06

3.89367e+06 -211894 0
-211894 281826 0
0    0    1.25265e+06

1.13579e+06 -797605 0
-797605 -522843 0
0    0    183883

9.38451e+06 -78895.9 0
-78895.9 -213356 0
0    0    2.75135e+06

1.44109e+07 -96207.1 0
-96207.1 242940 0
0    0    4.39614e+06

4.20635e+06 -743040 0
-743040 589139 0
0    0    1.43865e+06

-1.35424e+06 -404389 0
-404389 -524086 0
0    0    -563497

-1.02237e+07 481631 0
481631 -183518 0
0    0    -3.12217e+06

5.71025e+06 134033 0
134033 674945 0
0    0    1.91556e+06

-4.48948e+06 540547 0
540547 207981 0
0    0    -1.28445e+06

638012 232206 0
232206 -605866 0
0    0    9643.99

-1.62275e+06 266512 0
266512 331024 0
0    0    -387518

681175 179079 0
179079 -624047 0
0    0    17138.3

-9.54201e+06 -731372 0
-731372 113993 0
0    0    -2.8284e+06

-1.01169e+07 -391832 0
-391832 -63670.8 0
0    0    -3.05416e+06

-7.79689e+06 -583674 0
-583674 -275141 0
0    0    -2.42161e+06

-1.37871e+07 538940 0
538940 627326 0
0    0    -3.94794e+06

1.83852e+06 -511635 0
-511635 219792 0
0    0    617494

-3.64717e+06 -763076 0
-763076 -470687 0
0    0    -1.23536e+06

1.32844e+07 -335046 0
-335046 -78469.1 0
0    0    3.96179e+06

850377 -149410 0
-149410 229660 0
0    0    324011

-7.13504e+06 764103 0
764103 -130873 0
0    0    -2.17977e+06

-9.33498e+06 142155 0
142155 1.91845e+06 0
0    0    -2.22496e+06

-1.34136e+07 -715010 0
-715010 357314 0
0    0    -3.9169e+06

-664084 42354.1 0
42354.1 -42422.4 0
0    0    -211952

4.28353e+06 -501052 0
-501052 81996 0
0    0    1.30966e+06

9.18616e+06 198536 0
198536 94663 0
0    0    2.78425e+06

1.46656e+07 8870.31 0
8870.31 -99181.4 0
0    0    4.36992e+06

8.53513e+06 -483301 0
-483301 780901 0
0    0    2.79481e+06

1.0426e+07 738953 0
738953 -704494 0
0    0    2.91645e+06

-4.76211e+06 -391526 0
-391526 -279514 0
0    0    -1.51249e+06

-3.36682e+06 697278 0
697278 290098 0
0    0    -923017

-8.444e+06 152441 0
152441 -870709 0
0    0    -2.79441e+06

-2.41389e+06 -915285 0
-915285 -795685 0
0    0    -962872

-3.94411e+06 459725 0
459725 573368 0
0    0    -1.01122e+06

-1.35232e+07 662625 0
662625 346191 0
0    0    -3.9531e+06

4.47165e+06 212980 0
212980 1046.67 0
0    0    1.34181e+06

-8.53819e+06 -571008 0
-571008 -445222 0
0    0    -2.69502e+06

-8.25525e+06 80865.3 0
80865.3 8993.96 0
0    0    -2.47388e+06

-3.39555e+06 -85797.1 0
-85797.1 406738 0
0    0    -896643

-8.30739e+06 -6660.08 0
-6660.08 28143.7 0
0    0    -2.48377e+06

-8.25142e+06 -139428 0
-139428 -298439 0
0    0    -2.56496e+06

593996 -477617 0
-477617 392429 0
0    0    295927

8.6878e+06 187897 0
187897 -796097 0
0    0    2.36751e+06

-1.2654e+07 -481485 0
-481485 -576947 0
0    0    -3.96928e+06

-6.122e+06 156470 0
156470 810454 0
0    0    -1.59346e+06

3.84601e+06 811939 0
811939 353415 0
0    0    1.25983e+06

-3.65884e+06 287513 0
287513 -221227 0
0    0    -1.16402e+06

-4.00249e+06 -351353 0
-351353 34772.4 0
0    0    -1.19032e+06

-3.81556e+06 -887090 0
-887090 391931 0
0    0    -1.02709e+06

-7.07269e+06 315148 0
315148 -257160 0
0    0    -2.19895e+06

-1.29198e+06 -699662 0
-699662 -972504 0
0    0    -679345

4.82995e+06 871533 0
871533 -746580 0
0    0    1.22501e+06

1.36134e+07 -35740.8 0
-35740.8 350369 0
0    0    4.18912e+06

9.09136e+06 -2273.63 0
-2273.63 -153209 0
0    0    2.68145e+06

1.4656e+07 -219688 0
-219688 499341 0
0    0    4.54661e+06

4.66815e+06 -439438 0
-439438 -472453 0
0    0    1.25871e+06

-115282 395471 0
395471 317880 0
0    0    60779.1

7.34148e+06 -527637 0
-527637 712535 0
0    0    2.4162e+06

-1.00261e+06 -233300 0
-233300 99876.1 0
0    0    -270821

9.58814e+06 -256666 0
-256666 811728 0
0    0    3.11996e+06

8.28375e+06 -471272 0
-471272 -107643 0
0    0    2.45283e+06

-1.04127e+07 -554121 0
-554121 99912.2 0
0    0    -3.09384e+06

9.46443e+06 677558 0
677558 402628 0
0    0    2.96012e+06

-1.38121e+07 -528768 0
-528768 541362 0
0    0    -3.98122e+06

6.53688e+06 763161 0
763161 222791 0
0    0    2.0279e+06

-9.73591e+06 830752 0
830752 1.41024e+06 0
0    0    -2.4977e+06

2.17383e+06 -341996 0
-341996 212813 0
0    0    715994

3.54351e+06 -990612 0
-990612 16126.8 0
0    0    1.06789e+06

-1.27226e+06 74496.7 0
74496.7 -370441 0
0    0    -492811

-2.24187e+06 206321 0
206321 474771 0
0    0    -530131

2.66658e+06 -130477 0
-130477 -73055.3 0
0    0    778056

1.34207e+07 -254434 0
-254434 -373782 0
0    0    3.91407e+06

-9.35023e+06 601063 0
601063 451818 0
0    0    -2.66952e+06

-6.62147e+06 495948 0
495948 -899592 0
0    0    -2.25632e+06

8.1733e+06 226978 0
226978 45870.8 0
0    0    2.46575e+06

-2.49587e+06 9920.3 0
9920.3 -552407 0
0    0    -914484

2.02917e+06 -401732 0
-401732 -891758 0
0    0    341224

2.64412e+06 -402617 0
-402617 137322 0
0    0    834431

7.54704e+06 806031 0
806031 -1.08817e+06 0
0    0    1.93766e+06

8.09372e+06 -260602 0
-260602 321801 0
0    0    2.52466e+06

1.36671e+07 -545131 0
-545131 989279 0
0    0    4.39693e+06

-5.13929e+06 -528294 0
-528294 -406116 0
0    0    -1.66362e+06

7.36919e+06 68027.1 0
68027.1 493837 0
0    0    2.35891e+06

-1.71238e+06 19806.6 0
19806.6 -18091.9 0
0    0    -519142

2.67978e+06 -472053 0
-472053 622166 0
0    0    990583

-2.03694e+06 -594854 0
-594854 303070 0
0    0    -520162

3.43063e+06 -65844.1 0
-65844.1 -101314 0
0    0    998793

-1.33034e+07 229698 0
229698 -174010 0
0    0    -4.04323e+06

-2.6635e+06 573438 0
573438 -897379 0
0    0    -1.06826e+06

3.10588e+06 -343249 0
-343249 -216001 0
0    0    866962

3.46479e+06 -422598 0
-422598 241937 0
0    0    1.11202e+06

-7.85828e+06 -187882 0
-187882 212466 0
0    0    -2.29375e+06

-8.1361e+06 -347933 0
-347933 -434869 0
0    0    -2.57129e+06

-1.228e+07 -674159 0
-674159 243870 0
0    0    -3.61083e+06

-2.25294e+06 -105205 0
-105205 305197 0
0    0    -584321

-6.12592e+06 130184 0
130184 541755 0
0    0    -1.67525e+06

-5.65476e+06 759115 0
759115 280309 0
0    0    -1.61233e+06

-1.01746e+07 -565277 0
-565277 -674662 0
0    0    -3.25478e+06

-2.11262e+06 78635.1 0
78635.1 425141 0
0    0    -506243

-1.31702e+07 -71427.7 0
-71427.7 395258 0
0    0    -3.83247e+06

-2.48557e+06 1.01084e+06 0
1.01084e+06 328224 0
0    0    -647205

-1.46314e+07 -225875 0
-225875 -871320 0
0    0    -4.65083e+06

-7.91553e+06 -1.22049e+06 0
-1.22049e+06 -1.09761e+06 0
0    0    -2.70394e+06

-9.37149e+06 512082 0
512082 306421 0
0    0    -2.71952e+06

-9.01759e+06 338276 0
338276 64970.1 0
0    0    -2.68579e+06

-6.0946e+06 1.33794e+06 0
1.33794e+06 -621450 0
0    0    -2.01481e+06

-2.21462e+06 -881824 0
-881824 -858606 0
0    0    -921967

1.32979e+07 -555215 0
-555215 1.0532e+06 0
0    0    4.30532e+06

1.74306e+06 -1.1476e+06 0
-1.1476e+06 2541.25 0
0    0    523682

-1.21364e+07 -69856.1 0
-69856.1 315030 0
0    0    -3.54641e+06

7.25082e+06 -147165 0
-147165 -123690 0
0    0    2.13814e+06

7.11713e+06 569529 0
569529 -1.10593e+06 0
0    0    1.80336e+06

6.87608e+06 800800 0
800800 -1.18269e+06 0
0    0    1.70802e+06

-6.61827e+06 -705415 0
-705415 -948682 0
0    0    -2.27009e+06

6.39576e+06 165977 0
165977 -858891 0
0    0    1.66106e+06

-1.3749e+07 17764.3 0
17764.3 -259653 0
0    0    -4.20258e+06

-9.62118e+06 -264981 0
-264981 -844925 0
0    0    -3.13983e+06

1.41822e+07 -202866 0
-202866 600616 0
0    0    4.43484e+06

-1.41509e+07 -122114 0
-122114 -672726 0
0    0    -4.4471e+06

-9.0916e+06 549022 0
549022 497843 0
0    0    -2.57813e+06

162565 -453613 0
-453613 -411793 0
0    0    -74768.3

1.33554e+07 -710900 0
-710900 1.19774e+06 0
0    0    4.36594e+06

-8.04626e+06 -320118 0
-320118 1.24398e+06 0
0    0    -2.04068e+06

3.82915e+06 -586612 0
-586612 -671117 0
0    0    947411

7.70622e+06 514430 0
514430 -387383 0
0    0    2.19565e+06

1.34707e+07 -84688.8 0
-84688.8 299833 0
0    0    4.13117e+06

8.21538e+06 -153552 0
-153552 -29982.9 0
0    0    2.45562e+06

8.58035e+06 -112237 0
-112237 582893 0
0    0    2.74897e+06

1.71912e+06 329632 0
329632 525125 0
0    0    673273

3.89234e+06 223717 0
223717 -37626.6 0
0    0    1.15641e+06

-1.54127e+06 -1.22709e+06 0
-1.22709e+06 -997546 0
0    0    -761646

-2.73953e+06 -518224 0
-518224 91987.2 0
0    0    -794263

-1.05407e+06 884215 0
884215 946585 0
0    0    -32246.4

-5.52031e+06 31876 0
31876 1.10244e+06 0
0    0    -1.32536e+06

-6.72888e+06 -478955 0
-478955 -6688.22 0
0    0    -2.02067e+06

349206 544240 0
544240 -207415 0
0    0    42537.2

-1.35716e+07 -615827 0
-615827 -615242 0
0    0    -4.25605e+06

-7.514e+06 -216471 0
-216471 -518605 0
0    0    -2.40978e+06

1.29213e+07 346015 0
346015 987072 0
0    0    4.17252e+06

-8.17948e+06 573390 0
573390 362108 0
0    0    -2.34521e+06

8.65139e+06 433197 0
433197 -706485 0
0    0    2.38347e+06

-6.58272e+06 283853 0
283853 -288871 0
0    0    -2.06148e+06

1.80926e+06 714234 0
714234 874827 0
0    0    805225

4.08206e+06 520556 0
520556 275949 0
0    0    1.3074e+06

-1.02599e+06 471772 0
471772 154446 0
0    0    -261464

-2.55285e+06 -694865 0
-694865 -45647.2 0
0    0    -779548

1.28814e+07 -39022.3 0
-39022.3 307974 0
0    0    3.9568e+06

3.38434e+06 335836 0
335836 52989.5 0
0    0    1.0312e+06

8.20093e+06 -102230 0
-102230 -314993 0
0    0    2.36578e+06

-2.52563e+06 -518624 0
-518624 -321476 0
0    0    -854132

2.89995e+06 -663899 0
-663899 -732399 0
0    0    650264

-7.45771e+06 -18523.3 0
-18523.3 -1.56314e+06 0
0    0    -2.70626e+06

1.49014e+06 -279440 0
-279440 -197036 0
0    0    387930

5.6015e+06 654447 0
654447 287512 0
0    0    1.7667e+06

-2.89453e+06 313100 0
313100 -655511 0
0    0    -1.06501e+06

977050 -449883 0
-449883 79208.4 0
0    0    316877

-2.71756e+06 -27377.5 0
-27377.5 -15072.7 0
0    0    -819788

-9.43714e+06 -699539 0
-699539 -176886 0
0    0    -2.88421e+06

-9.75325e+06 -269275 0
-269275 -204534 0
0    0    -2.98734e+06

1.27472e+07 72406.8 0
72406.8 1.37215e+06 0
0    0    4.23582e+06

-1.27471e+07 106863 0
106863 -187360 0
0    0    -3.88033e+06

-1.33237e+07 617442 0
617442 -266552 0
0    0    -4.07709e+06

1.42506e+07 -130629 0
-130629 587259 0
0    0    4.45137e+06

1.00756e+06 18700.9 0
18700.9 -197456 0
0    0    243032

5.99848e+06 -366020 0
-366020 1.0474e+06 0
0    0    2.11376e+06

7.35341e+06 385920 0
385920 -396657 0
0    0    2.08702e+06

6.15645e+06 -53226.6 0
-53226.6 -602051 0
0    0    1.66632e+06

708018 -630331 0
-630331 -542164 0
0    0    49756.1

6.2839e+06 -170623 0
-170623 -682055 0
0    0    1.68055e+06

4.14482e+06 399971 0
399971 -147307 0
0    0    1.19926e+06

8.36044e+06 147915 0
147915 606705 0
0    0    2.69014e+06

6.78065e+06 -642970 0
-642970 177464 0
0    0    2.08744e+06

8.85356e+06 778824 0
778824 -945417 0
0    0    2.37244e+06

8.08877e+06 -244740 0
-244740 -670851 0
0    0    2.22538e+06

-4.88018e+06 523831 0
523831 180401 0
0    0    -1.40994e+06

-747226 123404 0
123404 -305053 0
0    0    -315684

1.28398e+06 -212154 0
-212154 -830612 0
0    0    136011

-1.34805e+06 -316878 0
-316878 -696729 0
0    0    -613432

1.67319e+06 182507 0
182507 818252 0
0    0    747431

1.25119e+06 206659 0
206659 15803.2 0
0    0    380099

-8.56932e+06 -246317 0
-246317 -426723 0
0    0    -2.69881e+06

-3.75144e+06 169202 0
169202 -281618 0
0    0    -1.20992e+06

-8.56282e+06 -32771.8 0
-32771.8 150383 0
0    0    -2.52373e+06

-6.91253e+06 374468 0
374468 -308332 0
0    0    -2.16626e+06

-1.3417e+07 -82222.4 0
-82222.4 -66319.4 0
0    0    -4.04499e+06

-8.02424e+06 -869344 0
-869344 674970 0
0    0    -2.20478e+06

-3.90313e+06 -332188 0
-332188 655333 0
0    0    -974339

-8.71542e+06 -480562 0
-480562 -242333 0
0    0    -2.68733e+06

-9.02385e+06 -42229.4 0
-42229.4 1.54658e+06 0
0    0    -2.24318e+06

-8.21335e+06 -104935 0
-104935 838675 0
0    0    -2.2124e+06

-4.96928e+06 -736687 0
-736687 -129288 0
0    0    -1.52957e+06

6.26019e+06 257466 0
257466 399246 0
0    0    1.99783e+06

-1.29992e+07 192429 0
192429 -154024 0
0    0    -3.94598e+06

-6.14993e+06 -178764 0
-178764 -337822 0
0    0    -1.94632e+06

7.85912e+06 -816653 0
-816653 -418042 0
0    0    2.23232e+06

6.12575e+06 -527573 0
-527573 -13354.7 0
0    0    1.83372e+06

6.16811e+06 -1900.34 0
-1900.34 -12692.8 0
0    0    1.84663e+06

1.29195e+07 197283 0
197283 -333892 0
0    0    3.77567e+06

-2.85898e+06 -101052 0
-101052 -289561 0
0    0    -944563

-3.33464e+06 -903883 0
-903883 -47096.6 0
0    0    -1.01452e+06

-8.80215e+06 -407538 0
-407538 277039 0
0    0    -2.55753e+06

-1.2725e+07 44142.5 0
44142.5 -85375.8 0
0    0    -3.84311e+06

-2.49224e+06 -871223 0
-871223 80844.9 0
0    0    -723417

-8.98257e+06 110952 0
110952 -50673.7 0
0    0    -2.70997e+06

-8.08786e+06 798864 0
798864 -109898 0
0    0    -2.45933e+06

-1.21066e+06 794801 0
794801 -1.06936e+06 0
0    0    -684005

-4.99478e+06 658387 0
658387 -87426.7 0
0    0    -1.52466e+06

3.01923e+06 -161324 0
-161324 -553848 0
0    0    739615

-3.24081e+06 559117 0
559117 168954 0
0    0    -921557

-803803 808138 0
808138 -735960 0
0    0    -461929

-9.17263e+06 -78757.7 0
-78757.7 -217714 0
0    0    -2.8171e+06

-8.65541e+06 -260799 0
-260799 471394 0
0    0    -2.4552e+06

-9.09547e+06 151044 0
151044 -49963.5 0
0    0    -2.74363e+06

-1.23241e+07 91602.9 0
91602.9 -119090 0
0    0    -3.73296e+06

9.48604e+06 477598 0
477598 -2939.66 0
0    0    2.84493e+06

-1.30019e+07 -315128 0
-315128 81119.9 0
0    0    -3.87623e+06

-4.93138e+06 -285671 0
-285671 293235 0
0    0    -1.39144e+06

-8.39066e+06 362756 0
362756 -221573 0
0    0    -2.58367e+06

-5.19344e+06 269071 0
269071 -700750 0
0    0    -1.76826e+06

7.60307e+06 669460 0
669460 594567 0
0    0    2.45929e+06

7.44738e+06 -1.0871e+06 0
-1.0871e+06 -1.35891e+06 0
0    0    1.82654e+06

1.24819e+07 -573699 0
-573699 -397847 0
0    0    3.62521e+06

6.24767e+06 -606688 0
-606688 -287323 0
0    0    1.78811e+06

2.43294e+06 289776 0
289776 -280444 0
0    0    645750

-1.52994e+06 181123 0
181123 -76704.3 0
0    0    -481992

1.98661e+06 -848981 0
-848981 1.11702e+06 0
0    0    931092

9.35865e+06 -539665 0
-539665 398475 0
0    0    2.92714e+06

5.80025e+06 522057 0
522057 -582860 0
0    0    1.56522e+06

6.11775e+06 705121 0
705121 -218435 0
0    0    1.7698e+06

1.36844e+07 -75716.2 0
-75716.2 -87599.3 0
0    0    4.07903e+06

-658116 301346 0
301346 -100699 0
0    0    -227645

-1.26816e+07 -94413.7 0
-94413.7 37989.1 0
0    0    -3.79309e+06

830209 510531 0
510531 144281 0
0    0    292347

-9.08143e+06 -81021 0
-81021 -151217 0
0    0    -2.76979e+06

-5.40454e+06 -629451 0
-629451 257051 0
0    0    -1.54425e+06

-6.94328e+06 -515255 0
-515255 708649 0
0    0    -1.87039e+06

-9.33095e+06 830874 0
830874 -1.14894e+06 0
0    0    -3.14397e+06

-5.97004e+06 397438 0
397438 -378384 0
0    0    -1.90453e+06

-1.99985e+06 -694923 0
-694923 434823 0
0    0    -469508

683514 -1.02929e+06 0
-1.02929e+06 1.33812e+06 0
0    0    606490

1.62138e+06 738200 0
738200 -1.45101e+06 0
0    0    51111.5

-1.95274e+06 629253 0
629253 537635 0
0    0    -424530

-648381 -514328 0
-514328 77544 0
0    0    -171251

-938897 -6075.13 0
-6075.13 106991 0
0    0    -249572

7.72361e+06 -116044 0
-116044 27357.6 0
0    0    2.32529e+06

1.26528e+07 62476.5 0
62476.5 -18884.2 0
0    0    3.79017e+06

3.96303e+06 -641025 0
-641025 236824 0
0    0    1.25996e+06

8.45197e+06 -905987 0
-905987 1.24569e+06 0
0    0    2.9093e+06

8.25519e+06 -277470 0
-277470 206947 0
0    0    2.53864e+06

-926973 -38201.4 0
-38201.4 181570 0
0    0    -223621

3.78095e+06 -217064 0
-217064 -66106.1 0
0    0    1.11445e+06

3.88856e+06 -220828 0
-220828 189671 0
0    0    1.22347e+06

7.63805e+06 -201295 0
-201295 -122181 0
0    0    2.25476e+06

3.63631e+06 -735470 0
-735470 653487 0
0    0    1.28694e+06

1.26671e+07 23265.7 0
23265.7 440750 0
0    0    3.93235e+06

3.63492e+06 88673.9 0
88673.9 10890.2 0
0    0    1.09374e+06

-6.6609e+06 -209898 0
-209898 438354 0
0    0    -1.86676e+06

1.26479e+07 -607199 0
-607199 865395 0
0    0    4.05399e+06

-8.99504e+06 324767 0
324767 -577177 0
0    0    -2.87166e+06

-1.23523e+07 327775 0
327775 365701 0
0    0    -3.59599e+06

-5.04409e+06 -576146 0
-576146 -439559 0
0    0    -1.64509e+06

-6.91188e+06 718031 0
718031 -284682 0
0    0    -2.15897e+06

2.83654e+06 405628 0
405628 520591 0
0    0    1.00714e+06

-4.4147e+06 -734388 0
-734388 958031 0
0    0    -1.037e+06

-5.99348e+06 119080 0
119080 -713326 0
0    0    -2.01204e+06

-3.25473e+06 -428066 0
-428066 -388301 0
0    0    -1.09291e+06

-2.43207e+06 -493837 0
-493837 69100.4 0
0    0    -708890

3.3358e+06 -14578.1 0
-14578.1 843666 0
0    0    1.25384e+06

7.80993e+06 34738.4 0
34738.4 -522948 0
0    0    2.18609e+06

2.05453e+06 580102 0
580102 286358 0
0    0    702267

7.5381e+06 -487910 0
-487910 -128735 0
0    0    2.22281e+06

-7.00172e+06 -897104 0
-897104 1.27193e+06 0
0    0    -1.71894e+06

-1.50119e+06 -468734 0
-468734 245962 0
0    0    -376569

-2.50648e+06 -239926 0
-239926 -453650 0
0    0    -888038

7.32555e+06 472989 0
472989 364282 0
0    0    2.30695e+06

4.45116e+06 -897789 0
-897789 -309208 0
0    0    1.24259e+06

7.8943e+06 -729895 0
-729895 -846803 0
0    0    2.11425e+06

1.20075e+07 295062 0
295062 235266 0
0    0    3.67284e+06

5.83553e+06 -576445 0
-576445 53272.4 0
0    0    1.76664e+06

1.28437e+07 184163 0
184163 534712 0
0    0    4.01353e+06

-3.70046e+06 567589 0
567589 425595 0
0    0    -982460

3.80045e+06 734198 0
734198 -327603 0
0    0    1.04185e+06

1.3099e+07 -77430.4 0
-77430.4 -326292 0
0    0    3.83183e+06

6.98036e+06 681644 0
681644 -227017 0
0    0    2.026e+06

1.17787e+07 6325.9 0
6325.9 -11350 0
0    0    3.53021e+06

8.98306e+06 -540441 0
-540441 -145593 0
0    0    2.65124e+06

5.6376e+06 634176 0
634176 154586 0
0    0    1.73766e+06

2.64527e+06 -463963 0
-463963 257036 0
0    0    870692

1.38889e+06 -856241 0
-856241 -480821 0
0    0    272420

-1.20616e+07 -273021 0
-273021 -879612 0
0    0    -3.88237e+06

-4.53044e+06 -860405 0
-860405 555834 0
0    0    -1.19238e+06

-1.0611e+06 238463 0
238463 -1.36497e+06 0
0    0    -727820

-1.22079e+07 -469957 0
-469957 417960 0
0    0    -3.53697e+06

-2.25252e+06 192518 0
192518 -315957 0
0    0    -770542

-7.90139e+06 351469 0
351469 256808 0
0    0    -2.29337e+06

-4.96228e+06 936424 0
936424 -70396.9 0
0    0    -1.5098e+06

-4.61698e+06 595430 0
595430 177488 0
0    0    -1.33185e+06

-4.20902e+06 -220054 0
-220054 -232934 0
0    0    -1.33259e+06

8.91626e+06 340166 0
340166 46368.2 0
0    0    2.68879e+06

-7.00361e+06 -309598 0
-309598 385267 0
0    0    -1.9855e+06

-3.13015e+06 344884 0
344884 17430 0
0    0    -933817

-3.86726e+06 -150292 0
-150292 212737 0
0    0    -1.09636e+06

-7.10954e+06 -209509 0
-209509 -25732.7 0
0    0    -2.14058e+06

-1.29541e+07 -115706 0
-115706 -382458 0
0    0    -4.00097e+06

-1.38197e+06 -721545 0
-721545 -132662 0
0    0    -454389

7.08604e+06 502926 0
502926 883036 0
0    0    2.39072e+06

7.85033e+06 -796681 0
-796681 145829 0
0    0    2.39885e+06

7.09486e+06 -692707 0
-692707 -207402 0
0    0    2.06624e+06

1.13837e+07 39713.1 0
39713.1 54568.1 0
0    0    3.43149e+06

1.20385e+07 99547.7 0
99547.7 269572 0
0    0    3.69241e+06

3.41938e+06 536278 0
536278 -419263 0
0    0    900036

3.77143e+06 -962086 0
-962086 257737 0
0    0    1.20875e+06

-7.88203e+06 -450006 0
-450006 427115 0
0    0    -2.23648e+06

7.62872e+06 209681 0
209681 -201721 0
0    0    2.2281e+06

-1.26484e+07 -125077 0
-125077 -302680 0
0    0    -3.88532e+06

-5.85177e+06 -783337 0
-783337 -484197 0
0    0    -1.90079e+06

-1.27063e+07 -121809 0
-121809 249934 0
0    0    -3.7369e+06

1.23959e+07 -200310 0
-200310 81598.3 0
0    0    3.74326e+06

-7.65986e+06 267341 0
267341 539544 0
0    0    -2.1361e+06

-7.77713e+06 -60044.4 0
-60044.4 188156 0
0    0    -2.27669e+06

330653 -299681 0
-299681 399880 0
0    0    219160

3.68077e+06 -642323 0
-642323 -779100 0
0    0    870500

-180345 410696 0
410696 36230 0
0    0    -43234.6

910027 554558 0
554558 259424 0
0    0    350835

3.40047e+06 -499382 0
-499382 395948 0
0    0    1.13893e+06

2.18026e+06 563948 0
563948 201049 0
0    0    714392

-2.46175e+06 741833 0
741833 1.04466e+06 0
0    0    -425128

-630306 -310072 0
-310072 10773.8 0
0    0    -185860

-455216 -661322 0
-661322 -221012 0
0    0    -202868

7.77575e+06 -103010 0
-103010 -62194.4 0
0    0    2.31407e+06

-6.41833e+06 563314 0
563314 685991 0
0    0    -1.7197e+06

4.14533e+06 -113622 0
-113622 226990 0
0    0    1.3117e+06

8.01409e+06 -487126 0
-487126 -511740 0
0    0    2.2507e+06

7.91343e+06 382650 0
382650 45022.8 0
0    0    2.38754e+06

3.89307e+06 -223344 0
-223344 -285889 0
0    0    1.08215e+06

-969998 750945 0
750945 781010 0
0    0    -56696.3

1.17064e+07 -108327 0
-108327 180219 0
0    0    3.56597e+06

-3.04281e+06 -933521 0
-933521 245054 0
0    0    -839326

-4.48584e+06 -607617 0
-607617 -1.01319e+06 0
0    0    -1.64971e+06

1.42652e+06 -446326 0
-446326 -960782 0
0    0    139720

7.79503e+06 122848 0
122848 -310653 0
0    0    2.24531e+06

-3.97993e+06 479530 0
479530 566751 0
0    0    -1.02395e+06

3.35741e+06 393152 0
393152 399242 0
0    0    1.127e+06

-2.79296e+06 -729526 0
-729526 -61218.5 0
0    0    -856253

-1.13657e+07 93392.6 0
93392.6 -326411 0
0    0    -3.50764e+06

1.05143e+07 -284380 0
-284380 42469.5 0
0    0    3.16703e+06

8.56101e+06 198727 0
198727 201049 0
0    0    2.62862e+06

-1.20512e+07 34898.1 0
34898.1 -230534 0
0    0    -3.68453e+06

1.52801e+06 -453173 0
-453173 -309904 0
0    0    365432

-2.70973e+06 34071.3 0
34071.3 -359449 0
0    0    -920754

5.04961e+06 145040 0
145040 -151071 0
0    0    1.46956e+06

1.21953e+07 24742.5 0
24742.5 -181853 0
0    0    3.60405e+06

1.10692e+06 -1.02454e+06 0
-1.02454e+06 -620462 0
0    0    145938

8.24198e+06 -192723 0
-192723 -129730 0
0    0    2.43367e+06

-8.24629e+06 -362208 0
-362208 86559.9 0
0    0    -2.44792e+06

-4.29161e+06 370928 0
370928 -532676 0
0    0    -1.44729e+06

-8.54642e+06 21324.4 0
21324.4 -134822 0
0    0    -2.60437e+06

-1.09364e+07 -118248 0
-118248 -206781 0
0    0    -3.34296e+06

-4.64073e+06 -230496 0
-230496 198754 0
0    0    -1.33259e+06

931856 -148981 0
-148981 -449295 0
0    0    144769

-2.1608e+06 -552653 0
-552653 -214693 0
0    0    -712649

5.24693e+06 65487.2 0
65487.2 245553 0
0    0    1.64775e+06

1.49767e+06 126956 0
126956 157614 0
0    0    496585

1.05537e+06 -343489 0
-343489 -200930 0
0    0    256333

-2.12538e+06 592158 0
592158 -233169 0
0    0    -707566

1.89853e+06 -270809 0
-270809 145881 0
0    0    613323

6.43923e+06 681749 0
681749 -75030.1 0
0    0    1.90926e+06

1.19292e+07 -85281.5 0
-85281.5 -52934.4 0
0    0    3.56289e+06

-3.784e+06 -587462 0
-587462 -110208 0
0    0    -1.16826e+06

5.35049e+06 -673887 0
-673887 237702 0
0    0    1.67646e+06

1.16992e+07 -338138 0
-338138 125263 0
0    0    3.54735e+06

7.46296e+06 -186215 0
-186215 126433 0
0    0    2.27682e+06

1.21652e+07 -114452 0
-114452 -15504.6 0
0    0    3.6449e+06

1.13105e+06 448287 0
448287 -444142 0
0    0    206074

7.99444e+06 -75279.8 0
-75279.8 218702 0
0    0    2.46394e+06

1.70766e+06 -298983 0
-298983 -289836 0
0    0    425346

4.35478e+06 -206535 0
-206535 52848.9 0
0    0    1.32229e+06

1.02701e+07 -231037 0
-231037 220540 0
0    0    3.14719e+06

8.68435e+06 -153478 0
-153478 79356.7 0
0    0    2.62911e+06

8.1288e+06 389868 0
389868 -697154 0
0    0    2.22949e+06

5.73594e+06 -593338 0
-593338 289892 0
0    0    1.80775e+06

5.02941e+06 -42772.1 0
-42772.1 -181353 0
0    0    1.45442e+06

8.20473e+06 448380 0
448380 -720056 0
0    0    2.2454e+06

8.4436e+06 241471 0
241471 19402 0
0    0    2.5389e+06

-7.39083e+06 -76937.6 0
-76937.6 157574 0
0    0    -2.16998e+06

-8.47212e+06 -516371 0
-516371 -390650 0
0    0    -2.65883e+06

-4.49425e+06 399031 0
399031 -153282 0
0    0    -1.39426e+06

-7.47461e+06 205729 0
205729 236159 0
0    0    -2.17153e+06

-7.29997e+06 -225574 0
-225574 21419.2 0
0    0    -2.18356e+06

-1.19471e+07 -107139 0
-107139 -333894 0
0    0    -3.6843e+06

-7.58975e+06 -656528 0
-656528 -189056 0
0    0    -2.33364e+06

-2.79692e+06 -301508 0
-301508 1.00579e+06 0
0    0    -537339

-7.62142e+06 -720412 0
-720412 -239773 0
0    0    -2.35836e+06

-2.65015e+06 203810 0
203810 429267 0
0    0    -666265

-1.14999e+07 51603.7 0
51603.7 24906 0
0    0    -3.44249e+06

922913 -361361 0
-361361 -98340.5 0
0    0    247372

-132275 -763284 0
-763284 78975.1 0
0    0    -15989.9

228406 222861 0
222861 42632.7 0
0    0    81311.5

-8.01002e+06 -521321 0
-521321 437987 0
0    0    -2.27161e+06

-2.96912e+06 -822064 0
-822064 -66515.6 0
0    0    -910691

-2.88541e+06 332843 0
332843 379029 0
0    0    -751916

5.62929e+06 -585519 0
-585519 149289 0
0    0    1.73357e+06

-7.69854e+06 226029 0
226029 214793 0
0    0    -2.24512e+06

-7.37797e+06 387017 0
387017 236573 0
0    0    -2.14242e+06

1.60522e+06 816464 0
816464 691347 0
0    0    688970

6.18327e+06 13123.7 0
13123.7 191269 0
0    0    1.91236e+06

-1.04985e+06 -720891 0
-720891 -52263.5 0
0    0    -330635

1.9574e+06 673287 0
673287 1.18549e+06 0
0    0    942866

-7.12981e+06 420559 0
420559 576913 0
0    0    -1.96587e+06

-871383 509374 0
509374 572842 0
0    0    -89562.4

-4.29778e+06 536789 0
536789 652446 0
0    0    -1.0936e+06

-2.06167e+06 -764411 0
-764411 -271870 0
0    0    -700062

-6.8072e+06 20199.6 0
20199.6 342195 0
0    0    -1.9395e+06

-1.07079e+07 -219080 0
-219080 -216537 0
0    0    -3.27732e+06

-6.51933e+06 -733855 0
-733855 -548491 0
0    0    -2.12035e+06

-6.85583e+06 -96713.9 0
-96713.9 -666164 0
0    0    -2.2566e+06

-1.15928e+07 -30973.7 0
-30973.7 -133664 0
0    0    -3.51795e+06

5.78108e+06 171162 0
171162 868417 0
0    0    1.99485e+06

-2.7326e+06 -994535 0
-994535 -1.36497e+06 0
0    0    -1.22927e+06

4.70084e+06 -528422 0
-528422 -588848 0
0    0    1.2336e+06

7.23423e+06 -373889 0
-373889 -411296 0
0    0    2.04688e+06

5.96998e+06 324347 0
324347 -177232 0
0    0    1.73782e+06

4.41208e+06 -88279.9 0
-88279.9 243906 0
0    0    1.3968e+06

5.21377e+06 -48099.1 0
-48099.1 224593 0
0    0    1.63151e+06

-7.97997e+06 507814 0
507814 189934 0
0    0    -2.33701e+06

-6.0755e+06 118589 0
118589 1.24915e+06 0
0    0    -1.4479e+06

-3.33489e+06 -206982 0
-206982 233692 0
0    0    -930359

-1.06065e+07 -400461 0
-400461 -268740 0
0    0    -3.26257e+06

-1.43213e+06 465765 0
465765 608117 0
0    0    -247204

-1.14849e+07 -693516 0
-693516 -756210 0
0    0    -3.67234e+06

-4.89533e+06 -379562 0
-379562 -114072 0
0    0    -1.50282e+06

6.53598e+06 -151901 0
-151901 -339688 0
0    0    1.85889e+06

-3.87312e+06 -102258 0
-102258 -1.05022e+06 0
0    0    -1.477e+06

-6.1402e+06 -828575 0
-828575 6611.48 0
0    0    -1.84008e+06

6.53516e+06 -257474 0
-257474 -934908 0
0    0    1.68007e+06

-5.96205e+06 539474 0
539474 -648927 0
0    0    -1.98329e+06

327101 -262543 0
-262543 -388930 0
0    0    -18548.9

-3.07004e+06 -414054 0
-414054 -53506.2 0
0    0    -937064

-7.02474e+06 -125274 0
-125274 -127744 0
0    0    -2.14574e+06

-7.6191e+06 -370793 0
-370793 240887 0
0    0    -2.21346e+06

483439 374755 0
374755 -563574 0
0    0    -24040.4

9.84749e+06 29944.4 0
29944.4 295136 0
0    0    3.04279e+06

7.68231e+06 -852344 0
-852344 198523 0
0    0    2.36425e+06

4.35532e+06 277674 0
277674 -441781 0
0    0    1.17406e+06

7.35699e+06 -396559 0
-396559 -110687 0
0    0    2.17389e+06

1.12062e+07 520044 0
520044 347374 0
0    0    3.46608e+06

1.17692e+07 178059 0
178059 844599 0
0    0    3.78413e+06

3.11818e+06 -864431 0
-864431 847514 0
0    0    1.18971e+06

1.77099e+06 -920365 0
-920365 -414972 0
0    0    406805

-6.06525e+06 -38115.8 0
-38115.8 836765 0
0    0    -1.56855e+06

5.70542e+06 655749 0
655749 287309 0
0    0    1.79782e+06

1.87975e+06 94531.1 0
94531.1 -59095.4 0
0    0    546197

-1.14507e+07 -34731.4 0
-34731.4 5499.02 0
0    0    -3.43357e+06

-1.04361e+07 -246286 0
-246286 -524550 0
0    0    -3.28819e+06

-3.12731e+06 -640105 0
-640105 -478315 0
0    0    -1.08169e+06

-7.21902e+06 187100 0
187100 -161770 0
0    0    -2.21424e+06

-6.30687e+06 562414 0
562414 -64816.4 0
0    0    -1.91151e+06

-4.16996e+06 -769703 0
-769703 646335 0
0    0    -1.05709e+06

-5.96089e+06 -343739 0
-343739 179898 0
0    0    -1.7343e+06

-3.10814e+06 -632589 0
-632589 -557207 0
0    0    -1.0996e+06

-2.47881e+06 40914.1 0
40914.1 839133 0
0    0    -491903

-1.08646e+07 66868.2 0
66868.2 -193755 0
0    0    -3.31751e+06

6.40248e+06 -253722 0
-253722 -513859 0
0    0    1.76659e+06

-1.1935e+07 547851 0
547851 -842328 0
0    0    -3.83319e+06

-3.33642e+06 -327878 0
-327878 232271 0
0    0    -931245

-591822 -320752 0
-320752 -250297 0
0    0    -252636

-3.9749e+06 878222 0
878222 1.41491e+06 0
0    0    -767997

-6.2274e+06 -187742 0
-187742 -241326 0
0    0    -1.94062e+06

-1.00737e+07 254663 0
254663 -160466 0
0    0    -3.07025e+06

1.12914e+07 -101389 0
-101389 10365.8 0
0    0    3.39052e+06

-6.43999e+06 415642 0
415642 -505290 0
0    0    -2.08358e+06

170954 -111252 0
-111252 -17764.5 0
0    0    45956.8

-6.81448e+06 -458468 0
-458468 586583 0
0    0    -1.86837e+06

-1.08533e+07 25966.7 0
25966.7 -247801 0
0    0    -3.33032e+06

-3.22095e+06 -390244 0
-390244 562896 0
0    0    -797416

-9.53757e+06 -77487.4 0
-77487.4 -131000 0
0    0    -2.90057e+06

6.46692e+06 -220558 0
-220558 102623 0
0    0    1.97086e+06

-3.62002e+06 -461624 0
-461624 -399160 0
0    0    -1.20575e+06

3.41753e+06 -444356 0
-444356 141429 0
0    0    1.06769e+06

-9.42086e+06 -310353 0
-310353 -395856 0
0    0    -2.94501e+06

-6.99784e+06 339194 0
339194 -507920 0
0    0    -2.25173e+06

-5.83549e+06 229453 0
229453 -122320 0
0    0    -1.78734e+06

-6.73523e+06 -254540 0
-254540 286640 0
0    0    -1.93458e+06

-6.46513e+06 162405 0
162405 357392 0
0    0    -1.83232e+06

-4.53527e+06 -306433 0
-306433 -524158 0
0    0    -1.51783e+06

-182488 -62053.9 0
-62053.9 -231753 0
0    0    -124272

-2.51633e+06 -535932 0
-535932 -43277.3 0
0    0    -767883

723129 -377188 0
-377188 -541728 0
0    0    54420.1

117952 -7084.15 0
-7084.15 470034 0
0    0    176396

-3.44766e+06 -555370 0
-555370 -437050 0
0    0    -1.16541e+06

-1.06221e+07 -464307 0
-464307 -372242 0
0    0    -3.29829e+06

-5.49361e+06 -458804 0
-458804 76965.6 0
0    0    -1.62499e+06

-2.4747e+06 -509644 0
-509644 56633.1 0
0    0    -725421

191946 -111655 0
-111655 31295 0
0    0    66972.3

-4.53905e+06 259223 0
259223 -199283 0
0    0    -1.4215e+06

-6.60808e+06 517543 0
517543 809622 0
0    0    -1.73954e+06

9.15398e+06 -264548 0
-264548 -99068.4 0
0    0    2.71647e+06

-2.39003e+06 -20065.4 0
-20065.4 -115611 0
0    0    -751691

316850 467831 0
467831 169168 0
0    0    145805

1.65482e+06 175691 0
175691 342408 0
0    0    599168

1.04989e+07 -121601 0
-121601 -437002 0
0    0    3.01856e+06

2.93986e+06 519104 0
519104 -373861 0
0    0    769798

3.34895e+06 -159341 0
-159341 -179067 0
0    0    950964

-5.13812e+06 -55566.7 0
-55566.7 141517 0
0    0    -1.49898e+06

-1.6827e+06 -515805 0
-515805 -347210 0
0    0    -608972

-1.90641e+06 -942265 0
-942265 -599888 0
0    0    -751888

3.25096e+06 -558349 0
-558349 -328373 0
0    0    876777

-1.6995e+06 244029 0
244029 903512 0
0    0    -238795

-2.45007e+06 225973 0
225973 255578 0
0    0    -658346

1.45019e+06 -191659 0
-191659 -195480 0
0    0    376414

1.33847e+06 -620837 0
-620837 1.19414e+06 0
0    0    759782

3.028e+06 -269482 0
-269482 -576931 0
0    0    735320

5.8493e+06 -578472 0
-578472 -45585.3 0
0    0    1.74111e+06

-1.3762e+06 -435194 0
-435194 328411 0
0    0    -314337

-7.21745e+06 231513 0
231513 144968 0
0    0    -2.12174e+06

-6.24694e+06 -417462 0
-417462 -878293 0
0    0    -2.13757e+06

52952.4 -866180 0
-866180 -362911 0
0    0    -92987.5

5.77175e+06 -59779.9 0
-59779.9 59527.5 0
0    0    1.74938e+06

5.33251e+06 271254 0
271254 267007 0
0    0    1.67986e+06

-5.9152e+06 339043 0
339043 151607 0
0    0    -1.72908e+06

-4.8503e+06 349462 0
349462 -252533 0
0    0    -1.53085e+06

449927 -67045.6 0
-67045.6 -103359 0
0    0    103970

2.41669e+06 418285 0
418285 -717068 0
0    0    509886

4.8449e+06 -323295 0
-323295 689064 0
0    0    1.66019e+06

8.67613e+06 -2142.93 0
-2142.93 434553 0
0    0    2.73321e+06

848933 -135529 0
-135529 -167032 0
0    0    204570

6.82636e+06 90575.1 0
90575.1 17197.6 0
0    0    2.05307e+06

7.19954e+06 -438673 0
-438673 -433231 0
0    0    2.02989e+06

4.95009e+06 -773575 0
-773575 -390997 0
0    0    1.36773e+06

1.02596e+07 -335798 0
-335798 -523435 0
0    0    2.92085e+06

6.31095e+06 57623 0
57623 147958 0
0    0    1.93767e+06

9.25873e+06 149959 0
149959 80263.3 0
0    0    2.8017e+06

4.5892e+06 117620 0
117620 364465 0
0    0    1.4861e+06

6.68817e+06 -64530.1 0
-64530.1 16548.1 0
0    0    2.01142e+06

3.59392e+06 -149179 0
-149179 392479 0
0    0    1.19592e+06

7.12085e+06 402755 0
402755 360121 0
0    0    2.24429e+06

9.99535e+06 391362 0
391362 -75127.1 0
0    0    2.97607e+06

6.0723e+06 -275254 0
-275254 -461851 0
0    0    1.68314e+06

8.12667e+06 -509414 0
-509414 -535994 0
0    0    2.2772e+06

1.05059e+07 441397 0
441397 524896 0
0    0    3.30925e+06

3.39087e+06 41664.5 0
41664.5 391024 0
0    0    1.13457e+06

5.97731e+06 -613598 0
-613598 209670 0
0    0    1.8561e+06

-9.99458e+06 61907.5 0
61907.5 162451 0
0    0    -2.94964e+06

-5.73401e+06 -73165.9 0
-73165.9 56846.1 0
0    0    -1.70315e+06

-5.9176e+06 -230374 0
-230374 68759.2 0
0    0    -1.75465e+06

-2.42069e+06 1543.58 0
1543.58 -799266 0
0    0    -965987

-2.19759e+06 95725.4 0
95725.4 774586 0
0    0    -426901

-1.49968e+06 585363 0
585363 -464155 0
0    0    -589150

-2.12686e+06 -496588 0
-496588 610495 0
0    0    -454909

-6.83313e+06 94127.3 0
94127.3 -214229 0
0    0    -2.11421e+06

-5.03714e+06 -397655 0
-397655 -329762 0
0    0    -1.61007e+06

-5.45831e+06 -78294.3 0
-78294.3 583606 0
0    0    -1.46241e+06

-4.52177e+06 -449868 0
-449868 -427167 0
0    0    -1.48468e+06

-9.43789e+06 -227547 0
-227547 -351738 0
0    0    -2.93689e+06

211584 -389409 0
-389409 177028 0
0    0    116584

-9.72223e+06 -435384 0
-435384 -225780 0
0    0    -2.9844e+06

-3.75642e+06 -349476 0
-349476 -438462 0
0    0    -1.25846e+06

-7.22464e+06 -672842 0
-672842 -237962 0
0    0    -2.23878e+06

-9.34083e+06 -535177 0
-535177 280802 0
0    0    -2.71801e+06

-1.92495e+06 -714656 0
-714656 634751 0
0    0    -387060

5.5999e+06 -42507.5 0
-42507.5 -399715 0
0    0    1.56006e+06

4.52393e+06 591047 0
591047 354332 0
0    0    1.46348e+06

2.81334e+06 -1.19988e+06 0
-1.19988e+06 759804 0
0    0    1.07194e+06

-6.50925e+06 -283022 0
-283022 495672 0
0    0    -1.80407e+06

3.89424e+06 -653710 0
-653710 -5409.05 0
0    0    1.16665e+06

2.65058e+06 51187.8 0
51187.8 265893 0
0    0    874943

9.59371e+06 -215453 0
-215453 -58559.8 0
0    0    2.86055e+06

3.55321e+06 -450690 0
-450690 627671 0
0    0    1.25426e+06

6.71416e+06 -445663 0
-445663 -63962.8 0
0    0    1.99506e+06

3.90142e+06 314179 0
314179 -91808.8 0
0    0    1.14288e+06

6.00172e+06 341403 0
341403 -324123 0
0    0    1.70328e+06

9.80515e+06 -153913 0
-153913 143936 0
0    0    2.98473e+06

-2.59368e+06 368214 0
368214 -575229 0
0    0    -950672

251697 -253718 0
-253718 -144512 0
0    0    32155.2

-4.8349e+06 -636649 0
-636649 512753 0
0    0    -1.29664e+06

-9.09508e+06 210759 0
210759 -455845 0
0    0    -2.86528e+06

5.76459e+06 139260 0
139260 2829.06 0
0    0    1.73023e+06

-8.98094e+06 358111 0
358111 -483698 0
0    0    -2.83939e+06

-9.66737e+06 71195.2 0
71195.2 -133924 0
0    0    -2.94039e+06

-5.63295e+06 -442581 0
-442581 -142680 0
0    0    -1.73269e+06

-6.01487e+06 217573 0
217573 170995 0
0    0    -1.75316e+06

-2.53012e+06 110651 0
110651 -99214.7 0
0    0    -788801

-1.20908e+06 -146079 0
-146079 317765 0
0    0    -267395

345115 583095 0
583095 718448 0
0    0    319069

-2.47569e+06 -840484 0
-840484 874369 0
0    0    -480398

-1.72882e+06 314048 0
314048 -507811 0
0    0    -670989

-5.42158e+06 -569822 0
-569822 730163 0
0    0    -1.40742e+06

-486203 -239412 0
-239412 -422356 0
0    0    -272568

-5.29951e+06 15954.9 0
15954.9 23395.3 0
0    0    -1.58283e+06

-5.18585e+06 166261 0
166261 -142652 0
0    0    -1.59855e+06

-3.97375e+06 442571 0
442571 -82205.4 0
0    0    -1.21679e+06

-8.51014e+06 176360 0
176360 -593506 0
0    0    -2.73109e+06

-118518 310173 0
310173 -561362 0
0    0    -203964

-2.43092e+06 -171758 0
-171758 17849.8 0
0    0    -723922

8.43272e+06 -909.993 0
-909.993 218353 0
0    0    2.59532e+06

-5.1509e+06 -397802 0
-397802 -46343.7 0
0    0    -1.55917e+06

2.11493e+06 -461014 0
-461014 54385.4 0
0    0    650795

-8.55404e+06 288863 0
288863 171835 0
0    0    -2.51466e+06

-3.39517e+06 -543277 0
-543277 124579 0
0    0    -981178

7.55788e+06 -606148 0
-606148 -27442.5 0
0    0    2.25913e+06

1.03512e+07 194929 0
194929 136150 0
0    0    3.14621e+06

-1702.07 -541846 0
-541846 81717.5 0
0    0    24004.6

7.61038e+06 380431 0
380431 31456.6 0
0    0    2.29255e+06

5.6996e+06 192905 0
192905 -18325.5 0
0    0    1.70438e+06

1.07457e+07 -246540 0
-246540 -32707.2 0
0    0    3.2139e+06

6.71495e+06 -542465 0
-542465 303599 0
0    0    2.10557e+06

3.06794e+06 266956 0
266956 695819 0
0    0    1.12913e+06

6.38523e+06 562349 0
562349 162291 0
0    0    1.96426e+06

2.91708e+06 77977.7 0
77977.7 -353033 0
0    0    769215

2.18951e+06 -472607 0
-472607 -145114 0
0    0    613319

-2.33251e+06 147647 0
147647 -96934.6 0
0    0    -728833

1.34813e+06 -781716 0
-781716 -1.15358e+06 0
0    0    58363.4

5.61442e+06 -95034 0
-95034 615878 0
0    0    1.86909e+06

2.19991e+06 141981 0
141981 984198 0
0    0    955234

6.52416e+06 184706 0
184706 -161048 0
0    0    1.90893e+06

-5.75669e+06 211359 0
211359 20533.4 0
0    0    -1.72085e+06

-507229 -520285 0
-520285 692428 0
0    0    55560

-4.19315e+06 172622 0
172622 -392226 0
0    0    -1.37561e+06

5.67748e+06 -211258 0
-211258 64331.6 0
0    0    1.72254e+06

-2.61873e+06 205988 0
205988 193855 0
0    0    -727462

-2.56009e+06 -500635 0
-500635 370859 0
0    0    -656768

-2.10213e+06 -545941 0
-545941 -19996.1 0
0    0    -636637

-874989 83284.9 0
83284.9 35461.5 0
0    0    -251858

-1.59482e+06 -723495 0
-723495 305587 0
0    0    -386769

6.29498e+06 122718 0
122718 379830 0
0    0    2.00244e+06

496775 -300591 0
-300591 -516260 0
0    0    -5845.51

6.34285e+06 -648143 0
-648143 270999 0
0    0    1.98415e+06

6.88336e+06 -90828.6 0
-90828.6 222203 0
0    0    2.13167e+06

310406 -310822 0
-310822 -717032 0
0    0    -121988

6.59518e+06 121540 0
121540 -306340 0
0    0    1.88665e+06

4.52131e+06 -466642 0
-466642 468812 0
0    0    1.49704e+06

3.03074e+06 408295 0
408295 -147724 0
0    0    864906

725958 -295466 0
-295466 272366 0
0    0    299497

4.01245e+06 52676.7 0
52676.7 329905 0
0    0    1.30271e+06

9.27669e+06 -24724 0
-24724 -89396.6 0
0    0    2.75619e+06

2.91384e+06 -879967 0
-879967 -231318 0
0    0    804756

3.05819e+06 -674918 0
-674918 477623 0
0    0    1.06074e+06

-193447 438233 0
438233 -916922 0
0    0    -333111

876005 359004 0
359004 -80928.3 0
0    0    238523

2.41195e+06 -692002 0
-692002 494711 0
0    0    871997

2.16275e+06 -129166 0
-129166 -358204 0
0    0    541363

5.24366e+06 -301909 0
-301909 229880 0
0    0    1.64206e+06

8.94893e+06 134198 0
134198 169354 0
0    0    2.73549e+06

6.17525e+06 147363 0
147363 61805.8 0
0    0    1.87112e+06

8.86617e+06 300557 0
300557 188875 0
0    0    2.71651e+06

2.75914e+06 -392981 0
-392981 -388030 0
0    0    711332

-4.39139e+06 -480384 0
-480384 -90640 0
0    0    -1.34461e+06

-8.22235e+06 99069 0
99069 -346053 0
0    0    -2.57052e+06

380507 -338342 0
-338342 222302 0
0    0    180843

-3.38712e+06 183933 0
183933 -25186.4 0
0    0    -1.02369e+06

8.13293e+06 -76308.4 0
-76308.4 -120548 0
0    0    2.40372e+06

-5.74974e+06 -675669 0
-675669 438963 0
0    0    -1.59323e+06

-8.74368e+06 12460.4 0
12460.4 -348521 0
0    0    -2.72766e+06

8.47851e+06 -619865 0
-619865 337217 0
0    0    2.64472e+06

-8.16431e+06 165161 0
165161 -34289.7 0
0    0    -2.45958e+06

-2.7113e+06 136955 0
136955 -28359.2 0
0    0    -821897

-1.88068e+06 -693694 0
-693694 -322901 0
0    0    -661074

-2.64432e+06 -570075 0
-570075 -139672 0
0    0    -835198

-5.48445e+06 -259132 0
-259132 -58682.3 0
0    0    -1.66294e+06

-5.24413e+06 35730.3 0
35730.3 300977 0
0    0    -1.48295e+06

-5.72147e+06 36348.4 0
36348.4 295192 0
0    0    -1.62788e+06

-8.51203e+06 -385122 0
-385122 396674 0
0    0    -2.43461e+06

-2.09865e+06 555598 0
555598 101850 0
0    0    -599041

-1.06258e+06 -284324 0
-284324 -430802 0
0    0    -448015

-7.78203e+06 331752 0
331752 -508455 0
0    0    -2.48715e+06

-7.43402e+06 707395 0
707395 160590 0
0    0    -2.18203e+06

882147 -133069 0
-133069 -185908 0
0    0    208872

-8.0068e+06 -743605 0
-743605 -84883.8 0
0    0    -2.4275e+06

7.03683e+06 -88016.6 0
-88016.6 496469 0
0    0    2.25999e+06

1.8205e+06 972573 0
972573 -641482 0
0    0    353706

6.80049e+06 188989 0
188989 -37953.5 0
0    0    2.02876e+06

2.80656e+06 -293832 0
-293832 -531894 0
0    0    682401

-2.62054e+06 -550131 0
-550131 526359 0
0    0    -628256

1.13985e+07 -204657 0
-204657 444594 0
0    0    3.55292e+06

2.33289e+06 391147 0
391147 -263018 0
0    0    620962

4.26831e+06 -650750 0
-650750 178435 0
0    0    1.33402e+06

5.38099e+06 615738 0
615738 136864 0
0    0    1.65536e+06

4.98642e+06 710220 0
710220 281885 0
0    0    1.58049e+06

1.16489e+07 -243545 0
-243545 614506 0
0    0    3.67901e+06

7.03015e+06 -311820 0
-311820 -254596 0
0    0    2.03267e+06

6.23504e+06 661091 0
661091 -391716 0
0    0    1.753e+06

1.13862e+07 -174404 0
-174404 461059 0
0    0    3.55418e+06

-7.266e+06 812758 0
812758 1.18851e+06 0
0    0    -1.82325e+06

6.66644e+06 739512 0
739512 -85320.4 0
0    0    1.97434e+06

1.16189e+07 -185442 0
-185442 569708 0
0    0    3.65658e+06

94362.5 125376 0
125376 231562 0
0    0    97777.4

1.12585e+07 -342928 0
-342928 242553 0
0    0    3.45032e+06

3.17064e+06 -391469 0
-391469 -219515 0
0    0    885337

-6.77635e+06 165747 0
165747 951151 0
0    0    -1.74756e+06

-7.08928e+06 -40939.9 0
-40939.9 -39024.8 0
0    0    -2.13849e+06

-113399 391450 0
391450 386889 0
0    0    82047

-3.43726e+06 -175270 0
-175270 516213 0
0    0    -876315

-1.05593e+07 44226.3 0
44226.3 118988 0
0    0    -3.13209e+06

-1.11944e+07 -426529 0
-426529 -702608 0
0    0    -3.5691e+06

-3.0013e+06 463709 0
463709 451491 0
0    0    -764944

-6.93396e+06 54590.7 0
54590.7 1.08658e+06 0
0    0    -1.75422e+06

-6.01236e+06 600005 0
600005 -318207 0
0    0    -1.89917e+06

-1.1762e+07 383846 0
383846 -594325 0
0    0    -3.70691e+06

748608 139718 0
139718 530264 0
0    0    383662

-5.86592e+06 554926 0
554926 45208.9 0
0    0    -1.74621e+06

7.02246e+06 395985 0
395985 -684828 0
0    0    1.90129e+06

6.71331e+06 -90682.5 0
-90682.5 -661076 0
0    0    1.81567e+06

2.20418e+06 652333 0
652333 22999.8 0
0    0    668153

-3.76244e+06 -27828.1 0
-27828.1 -332026 0
0    0    -1.22834e+06

-2.38202e+06 174683 0
174683 -456821 0
0    0    -851652

-127115 459033 0
459033 17233.7 0
0    0    -32964.5

-1.1911e+07 -557290 0
-557290 -411876 0
0    0    -3.69686e+06

-7.42907e+06 188093 0
188093 -178923 0
0    0    -2.2824e+06

-2.74582e+06 -403710 0
-403710 -121722 0
0    0    -860263

5.29954e+06 34767.5 0
34767.5 489411 0
0    0    1.73669e+06

6.47721e+06 148382 0
148382 -80423.8 0
0    0    1.91903e+06

3.13842e+06 361919 0
361919 377701 0
0    0    1.05484e+06

3.9118e+06 567682 0
567682 -372937 0
0    0    1.06166e+06

-6.54873e+06 -307739 0
-307739 -19080.2 0
0    0    -1.97034e+06

-6.17185e+06 -360195 0
-360195 -153659 0
0    0    -1.89765e+06

-7.3424e+06 -504712 0
-504712 -164847 0
0    0    -2.25217e+06

-2.07535e+06 370618 0
370618 171612 0
0    0    -571123

1.0574e+07 -217426 0
-217426 595098 0
0    0    3.35072e+06

-7.03508e+06 533848 0
533848 -33139.6 0
0    0    -2.12047e+06

1.02775e+06 -268944 0
-268944 -664360 0
0    0    109018

-3.86624e+06 -567943 0
-567943 -564132 0
0    0    -1.32911e+06

-203432 -246730 0
-246730 332872 0
0    0    38832

124760 1.10638e+06 0
1.10638e+06 213018 0
0    0    101334

1.04986e+06 -12122.2 0
-12122.2 -269356 0
0    0    234152

6.88577e+06 585248 0
585248 71667.1 0
0    0    2.08723e+06

1.40568e+06 -641115 0
-641115 -620426 0
0    0    235576

1.15078e+06 -211569 0
-211569 161900 0
0    0    393806

-665584 490954 0
490954 422688 0
0    0    -72868.8

7.12947e+06 -61978.3 0
-61978.3 237030 0
0    0    2.20995e+06

-7.2888e+06 574183 0
574183 819457 0
0    0    -1.9408e+06

6.40673e+06 -502812 0
-502812 167050 0
0    0    1.97214e+06

3.75342e+06 -155539 0
-155539 194993 0
0    0    1.18452e+06

7.09979e+06 674351 0
674351 -893840 0
0    0    1.86179e+06

1.15156e+07 -129686 0
-129686 402509 0
0    0    3.57544e+06

3.57293e+06 442167 0
442167 -210659 0
0    0    1.00868e+06

-3.5084e+06 -325683 0
-325683 108953 0
0    0    -1.01983e+06

-3.0968e+06 288844 0
288844 -75522.8 0
0    0    -951698

-7.01006e+06 -380629 0
-380629 -94352.2 0
0    0    -2.13133e+06

-17805.1 151090 0
151090 -98159 0
0    0    -34789.2

-3.9809e+06 397353 0
397353 -107649 0
0    0    -1.22656e+06

7.48836e+06 -396385 0
-396385 -93572.5 0
0    0    2.21844e+06

1.06498e+07 75034.5 0
75034.5 -50976.8 0
0    0    3.17964e+06

62400.8 -413811 0
-413811 -137845 0
0    0    -22633.1

7.12141e+06 -330165 0
-330165 87981.1 0
0    0    2.16282e+06

6.93893e+06 119507 0
119507 -603600 0
0    0    1.9006e+06

7.23551e+06 771749 0
771749 -783397 0
0    0    1.93563e+06

7.0952e+06 -22738.4 0
-22738.4 -485672 0
0    0    1.98286e+06

-6.68729e+06 583144 0
583144 41393.3 0
0    0    -1.99377e+06

-7.57281e+06 552706 0
552706 828677 0
0    0    -2.02324e+06

1.12898e+07 -167848 0
-167848 5842.98 0
0    0    3.38869e+06

3.54948e+06 -408822 0
-408822 78759.4 0
0    0    1.08847e+06

503606 -332663 0
-332663 12476.3 0
0    0    154825

1.10888e+07 337974 0
337974 409231 0
0    0    3.4494e+06

-5.03843e+06 -42074.8 0
-42074.8 101912 0
0    0    -1.48096e+06

5.68479e+06 677636 0
677636 136714 0
0    0    1.74645e+06

-650124 621509 0
621509 60542.4 0
0    0    -176875

2.0091e+06 653747 0
653747 284860 0
0    0    688189

-1.40306e+06 -394795 0
-394795 398607 0
0    0    -301335

-3.33854e+06 392655 0
392655 -226079 0
0    0    -1.06939e+06

-9.8302e+06 -218898 0
-218898 -69806.2 0
0    0    -2.97e+06

6.10435e+06 80632.8 0
80632.8 -169332 0
0    0    1.78051e+06

6.71087e+06 -192813 0
-192813 87490.9 0
0    0    2.03951e+06

-1.09393e+07 69918.7 0
69918.7 132306 0
0    0    -3.24211e+06

-6.91546e+06 346277 0
346277 -400122 0
0    0    -2.19467e+06

-6.60313e+06 80564.3 0
80564.3 414375 0
0    0    -1.85663e+06

-1.11263e+07 -197671 0
-197671 -322184 0
0    0    -3.43455e+06

-5.32271e+06 -295928 0
-295928 151091 0
0    0    -1.55149e+06

-5.67696e+06 902540 0
902540 54033 0
0    0    -1.68688e+06

-6.5405e+06 145819 0
145819 326097 0
0    0    -1.86432e+06

-1.17803e+07 -499487 0
-499487 -526650 0
0    0    -3.69207e+06

1.55183e+06 686135 0
686135 116855 0
0    0    500604

-3.05819e+06 -71415.1 0
-71415.1 42530.1 0
0    0    -904697

1.05688e+07 212660 0
212660 299435 0
0    0    3.26047e+06

-3.34767e+06 216415 0
216415 -475419 0
0    0    -1.14693e+06

6.6071e+06 59301.1 0
59301.1 -592979 0
0    0    1.80424e+06

5.73009e+06 240268 0
240268 57453.8 0
0    0    1.73626e+06

-2.33733e+06 146865 0
146865 24005.8 0
0    0    -693998

5.81989e+06 -278243 0
-278243 249900 0
0    0    1.82094e+06

-264199 537617 0
537617 -48100.5 0
0    0    -93689.8

2.50032e+06 707803 0
707803 -118680 0
0    0    714492

941170 -201855 0
-201855 624246 0
0    0    469625

7.23332e+06 -398354 0
-398354 -646548 0
0    0    1.97603e+06

9.76587e+06 138620 0
138620 48134.5 0
0    0    2.9442e+06

5.83984e+06 -441001 0
-441001 -18612.7 0
0    0    1.74637e+06

-6.48769e+06 -274668 0
-274668 601737 0
0    0    -1.76579e+06

3.3877e+06 354507 0
354507 -196689 0
0    0    957303

3.31052e+06 -433327 0
-433327 -356050 0
0    0    886342

325712 -357961 0
-357961 301602 0
0    0    188194

9.65355e+06 146166 0
146166 390692 0
0    0    3.01327e+06

5.57187e+06 597160 0
597160 -61835 0
0    0    1.65301e+06

1.49708e+06 -218850 0
-218850 -505190 0
0    0    297566

1.08672e+07 429380 0
429380 254904 0
0    0    3.33663e+06

5.97101e+06 -145663 0
-145663 -470371 0
0    0    1.65019e+06

3.34367e+06 547867 0
547867 159130 0
0    0    1.05084e+06

-6.97015e+06 -655038 0
-655038 -304271 0
0    0    -2.18233e+06

-1.07912e+07 301059 0
301059 -853171 0
0    0    -3.49331e+06

-7.25092e+06 -220364 0
-220364 -304730 0
0    0    -2.2667e+06

1.84329e+06 81205.2 0
81205.2 306361 0
0    0    644895

2.91363e+06 -253970 0
-253970 -117503 0
0    0    838839

-5.78874e+06 559517 0
559517 -15555.7 0
0    0    -1.74129e+06

9.50155e+06 -348020 0
-348020 730142 0
0    0    3.06951e+06

-1.6689e+06 813753 0
813753 -153388 0
0    0    -546686

-2.22342e+06 416705 0
416705 463923 0
0    0    -527849

-3.77603e+06 -153884 0
-153884 61095.9 0
0    0    -1.11448e+06

-5.80645e+06 9573.74 0
9573.74 -121356 0
0    0    -1.77834e+06

1.23004e+06 695230 0
695230 135661 0
0    0    409711

-2.67803e+06 -422525 0
-422525 51241 0
0    0    -788037

5.68739e+06 342780 0
342780 -878313 0
0    0    1.44272e+06

2.41788e+06 280798 0
280798 113792 0
0    0    759503

-7.00486e+06 71465.6 0
71465.6 364735 0
0    0    -1.99204e+06

-5.679e+06 664652 0
664652 -5871.97 0
0    0    -1.70546e+06

-6.72594e+06 -396087 0
-396087 -112540 0
0    0    -2.05154e+06

-1.01852e+07 380358 0
380358 -79208.7 0
0    0    -3.07933e+06

-2.3071e+06 593806 0
593806 -338539 0
0    0    -793693

5.52313e+06 630335 0
630335 346515 0
0    0    1.76089e+06

970170 -534272 0
-534272 -113857 0
0    0    256894

5.45129e+06 -585544 0
-585544 -195691 0
0    0    1.57668e+06

1.09978e+07 -329573 0
-329573 883908 0
0    0    3.56451e+06

3.05169e+06 558459 0
558459 -457523 0
0    0    778251

2.74539e+06 -64593.9 0
-64593.9 -50686 0
0    0    808410

7.61463e+06 441659 0
441659 -39458.5 0
0    0    2.27255e+06

7.47292e+06 -167823 0
-167823 -685050 0
0    0    2.03636e+06

316499 80871.6 0
80871.6 145044 0
0    0    138463

759846 45726.5 0
45726.5 -123739 0
0    0    190832

5.48226e+06 344184 0
344184 446698 0
0    0    1.77869e+06

-2.42057e+06 469191 0
469191 558787 0
0    0    -558535

-6.1838e+06 638943 0
638943 770649 0
0    0    -1.62395e+06

-2.38112e+06 39099.4 0
39099.4 -722822 0
0    0    -931183

-3.09671e+06 -193387 0
-193387 97031 0
0    0    -899903

3.31543e+06 -406716 0
-406716 -396025 0
0    0    875822

-3.13007e+06 189003 0
189003 -566024 0
0    0    -1.10883e+06

-5.55251e+06 523678 0
523678 -278081 0
0    0    -1.74918e+06

-2.36842e+06 -240096 0
-240096 -34899.7 0
0    0    -720995

-6.46676e+06 125153 0
125153 -109346 0
0    0    -1.97283e+06

-9.7456e+06 -292324 0
-292324 254467 0
0    0    -2.84734e+06

4.37495e+06 -393121 0
-393121 -260467 0
0    0    1.23435e+06

2.42163e+06 -430173 0
-430173 418607 0
0    0    852072

-1.08526e+07 197856 0
197856 -421068 0
0    0    -3.38211e+06

-3.57842e+06 690222 0
690222 61020.4 0
0    0    -1.05522e+06

-4.23419e+06 770501 0
770501 26269.3 0
0    0    -1.26237e+06

-7.23487e+06 -539260 0
-539260 645520 0
0    0    -1.9768e+06

-3.50176e+06 -146732 0
-146732 -537412 0
0    0    -1.21175e+06

-4.50152e+06 -296870 0
-296870 209657 0
0    0    -1.28756e+06

-2.61723e+06 273656 0
273656 204411 0
0    0    -723847

-6.06521e+06 -347427 0
-347427 152701 0
0    0    -1.77375e+06

1.26969e+06 683714 0
683714 261222 0
0    0    459272

-1.11816e+06 95547.7 0
95547.7 -99785.8 0
0    0    -365384

5.12183e+06 -449752 0
-449752 202091 0
0    0    1.59718e+06

1.00684e+07 120833 0
120833 273988 0
0    0    3.10271e+06

-632766 59703.1 0
59703.1 73848.8 0
0    0    -167675

-6.50595e+06 114858 0
114858 -15577.9 0
0    0    -1.95646e+06

-2.32669e+06 -88793.9 0
-88793.9 -58559.1 0
0    0    -715576

-5.00021e+06 -121174 0
-121174 -771615 0
0    0    -1.73155e+06

1.84759e+06 195899 0
195899 311195 0
0    0    647635

-4.31221e+06 370334 0
370334 224995 0
0    0    -1.22616e+06

6.64038e+06 574071 0
574071 276322 0
0    0    2.07501e+06

5.61571e+06 936787 0
936787 -158241 0
0    0    1.63724e+06

5.98327e+06 360686 0
360686 -453522 0
0    0    1.65893e+06

2.7242e+06 112007 0
112007 43669.4 0
0    0    830362

9.35823e+06 -164890 0
-164890 199573 0
0    0    2.86734e+06

5.9943e+06 87338.5 0
87338.5 699792 0
0    0    2.00823e+06

1.39058e+06 -76972.6 0
-76972.6 -275039 0
0    0    334662

6.17254e+06 -306380 0
-306380 -168323 0
0    0    1.80127e+06

4.82322e+06 316243 0
316243 -1.12164e+06 0
0    0    1.11047e+06

5.68267e+06 -3436.76 0
-3436.76 -741142 0
0    0    1.48246e+06

-6.08384e+06 424748 0
424748 611907 0
0    0    -1.64158e+06

5.67032e+06 201518 0
201518 -371364 0
0    0    1.58969e+06

2.97655e+06 138198 0
138198 434608 0
0    0    1.02335e+06

-495598 278742 0
278742 -202087 0
0    0    -209306

5.88259e+06 -253205 0
-253205 461150 0
0    0    1.90312e+06

9.04918e+06 179752 0
179752 195190 0
0    0    2.77331e+06

5.80173e+06 208925 0
208925 92336.9 0
0    0    1.76822e+06

-896125 534454 0
534454 -869132 0
0    0    -529577

1.02093e+07 137170 0
137170 385308 0
0    0    3.17839e+06

-6.99505e+06 412330 0
412330 -212895 0
0    0    -2.16238e+06

-9.22762e+06 -236058 0
-236058 -223531 0
0    0    -2.83535e+06

198179 -211454 0
-211454 370789 0
0    0    170691

2.63815e+06 469457 0
469457 -633912 0
0    0    601272

2.84397e+06 651030 0
651030 12172.9 0
0    0    856843

-1.34074e+06 -208994 0
-208994 -198394 0
0    0    -461740

2.28485e+06 421137 0
421137 -200139 0
0    0    625412

-720116 -542900 0
-542900 510426 0
0    0    -62907

-1.05242e+06 -460042 0
-460042 -366940 0
0    0    -425808

-4.44503e+06 -157729 0
-157729 -212354 0
0    0    -1.39722e+06

-5.63313e+06 532916 0
532916 399863 0
0    0    -1.56998e+06

-9.84118e+06 -334942 0
-334942 -430101 0
0    0    -3.08138e+06

-5.99492e+06 714199 0
714199 401189 0
0    0    -1.67812e+06

-9.58402e+06 -417451 0
-417451 -411261 0
0    0    -2.99859e+06

-6.38233e+06 -24283.2 0
-24283.2 -271756 0
0    0    -1.99622e+06

-1.059e+07 -143388 0
-143388 -377887 0
0    0    -3.29037e+06

-2.75021e+06 485157 0
485157 578358 0
0    0    -651557

-5.5978e+06 468748 0
468748 551667 0
0    0    -1.51384e+06

5.586e+06 -289070 0
-289070 91570.3 0
0    0    1.70327e+06

1.58431e+06 600015 0
600015 -178254 0
0    0    421817

-1.41814e+06 -466917 0
-466917 -586322 0
0    0    -601338

-3.70147e+06 127151 0
127151 -366628 0
0    0    -1.22043e+06

2.83432e+06 -324417 0
-324417 666676 0
0    0    1.0503e+06

-2.15752e+06 438789 0
438789 116184 0
0    0    -612400

4.9398e+06 113908 0
113908 717261 0
0    0    1.69712e+06

4.6888e+06 -596820 0
-596820 56388.3 0
0    0    1.42356e+06

-2.61129e+06 832624 0
832624 872683 0
0    0    -521581

1.75735e+06 640145 0
640145 -824054 0
0    0    279989

-5.87534e+06 90653.4 0
90653.4 289963 0
0    0    -1.67561e+06

-5.53982e+06 -303405 0
-303405 -210615 0
0    0    -1.72513e+06

-5.7517e+06 100121 0
100121 496245 0
0    0    -1.57664e+06

-9.18485e+06 29399.7 0
29399.7 108379 0
0    0    -2.72294e+06

-9.2412e+06 43311 0
43311 -171808 0
0    0    -2.8239e+06

636231 164672 0
164672 -486146 0
0    0    45025.4

-6.02279e+06 -224769 0
-224769 -376444 0
0    0    -1.91977e+06

-6.30602e+06 -128341 0
-128341 58352 0
0    0    -1.8743e+06

-3.33771e+06 632734 0
632734 452213 0
0    0    -865650

-9.09341e+06 246546 0
246546 -211072 0
0    0    -2.79134e+06

-9.65996e+06 55128.9 0
55128.9 -205897 0
0    0    -2.95976e+06

-6.2611e+06 -121918 0
-121918 -703657 0
0    0    -2.08943e+06

1.64714e+06 32580.1 0
32580.1 209748 0
0    0    557066

-3.49383e+06 -468334 0
-468334 92477.7 0
0    0    -1.02041e+06

939860 -27593.9 0
-27593.9 260764 0
0    0    360187

5.29815e+06 119208 0
119208 -766874 0
0    0    1.35938e+06

3.21229e+06 431380 0
431380 254982 0
0    0    1.04018e+06

-2.69918e+06 507932 0
507932 15589 0
0    0    -805079

-5.8525e+06 -347193 0
-347193 8065.02 0
0    0    -1.75333e+06

-6.08594e+06 502778 0
502778 -57063.9 0
0    0    -1.8429e+06

-3.32791e+06 673173 0
673173 163586 0
0    0    -949297

-6.8986e+06 51332.1 0
51332.1 -204457 0
0    0    -2.13092e+06

972010 344894 0
344894 392061 0
0    0    409221

-6.42915e+06 -327229 0
-327229 590571 0
0    0    -1.75157e+06

-9.32864e+06 29098 0
29098 280636 0
0    0    -2.7144e+06

-3782.14 163669 0
163669 -21080.3 0
0    0    -7458.74

-5.69815e+06 -262296 0
-262296 143950 0
0    0    -1.66626e+06

-1.43594e+06 450583 0
450583 -176437 0
0    0    -483712

-2.355e+06 -54.5097 0
-54.5097 165590 0
0    0    -656823

-9.51791e+06 -246304 0
-246304 -600321 0
0    0    -3.03547e+06

-5.45014e+06 513145 0
513145 550470 0
0    0    -1.4699e+06

-3.02552e+06 449522 0
449522 -55250.5 0
0    0    -924232

1.25995e+06 4587.37 0
4587.37 -630509 0
0    0    188833

306684 432209 0
432209 337231 0
0    0    193174

-2.78524e+06 -174541 0
-174541 41978.3 0
0    0    -822979

9.74883e+06 63632.3 0
63632.3 -369175 0
0    0    2.8139e+06

-5.94649e+06 -367706 0
-367706 -35713.3 0
0    0    -1.79466e+06

5.81888e+06 184441 0
184441 126601 0
0    0    1.78364e+06

-942041 592494 0
592494 -179273 0
0    0    -336394

4.58383e+06 320135 0
320135 45359.3 0
0    0    1.38876e+06

395785 -370803 0
-370803 55802.4 0
0    0    135476

8.38367e+06 162127 0
162127 -63843.5 0
0    0    2.49595e+06

6.20562e+06 705372 0
705372 698053 0
0    0    2.0711e+06

1.9566e+06 449478 0
449478 -2529.39 0
0    0    586223

-3.57367e+06 -92047.3 0
-92047.3 -118796 0
0    0    -1.10774e+06

6.80067e+06 -236051 0
-236051 39028.1 0
0    0    2.05191e+06

6.48734e+06 395701 0
395701 80392.1 0
0    0    1.97032e+06

4.41731e+06 -623643 0
-623643 -617863 0
0    0    1.13984e+06

1.90246e+06 412128 0
412128 -239870 0
0    0    498778

8.13818e+06 62337.2 0
62337.2 -24724.3 0
0    0    2.43404e+06

-1.37895e+06 222668 0
222668 -365745 0
0    0    -523407

409872 575275 0
575275 412690 0
0    0    246769

-4.03089e+06 398800 0
398800 73739.8 0
0    0    -1.18715e+06

-2.62361e+06 -542154 0
-542154 -665457 0
0    0    -986721

5.64333e+06 607691 0
607691 415844 0
0    0    1.81775e+06

1.83781e+06 -1311.58 0
-1311.58 451604 0
0    0    686826

9.9413e+06 -52208.8 0
-52208.8 310833 0
0    0    3.07564e+06

4.71636e+06 581126 0
581126 -155958 0
0    0    1.36812e+06

6.32415e+06 551321 0
551321 -103348 0
0    0    1.86624e+06

9.83759e+06 431882 0
431882 475028 0
0    0    3.09379e+06

6.11404e+06 -122452 0
-122452 -727932 0
0    0    1.61583e+06

3.06094e+06 -270864 0
-270864 -33898.9 0
0    0    908111

-218378 290321 0
290321 -434408 0
0    0    -195836

5.9528e+06 -295426 0
-295426 -411229 0
0    0    1.66247e+06

8.42285e+06 246475 0
246475 84672 0
0    0    2.55226e+06

4.25163e+06 -434933 0
-434933 -188100 0
0    0    1.21906e+06

8.98008e+06 68124.5 0
68124.5 110140 0
0    0    2.72706e+06

-1.6148e+06 -508269 0
-508269 -688530 0
0    0    -690999

4.60876e+06 718743 0
718743 15995.8 0
0    0    1.38743e+06

2.1194e+06 -655990 0
-655990 -402873 0
0    0    514957

875498 -16815.1 0
-16815.1 -174418 0
0    0    210324

3.78545e+06 -85896.7 0
-85896.7 -39236 0
0    0    1.12386e+06

8.32714e+06 -48168.1 0
-48168.1 -158189 0
0    0    2.45069e+06

5.67604e+06 -27579.4 0
-27579.4 258177 0
0    0    1.78027e+06

9.39954e+06 19721.1 0
19721.1 -6794.66 0
0    0    2.81782e+06

6.22587e+06 -226118 0
-226118 -167347 0
0    0    1.81756e+06

3.55721e+06 134234 0
134234 11573.1 0
0    0    1.07063e+06

-116555 -219230 0
-219230 233433 0
0    0    35063.3

4.57196e+06 -309645 0
-309645 128206 0
0    0    1.41005e+06

9.10569e+06 376260 0
376260 376579 0
0    0    2.84468e+06

4.68564e+06 437924 0
437924 -29009.2 0
0    0    1.39699e+06

2.26955e+06 404663 0
404663 -284399 0
0    0    595546

3.43584e+06 267616 0
267616 524940 0
0    0    1.18823e+06

9.03962e+06 112933 0
112933 -88280.2 0
0    0    2.6854e+06

1.91257e+06 -361009 0
-361009 82158.7 0
0    0    598418

3.08986e+06 1744.01 0
1744.01 43087.9 0
0    0    939884

-2.18802e+06 388555 0
388555 144109 0
0    0    -613173

5.3743e+06 489876 0
489876 -926.929 0
0    0    1.61201e+06

5.00667e+06 -335586 0
-335586 188801 0
0    0    1.55864e+06

-9.45993e+06 341907 0
341907 53885.9 0
0    0    -2.82181e+06

-4.27744e+06 -17575.2 0
-17575.2 42158.7 0
0    0    -1.27059e+06

-8.50524e+06 45549.7 0
45549.7 89495.8 0
0    0    -2.52472e+06

3.43771e+06 583349 0
583349 -209873 0
0    0    968352

5.43575e+06 188254 0
188254 87485.4 0
0    0    1.65697e+06

-4.91226e+06 -450455 0
-450455 628748 0
0    0    -1.28505e+06

-3.66484e+06 680890 0
680890 -33799.4 0
0    0    -1.10959e+06

8.61376e+06 -40144.1 0
-40144.1 20948.6 0
0    0    2.59041e+06

310561 536038 0
536038 41597.5 0
0    0    105648

7.9635e+06 357794 0
357794 -217468 0
0    0    2.32381e+06

3.55914e+06 123205 0
123205 138660 0
0    0    1.10934e+06

272811 134979 0
134979 -212888 0
0    0    17977

5.85398e+06 -195758 0
-195758 -69529.8 0
0    0    1.73534e+06

-1.68982e+06 509229 0
509229 -170109 0
0    0    -557978

7.67477e+06 152650 0
152650 205000 0
0    0    2.36393e+06

3.58497e+06 -355531 0
-355531 -123407 0
0    0    1.03847e+06

241377 -476213 0
-476213 216584 0
0    0    137389

2.45391e+06 172981 0
172981 399214 0
0    0    855936

3.1115e+06 -116926 0
-116926 392441 0
0    0    1.05118e+06

-5.22173e+06 370428 0
370428 447273 0
0    0    -1.43234e+06

-1.94414e+06 64018.8 0
64018.8 265306 0
0    0    -503650

-3.38642e+06 331668 0
331668 283615 0
0    0    -930843

-8.38503e+06 374440 0
374440 -624168 0
0    0    -2.70276e+06

315658 121051 0
121051 -116855 0
0    0    59640.8

-4.88855e+06 -212842 0
-212842 -82092.5 0
0    0    -1.49119e+06

-2.52136e+06 -256617 0
-256617 135671 0
0    0    -715707

-4.77133e+06 353837 0
353837 -150965 0
0    0    -1.47669e+06

4.18496e+06 506328 0
506328 263061 0
0    0    1.33441e+06

-6.07052e+06 33244.4 0
33244.4 -371992 0
0    0    -1.93275e+06

5.8055e+06 -143679 0
-143679 -423583 0
0    0    1.61457e+06

4.68247e+06 92743 0
92743 400492 0
0    0    1.52489e+06

-7.68172e+06 419328 0
419328 352781 0
0    0    -2.19868e+06

-8.911e+06 -266281 0
-266281 -672190 0
0    0    -2.87496e+06

-1.71029e+06 408771 0
408771 331807 0
0    0    -413544

-1.55212e+06 -215435 0
-215435 5718.99 0
0    0    -463919

-4.19386e+06 -229603 0
-229603 -348442 0
0    0    -1.36269e+06

-3.17979e+06 -416060 0
-416060 -57803.8 0
0    0    -971278

-5.2113e+06 542186 0
542186 233560 0
0    0    -1.49332e+06

-2.26839e+06 -170288 0
-170288 -96779.6 0
0    0    -709552

-7.91588e+06 -184149 0
-184149 258768 0
0    0    -2.29713e+06

1.37694e+06 520193 0
520193 -197966 0
0    0    353691

-1.72178e+06 531384 0
531384 10355.7 0
0    0    -513427

-8.75473e+06 -138639 0
-138639 -355311 0
0    0    -2.73301e+06

5.65338e+06 -309965 0
-309965 118680 0
0    0    1.73162e+06

-8.20471e+06 275051 0
275051 -313162 0
0    0    -2.55536e+06

-2.5957e+06 -483968 0
-483968 673636 0
0    0    -576619

-2.24857e+06 -18469.4 0
-18469.4 405886 0
0    0    -552806

-2.09462e+06 212518 0
212518 -511715 0
0    0    -781902

-5.3413e+06 446861 0
446861 -268692 0
0    0    -1.683e+06

-5.70541e+06 571977 0
571977 -142220 0
0    0    -1.75429e+06

-4.78842e+06 61223.2 0
61223.2 -94003.6 0
0    0    -1.46473e+06

-5.77443e+06 -416825 0
-416825 664148 0
0    0    -1.53308e+06

-5.75304e+06 171920 0
171920 790207 0
0    0    -1.48885e+06

-5.84417e+06 -117268 0
-117268 -75169.8 0
0    0    -1.7758e+06

-8.02861e+06 -163593 0
-163593 85793.1 0
0    0    -2.38284e+06

-4.42609e+06 817981 0
817981 448132 0
0    0    -1.19339e+06

-2.13646e+06 478844 0
478844 31243.7 0
0    0    -631564

-1.76018e+06 27063.2 0
27063.2 172541 0
0    0    -476292

7.28227e+06 -657575 0
-657575 -464276 0
0    0    2.0454e+06

4.46707e+06 -116946 0
-116946 -231729 0
0    0    1.2706e+06

7.53042e+06 -332573 0
-332573 -394292 0
0    0    2.14084e+06

1.21137e+07 583377 0
583377 586089 0
0    0    3.80993e+06

4.8377e+06 202743 0
202743 -156819 0
0    0    1.40426e+06

4.81614e+06 54870.2 0
54870.2 -673378 0
0    0    1.24283e+06

5.13757e+06 34653.1 0
34653.1 -642089 0
0    0    1.34864e+06

2.16907e+06 -234942 0
-234942 -197170 0
0    0    591570

8.00842e+06 -259139 0
-259139 306250 0
0    0    2.4944e+06

4.5359e+06 68836.4 0
68836.4 -764534 0
0    0    1.13141e+06

1.70155e+06 226763 0
226763 -110146 0
0    0    477421

4.83146e+06 -216661 0
-216661 184774 0
0    0    1.50487e+06

29501 182404 0
182404 13516.8 0
0    0    12905.4

3.90556e+06 50973.8 0
50973.8 -251479 0
0    0    1.09623e+06

232755 -390674 0
-390674 -197448 0
0    0    10592

2.59344e+06 256135 0
256135 356.072 0
0    0    778140

2.49554e+06 -586809 0
-586809 -144992 0
0    0    705163

5.61167e+06 -212661 0
-212661 236212 0
0    0    1.75437e+06

317292 -614713 0
-614713 92429.1 0
0    0    122916

3.49079e+06 -642829 0
-642829 21598.1 0
0    0    1.05372e+06

1.70071e+06 -415105 0
-415105 -242018 0
0    0    437606

5.03587e+06 174517 0
174517 -709895 0
0    0    1.29779e+06

8.7448e+06 -121884 0
-121884 129228 0
0    0    2.66221e+06

-4.10805e+06 -460402 0
-460402 -207387 0
0    0    -1.29463e+06

5.52075e+06 238231 0
238231 -461950 0
0    0    1.51764e+06

455601 29369.5 0
29369.5 50240.2 0
0    0    151752

2.06596e+06 23889.5 0
23889.5 -72681.2 0
0    0    597984

1.49937e+06 267900 0
267900 234318 0
0    0    520105

-4.52647e+06 -599753 0
-599753 443066 0
0    0    -1.22502e+06

-756307 -466476 0
-466476 653936 0
0    0    -30711.2

-4.88065e+06 -32330 0
-32330 41869.3 0
0    0    -1.45164e+06

-4.12942e+06 142809 0
142809 -370172 0
0    0    -1.34988e+06

-4.88536e+06 -209622 0
-209622 172096 0
0    0    -1.41398e+06

5.22074e+06 -561581 0
-561581 62348.7 0
0    0    1.58493e+06

2.05035e+06 91283.4 0
91283.4 -28381.2 0
0    0    606590

-1.64917e+06 -152079 0
-152079 253485 0
0    0    -418705

-777843 252838 0
252838 210573 0
0    0    -170181

1.7837e+06 -671804 0
-671804 243791 0
0    0    608246

4.96648e+06 -177776 0
-177776 -466244 0
0    0    1.35007e+06

-3.12361e+06 -504244 0
-504244 -61902.3 0
0    0    -955653

4.63588e+06 217887 0
217887 248723 0
0    0    1.46538e+06

-7.71437e+06 -71210.7 0
-71210.7 -71556.1 0
0    0    -2.33578e+06

-7.42107e+06 2376.04 0
2376.04 -303414 0
0    0    -2.31734e+06

1.86398e+06 -254510 0
-254510 -423463 0
0    0    432154

-524516 -446720 0
-446720 75500.3 0
0    0    -134705

-2.58897e+06 29147.6 0
29147.6 -246004 0
0    0    -850492

-4.10201e+06 348836 0
348836 -20214.8 0
0    0    -1.23667e+06

-2.53177e+06 -568420 0
-568420 -203063 0
0    0    -820449

-5.55222e+06 -399521 0
-399521 497521 0
0    0    -1.51641e+06

-7.6269e+06 -21343.2 0
-21343.2 -140831 0
0    0    -2.33032e+06

2.95149e+06 -575904 0
-575904 -375026 0
0    0    772940

2.10183e+06 92521.7 0
92521.7 -309944 0
0    0    537565

7.69755e+06 -91306.9 0
-91306.9 211292 0
0    0    2.37265e+06

5.19737e+06 -542211 0
-542211 826242 0
0    0    1.80708e+06

4.69079e+06 242417 0
242417 -173157 0
0    0    1.35529e+06

4.82644e+06 -513988 0
-513988 -111148 0
0    0    1.41459e+06

8.18601e+06 107489 0
107489 500875 0
0    0    2.60607e+06

1.59864e+06 -499993 0
-499993 78223.6 0
0    0    503060

4.45283e+06 393222 0
393222 113467 0
0    0    1.36989e+06

-4.6171e+06 -567588 0
-567588 -126540 0
0    0    -1.42309e+06

7.38556e+06 47506.5 0
47506.5 68604.6 0
0    0    2.23625e+06

4.04652e+06 -702196 0
-702196 -60666.1 0
0    0    1.19576e+06

2.77558e+06 127797 0
127797 159018 0
0    0    880380

5.42319e+06 -323449 0
-323449 -253225 0
0    0    1.55099e+06

-304912 85187 0
85187 -77058.8 0
0    0    -114591

3.03175e+06 -447222 0
-447222 103929 0
0    0    940704

6.63638e+06 -36671.2 0
-36671.2 34218.2 0
0    0    2.00118e+06

2.00952e+06 -665921 0
-665921 -68777.7 0
0    0    582224

1.22654e+06 108626 0
108626 54807.6 0
0    0    384403

6.75673e+06 177431 0
177431 -234406 0
0    0    1.9567e+06

5.06049e+06 -508419 0
-508419 221784 0
0    0    1.58468e+06

-4.61044e+06 212429 0
212429 266578 0
0    0    -1.30316e+06

6.69438e+06 -249759 0
-249759 -261129 0
0    0    1.92997e+06

-748903 164119 0
164119 -32006 0
0    0    -234273

440993 -525159 0
-525159 119503 0
0    0    168149

440645 91941 0
91941 456077 0
0    0    269017

1.63017e+06 -422591 0
-422591 -253931 0
0    0    412871

3.32538e+06 243665 0
243665 -451832 0
0    0    862065

1.3933e+06 -106851 0
-106851 337022 0
0    0    519096

-4.10725e+06 -274976 0
-274976 269375 0
0    0    -1.15136e+06

-1.21559e+06 -427391 0
-427391 -379239 0
0    0    -478450

1.26783e+06 642.95 0
642.95 -149175 0
0    0    335595

4.39276e+06 -122148 0
-122148 -481200 0
0    0    1.17347e+06

3.82684e+06 71775.4 0
71775.4 -99455.1 0
0    0    1.11822e+06

-308990 14410.3 0
14410.3 -70387.9 0
0    0    -113813

4.43032e+06 -339426 0
-339426 143758 0
0    0    1.37222e+06

4.44735e+06 -470104 0
-470104 115364 0
0    0    1.36881e+06

7.38431e+06 51292.1 0
51292.1 376006 0
0    0    2.32809e+06

3.51366e+06 161664 0
161664 75359.6 0
0    0    1.07671e+06

-3.78999e+06 -247362 0
-247362 -263533 0
0    0    -1.21606e+06

4.41679e+06 -121299 0
-121299 284658 0
0    0    1.41043e+06

1.20535e+06 -561177 0
-561177 -156930 0
0    0    314527

4.68662e+06 4924.64 0
4924.64 87267.4 0
0    0    1.43217e+06

-225311 -476695 0
-476695 19107.7 0
0    0    -61861.1

6.33236e+06 -110651 0
-110651 146037 0
0    0    1.94352e+06

1.21499e+06 112064 0
112064 -221401 0
0    0    298076

-5.03484e+06 -397068 0
-397068 256727 0
0    0    -1.43343e+06

-236131 -796631 0
-796631 423726 0
0    0    56278.4

1.88284e+06 2946.45 0
2946.45 83598.3 0
0    0    589933

-1.83126e+06 -568599 0
-568599 58322.1 0
0    0    -531883

-2.15178e+06 61591.8 0
61591.8 -26657.6 0
0    0    -653531

-3.43134e+06 -136038 0
-136038 474263 0
0    0    -887122

46283.9 81691.3 0
81691.3 -532222 0
0    0    -145782

-291922 -343153 0
-343153 -269453 0
0    0    -168413

-4.35289e+06 -443175 0
-443175 -100571 0
0    0    -1.33604e+06

-4.24141e+06 -22391.3 0
-22391.3 22179.1 0
0    0    -1.26577e+06

-6.16824e+06 -169807 0
-169807 -131375 0
0    0    -1.88989e+06

-4.09867e+06 301836 0
301836 502531 0
0    0    -1.07884e+06

-6.44324e+06 -210649 0
-210649 -50717.7 0
0    0    -1.94819e+06

-1.64892e+06 126885 0
126885 279614 0
0    0    -410791

3.99914e+06 -23539.2 0
-23539.2 -72255.9 0
0    0    1.17807e+06

-739440 -69911.9 0
-69911.9 241927 0
0    0    -149254

-5.63668e+06 -233629 0
-233629 -156616 0
0    0    -1.73799e+06

-2.97309e+06 -489932 0
-489932 -173324 0
0    0    -943925

1.67937e+06 57532.3 0
57532.3 -73715.6 0
0    0    481696

-6.4935e+06 -301975 0
-301975 -315364 0
0    0    -2.04266e+06

2.76311e+06 -295460 0
-295460 490467 0
0    0    976074

4.36351e+06 -149884 0
-149884 -140741 0
0    0    1.26683e+06

-3.50319e+06 -220370 0
-220370 29001.9 0
0    0    -1.04226e+06

-4.9396e+06 -439339 0
-439339 -236859 0
0    0    -1.55294e+06

-853322 -496607 0
-496607 142959 0
0    0    -213109

-3.19081e+06 26578.3 0
26578.3 -37532.7 0
0    0    -968503

562720 -352079 0
-352079 -530807 0
0    0    9573.76

79227.4 -406532 0
-406532 -189764 0
0    0    -33161.1

-2.22483e+06 -540894 0
-540894 -298155 0
0    0    -756896

-863842 -68669.4 0
-68669.4 -50656.6 0
0    0    -274349

2.59092e+06 137026 0
137026 -102926 0
0    0    746399

6.22299e+06 -40385.3 0
-40385.3 42339.1 0
0    0    1.8796e+06

3.8688e+06 -418286 0
-418286 59790.7 0
0    0    1.17858e+06

1.74832e+06 -527460 0
-527460 130306 0
0    0    563587

-649279 75116 0
75116 471675 0
0    0    -53281.3

1.54516e+06 -486644 0
-486644 483562 0
0    0    608616

-935696 -76217 0
-76217 -122241 0
0    0    -317381

2.32056e+06 87040.3 0
87040.3 -225031 0
0    0    628658

4.4345e+06 -440586 0
-440586 -14533.1 0
0    0    1.32599e+06

2.75573e+06 -370527 0
-370527 37980.3 0
0    0    838113

6.73128e+06 -104305 0
-104305 -151505 0
0    0    1.97393e+06

4.4807e+06 -280455 0
-280455 -63656.1 0
0    0    1.32511e+06

1.13388e+06 27105.9 0
27105.9 -178047 0
0    0    286751

2.31388e+06 -49347.8 0
-49347.8 -250792 0
0    0    618927

-898342 -322243 0
-322243 309364 0
0    0    -176693

-968343 -459773 0
-459773 -116081 0
0    0    -325327

-3.08349e+06 83005.4 0
83005.4 -532747 0
0    0    -1.08487e+06

-7.2479e+06 -165334 0
-165334 -17790.4 0
0    0    -2.17971e+06

-747199 -628080 0
-628080 264948 0
0    0    -144675

-3.09707e+06 186946 0
186946 156937 0
0    0    -882039

-4.96657e+06 -10849.7 0
-10849.7 -11752.5 0
0    0    -1.4935e+06

-5.23587e+06 -303161 0
-303161 206085 0
0    0    -1.50893e+06

-2.63961e+06 -262972 0
-262972 61019.8 0
0    0    -773576

-5.27985e+06 -211995 0
-211995 189370 0
0    0    -1.52714e+06

-5.02963e+06 -286640 0
-286640 -109607 0
0    0    -1.54177e+06

-5.30071e+06 -121298 0
-121298 -224381 0
0    0    -1.65753e+06

-6.90654e+06 -25286.9 0
-25286.9 -1860.68 0
0    0    -2.07252e+06

-4.19502e+06 336450 0
336450 -168811 0
0    0    -1.30915e+06

-2.30075e+06 -583086 0
-583086 173461 0
0    0    -638188

-7.19425e+06 -5038.06 0
-5038.06 232823 0
0    0    -2.08843e+06

-6.85613e+06 -41312.2 0
-41312.2 -9438.34 0
0    0    -2.05967e+06

-5.14969e+06 -190745 0
-190745 176065 0
0    0    -1.49209e+06

-3.19683e+06 182566 0
182566 76208 0
0    0    -936188

-5.25069e+06 158040 0
158040 -78102.6 0
0    0    -1.59864e+06

-3.15283e+06 -25533.2 0
-25533.2 107369 0
0    0    -913638

-5.10855e+06 -86973.6 0
-86973.6 -19864.9 0
0    0    -1.53852e+06

930909 43174.6 0
43174.6 651271 0
0    0    474654

-3.24216e+06 -697597 0
-697597 -654958 0
0    0    -1.16914e+06

-620577 69250.2 0
69250.2 -158954 0
0    0    -233859

-3.39619e+06 187996 0
187996 236463 0
0    0    -947919

-6.1512e+06 -90976.3 0
-90976.3 -311339 0
0    0    -1.93876e+06

2.90096e+06 -356017 0
-356017 247840 0
0    0    944640

5.74696e+06 -79872.5 0
-79872.5 30458.5 0
0    0    1.73323e+06

1.00109e+06 -67002.3 0
-67002.3 195714 0
0    0    359040

-5.56514e+06 -41247.5 0
-41247.5 -56345.2 0
0    0    -1.68645e+06

6.07284e+06 -49727.2 0
-49727.2 20755.9 0
0    0    1.82808e+06

2.6029e+06 -57061.1 0
-57061.1 184902 0
0    0    836341

546041 -541887 0
-541887 124130 0
0    0    201051

3.31176e+06 -391560 0
-391560 -170458 0
0    0    942392

4.28438e+06 19776.5 0
19776.5 319030 0
0    0    1.38102e+06

-1.49132e+06 -538167 0
-538167 161105 0
0    0    -399064

-1.30374e+06 -562649 0
-562649 -77476.4 0
0    0    -414365

4.22707e+06 -247474 0
-247474 -67458.5 0
0    0    1.24788e+06

2.66744e+06 -280068 0
-280068 106549 0
0    0    832198

-3.10266e+06 -460405 0
-460405 227658 0
0    0    -862502

5.34479e+06 137338 0
137338 297847 0
0    0    1.69279e+06

-2.11313e+06 24723.8 0
24723.8 -260783 0
0    0    -712174

516250 40350.5 0
40350.5 134754 0
0    0    195301

-2.96726e+06 87624.9 0
87624.9 -132823 0
0    0    -930026

-5.53922e+06 -62883.8 0
-62883.8 -279006 0
0    0    -1.74547e+06

1.5062e+06 103936 0
103936 -236381 0
0    0    380946

3.50943e+06 -381606 0
-381606 -499103 0
0    0    903098

-4.02202e+06 -282159 0
-282159 -153440 0
0    0    -1.25264e+06

-3.63928e+06 -444134 0
-444134 -179175 0
0    0    -1.14554e+06

-3.75497e+06 -25444.5 0
-25444.5 156833 0
0    0    -1.07944e+06

-1.59905e+06 -407339 0
-407339 -293550 0
0    0    -567780

-3.36545e+06 91369.3 0
91369.3 -83323.1 0
0    0    -1.03463e+06

1.16031e+06 -262753 0
-262753 -506660 0
0    0    196096

-2.9019e+06 62224.1 0
62224.1 -22724.4 0
0    0    -877387

-1.45123e+06 -84376.9 0
-84376.9 55767.8 0
0    0    -418638

-2.844e+06 -305594 0
-305594 -145350 0
0    0    -896804

-3.43275e+06 139529 0
139529 327205 0
0    0    -931664

4.92669e+06 -31934.4 0
-31934.4 54126.8 0
0    0    1.49425e+06

-4.58199e+06 -217199 0
-217199 -165324 0
0    0    -1.42419e+06

-2.64963e+06 -411959 0
-411959 113176 0
0    0    -760935

3.13457e+06 -90001.3 0
-90001.3 152335 0
0    0    986072

-5.35983e+06 -310140 0
-310140 -158470 0
0    0    -1.65549e+06

3.41328e+06 -93505.9 0
-93505.9 -437750 0
0    0    892659

-1.56225e+06 -362496 0
-362496 -302048 0
0    0    -559288

2.73783e+06 -479936 0
-479936 73503.2 0
0    0    843399

-231722 -476881 0
-476881 59611.9 0
0    0    -51633.1

-3.15959e+06 -6052.91 0
-6052.91 -146709 0
0    0    -991891

-2.78822e+06 -239135 0
-239135 214477 0
0    0    -772124

-1.49121e+06 -342193 0
-342193 -82416.4 0
0    0    -472087

-1.54464e+06 -95891.8 0
-95891.8 -35561 0
0    0    -474059

-1.88439e+06 -452647 0
-452647 -165570 0
0    0    -614989

-25988.8 -380073 0
-380073 149297 0
0    0    36992.4

286507 127012 0
127012 -140541 0
0    0    43789.7

389103 -335424 0
-335424 -102180 0
0    0    86077

-3.34567e+06 -208039 0
-208039 184718 0
0    0    -948285

-3.39966e+06 32910.2 0
32910.2 181580 0
0    0    -965423

-1.08925e+06 -258857 0
-258857 235756 0
0    0    -256049

3.19054e+06 -156260 0
-156260 223778 0
0    0    1.0243e+06

5.62033e+06 184776 0
184776 170474 0
0    0    1.73724e+06

3.66888e+06 -267372 0
-267372 124526 0
0    0    1.13802e+06

-2.34253e+06 -3875.54 0
-3875.54 -109929 0
0    0    -735738

-774384 -482061 0
-482061 78270.3 0
0    0    -208834

-1.53109e+06 -91906.9 0
-91906.9 -53130.6 0
0    0    -475267

-1.40411e+06 -438091 0
-438091 -34214.7 0
0    0    -431497

-4.99621e+06 12752.9 0
12752.9 -271606 0
0    0    -1.58035e+06

-4.36478e+06 -39126.6 0
-39126.6 -86034.8 0
0    0    -1.33525e+06

-3.31331e+06 -429545 0
-429545 -12407.9 0
0    0    -997715

-2.83177e+06 -137995 0
-137995 346004 0
0    0    -745729

2.86315e+06 -7148.95 0
-7148.95 -15575.4 0
0    0    854271

2.41185e+06 -8881.92 0
-8881.92 37038.9 0
0    0    734667

-2.16018e+06 -438593 0
-438593 141093 0
0    0    -605725

-1.46745e+06 -3387.99 0
-3387.99 -54491 0
0    0    -456581

-2.73387e+06 -123954 0
-123954 49183.2 0
0    0    -805408

377075 -437869 0
-437869 161656 0
0    0    161619

-2.8221e+06 -384199 0
-384199 -151389 0
0    0    -892047

339065 -147637 0
-147637 -27234.5 0
0    0    93549.1

-4.20781e+06 -85483.7 0
-85483.7 -115344 0
0    0    -1.29695e+06

-1.46716e+06 10030.4 0
10030.4 106201 0
0    0    -408287

-589796 -83293.2 0
-83293.2 -133024 0
0    0    -216846

-1.16353e+06 -162759 0
-162759 -145599 0
0    0    -392738

-20403.7 -104249 0
-104249 -140990 0
0    0    -48418.1

-1.95324e+06 -188375 0
-188375 -210136 0
0    0    -649014

1.80693e+06 9292.49 0
9292.49 -8290.89 0
0    0    539591

-2.61332e+06 740.062 0
740.062 -141243 0
0    0    -826369

-4.18306e+06 -45431.6 0
-45431.6 -76169.4 0
0    0    -1.27777e+06

-2.28529e+06 -231682 0
-231682 174711 0
0    0    -633173

-1.13162e+06 -360435 0
-360435 194284 0
0    0    -281202

-452136 61566.6 0
61566.6 152260 0
0    0    -89962.6

1.65253e+06 103173 0
103173 -191003 0
0    0    438459

-796049 36151.3 0
36151.3 35491.2 0
0    0    -228167

2.09582e+06 -534529 0
-534529 416144 0
0    0    753588

2.28808e+06 92050.9 0
92050.9 215738 0
0    0    751146

-555386 -284833 0
-284833 -193200 0
0    0    -224576

2.78927e+06 -88539.2 0
-88539.2 -332560 0
0    0    737013

361639 -264521 0
-264521 -18137.8 0
0    0    103050

-2.64567e+06 -238499 0
-238499 174433 0
0    0    -741370

-1.12333e+06 -378782 0
-378782 36130.4 0
0    0    -326159

-2.83116e+06 -71896.8 0
-71896.8 28566.7 0
0    0    -840777

249425 -293777 0
-293777 -190736 0
0    0    17606.7

-2.62304e+06 -23857 0
-23857 56375.9 0
0    0    -769999

-3.63787e+06 -147112 0
-147112 -86824.4 0
0    0    -1.11741e+06

5.00648e+06 -214389 0
-214389 -155363 0
0    0    1.45533e+06

1.79325e+06 -444223 0
-444223 221940 0
0    0    604557

255184 31605.2 0
31605.2 -364257 0
0    0    -32721.7

2.21785e+06 5729.09 0
5729.09 -122413 0
0    0    628633

-965512 -80446.5 0
-80446.5 -154382 0
0    0    -335968

305314 -59059.4 0
-59059.4 63146 0
0    0    110538

5.51223e+06 -121178 0
-121178 39371.9 0
0    0    1.66548e+06

194245 -69199.5 0
-69199.5 -250604 0
0    0    -16907.8

3.16042e+06 -121083 0
-121083 18914.3 0
0    0    953800

1.47197e+06 -127219 0
-127219 -133919 0
0    0    401416

-800096 -13496.9 0
-13496.9 44550 0
0    0    -226664

-749338 -460416 0
-460416 48600.8 0
0    0    -210221

157649 -427843 0
-427843 -3731.6 0
0    0    46175.1

3.97971e+06 -129836 0
-129836 -6713.98 0
0    0    1.1919e+06

-845568 -97040.8 0
-97040.8 -67246.3 0
0    0    -273844

1.45116e+06 -223481 0
-223481 -114565 0
0    0    400979

-3.12558e+06 -9654.6 0
-9654.6 -46465.3 0
0    0    -951613

-3.59754e+06 -65938.1 0
-65938.1 -46999.6 0
0    0    -1.09336e+06

-2.18377e+06 -27214.3 0
-27214.3 -39826.6 0
0    0    -667078

1.71448e+06 76188.3 0
76188.3 -161939 0
0    0    465764

1.90476e+06 -191121 0
-191121 369862 0
0    0    682387

1.81589e+06 -616372 0
-616372 235311 0
0    0    615360

2.66073e+06 -337865 0
-337865 -116767 0
0    0    763188

3.15129e+06 -214241 0
-214241 -191643 0
0    0    887894

4.17156e+06 -253871 0
-253871 86446.1 0
0    0    1.2774e+06

4.41411e+06 -64606.4 0
-64606.4 149919 0
0    0    1.36921e+06

2.51387e+06 -661512 0
-661512 -110320 0
0    0    721065

1.25914e+06 -275799 0
-275799 4951.65 0
0    0    379228

1.80704e+06 -353271 0
-353271 337716 0
0    0    643426

3.26975e+06 66339.2 0
66339.2 -227073 0
0    0    912804

3.21996e+06 -138281 0
-138281 -312734 0
0    0    872168

1.50914e+06 -410806 0
-410806 53249.7 0
0    0    468716

4.53107e+06 -85702.6 0
-85702.6 -83046.9 0
0    0    1.33441e+06

978245 -378132 0
-378132 198873 0
0    0    353136

1.20938e+06 -94553.5 0
-94553.5 147409 0
0    0    407036

359256 -296186 0
-296186 70453.9 0
0    0    128913

2.46126e+06 -87232.7 0
-87232.7 33293.4 0
0    0    748366

2.67791e+06 -223534 0
-223534 -120845 0
0    0    767120

2.60951e+06 -10314.2 0
-10314.2 368350 0
0    0    893357

1.44472e+06 -359253 0
-359253 -93689.6 0
0    0    405310

1.20923e+06 -529368 0
-529368 67818.9 0
0    0    383114

3.69105e+06 -47899.4 0
-47899.4 56997.6 0
0    0    1.12441e+06

2.97524e+06 -100774 0
-100774 143634 0
0    0    935663

3.76146e+06 -86431.2 0
-86431.2 45784.9 0
0    0    1.14217e+06

2.31868e+06 -452394 0
-452394 286543 0
0    0    781568

-2.45327e+06 -73718.5 0
-73718.5 -153602 0
0    0    -782060

-330951 -282725 0
-282725 -2572.82 0
0    0    -100057

-1.39855e+06 -126014 0
-126014 -118532 0
0    0    -455126

-1.50521e+06 -434035 0
-434035 191141 0
0    0    -394221

161997 -148425 0
-148425 73076.4 0
0    0    70522.1

-169789 -320969 0
-320969 150053 0
0    0    -5920.75

3.30964e+06 3134.95 0
3134.95 175828 0
0    0    1.04564e+06

144411 -109859 0
-109859 32619.9 0
0    0    53109.3

1.76228e+06 -148731 0
-148731 -193915 0
0    0    470509

3.24874e+06 53656.4 0
53656.4 92116.8 0
0    0    1.00226e+06

-2.48091e+06 -190723 0
-190723 -19340.5 0
0    0    -750074

-1.35029e+06 -250011 0
-250011 -122474 0
0    0    -441829

-1.10555e+06 -163002 0
-163002 -40837.4 0
0    0    -343917

219351 -443104 0
-443104 116018 0
0    0    100611

807542 -268787 0
-268787 -149469 0
0    0    197422

1.09177e+06 -229348 0
-229348 105059 0
0    0    359048

900879 -63270.2 0
-63270.2 -26140 0
0    0    262422

2.82377e+06 -45359.8 0
-45359.8 128776 0
0    0    885763

1.9246e+06 -113570 0
-113570 -103703 0
0    0    546268

1.59315e+06 -432788 0
-432788 -24337.1 0
0    0    470644

905939 -435404 0
-435404 -193892 0
0    0    213614

2.08745e+06 -264148 0
-264148 -284075 0
0    0    541011

1.59131e+06 -95314.5 0
-95314.5 72474.8 0
0    0    499136

1.9515e+06 -253507 0
-253507 -247009 0
0    0    511349

1.73715e+06 -76085.1 0
-76085.1 22841 0
0    0    527996

1.57441e+06 -215455 0
-215455 -163380 0
0    0    423310

1.60445e+06 -117902 0
-117902 11132.3 0
0    0    484676

610653 -359386 0
-359386 44803 0
0    0    196637

818446 -369027 0
-369027 -29993.7 0
0    0    236536

149873 -138976 0
-138976 27684.8 0
0    0    53267.2

747951 -114911 0
-114911 -120819 0
0    0    188139

-235549 -152419 0
-152419 -46823.1 0
0    0    -84711.6

-1.33109e+06 -401613 0
-401613 813.51 0
0    0    -399083

-1.18543e+06 -442327 0
-442327 160.475 0
0    0    -355582

-2.15592e+06 -96569.9 0
-96569.9 -105082 0
0    0    -678300

-1.80223e+06 -27946.2 0
-27946.2 -72140.7 0
0    0    -562311

-2.06839e+06 -53524.4 0
-53524.4 -43773.1 0
0    0    -633649

-1.14077e+06 -333766 0
-333766 88367 0
0    0    -315720

-2.32551e+06 -11498.3 0
-11498.3 -121322 0
0    0    -734051

165690 -187972 0
-187972 -5650.44 0
0    0    48011.8

-599560 -241847 0
-241847 -135227 0
0    0    -220436

-1.37762e+06 -146193 0
-146193 -27538.7 0
0    0    -421547

-2.96523e+06 -82111.3 0
-82111.3 15259.3 0
0    0    -884991

-2.08456e+06 -103183 0
-103183 -46297.3 0
0    0    -639257

-1.28667e+06 -234092 0
-234092 32038.1 0
0    0    -376390

-2.08193e+06 -110818 0
-110818 69921.5 0
0    0    -603603

-3.53785e+06 -122140 0
-122140 76973.9 0
0    0    -1.03826e+06

-2.30259e+06 -182881 0
-182881 78943.9 0
0    0    -667094

-2.41965e+06 -75252.8 0
-75252.8 -106134 0
0    0    -757736

1.68424e+06 -321495 0
-321495 20989.8 0
0    0    511569

1.54358e+06 -286182 0
-286182 -50936.3 0
0    0    447794

401060 -127388 0
-127388 186124 0
0    0    176155

942718 -268572 0
-268572 -29078.1 0
0    0    274092

1.70872e+06 -290393 0
-290393 -182652 0
0    0    457821

137240 -290766 0
-290766 -78489.6 0
0    0    17625.1

1.64602e+06 -64815.1 0
-64815.1 34390.7 0
0    0    504124

-288668 -416418 0
-416418 -43545.7 0
0    0    -99664.1

-426891 -447344 0
-447344 13155 0
0    0    -124121

-1.18997e+06 -229984 0
-229984 143989 0
0    0    -313794

61003.5 -406137 0
-406137 -127492 0
0    0    -19946.4

-1.7798e+06 -73017.4 0
-73017.4 -80519.9 0
0    0    -558096

-2.30404e+06 16197.5 0
16197.5 -123204 0
0    0    -728172

390383 -310064 0
-310064 5042.91 0
0    0    118628

900174 -123987 0
-123987 50572.9 0
0    0    285224

1.63701e+06 -289985 0
-289985 74793.5 0
0    0    513540

2.54103e+06 -131140 0
-131140 130765 0
0    0    801538

2.36299e+06 -81847.7 0
-81847.7 -68090.9 0
0    0    688470

1.54497e+06 -120195 0
-120195 -6527.31 0
0    0    461533

404143 -431566 0
-431566 -30255.4 0
0    0    112166

2.07394e+06 -75876.5 0
-75876.5 4779.7 0
0    0    623615

1.28177e+06 -64488.8 0
-64488.8 -14341.6 0
0    0    380228

-931125 -304536 0
-304536 -65992.9 0
0    0    -299135

1.17685e+06 -237059 0
-237059 24399 0
0    0    360374

-426544 -192543 0
-192543 234644 0
0    0    -57569.9

92546 -199567 0
-199567 3383.99 0
0    0    28779

-1.34425e+06 -221818 0
-221818 200529 0
0    0    -343117

-631537 -280783 0
-280783 -63988.9 0
0    0    -208658

-2.11538e+06 -59896.9 0
-59896.9 -136820 0
0    0    -675659

-585066 -319306 0
-319306 61079.9 0
0    0    -157196

161304 -203955 0
-203955 -28268.7 0
0    0    39910.7

665710 -150187 0
-150187 -56705.1 0
0    0    182701

-294184 -338637 0
-338637 -15064 0
0    0    -92774.3

364890 -294458 0
-294458 -55215.3 0
0    0    92902.5

287761 -311658 0
-311658 9522.15 0
0    0    89184.9

748348 -341877 0
-341877 -38887 0
0    0    212838

-503047 -157912 0
-157912 72882.3 0
0    0    -129049

-317458 -266797 0
-266797 -26118.1 0
0    0    -103073

-1.2855e+06 -145309 0
-145309 -42376.4 0
0    0    -398362

171046 -370733 0
-370733 20855.9 0
0    0    57570.5

-831710 -149121 0
-149121 84182.4 0
0    0    -224258

-329577 -209266 0
-209266 53649.2 0
0    0    -82778.3

-1.05965e+06 -332526 0
-332526 47867.2 0
0    0    -303536

-64069.7 -327549 0
-327549 30639.8 0
0    0    -10029

-1.20128e+06 -245166 0
-245166 192865 0
0    0    -302524

-1.14114e+06 -136612 0
-136612 125317 0
0    0    -304748

-453899 -315350 0
-315350 -68727.3 0
0    0    -156788

-782225 -132989 0
-132989 -16519.4 0
0    0    -239623

739903 -214061 0
-214061 45712.6 0
0    0    235685

-829667 -114429 0
-114429 -16396.7 0
0    0    -253819

229422 -310288 0
-310288 -15068.1 0
0    0    64306.1

994612 -151316 0
-151316 -76298.9 0
0    0    275494

316473 -203189 0
-203189 -12489.8 0
0    0    91194.9

-183168 -367228 0
-367228 21363.7 0
0    0    -48541.4

-373752 -369258 0
-369258 -87359 0
0    0    -138333

-933706 -307229 0
-307229 -61193.3 0
0    0    -298470

-1.55663e+06 -132784 0
-132784 -50551.3 0
0    0    -482154

-1.32413e+06 -153164 0
-153164 -72968.4 0
0    0    -419131

-252578 -234880 0
-234880 78622.1 0
0    0    -52186.8

-852379 -134481 0
-134481 135978 0
0    0    -214920

309070 -313375 0
-313375 -76142.2 0
0    0    69878.2

1.13066e+06 -112062 0
-112062 64748.1 0
0    0    358624

-204638 -265742 0
-265742 -26886.9 0
0    0    -69457.5

-23927.9 -317362 0
-317362 -13848.3 0
0    0    -11332.9

-309319 -262491 0
-262491 -38373 0
0    0    -104308

-509417 -199126 0
-199126 -24886.9 0
0    0    -160291

228920 -247498 0
-247498 14193.1 0
0    0    72934

612894 -243269 0
-243269 -11432.4 0
0    0    180439

287855 -207499 0
-207499 -2060.17 0
0    0    85738.6

606329 -94979.9 0
-94979.9 44999.6 0
0    0    195399

885692 -74902.8 0
-74902.8 52598.1 0
0    0    281487

1.06161e+06 -210282 0
-210282 24961.7 0
0    0    325971

1.28422e+06 -98029.5 0
-98029.5 14448.7 0
0    0    389600

936480 -83882.3 0
-83882.3 -54972.5 0
0    0    264452

-789194 -130533 0
-130533 -40937.6 0
0    0    -249040

-371743 -105667 0
-105667 -13523.6 0
0    0    -115580

-95853 -270623 0
-270623 -70144.4 0
0    0    -49799.2

-389484 -227217 0
-227217 36307.5 0
0    0    -105953

-1.1866e+06 -120013 0
-120013 -10374.1 0
0    0    -359093

-568620 -237551 0
-237551 22882 0
0    0    -163721

-739325 -100803 0
-100803 -4571.78 0
0    0    -223169

-222271 -215606 0
-215606 -40744 0
0    0    -78904.6

-65656.1 -272986 0
-272986 -45307.1 0
0    0    -33289

-263465 -335391 0
-335391 62777 0
0    0    -60206.3

-48866.9 -329527 0
-329527 -929.605 0
0    0    -14939

-448195 -127079 0
-127079 4403.99 0
0    0    -133137

-207354 -303750 0
-303750 -11505.7 0
0    0    -65657.8

-195244 -112341 0
-112341 -20033.2 0
0    0    -64583.1

-337868 -219482 0
-219482 -28185.6 0
0    0    -109816

-16212.3 -319355 0
-319355 -8115.97 0
0    0    -7298.48

-145384 -148764 0
-148764 -63609.9 0
0    0    -62698.1

-195887 -245330 0
-245330 19962.7 0
0    0    -52777.4

-648695 -114619 0
-114619 -29748.1 0
0    0    -203533

-330682 -108569 0
-108569 -5467.47 0
0    0    -100845

16573.3 -321713 0
-321713 -3213.07 0
0    0    4008.06

-106226 -244399 0
-244399 13253.9 0
0    0    -27891.7

104454 -254544 0
-254544 -9500.92 0
0    0    28486

-77471.7 -275694 0
-275694 -31631 0
0    0    -32730.8

231897 -146050 0
-146050 -67038.1 0
0    0    49457.8

-4362.27 -299285 0
-299285 -1917.24 0
0    0    -1883.85

134162 -130206 0
-130206 -10691.4 0
0    0    37041.1

405627 -259067 0
-259067 -21655.5 0
0    0    115192

12617.8 -219678 0
-219678 43766.4 0
0    0    16915.2

8306.25 -284829 0
-284829 -48225.5 0
0    0    -11975.8

-82196.2 -118633 0
-118633 19077.5 0
0    0    -18935.6

-16832.4 -135648 0
-135648 57177.6 0
0    0    12103.6

190654 -306827 0
-306827 -6377.16 0
0    0    55283.1

-7584.47 -301899 0
-301899 14168.2 0
0    0    1975.11

141655 -263218 0
-263218 15002 0
0    0    46997

32875.6 -321511 0
-321511 1275.26 0
0    0    10245.3

548298 -198119 0
-198119 -131481 0
0    0    125045

-959542 -132410 0
-132410 -47199.1 0
0    0    -302022

124073 -111288 0
-111288 3791.91 0
0    0    38359.4

132755 -251710 0
-251710 3283.13 0
0    0    40811.4

68527.6 -280171 0
-280171 28652.4 0
0    0    29154

-46379.6 -315402 0
-315402 20400.8 0
0    0    -7793.64

-146120 -307015 0
-307015 -16422.7 0
0    0    -48762.8

103766 -323306 0
-323306 5369.21 0
0    0    32740.5

-28010.9 -279599 0
-279599 -23317.8 0
0    0    -15398.6

-3016.61 -328218 0
-328218 -1707.13 0
0    0    -1417.12

227758 -213052 0
-213052 54818.1 0
0    0    84772.8

610706 -120084 0
-120084 566.834 0
0    0    183382

-45850.8 -308508 0
-308508 -7159.4 0
0    0    -15903.1

-314054 -208062 0
-208062 -18330.3 0
0    0    -99715.3

-306906 -122707 0
-122707 -67999.1 0
0    0    -112471

9931.32 -302585 0
-302585 -5691.29 0
0    0    1272.01

-91667.4 -221693 0
-221693 -81863.6 0
0    0    -52059.3

125614 -145703 0
-145703 52532.1 0
0    0    53443.9

69505 -153844 0
-153844 -64312.8 0
0    0    1557.66

24393.6 -351640 0
-351640 -18100.5 0
0    0    1887.92

-128628 -221877 0
-221877 35099.3 0
0    0    -28058.7

-220559 -345687 0
-345687 -27008.2 0
0    0    -74270.3

-262056 -285531 0
-285531 -40617.6 0
0    0    -90802.1

184636 -128176 0
-128176 -11549.1 0
0    0    51926

-30643.6 -270157 0
-270157 32903.2 0
0    0    677.863

1.44032e+06 -113647 0
-113647 9779.42 0
0    0    435029

-780543 -256223 0
-256223 -120645 0
0    0    -270356

-8262.76 -329462 0
-329462 -3247.34 0
0    0    -3453.03

-580461 -153043 0
-153043 -56015.2 0
0    0    -190943

51802.1 -281314 0
-281314 14394.1 0
0    0    19858.8

-118796 -100909 0
-100909 2130.72 0
0    0    -34999.5

-496391 -243442 0
-243442 42325.5 0
0    0    -136220

75947 -269261 0
-269261 23043.4 0
0    0    29697.1

-402711 -197971 0
-197971 -42574.3 0
0    0    -133586

-162995 -230992 0
-230992 -57119.4 0
0    0    -66034.5

-212096 -259644 0
-259644 22168.2 0
0    0    -56978.3

-359497 -110767 0
-110767 6037.56 0
0    0    -106038

-637337 -100706 0
-100706 12569.5 0
0    0    -187430

-350965 -107359 0
-107359 -2615.44 0
0    0    -106074

400432 -105962 0
-105962 10890.8 0
0    0    123397

327046 -245478 0
-245478 10581 0
0    0    101288

-69744.2 -131023 0
-131023 -2468.06 0
0    0    -21663.7

87289.6 -246156 0
-246156 44827.9 0
0    0    39635.2

205024 -226494 0
-226494 -10407.6 0
0    0    58385.1

-28739.7 -323015 0
-323015 -18795.3 0
0    0    -14260.5

-553685 -93691.8 0
-93691.8 -3481.01 0
0    0    -167150

-599599 -178685 0
-178685 24566 0
0    0    -172510

-455951 -305490 0
-305490 41133.4 0
0    0    -124445

540845 -173292 0
-173292 41966.5 0
0    0    174844

111712 -335715 0
-335715 23206.7 0
0    0    40475.8

-113356 -291927 0
-291927 -35221.5 0
0    0    -44573.3

382733 -231428 0
-231428 32021.2 0
0    0    124426

248237 -233143 0
-233143 -7291.8 0
0    0    72283.6

-192898 -355234 0
-355234 43080.2 0
0    0    -44945.4

-165215 -299508 0
-299508 -5002.13 0
0    0    -51065.2

-1.19228e+06 -104036 0
-104036 68365.4 0
0    0    -337175

-1.06206e+06 -143339 0
-143339 20709 0
0    0    -312407

501238 -134626 0
-134626 -42729.5 0
0    0    137553

350544 -138218 0
-138218 -12898.1 0
0    0    101294

102739 -243138 0
-243138 -63497.3 0
0    0    11772.6

1.04409e+06 -102154 0
-102154 29443.5 0
0    0    322059

348194 -350743 0
-350743 -43124.7 0
0    0    91520.7

125627 -346894 0
-346894 14698.9 0
0    0    42097.8

938833 -116474 0
-116474 27007.2 0
0    0    289752

442056 -240239 0
-240239 -76612.7 0
0    0    109633

351823 -148370 0
-148370 48743.2 0
0    0    120170

268080 -131820 0
-131820 -35945.6 0
0    0    69640.3

220288 -259191 0
-259191 -27511.5 0
0    0    57832.9

364247 -219025 0
-219025 49178.3 0
0    0    124028

-1.59288e+06 -167385 0
-167385 32826.5 0
0    0    -468015

1.37243e+06 -253975 0
-253975 -195143 0
0    0    353185

-62249.9 -391899 0
-391899 -13675.4 0
0    0    -22777.6

-285221 -259851 0
-259851 -29589.6 0
0    0    -94443.2

-956911 -203788 0
-203788 -74368.1 0
0    0    -309384

-1.92119e+06 -55765.2 0
-55765.2 -21497.7 0
0    0    -582808

-876700 -154162 0
-154162 66947.1 0
0    0    -242926

-1.08682e+06 -330835 0
-330835 3992.93 0
0    0    -324848

606258 -342035 0
-342035 -72941.5 0
0    0    159995

-392889 -342436 0
-342436 30180.6 0
0    0    -108812

-1.41271e+06 -137038 0
-137038 -54176.9 0
0    0    -440067

-603406 -326152 0
-326152 90417.7 0
0    0    -153897

-260019 -238144 0
-238144 38246.6 0
0    0    -66531.6

-944149 -248915 0
-248915 5238.74 0
0    0    -281673

-684920 -207948 0
-207948 -50145.4 0
0    0    -220520

738593 -156896 0
-156896 -19571.4 0
0    0    215706

-1.49859e+06 -75872.5 0
-75872.5 -34195.4 0
0    0    -459836

-192528 -420752 0
-420752 -13927.4 0
0    0    -61936.6

-938650 -139912 0
-139912 16164.5 0
0    0    -276746

799531 -313185 0
-313185 117566 0
0    0    275129

269194 -427817 0
-427817 111123 0
0    0    114095

205566 -364059 0
-364059 -11846.3 0
0    0    58115.8

110499 -226195 0
-226195 -34846 0
0    0    22695.8

152986 -304625 0
-304625 17541.8 0
0    0    51158.4

-1.3923e+06 -287409 0
-287409 8414.8 0
0    0    -415164

1.67004e+06 -170555 0
-170555 -164705 0
0    0    451599

-1.64668e+06 -201075 0
-201075 -53334.4 0
0    0    -510003

-2.27182e+06 -113229 0
-113229 10519.5 0
0    0    -678390

809475 -439027 0
-439027 249713 0
0    0    317757

-1.11501e+06 -349917 0
-349917 -78880.3 0
0    0    -358166

-965014 -255353 0
-255353 -39868.7 0
0    0    -301465

-1.94819e+06 -98706.7 0
-98706.7 169442 0
0    0    -533625

-2.57959e+06 -107449 0
-107449 10231.7 0
0    0    -770808

-1.59554e+06 -159671 0
-159671 -27126.1 0
0    0    -486800

-2.45687e+06 -126354 0
-126354 -64569.1 0
0    0    -756433

-24906.3 -340654 0
-340654 -60464.8 0
0    0    -25611.3

645071 -333134 0
-333134 114372 0
0    0    227833

-653325 -411639 0
-411639 51413.3 0
0    0    -180574

-820493 -347564 0
-347564 124017 0
0    0    -208943

1.31477e+06 -185202 0
-185202 103111 0
0    0    425363

160039 -432437 0
-432437 38945.8 0
0    0    59695.3

-746003 -437489 0
-437489 73983.3 0
0    0    -201606

-3.05863e+06 -31909.3 0
-31909.3 -95757.7 0
0    0    -946315

1.06993e+06 -90395.2 0
-90395.2 36877.8 0
0    0    332043

-1.57832e+06 -184784 0
-184784 49109.6 0
0    0    -458762

1.87302e+06 -23482.5 0
-23482.5 -4310.75 0
0    0    560611

687255 -181174 0
-181174 77455.9 0
0    0    229413

1.05093e+06 -268056 0
-268056 -34684.4 0
0    0    304873

829423 -121263 0
-121263 -10111.7 0
0    0    245793

349481 -403368 0
-403368 -99628.8 0
0    0    74955.6

294758 -336534 0
-336534 -14123.3 0
0    0    84190.3

546052 -205039 0
-205039 109013 0
0    0    196519

-382084 -291576 0
-291576 12194 0
0    0    -110967

2.28147e+06 -52284.9 0
-52284.9 -144866 0
0    0    640981

131611 -293256 0
-293256 43486.3 0
0    0    52529.1

232096 -110635 0
-110635 -193322 0
0    0    11632.3

1.4485e+06 -132304 0
-132304 9266.28 0
0    0    437329

-750798 -266661 0
-266661 -134238 0
0    0    -265511

-841534 -457522 0
-457522 -48406.6 0
0    0    -266982

-1.04432e+06 -192547 0
-192547 -93659.6 0
0    0    -341394

616068 -227055 0
-227055 -31996.1 0
0    0    175222

-552227 -263789 0
-263789 -39977.6 0
0    0    -177662

-2.00037e+06 -187401 0
-187401 -109239 0
0    0    -632881

592389 -243103 0
-243103 -69817.1 0
0    0    156772

557229 -306877 0
-306877 110663 0
0    0    200367

-1.61617e+06 -376039 0
-376039 -7400.99 0
0    0    -487073

1.27892e+06 -243426 0
-243426 6420.52 0
0    0    385601

2.60737e+06 -199060 0
-199060 157590 0
0    0    829488

-2.04731e+06 -265368 0
-265368 94772.5 0
0    0    -585762

1.24504e+06 -353157 0
-353157 -66697 0
0    0    353503

2.40649e+06 -103242 0
-103242 62625.7 0
0    0    740736

1.2668e+06 -320810 0
-320810 -36.1682 0
0    0    380030

3.50202e+06 -138215 0
-138215 45050.8 0
0    0    1.06412e+06

479429 -176533 0
-176533 -319289 0
0    0    48042.2

2.36748e+06 -170799 0
-170799 170702 0
0    0    761453

1.54209e+06 -496783 0
-496783 66323.3 0
0    0    482524

5317.99 -375426 0
-375426 -20533.1 0
0    0    -4564.55

-295988 -414396 0
-414396 99350.1 0
0    0    -58991.4

276988 -367898 0
-367898 -133812 0
0    0    42952.8

-2.32888e+06 21390.7 0
21390.7 -25898.5 0
0    0    -706433

-3.19011e+06 107000 0
107000 123105 0
0    0    -920102

1.20257e+06 -275654 0
-275654 -89627.3 0
0    0    333884

1.31055e+06 -444548 0
-444548 35179.5 0
0    0    403719

3.18587e+06 -27538.6 0
-27538.6 44489.5 0
0    0    969109

2.85261e+06 -141038 0
-141038 28143.8 0
0    0    864227

131812 -523333 0
-523333 276468 0
0    0    122484

459035 -412926 0
-412926 -195885 0
0    0    78945

-1.80065e+06 -286687 0
-286687 -70441.7 0
0    0    -561329

2.15676e+06 -155611 0
-155611 14669.1 0
0    0    651428

1.49153e+06 -401825 0
-401825 -144881 0
0    0    403994

1.04109e+06 -145782 0
-145782 -205869 0
0    0    250567

1.46905e+06 -49952.3 0
-49952.3 -269107 0
0    0    359982

445794 -457627 0
-457627 183149 0
0    0    188683

579478 -324347 0
-324347 -187953 0
0    0    117458

-1.83518e+06 -125182 0
-125182 -105699 0
0    0    -582264

-2.11745e+06 -213819 0
-213819 -131426 0
0    0    -674664

-586208 -403740 0
-403740 -27821.9 0
0    0    -184209

-2.59164e+06 -202502 0
-202502 130324 0
0    0    -738395

-439825 -315958 0
-315958 184752 0
0    0    -76521.7

-228614 -280903 0
-280903 -49433.1 0
0    0    -83414.1

2.09276e+06 -25615.1 0
-25615.1 64256 0
0    0    647105

-2.50816e+06 -9734.17 0
-9734.17 97100.8 0
0    0    -723317

4.07324e+06 -134191 0
-134191 25149.3 0
0    0    1.22952e+06

1.53213e+06 -154754 0
-154754 187177 0
0    0    515792

409774 -234780 0
-234780 38252.2 0
0    0    134408

-3.40758e+06 -203867 0
-203867 -131833 0
0    0    -1.06182e+06

-1.88124e+06 -213766 0
-213766 -320211 0
0    0    -660436

1.33709e+06 -445378 0
-445378 -122025 0
0    0    364520

-1.88599e+06 -61441.3 0
-61441.3 -199954 0
0    0    -625783

576628 -337355 0
-337355 75312.6 0
0    0    195582

216148 -478718 0
-478718 -40288.6 0
0    0    52757.9

-473243 -409537 0
-409537 244731 0
0    0    -68553.8

-624580 -251151 0
-251151 -27585.5 0
0    0    -195650

-4.25213e+06 -655.093 0
-655.093 -302861 0
0    0    -1.3665e+06

2.11581e+06 -403618 0
-403618 -70868.9 0
0    0    613483

3.45197e+06 -198887 0
-198887 -11050.3 0
0    0    1.03228e+06

2.35416e+06 -9037.19 0
-9037.19 -16466.5 0
0    0    701308

2.57353e+06 25430.3 0
25430.3 -171536 0
0    0    720598

4.63083e+06 -139892 0
-139892 -219844 0
0    0    1.3233e+06

-593542 -400504 0
-400504 -343636 0
0    0    -281153

-3.72216e+06 35018.1 0
35018.1 7697.01 0
0    0    -1.11434e+06

-645844 -514253 0
-514253 186647 0
0    0    -137759

-1.53069e+06 -109165 0
-109165 -89482.6 0
0    0    -486053

174428 -469577 0
-469577 -42314.7 0
0    0    39634.1

-152567 -290831 0
-290831 662472 0
0    0    152972

-2.50947e+06 -102785 0
-102785 -197962 0
0    0    -812228

-2.73012e+06 -379518 0
-379518 309765 0
0    0    -726108

-3.50499e+06 -241786 0
-241786 238937 0
0    0    -979815

-2.13022e+06 -449120 0
-449120 -110491 0
0    0    -672212

-2.65551e+06 98196 0
98196 6766.51 0
0    0    -794624

-2.74701e+06 -333004 0
-333004 -32448.3 0
0    0    -833838

1.35676e+06 -634750 0
-634750 -14363.7 0
0    0    402718

882240 -511381 0
-511381 74965.6 0
0    0    287162

-1.60997e+06 -430492 0
-430492 -90517.1 0
0    0    -510145

-175811 -583895 0
-583895 254538 0
0    0    23618.1

-2.36284e+06 -364942 0
-364942 -131911 0
0    0    -748424

-3.06528e+06 -377330 0
-377330 323037 0
0    0    -822673

660233 -425448 0
-425448 164846 0
0    0    247524

-409971 -600947 0
-600947 211476 0
0    0    -59548.7

-455617 66806.3 0
66806.3 -306332 0
0    0    -228585

-321068 -378353 0
-378353 385121 0
0    0    19216

1.54461e+06 -468811 0
-468811 -97265.9 0
0    0    434204

1.06651e+06 -598062 0
-598062 -208506 0
0    0    257401

2.55661e+06 -189073 0
-189073 -156436 0
0    0    720052

1.89813e+06 -65779.4 0
-65779.4 194410 0
0    0    627763

3.10317e+06 -216541 0
-216541 212237 0
0    0    994622

3.80699e+06 -93142.5 0
-93142.5 76853.3 0
0    0    1.16515e+06

2.09671e+06 -642454 0
-642454 -285117 0
0    0    543479

60334.7 -73749.8 0
-73749.8 332553 0
0    0    117866

4.95551e+06 -243448 0
-243448 -272520 0
0    0    1.4049e+06

361132 -574970 0
-574970 -405164 0
0    0    -13209.5

2.75113e+06 129841 0
129841 205793 0
0    0    887078

2.35998e+06 -245752 0
-245752 -333439 0
0    0    607963

431066 -458825 0
-458825 563771 0
0    0    298451

3.16094e+06 -93408.3 0
-93408.3 259472 0
0    0    1.02612e+06

1.03784e+06 -511582 0
-511582 -336640 0
0    0    210359

3.12398e+06 147583 0
147583 -408216 0
0    0    814730

5.66344e+06 -41934.7 0
-41934.7 197883 0
0    0    1.7584e+06

3.2873e+06 -118577 0
-118577 -13534 0
0    0    982131

5.09441e+06 77007.9 0
77007.9 -53515.3 0
0    0    1.51227e+06

4.27464e+06 -387055 0
-387055 109442 0
0    0    1.31523e+06

2.2608e+06 -7881.63 0
-7881.63 378442 0
0    0    791773

-3.27078e+06 -311397 0
-311397 189865 0
0    0    -924274

3.55791e+06 -490680 0
-490680 -287186 0
0    0    981217

2.60529e+06 -590822 0
-590822 39477.4 0
0    0    793431

888033 -327257 0
-327257 70604.6 0
0    0    287591

-5.04918e+06 167269 0
167269 34041 0
0    0    -1.50454e+06

3.97163e+06 -491216 0
-491216 -560257 0
0    0    1.02341e+06

-1.07714e+06 -194638 0
-194638 156461 0
0    0    -276205

3.6799e+06 -180253 0
-180253 -342309 0
0    0    1.00128e+06

-819715 -586518 0
-586518 54632 0
0    0    -229525

1.67391e+06 -56915.8 0
-56915.8 -408585 0
0    0    379598

3.69698e+06 -355878 0
-355878 -39563.8 0
0    0    1.09722e+06

1.02322e+06 -477727 0
-477727 294621 0
0    0    395351

5.78542e+06 -25798.3 0
-25798.3 217082 0
0    0    1.80075e+06

2.57632e+06 -518906 0
-518906 15699.7 0
0    0    777606

-3.43285e+06 -273332 0
-273332 -202010 0
0    0    -1.09046e+06

6.24628e+06 56712.2 0
56712.2 140937 0
0    0    1.91617e+06

-880786 -251874 0
-251874 87030.5 0
0    0    -238127

1.0429e+06 -293097 0
-293097 79423.8 0
0    0    336696

1.02498e+06 -335993 0
-335993 25322.4 0
0    0    315090

837790 -142940 0
-142940 -584499 0
0    0    75987.5

1.10443e+06 -55452 0
-55452 97487.8 0
0    0    360574

2.34318e+06 -156414 0
-156414 214.69 0
0    0    703019

-2.82671e+06 -66217.4 0
-66217.4 -104545 0
0    0    -879375

3.19673e+06 767.086 0
767.086 185684 0
0    0    1.01472e+06

3.35684e+06 -465823 0
-465823 -89877.4 0
0    0    980090

-2.24684e+06 -444638 0
-444638 -119837 0
0    0    -710003

-5.55918e+06 -181139 0
-181139 52314.5 0
0    0    -1.65206e+06

-2.24789e+06 -483518 0
-483518 62636.3 0
0    0    -655575

-2.78115e+06 -199856 0
-199856 -530999 0
0    0    -993643

-4.89656e+06 12798.9 0
12798.9 141223 0
0    0    -1.4266e+06

3.43696e+06 -382078 0
-382078 74857.1 0
0    0    1.05354e+06

-4.12105e+06 30182.8 0
30182.8 376786 0
0    0    -1.12328e+06

-3.61609e+06 -428490 0
-428490 17939.6 0
0    0    -1.07944e+06

-1.08384e+06 -393415 0
-393415 21643.1 0
0    0    -318659

-5.635e+06 -62951.3 0
-62951.3 -233169 0
0    0    -1.76045e+06

-3.74865e+06 -390774 0
-390774 283034 0
0    0    -1.03968e+06

-5.34874e+06 -103351 0
-103351 -109534 0
0    0    -1.63748e+06

-2.18119e+06 -212826 0
-212826 -276968 0
0    0    -737448

-3.73323e+06 -149526 0
-149526 -240552 0
0    0    -1.19213e+06

-3.25417e+06 -25892.2 0
-25892.2 -128860 0
0    0    -1.01491e+06

-1.48581e+06 -190733 0
-190733 -182153 0
0    0    -500388

-3.62506e+06 -71156.8 0
-71156.8 93000.1 0
0    0    -1.05962e+06

-1.90661e+06 -503244 0
-503244 70747.3 0
0    0    -550759

-1.52884e+06 -384640 0
-384640 56500.3 0
0    0    -441703

3.77604e+06 -508275 0
-508275 249479 0
0    0    1.20766e+06

928831 -839533 0
-839533 35248.7 0
0    0    289224

4.12808e+06 230504 0
230504 205793 0
0    0    1.30016e+06

6.39252e+06 -354525 0
-354525 396933 0
0    0    2.03683e+06

2.06365e+06 -165248 0
-165248 12472.3 0
0    0    622837

6.98514e+06 -494754 0
-494754 237345 0
0    0    2.16675e+06

4.42495e+06 -617494 0
-617494 277259 0
0    0    1.41066e+06

-564804 58953.3 0
58953.3 -183428 0
0    0    -224470

-1.29256e+06 -470768 0
-470768 9998.93 0
0    0    -384769

-5.00336e+06 -148081 0
-148081 -152324 0
0    0    -1.5467e+06

-3.33952e+06 -124076 0
-124076 -284842 0
0    0    -1.08731e+06

-5.86378e+06 -70248.7 0
-70248.7 -65297.7 0
0    0    -1.77872e+06

-1.2199e+06 -642327 0
-642327 261998 0
0    0    -287371

-1.17397e+06 -297686 0
-297686 267993 0
0    0    -271793

-2.2119e+06 -51756.8 0
-51756.8 -52568.9 0
0    0    -679340

-6.60362e+06 127764 0
127764 -72041.9 0
0    0    -2.0027e+06

-75427.3 -406197 0
-406197 -68825.5 0
0    0    -43275.9

-2.40267e+06 -271445 0
-271445 -54972.7 0
0    0    -737293

-3.75278e+06 -317657 0
-317657 -355496 0
0    0    -1.23248e+06

-4.68146e+06 -479464 0
-479464 445901 0
0    0    -1.27067e+06

1.93634e+06 -409829 0
-409829 26146.7 0
0    0    588745

-2.13818e+06 -205764 0
-205764 237719 0
0    0    -570139

-4.63078e+06 -286202 0
-286202 539131 0
0    0    -1.2275e+06

-7.11926e+06 -124533 0
-124533 22495.8 0
0    0    -2.12903e+06

-3.36916e+06 -510574 0
-510574 -176445 0
0    0    -1.06368e+06

-4.83722e+06 -455677 0
-455677 -120156 0
0    0    -1.48721e+06

-3.23827e+06 -296449 0
-296449 3312.41 0
0    0    -970487

-4.46309e+06 -336911 0
-336911 156759 0
0    0    -1.2919e+06

5.07041e+06 -93707.9 0
-93707.9 140636 0
0    0    1.56331e+06

-4.36391e+06 20204.6 0
20204.6 -216635 0
0    0    -1.37416e+06

-192278 -525650 0
-525650 -218460 0
0    0    -123221

2.28818e+06 -233562 0
-233562 286722 0
0    0    772472

4.41906e+06 195545 0
195545 -487574 0
0    0    1.17945e+06

2.58346e+06 -438847 0
-438847 222696 0
0    0    841847

7.5215e+06 -449535 0
-449535 372901 0
0    0    2.36832e+06

2.38105e+06 -94529.3 0
-94529.3 -214019 0
0    0    650109

-138756 -236460 0
-236460 67361.4 0
0    0    -21418.5

-7.32259e+06 -347889 0
-347889 -68735.9 0
0    0    -2.2174e+06

-4.39861e+06 68349.3 0
68349.3 -160308 0
0    0    -1.36768e+06

-1.86672e+06 -222085 0
-222085 92157.3 0
0    0    -532370

-7.26117e+06 -490427 0
-490427 -299628 0
0    0    -2.26824e+06

-4.60343e+06 -366743 0
-366743 -9515.34 0
0    0    -1.38388e+06

-320008 -146362 0
-146362 -454123 0
0    0    -232239

-7.22741e+06 -104189 0
-104189 -200863 0
0    0    -2.22848e+06

-212488 -295170 0
-295170 -163046 0
0    0    -112660

-275320 -508921 0
-508921 -61287.9 0
0    0    -100982

-2.14158e+06 -655212 0
-655212 -19812.3 0
0    0    -648416

-2.43391e+06 -573872 0
-573872 135621 0
0    0    -689488

3.26054e+06 -623499 0
-623499 -93423.4 0
0    0    950136

-3.49966e+06 58426.4 0
58426.4 -129279 0
0    0    -1.08868e+06

-5.39954e+06 -1206.29 0
-1206.29 -1926.89 0
0    0    -1.62044e+06

-4.38114e+06 -360796 0
-360796 505815 0
0    0    -1.1626e+06

-3.86045e+06 -101753 0
-101753 -281463 0
0    0    -1.24257e+06

-4.12556e+06 -790376 0
-790376 170964 0
0    0    -1.18638e+06

-8.90417e+06 -153291 0
-153291 209904 0
0    0    -2.60828e+06

-1.61969e+06 -191688 0
-191688 836740 0
0    0    -234886

6.69385e+06 -300943 0
-300943 81224.6 0
0    0    2.03252e+06

-7.91116e+06 -277632 0
-277632 -413888 0
0    0    -2.49751e+06

3.83384e+06 321846 0
321846 -167280 0
0    0    1.09997e+06

8.16911e+06 -181028 0
-181028 179776 0
0    0    2.50467e+06

2.65526e+06 -844267 0
-844267 -520736 0
0    0    640358

1.8964e+06 -699377 0
-699377 46514.7 0
0    0    582875

4.43222e+06 194731 0
194731 -442888 0
0    0    1.1968e+06

4.57333e+06 -533834 0
-533834 -7248.25 0
0    0    1.36983e+06

4.32801e+06 -96979.4 0
-96979.4 -267702 0
0    0    1.21809e+06

9.01145e+06 -128261 0
-128261 -106401 0
0    0    2.67151e+06

8.08856e+06 -304878 0
-304878 68615.5 0
0    0    2.44715e+06

2.71254e+06 -535563 0
-535563 -162872 0
0    0    764900

2.55717e+06 -55024.9 0
-55024.9 359607 0
0    0    875033

2.81651e+06 -115084 0
-115084 202881 0
0    0    905819

5.21946e+06 91586 0
91586 -450509 0
0    0    1.43069e+06

4.92111e+06 -158610 0
-158610 -272066 0
0    0    1.39471e+06

134456 -492771 0
-492771 -188018 0
0    0    -16068.8

-3.50831e+06 -649620 0
-649620 -357770 0
0    0    -1.15982e+06

59880.2 -300270 0
-300270 -283708 0
0    0    -67148.5

-1.83064e+06 -647400 0
-647400 107814 0
0    0    -516848

-633649 -110524 0
-110524 -122843 0
0    0    -226948

6.05886e+06 123237 0
123237 26084.4 0
0    0    1.82548e+06

-4.37991e+06 13375 0
13375 -47960.8 0
0    0    -1.32836e+06

-4.09658e+06 -24726.8 0
-24726.8 -69224.8 0
0    0    -1.24974e+06

-1.0314e+06 -207538 0
-207538 204165 0
0    0    -248170

-4.09485e+06 -520923 0
-520923 -29985.8 0
0    0    -1.23745e+06

-773597 -630778 0
-630778 -6337.49 0
0    0    -233980

-5.1556e+06 -764145 0
-764145 -92481.3 0
0    0    -1.57443e+06

-355647 -567436 0
-567436 1696.2 0
0    0    -106185

-1.01996e+06 -552352 0
-552352 230510 0
0    0    -236836

2.0477e+06 -1.08241e+06 0
-1.08241e+06 -114195 0
0    0    580052

1.02416e+06 -401477 0
-401477 161859 0
0    0    355806

-8.25337e+06 -480853 0
-480853 -740216 0
0    0    -2.69808e+06

2.09886e+06 -337955 0
-337955 14351.8 0
0    0    633962

-1.21109e+06 -591192 0
-591192 -225988 0
0    0    -431125

1.20316e+06 221543 0
221543 -57066.6 0
0    0    343828

-1.91641e+06 -689315 0
-689315 167813 0
0    0    -524578

4.76416e+06 -19335.3 0
-19335.3 95062.1 0
0    0    1.45777e+06

3.07643e+06 -172176 0
-172176 709549 0
0    0    1.13579e+06

5.15184e+06 352648 0
352648 599795 0
0    0    1.72549e+06

4.82248e+06 -323647 0
-323647 -509509 0
0    0    1.29389e+06

4.22988e+06 -13023.3 0
-13023.3 358331 0
0    0    1.37646e+06

2.31651e+06 146866 0
146866 -170295 0
0    0    643865

7.71401e+06 21804.9 0
21804.9 111242 0
0    0    2.34758e+06

2.1687e+06 -500441 0
-500441 83079.8 0
0    0    675534

5.87885e+06 -370822 0
-370822 112529 0
0    0    1.79741e+06

4.45443e+06 -834284 0
-834284 -693195 0
0    0    1.12837e+06

9.34974e+06 -89686.1 0
-89686.1 -168772 0
0    0    2.75429e+06

3.70107e+06 -59037.5 0
-59037.5 -232278 0
0    0    1.04064e+06

604048 -295335 0
-295335 249883 0
0    0    256179

-8.59026e+06 -483825 0
-483825 -513426 0
0    0    -2.73111e+06

1.75299e+06 -659765 0
-659765 670623 0
0    0    727083

4.07679e+06 -727619 0
-727619 -574928 0
0    0    1.05056e+06

-1.54769e+06 -341708 0
-341708 -82072.7 0
0    0    -488929

2.07414e+06 -596022 0
-596022 117938 0
0    0    657624

1.42287e+06 -511450 0
-511450 8575.66 0
0    0    429435

8.19563e+06 -332180 0
-332180 10247.9 0
0    0    2.46176e+06

6.27602e+06 109396 0
109396 -737159 0
0    0    1.66166e+06

-1.62962e+06 -78297.9 0
-78297.9 28822.6 0
0    0    -480240

-4.65937e+06 340599 0
340599 799939 0
0    0    -1.15783e+06

536307 -420802 0
-420802 17094.4 0
0    0    166020

-4.8718e+06 -664601 0
-664601 -195604 0
0    0    -1.52022e+06

5.35693e+06 -727254 0
-727254 -29910 0
0    0    1.59811e+06

3.33974e+06 -756947 0
-756947 301253 0
0    0    1.0923e+06

6.41526e+06 86349.7 0
86349.7 -344159 0
0    0    1.82133e+06

6.93267e+06 40399.9 0
40399.9 89767.3 0
0    0    2.10673e+06

4.69648e+06 13086.3 0
13086.3 18613.6 0
0    0    1.41453e+06

1.0276e+07 -180856 0
-180856 -524139 0
0    0    2.92556e+06

-6.35512e+06 597429 0
597429 863378 0
0    0    -1.64752e+06

1.05851e+07 -740798 0
-740798 401236 0
0    0    3.29589e+06

6.90829e+06 -619071 0
-619071 333901 0
0    0    2.17266e+06

2.47288e+06 97916 0
97916 -101089 0
0    0    711536

9.63349e+06 -45883.5 0
-45883.5 -114705 0
0    0    2.85564e+06

7.39073e+06 -4338.66 0
-4338.66 370873 0
0    0    2.32848e+06

7.18569e+06 -364250 0
-364250 456209 0
0    0    2.29257e+06

7.22259e+06 -1.10975e+06 0
-1.10975e+06 793704 0
0    0    2.40489e+06

3.94458e+06 -493490 0
-493490 139987 0
0    0    1.22537e+06

-2.06564e+06 -333461 0
-333461 173927 0
0    0    -567514

-2.47659e+06 -371175 0
-371175 271484 0
0    0    -661532

-9.28383e+06 -460428 0
-460428 -281538 0
0    0    -2.86961e+06

1.8167e+06 -767225 0
-767225 -361073 0
0    0    436687

321300 -697952 0
-697952 -289814 0
0    0    9445.71

-2.59072e+06 -273124 0
-273124 7938.67 0
0    0    -774835

-5.94626e+06 -82860.1 0
-82860.1 702559 0
0    0    -1.57311e+06

6.24371e+06 332588 0
332588 -817339 0
0    0    1.62791e+06

1.25292e+06 -20216.4 0
-20216.4 125435 0
0    0    413507

5.4701e+06 -884058 0
-884058 146424 0
0    0    1.68496e+06

9.28316e+06 -663504 0
-663504 485282 0
0    0    2.93053e+06

-6.76461e+06 -498525 0
-498525 -304908 0
0    0    -2.12086e+06

1.95714e+06 -490593 0
-490593 -598262 0
0    0    407662

-6.04347e+06 -138150 0
-138150 869055 0
0    0    -1.55232e+06

4.3563e+06 108227 0
108227 68647.1 0
0    0    1.32749e+06

-561814 257588 0
257588 220875 0
0    0    -102282

4.04273e+06 210982 0
210982 -569096 0
0    0    1.04209e+06

3.38957e+06 -1.09954e+06 0
-1.09954e+06 -41992.2 0
0    0    1.00427e+06

3.22186e+06 -503181 0
-503181 104711 0
0    0    997971

-9.83107e+06 -374206 0
-374206 -699223 0
0    0    -3.15909e+06

7.65297e+06 -62708.7 0
-62708.7 482851 0
0    0    2.44075e+06

-1.94474e+06 -442247 0
-442247 612242 0
0    0    -399751

1.06532e+07 -598763 0
-598763 -339600 0
0    0    3.09408e+06

5.0909e+06 -128987 0
-128987 500710 0
0    0    1.67748e+06

-1.85739e+06 -580049 0
-580049 705559 0
0    0    -345549

-4.43471e+06 26583.8 0
26583.8 -175639 0
0    0    -1.38311e+06

-5.58976e+06 455016 0
455016 766254 0
0    0    -1.44705e+06

-9.60344e+06 -51941.6 0
-51941.6 10560.3 0
0    0    -2.87786e+06

-6.15068e+06 -18481.4 0
-18481.4 -81126.9 0
0    0    -1.86954e+06

-5.18854e+06 199575 0
199575 -751442 0
0    0    -1.78199e+06

-1.02911e+07 -394637 0
-394637 -374383 0
0    0    -3.19963e+06

-5.44257e+06 -746265 0
-746265 59437.1 0
0    0    -1.61494e+06

-2.36792e+06 -642089 0
-642089 -501631 0
0    0    -860866

-3.1506e+06 -674794 0
-674794 476930 0
0    0    -802100

-1.05188e+06 -129170 0
-129170 157780 0
0    0    -268229

-1.10373e+07 42999.7 0
42999.7 -743188 0
0    0    -3.53415e+06

-6.59421e+06 -80788.9 0
-80788.9 -720939 0
0    0    -2.19454e+06

-6.98205e+06 -1.02673e+06 0
-1.02673e+06 18008.4 0
0    0    -2.08921e+06

994937 -627776 0
-627776 -196994 0
0    0    239383

-1.53732e+06 -844261 0
-844261 288762 0
0    0    -374566

-689876 -933462 0
-933462 1960.83 0
0    0    -206375

-6.1049e+06 -793.79 0
-793.79 123176 0
0    0    -1.79452e+06

-6.13763e+06 -232313 0
-232313 -659378 0
0    0    -2.0391e+06

1.53929e+06 -33635.8 0
-33635.8 -110415 0
0    0    428662

7.31707e+06 -664637 0
-664637 -366437 0
0    0    2.08519e+06

6.06391e+06 -454049 0
-454049 364489 0
0    0    1.92852e+06

3.46042e+06 -297964 0
-297964 496393 0
0    0    1.18704e+06

2.35501e+06 -590787 0
-590787 325275 0
0    0    804085

-5.13404e+06 -138929 0
-138929 18131.5 0
0    0    -1.53477e+06

-959452 182577 0
182577 -684841 0
0    0    -493288

-3.01709e+06 -281277 0
-281277 -341684 0
0    0    -1.00763e+06

-1.24668e+07 -5640.39 0
-5640.39 328076 0
0    0    -3.64161e+06

-1.05681e+07 -330700 0
-330700 -149840 0
0    0    -3.21539e+06

-1.82812e+06 -1.04365e+06 0
-1.04365e+06 803479 0
0    0    -307391

-5.72085e+06 169257 0
169257 794206 0
0    0    -1.47799e+06

6.11147e+06 -21248.7 0
-21248.7 408520 0
0    0    1.956e+06

-7.68648e+06 288803 0
288803 607221 0
0    0    -2.12378e+06

1.14461e+07 -32549.1 0
-32549.1 -216549 0
0    0    3.36888e+06

-275292 -327329 0
-327329 4982.77 0
0    0    -81092.7

4.19176e+06 -755495 0
-755495 14940 0
0    0    1.26201e+06

-7.15108e+06 328396 0
328396 69464.3 0
0    0    -2.12449e+06

7.15032e+06 599684 0
599684 -492706 0
0    0    1.99728e+06

1.17433e+07 -209369 0
-209369 494731 0
0    0    3.6714e+06

-2.40336e+06 -571431 0
-571431 -236014 0
0    0    -791812

2.24234e+06 150542 0
150542 601554 0
0    0    853167

3.88531e+06 -969057 0
-969057 45843.1 0
0    0    1.17935e+06

1.38549e+06 -414161 0
-414161 319003 0
0    0    511347

4.65947e+06 -272937 0
-272937 41636.2 0
0    0    1.41033e+06

7.74553e+06 130907 0
130907 124915 0
0    0    2.36113e+06

7.43505e+06 -333400 0
-333400 -420735 0
0    0    2.1043e+06

7.0906e+06 -549230 0
-549230 -275384 0
0    0    2.04457e+06

1.11718e+07 240988 0
240988 -393565 0
0    0    3.23348e+06

-2.00824e+06 -51975.8 0
-51975.8 -130258 0
0    0    -641548

-6.85806e+06 -390077 0
-390077 593053 0
0    0    -1.8795e+06

-6.04805e+06 -546695 0
-546695 -190358 0
0    0    -1.87152e+06

-8.12489e+06 -440214 0
-440214 758606 0
0    0    -2.20989e+06

-3.47663e+06 -276192 0
-276192 -448824 0
0    0    -1.17764e+06

-404810 -454474 0
-454474 -212221 0
0    0    -185109

-2.09824e+06 -1.11155e+06 0
-1.11155e+06 -644112 0
0    0    -822707

-1.05354e+07 90828.3 0
90828.3 -208684 0
0    0    -3.22323e+06

-3.47641e+06 -885746 0
-885746 -268671 0
0    0    -1.12352e+06

1.0837e+06 -845669 0
-845669 84498.2 0
0    0    350459

1.48673e+06 -89258.8 0
-89258.8 -573714 0
0    0    273906

2.2729e+06 603430 0
603430 520627 0
0    0    838058

7.79956e+06 -45115.8 0
-45115.8 -884559 0
0    0    2.0745e+06

-8.78137e+06 663686 0
663686 -540643 0
0    0    -2.7966e+06

-5.90025e+06 172178 0
172178 -468663 0
0    0    -1.91067e+06

-4.10308e+06 -996258 0
-996258 -477147 0
0    0    -1.37407e+06

1.14616e+06 -961481 0
-961481 -123748 0
0    0    306725

-4.32756e+06 -417552 0
-417552 611952 0
0    0    -1.11468e+06

-1.36671e+06 185244 0
185244 738765 0
0    0    -188385

-1.19121e+07 398552 0
398552 -727383 0
0    0    -3.79186e+06

-6.10373e+06 -971419 0
-971419 1.38569e+06 0
0    0    -1.41541e+06

-1.21176e+07 -214447 0
-214447 112317 0
0    0    -3.60159e+06

-6.73197e+06 -252098 0
-252098 7529.75 0
0    0    -2.01733e+06

-1.542e+06 -1.1192e+06 0
-1.1192e+06 -106652 0
0    0    -494596

-7.98298e+06 -193856 0
-193856 1.01846e+06 0
0    0    -2.08936e+06

-7.40294e+06 468444 0
468444 -435301 0
0    0    -2.35147e+06

-8.19692e+06 -153577 0
-153577 846524 0
0    0    -2.20512e+06

-1.29726e+07 -492368 0
-492368 -664291 0
0    0    -4.09107e+06

-7.89184e+06 -366027 0
-366027 251165 0
0    0    -2.2922e+06

-2.84994e+06 21799.4 0
21799.4 558836 0
0    0    -687330

2.62171e+06 -1.16184e+06 0
-1.16184e+06 861641 0
0    0    1.04501e+06

781841 -1.31755e+06 0
-1.31755e+06 -1.02314e+06 0
0    0    -72390.3

8.36478e+06 -483588 0
-483588 -581369 0
0    0    2.33502e+06

-7.88043e+06 -881415 0
-881415 -394491 0
0    0    -2.48248e+06

959664 371423 0
371423 104729 0
0    0    319318

7.37963e+06 -778427 0
-778427 413406 0
0    0    2.33791e+06

-5.215e+06 252553 0
252553 110087 0
0    0    -1.53147e+06

-8.26257e+06 532928 0
532928 133048 0
0    0    -2.43886e+06

-1.59712e+06 -116563 0
-116563 -5400.68 0
0    0    -480755

-8.93274e+06 -786692 0
-786692 -154167 0
0    0    -2.72607e+06

-4.31257e+06 -1.0381e+06 0
-1.0381e+06 -179869 0
0    0    -1.34773e+06

4.17332e+06 -971663 0
-971663 -257281 0
0    0    1.17481e+06

2.26027e+06 -759374 0
-759374 447658 0
0    0    812378

9.30752e+06 -787018 0
-787018 -786685 0
0    0    2.55625e+06

7.51343e+06 -636513 0
-636513 74177.3 0
0    0    2.27628e+06

-2.09742e+06 -693269 0
-693269 -667181 0
0    0    -829379

-5.15568e+06 -588595 0
-588595 34092.6 0
0    0    -1.53648e+06

-719062 -151107 0
-151107 267958 0
0    0    -135331

-3.45992e+06 166297 0
166297 242983 0
0    0    -965082

4.02817e+06 373990 0
373990 -716500 0
0    0    993500

3.98864e+06 -200799 0
-200799 -393818 0
0    0    1.07845e+06

1.241e+07 354477 0
354477 519457 0
0    0    3.87883e+06

7.81803e+06 -199940 0
-199940 133744 0
0    0    2.38553e+06

3.77328e+06 -498697 0
-498697 -807244 0
0    0    889812

7.34307e+06 118891 0
118891 332564 0
0    0    2.30269e+06

1.40491e+07 -251333 0
-251333 12715.5 0
0    0    4.21856e+06

9.00732e+06 -58361.4 0
-58361.4 246220 0
0    0    2.77606e+06

5.25717e+06 -1.00433e+06 0
-1.00433e+06 393702 0
0    0    1.69526e+06

8.70343e+06 -777221 0
-777221 -362389 0
0    0    2.50231e+06

1.21208e+07 150275 0
150275 -53894.8 0
0    0    3.62008e+06

4.28569e+06 84498.2 0
84498.2 117801 0
0    0    1.32105e+06

9.22881e+06 125968 0
125968 273000 0
0    0    2.85054e+06

1.32915e+07 -151677 0
-151677 -69151.2 0
0    0    3.96669e+06

9.06359e+06 -544133 0
-544133 -36958.4 0
0    0    2.70799e+06

4.93378e+06 -824949 0
-824949 -559415 0
0    0    1.31231e+06

8.6457e+06 581351 0
581351 872589 0
0    0    2.85549e+06

727257 -1.54644e+06 0
-1.54644e+06 1.06543e+06 0
0    0    537806

-9.38167e+06 507492 0
507492 822231 0
0    0    -2.56783e+06

-2.25101e+06 -1.10943e+06 0
-1.10943e+06 554779 0
0    0    -508870

-8.7289e+06 -199219 0
-199219 797890 0
0    0    -2.3793e+06

557895 126851 0
126851 -380357 0
0    0    53261.7

3.08372e+06 489839 0
489839 -537873 0
0    0    763754

3.09416e+06 -1.21376e+06 0
-1.21376e+06 -395620 0
0    0    809563

-2.87989e+06 61475.3 0
61475.3 -71002 0
0    0    -885266

7.14544e+06 611951 0
611951 100098 0
0    0    2.17366e+06

1.29959e+07 -573547 0
-573547 195842 0
0    0    3.95753e+06

5.15639e+06 -1.11099e+06 0
-1.11099e+06 7520.5 0
0    0    1.54917e+06

7.92409e+06 -485061 0
-485061 -319650 0
0    0    2.28133e+06

1.53447e+07 -364326 0
-364326 726818 0
0    0    4.82146e+06

1.38043e+07 -620100 0
-620100 602944 0
0    0    4.32218e+06

2.9726e+06 335501 0
335501 44527.5 0
0    0    905137

-7.42972e+06 -1.0552e+06 0
-1.0552e+06 -125672 0
0    0    -2.26662e+06

-8.59757e+06 -43181.8 0
-43181.8 502480 0
0    0    -2.42853e+06

-3.54499e+06 -824764 0
-824764 -144348 0
0    0    -1.1068e+06

-205530 -961687 0
-961687 -489722 0
0    0    -208575

-8.63133e+06 463393 0
463393 -317646 0
0    0    -2.68469e+06

-1.36516e+07 -216819 0
-216819 -126411 0
0    0    -4.13341e+06

-40291.1 -134811 0
-134811 -307282 0
0    0    -104272

1.82778e+06 536049 0
536049 1.10203e+06 0
0    0    878941

7.1466e+06 -1.22704e+06 0
-1.22704e+06 -371154 0
0    0    2.03264e+06

-3.60477e+06 -1.01618e+06 0
-1.01618e+06 -445391 0
0    0    -1.21505e+06

-3.7138e+06 110990 0
110990 -231040 0
0    0    -1.18345e+06

-3.39197e+06 -532057 0
-532057 190002 0
0    0    -960590

1.445e+07 -325436 0
-325436 732538 0
0    0    4.55477e+06

3.62707e+06 319375 0
319375 -388769 0
0    0    971491

-1.49386e+07 -395411 0
-395411 -853623 0
0    0    -4.73768e+06

8.69266e+06 -15901.7 0
-15901.7 248463 0
0    0    2.68234e+06

-1.4504e+07 72000.3 0
72000.3 -271462 0
0    0    -4.43263e+06

1.62963e+07 -780170 0
-780170 129842 0
0    0    4.92783e+06

4.10567e+06 -846341 0
-846341 -128047 0
0    0    1.19329e+06

1.87025e+06 -560758 0
-560758 361382 0
0    0    669488

-4.64439e+06 -791.123 0
-791.123 441383 0
0    0    -1.2609e+06

-225015 -145200 0
-145200 648595 0
0    0    127074

-3.39937e+06 -1.58409e+06 0
-1.58409e+06 -187237 0
0    0    -1.07598e+06

8.451e+06 403906 0
403906 -1.14822e+06 0
0    0    2.19083e+06

8.17698e+06 -110469 0
-110469 -922804 0
0    0    2.17625e+06

-1.40965e+07 -575144 0
-575144 -413163 0
0    0    -4.3529e+06

-5.71742e+06 170490 0
170490 559393 0
0    0    -1.54741e+06

-8.78191e+06 -478094 0
-478094 -324588 0
0    0    -2.73195e+06

-9.62787e+06 -98203.3 0
-98203.3 151877 0
0    0    -2.8428e+06

-3.54628e+06 541246 0
541246 424889 0
0    0    -936417

-9.54467e+06 -81903.9 0
-81903.9 348051 0
0    0    -2.75899e+06

-4.71625e+06 -1.35189e+06 0
-1.35189e+06 335810 0
0    0    -1.31413e+06

7.63107e+06 269632 0
269632 778782 0
0    0    2.52296e+06

-3.48855e+06 -926704 0
-926704 331329 0
0    0    -947166

-6.35983e+06 -852386 0
-852386 -222261 0
0    0    -1.97463e+06

-8.77923e+06 -646165 0
-646165 454668 0
0    0    -2.49737e+06

-2.61718e+06 -1.27807e+06 0
-1.27807e+06 -348718 0
0    0    -889770

8.68184e+06 744385 0
744385 -637501 0
0    0    2.4133e+06

1.56852e+06 -95817.4 0
-95817.4 -876476 0
0    0    207614

8.6206e+06 -255112 0
-255112 -224628 0
0    0    2.51879e+06

7.46722e+06 -1.07528e+06 0
-1.07528e+06 541343 0
0    0    2.40257e+06

1.03464e+07 -21751 0
-21751 -242224 0
0    0    3.03124e+06

-9.40951e+06 -593745 0
-593745 -34353.5 0
0    0    -2.83316e+06

-657188 -1.38171e+06 0
-1.38171e+06 653765 0
0    0    -1026.83

2.50317e+06 -707174 0
-707174 -463240 0
0    0    611978

1.82133e+06 -1.35587e+06 0
-1.35587e+06 -457760 0
0    0    409071

-3.51198e+06 404751 0
404751 -1.2412e+06 0
0    0    -1.42595e+06

-9.95852e+06 -251.656 0
-251.656 540456 0
0    0    -2.82542e+06

6.22773e+06 230537 0
230537 338989 0
0    0    1.97001e+06

-8.87484e+06 -1.08707e+06 0
-1.08707e+06 -288950 0
0    0    -2.74914e+06

1.46641e+07 -541973 0
-541973 264819 0
0    0    4.47867e+06

1.40174e+07 -309092 0
-309092 548343 0
0    0    4.36972e+06

-1.71951e+07 -181151 0
-181151 -133477 0
0    0    -5.19857e+06

1.02203e+06 173161 0
173161 -459999 0
0    0    168608

5.73526e+06 -1.34511e+06 0
-1.34511e+06 408351 0
0    0    1.84308e+06

7.69258e+06 -1.18723e+06 0
-1.18723e+06 230949 0
0    0    2.37706e+06

5.09891e+06 447025 0
447025 376822 0
0    0    1.64272e+06

1.08519e+07 348807 0
348807 -808322 0
0    0    3.01306e+06

1.61472e+07 -753954 0
-753954 691022 0
0    0    5.05146e+06

-6.06282e+06 380676 0
380676 420369 0
0    0    -1.69274e+06

-1.01225e+07 712093 0
712093 1.1007e+06 0
0    0    -2.70654e+06

-1.4376e+07 -696763 0
-696763 -262351 0
0    0    -4.39151e+06

-9.12746e+06 -432225 0
-432225 -792258 0
0    0    -2.97592e+06

-8.9849e+06 166793 0
166793 430768 0
0    0    -2.56624e+06

-9.94154e+06 228417 0
228417 244794 0
0    0    -2.90902e+06

-1.60506e+07 -561335 0
-561335 -591407 0
0    0    -4.99259e+06

1.55342e+06 -30569.3 0
-30569.3 -273738 0
0    0    383905

-5.67617e+06 -1.09419e+06 0
-1.09419e+06 -41305.1 0
0    0    -1.71524e+06

-4.69437e+06 -124731 0
-124731 1.02575e+06 0
0    0    -1.10059e+06

-9.65163e+06 -1.25121e+06 0
-1.25121e+06 -270374 0
0    0    -2.9766e+06

-1.53495e+07 -357133 0
-357133 -80838.6 0
0    0    -4.62911e+06

-1.11646e+07 382804 0
382804 555915 0
0    0    -3.18261e+06

-8.94063e+06 914695 0
914695 34337.3 0
0    0    -2.67189e+06

757811 -967651 0
-967651 108115 0
0    0    259778

-6.1006e+06 282300 0
282300 -40055.8 0
0    0    -1.8422e+06

-1.16851e+07 336034 0
336034 -569364 0
0    0    -3.67635e+06

-6.95995e+06 -1.32152e+06 0
-1.32152e+06 1.15477e+06 0
0    0    -1.74155e+06

1.11765e+06 -908368 0
-908368 529820 0
0    0    494240

-1.50273e+07 -759196 0
-759196 636008 0
0    0    -4.31738e+06

-1.26143e+07 849049 0
849049 -633473 0
0    0    -3.97432e+06

6.34654e+06 -1.48674e+06 0
-1.48674e+06 -850214 0
0    0    1.6489e+06

-1.55647e+07 128633 0
128633 405683 0
0    0    -4.5477e+06

3.09092e+06 -1.82031e+06 0
-1.82031e+06 694218 0
0    0    1.13554e+06

-9.23472e+06 -436300 0
-436300 -238763 0
0    0    -2.84205e+06

1.2181e+07 171063 0
171063 -946124 0
0    0    3.37047e+06

-3.08208e+06 -1.08785e+06 0
-1.08785e+06 -210559 0
0    0    -987793

-2.24089e+06 265630 0
265630 64022 0
0    0    -653060

-4.39589e+06 563598 0
563598 -168393 0
0    0    -1.36928e+06

-149384 152204 0
152204 138817 0
0    0    -3170.05

6.41873e+06 -991268 0
-991268 -123748 0
0    0    1.88849e+06

1.75126e+07 -245971 0
-245971 801731 0
0    0    5.49429e+06

1.01868e+07 155685 0
155685 -436458 0
0    0    2.92512e+06

9.14292e+06 585145 0
585145 -167112 0
0    0    2.69274e+06

9.44263e+06 91030.4 0
91030.4 -373856 0
0    0    2.72063e+06

-3.3211e+06 -981941 0
-981941 -690474 0
0    0    -1.20347e+06

-1.70389e+07 -288918 0
-288918 -224247 0
0    0    -5.17894e+06

8.55415e+06 -915783 0
-915783 1.52838e+06 0
0    0    3.02476e+06

-3.97035e+06 226507 0
226507 504899 0
0    0    -1.03963e+06

1.68837e+06 -1.04012e+06 0
-1.04012e+06 -171979 0
0    0    454918

-1.12934e+07 134496 0
134496 -489108 0
0    0    -3.53476e+06

-1.08367e+07 -39914.6 0
-39914.6 1.20889e+06 0
0    0    -2.88833e+06

-1.8095e+07 -480138 0
-480138 -880068 0
0    0    -5.69253e+06

-8.35449e+06 -1.07803e+06 0
-1.07803e+06 -23683.6 0
0    0    -2.51345e+06

1.01168e+07 213210 0
213210 2.09691e+06 0
0    0    3.66411e+06

-1.03991e+07 -1.76975e+06 0
-1.76975e+06 -97870.2 0
0    0    -3.14908e+06

-4.42805e+06 -1.36403e+06 0
-1.36403e+06 -481798 0
0    0    -1.47295e+06

-8.61863e+06 -1.06454e+06 0
-1.06454e+06 -59697.1 0
0    0    -2.6035e+06

1.9935e+06 -429968 0
-429968 412687 0
0    0    721856

-1.71551e+07 -61338.7 0
-61338.7 -164726 0
0    0    -5.19595e+06

-3.93213e+06 -76418.1 0
-76418.1 372854 0
0    0    -1.06778e+06

1.12657e+07 517417 0
517417 -1.03294e+06 0
0    0    3.06983e+06

1.46881e+06 230813 0
230813 -1.36107e+06 0
0    0    32320.1

1.68407e+07 117151 0
117151 -559052 0
0    0    4.88448e+06

-1.79171e+06 -1.23686e+06 0
-1.23686e+06 492995 0
0    0    -389616

9.13333e+06 -1.75513e+06 0
-1.75513e+06 2.21863e+06 0
0    0    3.40559e+06

-4.58145e+06 -1.01217e+06 0
-1.01217e+06 -221498 0
0    0    -1.44088e+06

1.1484e+07 346983 0
346983 -1.22331e+06 0
0    0    3.07821e+06

7.95122e+06 -377565 0
-377565 -321729 0
0    0    2.28885e+06

6.64609e+06 936771 0
936771 -2.18167e+06 0
0    0    1.33933e+06

7.53975e+06 -93619.3 0
-93619.3 1.75285e+06 0
0    0    2.78778e+06

1.10693e+07 -793641 0
-793641 74569.6 0
0    0    3.34315e+06

1.6936e+07 -415283 0
-415283 -238764 0
0    0    5.00916e+06

8.24515e+06 176619 0
176619 227532 0
0    0    2.5418e+06

1.05855e+07 555659 0
555659 -539924 0
0    0    3.01366e+06

1.13666e+07 -1.34683e+06 0
-1.34683e+06 2.45088e+06 0
0    0    4.14526e+06

3.13625e+06 324688 0
324688 -693670 0
0    0    732773

2.17789e+06 -103729 0
-103729 81935.3 0
0    0    677948

1.08896e+07 -1.06044e+06 0
-1.06044e+06 -938033 0
0    0    2.98547e+06

-4.8974e+06 -660839 0
-660839 105930 0
0    0    -1.43744e+06

1.59265e+07 -902989 0
-902989 -512378 0
0    0    4.62424e+06

1.17563e+07 -584261 0
-584261 87118.7 0
0    0    3.55304e+06

1.74644e+07 -833527 0
-833527 1.14983e+06 0
0    0    5.58428e+06

2.68332e+06 -1.18975e+06 0
-1.18975e+06 -529791 0
0    0    646058

-1.13162e+07 -105597 0
-105597 376382 0
0    0    -3.28193e+06

2.3514e+06 -2.12094e+06 0
-2.12094e+06 861384 0
0    0    963834

1.73149e+06 -833068 0
-833068 -22290.1 0
0    0    512760

-3.61052e+06 228787 0
228787 -10555 0
0    0    -1.08632e+06

1.20594e+06 618971 0
618971 -1.24433e+06 0
0    0    -11519.4

1.20178e+07 -152274 0
-152274 347452 0
0    0    3.70959e+06

7.24701e+06 481070 0
481070 -108970 0
0    0    2.14141e+06

2.08942e+07 -145486 0
-145486 1394.82 0
0    0    6.26866e+06

1.34775e+06 -628180 0
-628180 -1.24597e+06 0
0    0    30533.9

7.64618e+06 -1.36845e+06 0
-1.36845e+06 -118529 0
0    0    2.2583e+06

9.82455e+06 1.13624e+06 0
1.13624e+06 414012 0
0    0    3.07157e+06

1.95788e+07 -313232 0
-313232 -38695.3 0
0    0    5.86204e+06

4.8623e+06 -38477.7 0
-38477.7 145150 0
0    0    1.50223e+06

1.74995e+07 -410705 0
-410705 480506 0
0    0    5.39399e+06

-974476 -66291.6 0
-66291.6 -149280 0
0    0    -337127

1.95791e+07 -591555 0
-591555 -585777 0
0    0    5.698e+06

9.87259e+06 -1.19115e+06 0
-1.19115e+06 -168940 0
0    0    2.91109e+06

6.56723e+06 740975 0
740975 727958 0
0    0    2.18856e+06

8.73684e+06 -204418 0
-204418 -1.47954e+06 0
0    0    2.17719e+06

2.22715e+06 -1.63459e+06 0
-1.63459e+06 421707 0
0    0    794658

-3.27239e+06 -882638 0
-882638 -961334 0
0    0    -1.27012e+06

4.90984e+06 -214616 0
-214616 723320 0
0    0    1.68995e+06

-1.25955e+07 -220025 0
-220025 320257 0
0    0    -3.68258e+06

4.94842e+06 -1.19401e+06 0
-1.19401e+06 848467 0
0    0    1.73907e+06

-6.71437e+06 -605437 0
-605437 -524605 0
0    0    -2.17169e+06

-5.35633e+06 -744039 0
-744039 715179 0
0    0    -1.39235e+06

-6.92196e+06 801487 0
801487 1.09072e+06 0
0    0    -1.74937e+06

-1.37223e+07 -371132 0
-371132 -284380 0
0    0    -4.20202e+06

-1.28486e+07 144974 0
144974 -148434 0
0    0    -3.89912e+06

-6.48069e+06 -834624 0
-834624 167608 0
0    0    -1.89393e+06

-1.88032e+07 -232643 0
-232643 -186094 0
0    0    -5.6968e+06

-1.28289e+07 -327938 0
-327938 133953 0
0    0    -3.80849e+06

-2.17566e+06 -77807.5 0
-77807.5 -474726 0
0    0    -795115

2.82752e+06 -868781 0
-868781 -668618 0
0    0    647670

-6.00158e+06 -1.20336e+06 0
-1.20336e+06 680046 0
0    0    -1.59646e+06

-1.30104e+07 308173 0
308173 740015 0
0    0    -3.6811e+06

-7.7003e+06 813088 0
813088 -377704 0
0    0    -2.4234e+06

-1.89622e+07 -52451.6 0
-52451.6 377611 0
0    0    -5.57537e+06

-1.28463e+07 472320 0
472320 99798 0
0    0    -3.82396e+06

-8.6493e+06 740920 0
740920 531195 0
0    0    -2.43543e+06

9.45741e+06 617349 0
617349 -346875 0
0    0    2.73316e+06

1.08674e+07 -223193 0
-223193 -561419 0
0    0    3.09179e+06

332589 -213373 0
-213373 -218538 0
0    0    34215.2

1.82923e+07 -72151.9 0
-72151.9 705476 0
0    0    5.69933e+06

887825 867346 0
867346 36980 0
0    0    277442

5.01546e+06 -1.4156e+06 0
-1.4156e+06 -929902 0
0    0    1.22567e+06

-1.89485e+07 183378 0
183378 259656 0
0    0    -5.60666e+06

1.26526e+07 -662405 0
-662405 -1.37315e+06 0
0    0    3.38384e+06

1.00366e+07 -1.54239e+06 0
-1.54239e+06 -514658 0
0    0    2.85657e+06

1.15361e+07 -1.29711e+06 0
-1.29711e+06 7988.13 0
0    0    3.46324e+06

-1.42281e+07 862457 0
862457 -719055 0
0    0    -4.48414e+06

-6.10427e+06 -1.13205e+06 0
-1.13205e+06 -648362 0
0    0    -2.02579e+06

-1.8537e+06 572620 0
572620 1.267e+06 0
0    0    -176010

-1.29264e+07 -202350 0
-202350 -454566 0
0    0    -4.0143e+06

-1.48993e+07 544260 0
544260 -171837 0
0    0    -4.52133e+06

-9.56146e+06 -1.53386e+06 0
-1.53386e+06 -338440 0
0    0    -2.96997e+06

-1.28965e+07 -1.36035e+06 0
-1.36035e+06 1.16107e+06 0
0    0    -3.52062e+06

-1.97442e+07 8179.91 0
8179.91 92524.8 0
0    0    -5.8955e+06

1.20716e+07 638111 0
638111 481797 0
0    0    3.76603e+06

-2.7436e+06 -1.84353e+06 0
-1.84353e+06 1.06184e+06 0
0    0    -504528

272183 -732874 0
-732874 -248559 0
0    0    7087.15

-1.04814e+07 100786 0
100786 -677505 0
0    0    -3.34768e+06

2.0217e+06 229681 0
229681 -649967 0
0    0    411520

-4.95862e+06 -1.5602e+06 0
-1.5602e+06 205259 0
0    0    -1.42601e+06

-1.99543e+06 -715954 0
-715954 -483663 0
0    0    -743728

-1.48848e+07 -526599 0
-526599 -177526 0
0    0    -4.51869e+06

6.64648e+06 97068.4 0
97068.4 -680823 0
0    0    1.7897e+06

1.08152e+07 -592024 0
-592024 -1.15646e+06 0
0    0    2.89762e+06

2.01506e+07 174714 0
174714 1.2136e+06 0
0    0    6.40927e+06

8.15122e+06 814613 0
814613 829588 0
0    0    2.69424e+06

2.40102e+06 -1.18642e+06 0
-1.18642e+06 735499 0
0    0    940955

1.96481e+07 528862 0
528862 -577755 0
0    0    5.72109e+06

9.3243e+06 -1.20716e+06 0
-1.20716e+06 839356 0
0    0    3.0491e+06

3.48449e+06 -1.32637e+06 0
-1.32637e+06 605644 0
0    0    1.22704e+06

7.12649e+06 315039 0
315039 -810774 0
0    0    1.89471e+06

1.24758e+07 -722083 0
-722083 -175782 0
0    0    3.69001e+06

9.4427e+06 -336021 0
-336021 495859 0
0    0    2.98157e+06

-2.1202e+07 -119238 0
-119238 -117988 0
0    0    -6.39601e+06

1.21061e+07 279794 0
279794 -658658 0
0    0    3.43422e+06

5.57975e+06 -653560 0
-653560 449891 0
0    0    1.80889e+06

2.29495e+07 -266723 0
-266723 584204 0
0    0    7.0601e+06

-87699.1 41734.4 0
41734.4 -1.06597e+06 0
0    0    -346100

1.26019e+06 -435309 0
-435309 -1.66579e+06 0
0    0    -121680

-1.34971e+07 -1.42879e+06 0
-1.42879e+06 385608 0
0    0    -3.93344e+06

1.40107e+07 257632 0
257632 -614719 0
0    0    4.01878e+06

2.14635e+07 -64091.3 0
-64091.3 640539 0
0    0    6.6312e+06

1.03357e+07 834568 0
834568 819933 0
0    0    3.34668e+06

2.33754e+07 101664 0
101664 423040 0
0    0    7.13952e+06

-2.26611e+07 -402312 0
-402312 254770 0
0    0    -6.72191e+06

1.35864e+07 -1.01817e+06 0
-1.01817e+06 -1.13515e+06 0
0    0    3.73537e+06

1.37297e+07 -442842 0
-442842 -439655 0
0    0    3.98701e+06

-1.78704e+06 -976720 0
-976720 2.17373e+06 0
0    0    116007

-2.1373e+06 -1.61112e+06 0
-1.61112e+06 625040 0
0    0    -453678

-9.71895e+06 224889 0
224889 452516 0
0    0    -2.77993e+06

-3.77823e+06 400450 0
400450 -1.73041e+06 0
0    0    -1.65259e+06

-3.10618e+06 265933 0
265933 -717391 0
0    0    -1.14707e+06

-1.86863e+06 -1.07671e+06 0
-1.07671e+06 1.89538e+06 0
0    0    8024.46

9.92794e+06 -811421 0
-811421 5411.57 0
0    0    2.98e+06

1.99822e+07 -20191.5 0
-20191.5 40114.6 0
0    0    6.00669e+06

2.25687e+06 -1.99471e+06 0
-1.99471e+06 1.07677e+06 0
0    0    1.00009e+06

1.3865e+07 591774 0
591774 -616995 0
0    0    3.9744e+06

-1.35295e+07 830969 0
830969 641774 0
0    0    -3.86631e+06

-9.81147e+06 -77983.4 0
-77983.4 -777974 0
0    0    -3.17683e+06

-1.46982e+07 632614 0
632614 1.18055e+06 0
0    0    -4.05528e+06

1.54814e+07 -187328 0
-187328 -166403 0
0    0    4.59449e+06

1.06889e+07 -1.63227e+06 0
-1.63227e+06 890974 0
0    0    3.47397e+06

2.93403e+06 963023 0
963023 -305008 0
0    0    788705

-8.51118e+06 663515 0
663515 119700 0
0    0    -2.51744e+06

8.68741e+06 -1.73137e+06 0
-1.73137e+06 -1.31788e+06 0
0    0    2.21086e+06

-2.25029e+06 -1.03839e+06 0
-1.03839e+06 334239 0
0    0    -574815

-2.09859e+07 -52551.8 0
-52551.8 -184596 0
0    0    -6.35114e+06

-4.0007e+06 -28698.6 0
-28698.6 -854478 0
0    0    -1.45655e+06

-2.17822e+06 -1.63263e+06 0
-1.63263e+06 747906 0
0    0    -429095

-1.51573e+07 -412748 0
-412748 -304754 0
0    0    -4.63861e+06

-1.47635e+07 -363605 0
-363605 -403737 0
0    0    -4.55018e+06

-9.09653e+06 -609343 0
-609343 -357166 0
0    0    -2.83611e+06

-9.62875e+06 1.03926e+06 0
1.03926e+06 -2.00869e+06 0
0    0    -3.49123e+06

-1.00853e+07 -1.45981e+06 0
-1.45981e+06 673013 0
0    0    -2.82368e+06

-1.09924e+06 1.07481e+06 0
1.07481e+06 -343931 0
0    0    -432951

-1.43997e+07 -115622 0
-115622 1.05309e+06 0
0    0    -4.00399e+06

-1.64864e+07 -1.33364e+06 0
-1.33364e+06 -115016 0
0    0    -4.98042e+06

8.06823e+06 -1.11748e+06 0
-1.11748e+06 -1.12673e+06 0
0    0    2.08245e+06

2.19084e+07 -1.3925e+06 0
-1.3925e+06 -765324 0
0    0    6.34293e+06

-4.32196e+06 -1.77999e+06 0
-1.77999e+06 327118 0
0    0    -1.19845e+06

-7.92119e+06 -287025 0
-287025 761777 0
0    0    -2.14782e+06

-2.36957e+07 447456 0
447456 -278206 0
0    0    -7.19219e+06

1.24711e+06 -613307 0
-613307 674537 0
0    0    576493

-7.27774e+06 -738120 0
-738120 564072 0
0    0    -2.0141e+06

-1.41204e+07 -117561 0
-117561 1.17852e+06 0
0    0    -3.88257e+06

-1.42044e+07 -1.50582e+06 0
-1.50582e+06 -1.01227e+06 0
0    0    -4.56501e+06

-2.33275e+07 -687032 0
-687032 -448513 0
0    0    -7.1328e+06

-1.40699e+07 -1.103e+06 0
-1.103e+06 -619779 0
0    0    -4.40691e+06

-7.45908e+06 392278 0
392278 -199910 0
0    0    -2.2977e+06

-3.26348e+06 -38504.9 0
-38504.9 -943244 0
0    0    -1.26202e+06

-2.38643e+06 -1.94702e+06 0
-1.94702e+06 536308 0
0    0    -555038

-1.66772e+07 -922889 0
-922889 582925 0
0    0    -4.82827e+06

-1.51451e+07 -545428 0
-545428 -685844 0
0    0    -4.74927e+06

-8.28276e+06 72219.2 0
72219.2 -293103 0
0    0    -2.57276e+06

-9.33555e+06 284152 0
284152 162751 0
0    0    -2.75184e+06

-1.74987e+07 154528 0
154528 -492770 0
0    0    -5.39743e+06

2.61538e+06 -1.7753e+06 0
-1.7753e+06 261875 0
0    0    863176

-9.28941e+06 571021 0
571021 611390 0
0    0    -2.60341e+06

1.57966e+07 -476901 0
-476901 -985408 0
0    0    4.44337e+06

-8.58253e+06 -519288 0
-519288 -786673 0
0    0    -2.81076e+06

1.6043e+07 354886 0
354886 745788 0
0    0    5.03665e+06

-1.23738e+06 -866789 0
-866789 -606581 0
0    0    -553187

47105.5 328316 0
328316 852360 0
0    0    269840

-1.60285e+07 -1.68769e+06 0
-1.68769e+06 1.11874e+06 0
0    0    -4.47293e+06

8.41872e+06 360790 0
360790 413899 0
0    0    2.64979e+06

-2.47387e+07 50925.1 0
50925.1 694053 0
0    0    -7.21339e+06

2.46077e+07 -138132 0
-138132 -76310.6 0
0    0    7.35941e+06

931770 -367665 0
-367665 1.51427e+06 0
0    0    733813

-1.32758e+06 -110900 0
-110900 454340 0
0    0    -261972

-6.42274e+06 -498854 0
-498854 648950 0
0    0    -1.73214e+06

-7.65387e+06 -1.52916e+06 0
-1.52916e+06 -276010 0
0    0    -2.37896e+06

-1.06441e+06 -1.56769e+06 0
-1.56769e+06 2.01816e+06 0
0    0    286123

2.35217e+07 -507448 0
-507448 813402 0
0    0    7.30054e+06

1.41028e+07 958006 0
958006 -173933 0
0    0    4.17867e+06

-8.65008e+06 711500 0
711500 912697 0
0    0    -2.32121e+06

678531 263151 0
263151 -1.46483e+06 0
0    0    -235889

9.37568e+06 -1.3413e+06 0
-1.3413e+06 -499460 0
0    0    2.66287e+06

1.66373e+07 362979 0
362979 -462275 0
0    0    4.85252e+06

9.75083e+06 322610 0
322610 63714.8 0
0    0    2.94436e+06

1.49431e+07 -1.70682e+06 0
-1.70682e+06 -2.32249e+06 0
0    0    3.78619e+06

2.32217e+07 460577 0
460577 -832505 0
0    0    6.71677e+06

2.33585e+07 1.04981e+06 0
1.04981e+06 1.48318e+06 0
0    0    7.4525e+06

4.22323e+06 882243 0
882243 -1.43608e+06 0
0    0    836144

7.63948e+06 1.14594e+06 0
1.14594e+06 718233 0
0    0    2.50731e+06

1.27474e+07 -1.76939e+06 0
-1.76939e+06 568345 0
0    0    3.99473e+06

7.08686e+06 -1.39097e+06 0
-1.39097e+06 -34130 0
0    0    2.11582e+06

-5.2587e+06 599019 0
599019 2.0677e+06 0
0    0    -957301

1.55234e+07 -1.34812e+06 0
-1.34812e+06 -253129 0
0    0    4.58108e+06

2.48346e+07 -262921 0
-262921 905502 0
0    0    7.72203e+06

4.68616e+06 -2.09778e+06 0
-2.09778e+06 162788 0
0    0    1.45469e+06

5.93095e+06 -3407.17 0
-3407.17 -265921 0
0    0    1.69951e+06

-1.45638e+07 324831 0
324831 127641 0
0    0    -4.33085e+06

-1.40491e+07 878052 0
878052 555988 0
0    0    -4.04794e+06

-8.96423e+06 -314476 0
-314476 -1.28865e+06 0
0    0    -3.07586e+06

-2.01299e+07 -440517 0
-440517 541646 0
0    0    -5.87647e+06

-7.97515e+06 -1.46323e+06 0
-1.46323e+06 -102833 0
0    0    -2.4234e+06

-1.46109e+07 -991315 0
-991315 671500 0
0    0    -4.18181e+06

-1.47671e+07 -625841 0
-625841 328311 0
0    0    -4.33164e+06

-1.44778e+07 -468245 0
-468245 -576096 0
0    0    -4.51616e+06

-1.99437e+07 -240374 0
-240374 225017 0
0    0    -5.91561e+06

-1.40545e+07 621194 0
621194 314314 0
0    0    -4.12207e+06

-1.00951e+07 1.00007e+06 0
1.00007e+06 -77719.9 0
0    0    -3.05184e+06

-2.39026e+07 -379709 0
-379709 -749546 0
0    0    -7.39565e+06

-1.61664e+07 -222349 0
-222349 -273312 0
0    0    -4.93192e+06

-2.34399e+07 -411917 0
-411917 -188328 0
0    0    -7.08847e+06

-1.50144e+07 1.14543e+06 0
1.14543e+06 951221 0
0    0    -4.21894e+06

-2.03472e+06 -1.50998e+06 0
-1.50998e+06 -2.34863e+06 0
0    0    -1.315e+06

8.82209e+06 -1.04319e+06 0
-1.04319e+06 -230249 0
0    0    2.57755e+06

1.40571e+07 -803697 0
-803697 -164403 0
0    0    4.16782e+06

1.03856e+07 -490804 0
-490804 -240790 0
0    0    3.04344e+06

1.48913e+07 -62768.3 0
-62768.3 -1.51737e+06 0
0    0    4.01219e+06

1.03961e+07 785330 0
785330 1.43825e+06 0
0    0    3.55032e+06

1.78185e+07 -1.45855e+06 0
-1.45855e+06 -34321.7 0
0    0    5.33527e+06

1.74608e+07 1.11072e+06 0
1.11072e+06 600002 0
0    0    5.41824e+06

1.64723e+07 -694614 0
-694614 638315 0
0    0    5.13319e+06

1.68558e+07 162912 0
162912 -882832 0
0    0    4.79188e+06

1.76058e+07 -192150 0
-192150 761826 0
0    0    5.5103e+06

1.6259e+07 1.05095e+06 0
1.05095e+06 -702699 0
0    0    4.66689e+06

7.13745e+06 710844 0
710844 -82025.4 0
0    0    2.11663e+06

2.47419e+07 -768340 0
-768340 585610 0
0    0    7.59826e+06

1.22386e+07 1.0372e+06 0
1.0372e+06 86884.9 0
0    0    3.69766e+06

-3.62851e+06 139755 0
139755 384457 0
0    0    -973215

2.55075e+07 -508.208 0
-508.208 1.05918e+06 0
0    0    7.97002e+06

85200.5 -2.17965e+06 0
-2.17965e+06 -471094 0
0    0    -115768

-2.7452e+07 680810 0
680810 -351877 0
0    0    -8.34116e+06

-1.92054e+07 -1.00068e+06 0
-1.00068e+06 179954 0
0    0    -5.70763e+06

1.32523e+07 1.04038e+06 0
1.04038e+06 527549 0
0    0    4.13397e+06

-1.41703e+07 440743 0
440743 2.62581e+06 0
0    0    -3.46335e+06

1.6763e+07 1.29835e+06 0
1.29835e+06 -1.87777e+06 0
0    0    4.46557e+06

-5.44743e+06 277872 0
277872 2.12038e+06 0
0    0    -998114

2.67666e+07 -844913 0
-844913 862999 0
0    0    8.28887e+06

1.03776e+07 164051 0
164051 -99800.3 0
0    0    3.08335e+06

-2.64295e+07 -11392.5 0
-11392.5 -1.28143e+06 0
0    0    -8.31329e+06

2.77196e+07 -603705 0
-603705 -288737 0
0    0    8.22925e+06

-420934 -461227 0
-461227 -405117 0
0    0    -247815

582655 -132169 0
-132169 -1.57992e+06 0
0    0    -299179

1.41975e+07 -1.65316e+06 0
-1.65316e+06 532128 0
0    0    4.41888e+06

7.58249e+06 -1.95711e+06 0
-1.95711e+06 -1.59987e+06 0
0    0    1.79479e+06

7.27037e+06 137192 0
137192 1.1367e+06 0
0    0    2.52212e+06

8.53586e+06 1.48982e+06 0
1.48982e+06 596696 0
0    0    2.73977e+06

-1.47686e+07 -75492 0
-75492 -423546 0
0    0    -4.55763e+06

-1.35169e+07 -570255 0
-570255 -78532.8 0
0    0    -4.07863e+06

-1.47745e+07 -416405 0
-416405 1.50485e+06 0
0    0    -3.98088e+06

8.36022e+06 -344437 0
-344437 174939 0
0    0    2.56055e+06

2.26353e+06 -2.294e+06 0
-2.294e+06 1.53518e+06 0
0    0    1.13961e+06

-528399 -321717 0
-321717 -1.98977e+06 0
0    0    -755452

-6.46993e+06 -132618 0
-132618 1.24409e+06 0
0    0    -1.56775e+06

-1.39345e+07 -1.98713e+06 0
-1.98713e+06 41883.5 0
0    0    -4.16777e+06

-2.63673e+07 -1.53174e+06 0
-1.53174e+06 -1.60499e+06 0
0    0    -8.39167e+06

-2.45608e+07 -16287.7 0
-16287.7 -884464 0
0    0    -7.63358e+06

-1.6037e+07 107792 0
107792 1.42998e+06 0
0    0    -4.38211e+06

-1.55831e+07 419237 0
419237 -1.26126e+06 0
0    0    -5.05332e+06

-2.502e+07 -806916 0
-806916 -979835 0
0    0    -7.79994e+06

-6.80868e+06 -863599 0
-863599 657327 0
0    0    -1.84541e+06

-1.35279e+07 78718.7 0
78718.7 2.42372e+06 0
0    0    -3.33127e+06

371709 323628 0
323628 -1.9038e+06 0
0    0    -459627

-5.23264e+06 -2.11208e+06 0
-2.11208e+06 1.25661e+06 0
0    0    -1.19281e+06

-1.52686e+07 -799232 0
-799232 -574272 0
0    0    -4.75285e+06

-1.54447e+07 774257 0
774257 500626 0
0    0    -4.48322e+06

6.13591e+06 -1.53014e+06 0
-1.53014e+06 -1.59143e+06 0
0    0    1.36334e+06

-1.697e+07 -1.35496e+06 0
-1.35496e+06 -250963 0
0    0    -5.1663e+06

5.17747e+06 -689070 0
-689070 -1.29437e+06 0
0    0    1.16493e+06

-7.74632e+06 461138 0
461138 -727822 0
0    0    -2.54224e+06

-1.8867e+07 618450 0
618450 -144214 0
0    0    -5.70337e+06

-848873 -315780 0
-315780 -549986 0
0    0    -419658

-9.55903e+06 585963 0
585963 92551.5 0
0    0    -2.83994e+06

-1.11931e+07 672215 0
672215 -883418 0
0    0    -3.62296e+06

-1.74037e+07 -1.91736e+06 0
-1.91736e+06 263693 0
0    0    -5.14201e+06

-2.81599e+07 380281 0
380281 160559 0
0    0    -8.39979e+06

-2.62965e+06 -2.52763e+06 0
-2.52763e+06 333232 0
0    0    -688925

-3.04416e+07 -139954 0
-139954 312952 0
0    0    -9.03861e+06

-2.69727e+06 770409 0
770409 81839.6 0
0    0    -784628

-1.593e+07 -1.56103e+06 0
-1.56103e+06 61594.5 0
0    0    -4.76052e+06

-1.10652e+07 -2.20244e+06 0
-2.20244e+06 978896 0
0    0    -3.02589e+06

-8.42054e+06 -1.28016e+06 0
-1.28016e+06 -723310 0
0    0    -2.74315e+06

6.2213e+06 99761.1 0
99761.1 621612 0
0    0    2.05287e+06

264950 -266638 0
-266638 2.0435e+06 0
0    0    692536

-243039 -2.13462e+06 0
-2.13462e+06 -1.92636e+06 0
0    0    -650820

8.58717e+06 -1.95893e+06 0
-1.95893e+06 -821395 0
0    0    2.32973e+06

2.76761e+07 -1.04184e+06 0
-1.04184e+06 1.29172e+06 0
0    0    8.69034e+06

7.80207e+06 -270346 0
-270346 1.05133e+06 0
0    0    2.65602e+06

-1.00952e+07 24093.2 0
24093.2 1.99386e+06 0
0    0    -2.43041e+06

1.8476e+07 -1.4743e+06 0
-1.4743e+06 254533 0
0    0    5.61916e+06

-6.13872e+06 -1.58135e+06 0
-1.58135e+06 -2.60724e+06 0
0    0    -2.62379e+06

5.69299e+06 425696 0
425696 -590655 0
0    0    1.5307e+06

1.42981e+07 1.09695e+06 0
1.09695e+06 1.32426e+06 0
0    0    4.68671e+06

-4.5748e+06 -555283 0
-555283 915672 0
0    0    -1.09774e+06

-4.54604e+06 -915925 0
-915925 -3.05794e+06 0
0    0    -2.28119e+06

-1.48005e+07 -511050 0
-511050 -2.34692e+06 0
0    0    -5.14424e+06

-2.75807e+07 -380330 0
-380330 -947221 0
0    0    -8.55838e+06

5.19068e+06 -27862.2 0
-27862.2 595126 0
0    0    1.73574e+06

1.56563e+06 -132981 0
-132981 411307 0
0    0    593083

-1.00868e+07 -1.18239e+06 0
-1.18239e+06 -164488 0
0    0    -3.0754e+06

-1.81899e+07 120894 0
120894 -156384 0
0    0    -5.50389e+06

-2.64325e+07 -715417 0
-715417 338073 0
0    0    -7.82833e+06

-1.69178e+07 1.17976e+06 0
1.17976e+06 1.3172e+06 0
0    0    -4.68018e+06

2.77933e+07 -538543 0
-538543 169712 0
0    0    8.38891e+06

2.00433e+07 616499 0
616499 -740017 0
0    0    5.79099e+06

2.80978e+07 -1.72996e+06 0
-1.72996e+06 -881190 0
0    0    8.16498e+06

8.58164e+06 -422771 0
-422771 867081 0
0    0    2.83462e+06

-1.71738e+06 31168.1 0
31168.1 -229167 0
0    0    -583963

-1.84414e+07 767454 0
767454 -7354.41 0
0    0    -5.53464e+06

-2.04771e+07 -555078 0
-555078 -1.23417e+06 0
0    0    -6.51337e+06

-2.01239e+07 978741 0
978741 870055 0
0    0    -5.77616e+06

-1.36832e+07 1.41018e+06 0
1.41018e+06 -472508 0
0    0    -4.24671e+06

7.3691e+06 391355 0
391355 -1.05405e+06 0
0    0    1.89452e+06

8.61126e+06 -351937 0
-351937 -1.79786e+06 0
0    0    2.04402e+06

1.21142e+07 -1.54239e+06 0
-1.54239e+06 826327 0
0    0    3.88216e+06

1.36605e+07 -680230 0
-680230 -1.10531e+06 0
0    0    3.76654e+06

6.85699e+06 402918 0
402918 -239211 0
0    0    1.98533e+06

2.45981e+07 -560153 0
-560153 1.29264e+06 0
0    0    7.76722e+06

1.64158e+07 -548869 0
-548869 1.42567e+06 0
0    0    5.35243e+06

1.76094e+07 803461 0
803461 49687.4 0
0    0    5.29771e+06

2.64499e+07 -569741 0
-569741 1.65984e+06 0
0    0    8.43292e+06

7.18336e+06 1.64987e+06 0
1.64987e+06 1.95957e+06 0
0    0    2.74288e+06

1.8022e+06 -1.33896e+06 0
-1.33896e+06 353203 0
0    0    646622

1.75097e+07 576459 0
576459 568044 0
0    0    5.42333e+06

1.73735e+07 -902934 0
-902934 -1.09922e+06 0
0    0    4.88227e+06

1.65699e+07 -1.61807e+06 0
-1.61807e+06 -318520 0
0    0    4.87541e+06

9.90359e+06 -1.8868e+06 0
-1.8868e+06 -853348 0
0    0    2.71507e+06

1.81787e+07 1.06653e+06 0
1.06653e+06 -1.48423e+06 0
0    0    5.00834e+06

1.71531e+07 -473159 0
-473159 -722766 0
0    0    4.92909e+06

5.28639e+06 -2.30014e+06 0
-2.30014e+06 -2.35449e+06 0
0    0    879570

7.30946e+06 522409 0
522409 460164 0
0    0    2.33089e+06

-333030 1.03335e+06 0
1.03335e+06 901621 0
0    0    170577

-2.70501e+07 -1.23652e+06 0
-1.23652e+06 800471 0
0    0    -7.8749e+06

1.92196e+07 -1.68143e+06 0
-1.68143e+06 2.12268e+06 0
0    0    6.40268e+06

5.40307e+06 -780356 0
-780356 742844 0
0    0    1.84378e+06

2.17527e+07 -2.63708e+06 0
-2.63708e+06 70540.5 0
0    0    6.54696e+06

-2.84835e+07 -109411 0
-109411 354713 0
0    0    -8.43865e+06

-2.15833e+06 -802976 0
-802976 1.14821e+06 0
0    0    -303037

9.58901e+06 -701863 0
-701863 -934238 0
0    0    2.59643e+06

3.04577e+07 -302144 0
-302144 144422 0
0    0    9.18063e+06

1.71229e+07 260804 0
260804 -733111 0
0    0    4.91693e+06

1.91374e+07 -850528 0
-850528 432421 0
0    0    5.87095e+06

1.02655e+07 1.01656e+06 0
1.01656e+06 71328.8 0
0    0    3.10106e+06

1.55213e+07 641206 0
641206 -1.71028e+06 0
0    0    4.14332e+06

-1.63227e+07 -2.13396e+06 0
-2.13396e+06 772903 0
0    0    -4.66493e+06

1.73569e+07 763.599 0
763.599 585952 0
0    0    5.38286e+06

-1.90496e+07 -109126 0
-109126 -408280 0
0    0    -5.83736e+06

-1.0909e+07 -1.56445e+06 0
-1.56445e+06 -1.57329e+06 0
0    0    -3.7447e+06

7.90427e+06 358001 0
358001 -628837 0
0    0    2.18263e+06

1.78037e+07 609943 0
609943 1.02383e+06 0
0    0    5.64826e+06

1.64649e+07 1.16598e+06 0
1.16598e+06 -132078 0
0    0    4.89986e+06

-2.595e+06 -1.01328e+06 0
-1.01328e+06 364399 0
0    0    -669181

-1.01372e+07 -549366 0
-549366 1.07721e+06 0
0    0    -2.71799e+06

7.88144e+06 743942 0
743942 806556 0
0    0    2.6064e+06

384348 -1.30472e+06 0
-1.30472e+06 -400507 0
0    0    -4847.68

1.45882e+07 -1.29559e+06 0
-1.29559e+06 49991.1 0
0    0    4.39147e+06

7.55796e+06 -783434 0
-783434 -1.85928e+06 0
0    0    1.7096e+06

2.76071e+07 -1.19592e+06 0
-1.19592e+06 1.97252e+06 0
0    0    8.87388e+06

3.31285e+07 -298535 0
-298535 311290 0
0    0    1.00319e+07

-1.7625e+07 -1.7722e+06 0
-1.7722e+06 1.98062e+06 0
0    0    -4.69331e+06

2.31448e+07 405707 0
405707 -493716 0
0    0    6.79533e+06

3.03687e+07 268710 0
268710 -529373 0
0    0    8.95179e+06

2.13236e+07 904690 0
904690 -1.77502e+06 0
0    0    5.86457e+06

2.8533e+07 -694856 0
-694856 154970 0
0    0    8.60639e+06

5.90894e+06 -1.23108e+06 0
-1.23108e+06 1.45907e+06 0
0    0    2.2104e+06

4.84813e+06 -1.6244e+06 0
-1.6244e+06 -830542 0
0    0    1.20528e+06

-6.54595e+06 1.06761e+06 0
1.06761e+06 -1.38462e+06 0
0    0    -2.37917e+06

-6.55622e+06 -702210 0
-702210 568172 0
0    0    -1.79641e+06

-5.27552e+06 1.18547e+06 0
1.18547e+06 -408509 0
0    0    -1.70521e+06

-1.12902e+07 -718771 0
-718771 1.11525e+06 0
0    0    -3.05248e+06

-1.81262e+07 99076.7 0
99076.7 -1.09007e+06 0
0    0    -5.76489e+06

-2.98931e+07 -25152.7 0
-25152.7 295701 0
0    0    -8.87923e+06

-2.93039e+07 -715434 0
-715434 565842 0
0    0    -8.6214e+06

-1.79922e+07 -1.25811e+06 0
-1.25811e+06 1.73027e+06 0
0    0    -4.87859e+06

-2.97125e+07 382185 0
382185 -1.99247e+06 0
0    0    -9.5115e+06

-1.09487e+07 -2.2267e+06 0
-2.2267e+06 209004 0
0    0    -3.2219e+06

-550975 2.64699e+06 0
2.64699e+06 182242 0
0    0    -110620

2.7631e+06 1.41485e+06 0
1.41485e+06 850361 0
0    0    1.08404e+06

1.72957e+07 270345 0
270345 2.23901e+06 0
0    0    5.86041e+06

1.25434e+07 -2.54214e+06 0
-2.54214e+06 -356460 0
0    0    3.65608e+06

2.96691e+07 131495 0
131495 -585918 0
0    0    8.72495e+06

1.61673e+07 -1.59751e+06 0
-1.59751e+06 42183.5 0
0    0    4.86285e+06

1.20416e+07 755797 0
755797 1.66388e+06 0
0    0    4.11163e+06

1.51411e+07 691670 0
691670 -2.91351e+06 0
0    0    3.66827e+06

1.74466e+07 1.56473e+06 0
1.56473e+06 398606 0
0    0    5.35356e+06

1.96821e+07 -859049 0
-859049 -1875.31 0
0    0    5.90408e+06

1.73584e+07 -332958 0
-332958 -2.28502e+06 0
0    0    4.52201e+06

-2.94159e+07 247027 0
247027 8403.26 0
0    0    -8.82224e+06

2.00539e+07 -1.68662e+06 0
-1.68662e+06 -1.39903e+06 0
0    0    5.59647e+06

2.92988e+07 -673621 0
-673621 -682280 0
0    0    8.58496e+06

-2.93719e+07 611533 0
611533 -874962 0
0    0    -9.07407e+06

2.29508e+07 -2.04059e+06 0
-2.04059e+06 9.83605e+06 0
0    0    9.83605e+06

-7.01452e+06 -535424 0
-535424 -481007 0
0    0    -2.24866e+06

-4.2669e+06 -1.38411e+06 0
-1.38411e+06 -1.17164e+06 0
0    0    -1.63156e+06

1.79998e+07 -1.00931e+06 0
-1.00931e+06 235090 0
0    0    5.47045e+06

3.09611e+07 1.30248e+06 0
1.30248e+06 1.1706e+06 0
0    0    9.63952e+06

-1.83716e+07 111053 0
111053 143312 0
0    0    -5.46849e+06

3.38059e+06 -1.99742e+06 0
-1.99742e+06 254011 0
0    0    1.09038e+06

-1.90255e+07 -1.66222e+06 0
-1.66222e+06 1.72722e+06 0
0    0    -5.1895e+06

1.41342e+07 1.17645e+06 0
1.17645e+06 254110 0
0    0    4.31648e+06

-5.48688e+06 -2.38555e+06 0
-2.38555e+06 -981018 0
0    0    -1.94037e+06

5.31433e+06 -558702 0
-558702 -268654 0
0    0    1.5137e+06

5.76188e+06 -444233 0
-444233 837642 0
0    0    1.97986e+06

-3.31135e+07 -1.99161e+06 0
-1.99161e+06 -2.60323e+06 0
0    0    -1.0715e+07

-2.17662e+07 -1.85249e+06 0
-1.85249e+06 853719 0
0    0    -6.27375e+06

-7.06349e+06 -1.63203e+06 0
-1.63203e+06 823297 0
0    0    -1.87206e+06

-1.52666e+07 -77814.6 0
-77814.6 -2.0589e+06 0
0    0    -5.19766e+06

-7.03603e+06 1.37562e+06 0
1.37562e+06 -1.12521e+06 0
0    0    -2.44837e+06

6.11495e+06 -2.74094e+06 0
-2.74094e+06 -65043.7 0
0    0    1.81497e+06

-1.20072e+07 889386 0
889386 -629918 0
0    0    -3.79113e+06

7.739e+06 940585 0
940585 215233 0
0    0    2.38627e+06

1.54005e+06 -1.40372e+06 0
-1.40372e+06 301294 0
0    0    552403

-2.34234e+07 -970814 0
-970814 -1.01436e+06 0
0    0    -7.33133e+06

-3.16819e+07 -258098 0
-258098 1.89749e+06 0
0    0    -8.93533e+06

-2.21034e+07 863531 0
863531 -1.04292e+06 0
0    0    -6.94391e+06

2.33315e+07 -465948 0
-465948 386575 0
0    0    7.11541e+06

-1.42478e+07 1.25241e+06 0
1.25241e+06 -2.91432e+06 0
0    0    -5.14862e+06

-1.93578e+07 -2.24829e+06 0
-2.24829e+06 338989 0
0    0    -5.70564e+06

-1.85954e+07 588450 0
588450 -988806 0
0    0    -5.87526e+06

1.37371e+07 -1.88278e+06 0
-1.88278e+06 2.8968e+06 0
0    0    4.99017e+06

7.61875e+06 243037 0
243037 3.26518e+06 0
0    0    3.26518e+06

-6.23581e+06 15014.8 0
15014.8 -2.67249e+06 0
0    0    -2.67249e+06

-6.51169e+06 1.18417e+06 0
1.18417e+06 -794876 0
0    0    -2.19197e+06

-1.30804e+07 -1.8281e+06 0
-1.8281e+06 -1.942e+06 0
0    0    -4.50671e+06

-2.20662e+07 841348 0
841348 789791 0
0    0    -6.38293e+06

-3.04861e+07 530508 0
530508 -1.71383e+06 0
0    0    -9.65997e+06

-2.4022e+07 -2.27154e+06 0
-2.27154e+06 -1.02951e+07 0
0    0    -1.02951e+07

-2.33202e+07 413715 0
413715 735670 0
0    0    -6.77537e+06

-3.3828e+06 576398 0
576398 368983 0
0    0    -904146

-1.71332e+07 -547150 0
-547150 3.0167e+06 0
0    0    -4.23495e+06

-1.23059e+07 -2.10278e+06 0
-2.10278e+06 1.61879e+06 0
0    0    -3.20614e+06

-1.35191e+07 -1.52082e+06 0
-1.52082e+06 -3.61575e+06 0
0    0    -5.14045e+06

3.33009e+07 -1.3565e+06 0
-1.3565e+06 2.90636e+06 0
0    0    1.08622e+07

1.48776e+07 1.60821e+06 0
1.60821e+06 2.25207e+06 0
0    0    5.13889e+06

184445 434515 0
434515 -174037 0
0    0    3122.24

-4.58727e+06 -226902 0
-226902 -164030 0
0    0    -1.42539e+06

2.07739e+06 -146434 0
-146434 184244 0
0    0    678491

4.20958e+06 408937 0
408937 -99945 0
0    0    1.23289e+06

-2.09858e+06 226848 0
226848 -212703 0
0    0    -693385

-4.81727e+06 -580348 0
-580348 391501 0
0    0    -1.32773e+06

2.35819e+06 398794 0
398794 -522105 0
0    0    550826

-39756.4 -123397 0
-123397 351022 0
0    0    93379.6

276618 146987 0
146987 -333368 0
0    0    -17024.9

-8.06961e+06 177161 0
177161 287479 0
0    0    -2.33464e+06

-3.55069e+06 300046 0
300046 -293670 0
0    0    -1.15331e+06

-2.2519e+06 -147033 0
-147033 -61143.7 0
0    0    -693913

-4.91867e+06 239520 0
239520 -294755 0
0    0    -1.56403e+06

-7.45659e+06 429.441 0
429.441 -157463 0
0    0    -2.28421e+06

-5.56294e+06 132022 0
132022 -260306 0
0    0    -1.74697e+06

-3.09555e+06 -347470 0
-347470 423796 0
0    0    -801526

-3.45426e+06 -127011 0
-127011 -247671 0
0    0    -1.11058e+06

-1.46533e+06 597993 0
597993 134197 0
0    0    -399340

-4.7113e+06 268721 0
268721 230976 0
0    0    -1.3441e+06

-4.17486e+06 438806 0
438806 -494569 0
0    0    -1.40083e+06

-3.91516e+06 -154093 0
-154093 -154051 0
0    0    -1.22076e+06

-5.8538e+06 206417 0
206417 -232690 0
0    0    -1.82595e+06

-7.81526e+06 33141 0
33141 13706.7 0
0    0    -2.34047e+06

898576 -144936 0
-144936 -174232 0
0    0    217303

-5.5983e+06 -100318 0
-100318 217535 0
0    0    -1.61423e+06

-5.63401e+06 359615 0
359615 334205 0
0    0    -1.58994e+06

-3.63585e+06 435189 0
435189 174160 0
0    0    -1.03851e+06

2.91263e+06 242981 0
242981 260321 0
0    0    951886

-7.15672e+06 -78495.8 0
-78495.8 30420.4 0
0    0    -2.13789e+06

-824470 64370.6 0
64370.6 43153.4 0
0    0    -234395

-3.03621e+06 291624 0
291624 -153768 0
0    0    -956993

-2.87786e+06 -286698 0
-286698 -110624 0
0    0    -896546

211620 527109 0
527109 224511 0
0    0    130839

5.14309e+06 493961 0
493961 65465.4 0
0    0    1.56257e+06

-7.36763e+06 29326.7 0
29326.7 29418.5 0
0    0    -2.20146e+06

-5.27598e+06 -47617.5 0
-47617.5 -122253 0
0    0    -1.61947e+06

-4.92703e+06 588360 0
588360 -223916 0
0    0    -1.54528e+06

-5.36748e+06 -44820 0
-44820 -75339.2 0
0    0    -1.63285e+06

-1.01299e+06 86465.1 0
86465.1 9592.97 0
0    0    -301018

1.84331e+06 -315060 0
-315060 382460 0
0    0    667730

-1.89444e+06 406941 0
406941 439298 0
0    0    -436543

-5.19639e+06 -29425.6 0
-29425.6 339555 0
0    0    -1.45705e+06

-7.73213e+06 -55008 0
-55008 7116.11 0
0    0    -2.31751e+06

-1.5412e+06 -27505.3 0
-27505.3 -110173 0
0    0    -495411

-575788 139161 0
139161 -21709.5 0
0    0    -179249

-3.31484e+06 539702 0
539702 110830 0
0    0    -961204

-6.89123e+06 -19903 0
-19903 -185143 0
0    0    -2.12291e+06

-1.51396e+06 -507346 0
-507346 331927 0
0    0    -354611

4.5373e+06 78481 0
78481 -38286 0
0    0    1.34971e+06

-2.63497e+06 -61214.5 0
-61214.5 -4202.16 0
0    0    -791753

-4.00675e+06 -430888 0
-430888 -92547.4 0
0    0    -1.22979e+06

-4.47793e+06 298909 0
298909 260856 0
0    0    -1.26512e+06

-3.16694e+06 274953 0
274953 -223981 0
0    0    -1.01728e+06

-1.15596e+06 543062 0
543062 -196289 0
0    0    -405676

7.30883e+06 225812 0
225812 178891 0
0    0    2.24632e+06

7.36223e+06 -32753.5 0
-32753.5 -114868 0
0    0    2.17421e+06

1.07983e+06 57726.2 0
57726.2 -298584 0
0    0    234373

3.16877e+06 629814 0
629814 -155354 0
0    0    904024

5.22654e+06 222179 0
222179 -110769 0
0    0    1.53473e+06

-7.39113e+06 78478.6 0
78478.6 46021.9 0
0    0    -2.20353e+06

1.63027e+06 -5894.01 0
-5894.01 88126.6 0
0    0    515520

-4.90871e+06 417521 0
417521 456480 0
0    0    -1.33567e+06

1.48189e+06 -586264 0
-586264 -48523.4 0
0    0    430010

-573528 588473 0
588473 -466680 0
0    0    -312063

-1.18262e+06 667276 0
667276 -168252 0
0    0    -405262

-7.47361e+06 42930.1 0
42930.1 58278 0
0    0    -2.2246e+06

-3.9436e+06 -296696 0
-296696 -412839 0
0    0    -1.30693e+06

2.09135e+06 -171407 0
-171407 -450252 0
0    0    492329

846709 -111215 0
-111215 -37199.5 0
0    0    242853

-706927 -111382 0
-111382 -294832 0
0    0    -300528

5.34575e+06 291997 0
291997 -44161.9 0
0    0    1.59048e+06

2.91956e+06 529209 0
529209 137879 0
0    0    917231

7.31914e+06 148977 0
148977 156856 0
0    0    2.2428e+06

4.49598e+06 171738 0
171738 -210377 0
0    0    1.28568e+06

4.60589e+06 57238.4 0
57238.4 -388457 0
0    0    1.26523e+06

-3.36826e+06 -384682 0
-384682 -129197 0
0    0    -1.04924e+06

-5.5477e+06 242343 0
242343 -13003.8 0
0    0    -1.66821e+06

-4.8091e+06 590073 0
590073 -211131 0
0    0    -1.50607e+06

-1.0264e+06 663110 0
663110 196361 0
0    0    -249012

4.70114e+06 -145113 0
-145113 253439 0
0    0    1.48637e+06

-6.92453e+06 -90556.5 0
-90556.5 -133257 0
0    0    -2.11734e+06

-5.00408e+06 -102120 0
-102120 -132308 0
0    0    -1.54092e+06

-4.63151e+06 439487 0
439487 26604.4 0
0    0    -1.38147e+06

-320351 59353.6 0
59353.6 599781 0
0    0    83828.9

-647016 -401030 0
-401030 -154272 0
0    0    -240386

1.00796e+06 -242152 0
-242152 -218395 0
0    0    236871

6.91208e+06 49776.3 0
49776.3 -3636.13 0
0    0    2.07253e+06

1.53201e+06 -210935 0
-210935 197739 0
0    0    518924

-3.08461e+06 67944.3 0
67944.3 55310.6 0
0    0    -908788

879196 89028.5 0
89028.5 -735995 0
0    0    42960.4

3.09246e+06 652451 0
652451 658111 0
0    0    1.12517e+06

5.3712e+06 -78082.1 0
-78082.1 87148.4 0
0    0    1.6375e+06

4.60388e+06 -421285 0
-421285 -367000 0
0    0    1.27107e+06

3.25093e+06 -159327 0
-159327 272960 0
0    0    1.05717e+06

7.48976e+06 117605 0
117605 11407 0
0    0    2.25035e+06

5.20645e+06 -370.461 0
-370.461 150451 0
0    0    1.60707e+06

4.95046e+06 -276569 0
-276569 223023 0
0    0    1.55204e+06

7.3352e+06 -51863.4 0
-51863.4 -37461.5 0
0    0    2.18932e+06

4.64661e+06 414912 0
414912 73288.6 0
0    0    1.41597e+06

4.89924e+06 -104782 0
-104782 -87112.5 0
0    0    1.44364e+06

2.97104e+06 -224271 0
-224271 -151447 0
0    0    845879

1.34831e+06 313689 0
313689 409053 0
0    0    527209

3.10084e+06 -96029.9 0
-96029.9 -114537 0
0    0    895892

-4.9357e+06 -129235 0
-129235 46050.7 0
0    0    -1.46689e+06

2.52252e+06 421808 0
421808 -76162.7 0
0    0    733908

2.67124e+06 -148657 0
-148657 245526 0
0    0    875031

1.22066e+06 538463 0
538463 -56401.2 0
0    0    349279

6.53278e+06 -125912 0
-125912 243601 0
0    0    2.03291e+06

3.71209e+06 431597 0
431597 42863.8 0
0    0    1.12649e+06

3.89125e+06 -256277 0
-256277 189634 0
0    0    1.22427e+06

7.27288e+06 146738 0
146738 324041 0
0    0    2.27908e+06

-3.04468e+06 -388452 0
-388452 236602 0
0    0    -842422

4.00752e+06 455083 0
455083 -181095 0
0    0    1.14793e+06

-664780 380163 0
380163 -412089 0
0    0    -323060

-389160 434557 0
434557 162086 0
0    0    -68122.1

-360013 72686 0
72686 -36755.8 0
0    0    -119031

4.12212e+06 144602 0
144602 -365815 0
0    0    1.12689e+06

1.57211e+06 57698 0
57698 251558 0
0    0    547100

-4.89784e+06 -152411 0
-152411 318712 0
0    0    -1.37374e+06

1.30317e+06 326590 0
326590 -336309 0
0    0    290058

582356 417059 0
417059 -206107 0
0    0    112874

6.56943e+06 84487.3 0
84487.3 -107824 0
0    0    1.93848e+06

2.25208e+06 408746 0
408746 -412673 0
0    0    551822

5.04004e+06 342018 0
342018 248708 0
0    0    1.58663e+06

-26253.8 584090 0
584090 -307726 0
0    0    -100194

5.89108e+06 222429 0
222429 371962 0
0    0    1.87891e+06

5.8401e+06 -73962.6 0
-73962.6 -469051 0
0    0    1.61131e+06

5.29571e+06 233037 0
233037 15906 0
0    0    1.59349e+06

8.42826e+06 102110 0
102110 4986.07 0
0    0    2.52997e+06

2.85369e+06 -442780 0
-442780 -340844 0
0    0    753855

-864229 44931.8 0
44931.8 -30449.9 0
0    0    -268404

5.39573e+06 417285 0
417285 381936 0
0    0    1.7333e+06

4.81989e+06 -101714 0
-101714 -306002 0
0    0    1.35417e+06

7.92711e+06 43386.8 0
43386.8 124831 0
0    0    2.41558e+06

4.60671e+06 581805 0
581805 252443 0
0    0    1.45775e+06

7.77572e+06 -164.841 0
-164.841 227917 0
0    0    2.40109e+06

4.80801e+06 -77551.9 0
-77551.9 -217169 0
0    0    1.37725e+06

1.21939e+06 -155510 0
-155510 352213 0
0    0    471482

4.28065e+06 -267141 0
-267141 -29134.4 0
0    0    1.27546e+06

5.49618e+06 -49760.6 0
-49760.6 -62197 0
0    0    1.63019e+06

7.41026e+06 177004 0
177004 2528.2 0
0    0    2.22384e+06

3.00204e+06 -134402 0
-134402 -175379 0
0    0    847997

4.53812e+06 -282243 0
-282243 -350802 0
0    0    1.25619e+06

1.8359e+06 517899 0
517899 151037 0
0    0    596080

462339 20392.1 0
20392.1 106601 0
0    0    170682

3.15346e+06 7190.15 0
7190.15 -18303.8 0
0    0    940547

-2.35414e+06 268761 0
268761 224377 0
0    0    -638928

-4.3673e+06 38482 0
38482 118717 0
0    0    -1.27457e+06

-4.28273e+06 412404 0
412404 -47929.5 0
0    0    -1.2992e+06

-2.3738e+06 -356209 0
-356209 73390 0
0    0    -690123

-2.60151e+06 -167898 0
-167898 58872.5 0
0    0    -762791

-1.15673e+06 69161.9 0
69161.9 1429.72 0
0    0    -346589

-6.55343e+06 -54006 0
-54006 -161491 0
0    0    -2.01448e+06

4.2048e+06 -178077 0
-178077 333011 0
0    0    1.36134e+06

-4.25452e+06 175590 0
175590 -14077.7 0
0    0    -1.28058e+06

-3.97359e+06 356843 0
356843 418059 0
0    0    -1.06666e+06

1.35681e+06 -149000 0
-149000 561764 0
0    0    575573

-1.87522e+06 219817 0
219817 299349 0
0    0    -472761

-4.04859e+06 359768 0
359768 350714 0
0    0    -1.10936e+06

-1.79367e+06 414350 0
414350 166169 0
0    0    -488252

-4.19725e+06 4525.05 0
4525.05 249293 0
0    0    -1.18439e+06

-6.75007e+06 18710.5 0
18710.5 -109441 0
0    0    -2.05785e+06

-7.04534e+06 -6431.66 0
-6431.66 -265618 0
0    0    -2.19329e+06

-3.93808e+06 -12922 0
-12922 -407991 0
0    0    -1.30382e+06

-1.6736e+06 -117025 0
-117025 -154608 0
0    0    -548462

-3.86419e+06 185733 0
185733 386566 0
0    0    -1.04329e+06

-2.63221e+06 174400 0
174400 280246 0
0    0    -705589

-6.21311e+06 -66758.9 0
-66758.9 -223340 0
0    0    -1.93094e+06

-1.24513e+06 -323384 0
-323384 -315248 0
0    0    -468114

-2.29067e+06 187745 0
187745 230796 0
0    0    -617963

4.24584e+06 -209363 0
-209363 -24695.2 0
0    0    1.26634e+06

-268182 -145198 0
-145198 438554 0
0    0    51111.7

720221 562608 0
562608 -282636 0
0    0    131276

670396 107694 0
107694 285422 0
0    0    286745

4.6758e+06 -255716 0
-255716 19264.8 0
0    0    1.40852e+06

4.73891e+06 398637 0
398637 -515116 0
0    0    1.26714e+06

7.00678e+06 -188511 0
-188511 181613 0
0    0    2.15652e+06

2.17182e+06 -138074 0
-138074 63337.5 0
0    0    670547

4.41985e+06 53957.2 0
53957.2 -374277 0
0    0    1.21367e+06

4.39394e+06 306523 0
306523 -497.437 0
0    0    1.31803e+06

1.04624e+06 46153.5 0
46153.5 404.084 0
0    0    313992

1.43259e+06 415637 0
415637 205845 0
0    0    491530

6.23871e+06 -32453.5 0
-32453.5 167864 0
0    0    1.92197e+06

3.71247e+06 272227 0
272227 -106104 0
0    0    1.08191e+06

89908.5 147192 0
147192 261783 0
0    0    105507

6.72415e+06 174431 0
174431 375048 0
0    0    2.12976e+06

717920 -269302 0
-269302 68127.2 0
0    0    235814

2.18202e+06 417834 0
417834 -260307 0
0    0    576513

1.83193e+06 414960 0
414960 -172586 0
0    0    497803

-656690 43532 0
43532 186767 0
0    0    -140977

-5.97577e+06 136333 0
136333 -114619 0
0    0    -1.82712e+06

-2.5873e+06 134166 0
134166 -548185 0
0    0    -940644

-4.67488e+06 226344 0
226344 270559 0
0    0    -1.3213e+06

-3.21533e+06 407247 0
407247 -758703 0
0    0    -1.19221e+06

-7.08704e+06 16294.1 0
16294.1 366306 0
0    0    -2.01622e+06

3.28609e+06 457491 0
457491 -212452 0
0    0    922091

-823382 224841 0
224841 -205217 0
0    0    -308580

-3.87791e+06 -148973 0
-148973 -104212 0
0    0    -1.19464e+06

2.98568e+06 115406 0
115406 108875 0
0    0    928365

-3.50671e+06 -173609 0
-173609 189564 0
0    0    -995143

1.54426e+06 -18686.8 0
-18686.8 361119 0
0    0    571612

-3.04189e+06 343087 0
343087 -377891 0
0    0    -1.02593e+06

-5.96582e+06 231079 0
231079 -278590 0
0    0    -1.87332e+06

-1.03954e+06 243824 0
243824 -450047 0
0    0    -446876

-1.53058e+06 390713 0
390713 155103 0
0    0    -412644

3.67992e+06 -369018 0
-369018 259986 0
0    0    1.18197e+06

1.32898e+06 -110346 0
-110346 453149 0
0    0    534640

-871333 465969 0
465969 381946 0
0    0    -146816

-3.17899e+06 -2582.76 0
-2582.76 245515 0
0    0    -880042

818119 34651.3 0
34651.3 107312 0
0    0    277629

-3.1498e+06 -212201 0
-212201 -300418 0
0    0    -1.03507e+06

-1.63919e+06 396577 0
396577 -396894 0
0    0    -610826

805207 53185.7 0
53185.7 150931 0
0    0    286841

-1.64184e+06 322194 0
322194 -316548 0
0    0    -587516

-3.88273e+06 44251.2 0
44251.2 9080.19 0
0    0    -1.16209e+06

-1.67976e+06 -407380 0
-407380 514996 0
0    0    -349428

-3.82122e+06 325014 0
325014 57894.1 0
0    0    -1.129e+06

-6.3819e+06 301926 0
301926 -214167 0
0    0    -1.97882e+06

-1.51793e+06 -226407 0
-226407 173749 0
0    0    -403254

-6.01371e+06 77377.6 0
77377.6 -259681 0
0    0    -1.88202e+06

-508956 -210624 0
-210624 -321383 0
0    0    -249102

1.63894e+06 146403 0
146403 -38686.3 0
0    0    480076

4.14298e+06 439948 0
439948 -209084 0
0    0    1.18017e+06

3.12602e+06 58422.2 0
58422.2 441568 0
0    0    1.07028e+06

4.07163e+06 -177297 0
-177297 533910 0
0    0    1.38166e+06

6.65274e+06 -30670.8 0
-30670.8 -37505 0
0    0    1.98457e+06

6.53834e+06 -204859 0
-204859 -81927.7 0
0    0    1.93692e+06

1.65725e+06 65752.1 0
65752.1 430550 0
0    0    626339

1.8386e+06 -302542 0
-302542 12589.4 0
0    0    555357

4.557e+06 392684 0
392684 -369817 0
0    0    1.25615e+06

4.66649e+06 2601.55 0
2601.55 168069 0
0    0    1.45037e+06

5.61351e+06 163725 0
163725 284080 0
0    0    1.76928e+06

3.09715e+06 190513 0
190513 468052 0
0    0    1.06956e+06

4.25116e+06 244716 0
244716 -679443 0
0    0    1.07151e+06

4.12333e+06 -173051 0
-173051 -436696 0
0    0    1.10599e+06

797385 149947 0
149947 49695.9 0
0    0    254124

5.70813e+06 40600.8 0
40600.8 57552.4 0
0    0    1.7297e+06

3.24832e+06 146771 0
146771 -283341 0
0    0    889493

-1.26296e+06 216644 0
216644 361934 0
0    0    -270306

641016 479283 0
479283 -342024 0
0    0    89697.6

3.3637e+06 -67196.6 0
-67196.6 -277548 0
0    0    925845

2.71065e+06 -272846 0
-272846 280862 0
0    0    897455

6.1797e+06 5343.58 0
5343.58 -67962.7 0
0    0    1.83352e+06

-5.56416e+06 -125544 0
-125544 -254144 0
0    0    -1.74549e+06

-2.00271e+06 144276 0
144276 70582.7 0
0    0    -579637

3.95032e+06 -121982 0
-121982 120904 0
0    0    1.22137e+06

-645001 -136844 0
-136844 -58848.3 0
0    0    -211155

-1.21946e+06 430918 0
430918 -134640 0
0    0    -406229

-3.73861e+06 -58422.3 0
-58422.3 -10310.7 0
0    0    -1.12468e+06

-3.90901e+06 327094 0
327094 -553052 0
0    0    -1.33862e+06

-4.17269e+06 120309 0
120309 14807.2 0
0    0    -1.24737e+06

3.25002e+06 -284236 0
-284236 22501.5 0
0    0    981757

-2.22352e+06 325195 0
325195 -205458 0
0    0    -728695

-1.78137e+06 388068 0
388068 -51064.5 0
0    0    -549732

-4.21125e+06 -63343.6 0
-63343.6 -225324 0
0    0    -1.33097e+06

2.47717e+06 245129 0
245129 -154734 0
0    0    696730

-6.11235e+06 30465.2 0
30465.2 -103974 0
0    0    -1.8649e+06

290308 478768 0
478768 217718 0
0    0    152408

1.76153e+06 22469.8 0
22469.8 137060 0
0    0    569578

-3.46291e+06 171860 0
171860 -19358 0
0    0    -1.04468e+06

-5.63542e+06 -135574 0
-135574 -202634 0
0    0    -1.75141e+06

612099 377800 0
377800 181235 0
0    0    238000

774276 66391.6 0
66391.6 -46475.5 0
0    0    218340

4.07011e+06 215462 0
215462 -121690 0
0    0    1.18453e+06

711064 -77099 0
-77099 -173008 0
0    0    161417

3.32356e+06 354751 0
354751 -67351.3 0
0    0    976862

2.5687e+06 206708 0
206708 71958.9 0
0    0    792199

-1.31443e+06 191527 0
191527 213047 0
0    0    -330416

5.85129e+06 -20347.6 0
-20347.6 -100659 0
0    0    1.72519e+06

4.30623e+06 -129226 0
-129226 108109 0
0    0    1.3243e+06

6.21949e+06 105275 0
105275 -42513.1 0
0    0    1.85309e+06

4.35608e+06 98827 0
98827 119180 0
0    0    1.34258e+06

3.94707e+06 -173850 0
-173850 -298450 0
0    0    1.09458e+06

-3.48543e+06 302036 0
302036 -117040 0
0    0    -1.08074e+06

-5.17773e+06 -91951.6 0
-91951.6 -125515 0
0    0    -1.59097e+06

-3.35796e+06 188120 0
188120 210013 0
0    0    -944385

1.00736e+06 -88651.8 0
-88651.8 -106990 0
0    0    270112

-3.22571e+06 377375 0
377375 205127 0
0    0    -906175

-1.2883e+06 29451 0
29451 -77048.1 0
0    0    -409606

-1.71684e+06 -207397 0
-207397 162250 0
0    0    -466378

-1.04842e+06 -267778 0
-267778 199648 0
0    0    -254631

-1.95636e+06 367036 0
367036 -52940.9 0
0    0    -602790

-3.50007e+06 326112 0
326112 374143 0
0    0    -937777

-5.37084e+06 -82242.6 0
-82242.6 -154386 0
0    0    -1.65757e+06

-1.27191e+06 313780 0
313780 -195196 0
0    0    -440132

-5.73815e+06 -74030.2 0
-74030.2 -220643 0
0    0    -1.78764e+06

756236 173048 0
173048 -65591.6 0
0    0    207193

-3.3793e+06 95465 0
95465 196891 0
0    0    -954722

2.50446e+06 -13770.7 0
-13770.7 287277 0
0    0    837521

-3.70326e+06 111898 0
111898 -186029 0
0    0    -1.16679e+06

2.06104e+06 295552 0
295552 7863.75 0
0    0    620672

-763869 413995 0
413995 25703.2 0
0    0    -221450

-411257 6228.38 0
6228.38 -102034 0
0    0    -153987

-609703 440172 0
440172 -450036 0
0    0    -317922

2.93541e+06 163617 0
163617 114634 0
0    0    915012

981973 -91453.6 0
-91453.6 175207 0
0    0    347154

3.10334e+06 62226.1 0
62226.1 216629 0
0    0    995992

182771 -148621 0
-148621 274838 0
0    0    137283

-3.17484e+06 -229431 0
-229431 -121698 0
0    0    -988961

-1.88992e+06 -202700 0
-202700 47294.1 0
0    0    -552789

-3.2444e+06 -109820 0
-109820 -168759 0
0    0    -1.02395e+06

-3.41995e+06 110061 0
110061 96908.3 0
0    0    -996913

109634 267920 0
267920 49522.9 0
0    0    47747.1

-1.64976e+06 320293 0
320293 32807 0
0    0    -485087

9785.45 303725 0
303725 -93334.9 0
0    0    -25064.8

-5.18773e+06 55194.2 0
55194.2 -64056.7 0
0    0    -1.57553e+06

5.56523e+06 51058.3 0
51058.3 136294 0
0    0    1.71046e+06

-3.25233e+06 357748 0
357748 340924 0
0    0    -873421

4.06456e+06 -46697.5 0
-46697.5 51772.2 0
0    0    1.2349e+06

-1.34822e+06 -126047 0
-126047 -50221.5 0
0    0    -419534

383031 319721 0
319721 6047.8 0
0    0    116724

2.59659e+06 -7622.64 0
-7622.64 30621.2 0
0    0    788162

3.94987e+06 96882.8 0
96882.8 -144426 0
0    0    1.14163e+06

5.67592e+06 91145.4 0
91145.4 -114957 0
0    0    1.66829e+06

3.57182e+06 35843.1 0
35843.1 142990 0
0    0    1.11444e+06

4.92682e+06 125074 0
125074 77512.9 0
0    0    1.5013e+06

-2.27299e+06 -19613.8 0
-19613.8 -6768.98 0
0    0    -683926

692294 -283.248 0
-283.248 239297 0
0    0    279477

-1.52213e+06 319205 0
319205 -130784 0
0    0    -495873

3.30691e+06 8578.08 0
8578.08 9668.4 0
0    0    994972

2.69724e+06 -174015 0
-174015 468637 0
0    0    949762

1.03076e+06 50103.1 0
50103.1 -434896 0
0    0    178759

3.06389e+06 -118284 0
-118284 -114432 0
0    0    884838

1.09409e+06 396144 0
396144 -186979 0
0    0    272134

1.55839e+06 422504 0
422504 -295606 0
0    0    378834

-1.52409e+06 152249 0
152249 -265230 0
0    0    -536795

2.46813e+06 445537 0
445537 -196673 0
0    0    681437

5.31663e+06 -16525.4 0
-16525.4 129955 0
0    0    1.63398e+06

1.05989e+06 33107.8 0
33107.8 163685 0
0    0    367074

297904 11192.7 0
11192.7 -71762.5 0
0    0    67842.5

1.09442e+06 386201 0
386201 -102497 0
0    0    297576

2.42979e+06 55939.9 0
55939.9 17875.3 0
0    0    734299

2.00558e+06 -192432 0
-192432 31446.5 0
0    0    611109

1.64276e+06 328746 0
328746 399471 0
0    0    612668

1.14787e+06 42844.7 0
42844.7 316053 0
0    0    439178

3.20551e+06 -221084 0
-221084 39761.6 0
0    0    973581

3.22683e+06 407093 0
407093 -374106 0
0    0    855818

3.11712e+06 -190721 0
-190721 175560 0
0    0    987805

4.12368e+06 279025 0
279025 -295582 0
0    0    1.14843e+06

-3.20692e+06 53587 0
53587 146471 0
0    0    -918135

5.35612e+06 -191397 0
-191397 186903 0
0    0    1.66291e+06

-4.95748e+06 14496.3 0
14496.3 96017.2 0
0    0    -1.45844e+06

-2.03599e+06 17613 0
17613 -59334.7 0
0    0    -628599

-3.68599e+06 -100282 0
-100282 -44329.9 0
0    0    -1.1191e+06

-2.1833e+06 432355 0
432355 190632 0
0    0    -597801

-4.86139e+06 152821 0
152821 -100682 0
0    0    -1.48862e+06

1.61271e+06 403828 0
403828 96957.1 0
0    0    512901

1.96844e+06 205346 0
205346 26716.4 0
0    0    598548

-5.32257e+06 67577.5 0
67577.5 -21058 0
0    0    -1.60309e+06

-3.404e+06 6435.41 0
6435.41 -331426 0
0    0    -1.12063e+06

-1.50073e+06 -125984 0
-125984 -124467 0
0    0    -487559

-2.24891e+06 -253494 0
-253494 42065.1 0
0    0    -662053

193899 -201390 0
-201390 223561 0
0    0    125238

-626822 328223 0
328223 -224620 0
0    0    -255433

-3.7364e+06 290038 0
290038 155231 0
0    0    -1.07435e+06

-3.40146e+06 309501 0
309501 8965.75 0
0    0    -1.01775e+06

-1.88706e+06 420946 0
420946 197145 0
0    0    -506973

-3.57184e+06 28225.3 0
28225.3 -117162 0
0    0    -1.1067e+06

3.46414e+06 344094 0
344094 24772.8 0
0    0    1.04667e+06

-3.32562e+06 39468.3 0
39468.3 470556 0
0    0    -856520

3.38804e+06 -33220.4 0
-33220.4 73261.6 0
0    0    1.03839e+06

-336058 427476 0
427476 -39250.7 0
0    0    -112593

242345 537666 0
537666 -322796 0
0    0    -24135.4

119986 -4841.55 0
-4841.55 117970 0
0    0    71386.7

4.83722e+06 65136.5 0
65136.5 267436 0
0    0    1.5314e+06

1.47813e+06 159107 0
159107 159494 0
0    0    491286

3.04183e+06 154046 0
154046 -344951 0
0    0    809063

3.3613e+06 -156854 0
-156854 -253298 0
0    0    932402

-2.38672e+06 324987 0
324987 20187.4 0
0    0    -709961

-1.59424e+06 -279964 0
-279964 -277702 0
0    0    -561583

4.82197e+06 34148.5 0
34148.5 -181984 0
0    0    1.392e+06

1.83899e+06 -92699.3 0
-92699.3 -44055.6 0
0    0    538482

1.5855e+06 249184 0
249184 -133324 0
0    0    435653

1.16865e+06 53090.9 0
53090.9 168014 0
0    0    400998

3.44705e+06 207007 0
207007 198524 0
0    0    1.09367e+06

-3.29376e+06 -64775.8 0
-64775.8 28324.6 0
0    0    -979630

3.34148e+06 -287473 0
-287473 -186670 0
0    0    946442

1.03865e+06 -130955 0
-130955 202473 0
0    0    372336

1.54803e+06 -84491.9 0
-84491.9 -232783 0
0    0    394573

1.61861e+06 302542 0
302542 -196650 0
0    0    426587

3.134e+06 355924 0
355924 -56902.3 0
0    0    923128

-4.6441e+06 -4457.75 0
-4457.75 -147600 0
0    0    -1.43751e+06

3.03484e+06 -180488 0
-180488 -2357.62 0
0    0    909745

687173 223150 0
223150 -271549 0
0    0    124687

4.65327e+06 -157486 0
-157486 135661 0
0    0    1.43668e+06

635255 201047 0
201047 -46521.6 0
0    0    176620

1.00569e+06 345268 0
345268 14467.9 0
0    0    306048

-3.42645e+06 232256 0
232256 141308 0
0    0    -985544

2.19215e+06 22165.3 0
22165.3 41796.1 0
0    0    670184

4.76787e+06 135601 0
135601 279818 0
0    0    1.51431e+06

650439 133447 0
133447 -61635.5 0
0    0    176641

-706163 -16182.9 0
-16182.9 3099.24 0
0    0    -210919

2.35313e+06 66766.9 0
66766.9 -21419.1 0
0    0    699513

2.62658e+06 39775.3 0
39775.3 -326851 0
0    0    689920

2.58715e+06 128700 0
128700 507415 0
0    0    928370

-2.98845e+06 96224.8 0
96224.8 -66018.5 0
0    0    -916339

-4.96555e+06 -84581.9 0
-84581.9 5840.85 0
0    0    -1.48791e+06

-2.51637e+06 203207 0
203207 -402087 0
0    0    -875536

4.157e+06 -12379 0
-12379 -50258.3 0
0    0    1.23202e+06

-983161 355839 0
355839 38482.3 0
0    0    -283404

584173 -67779.1 0
-67779.1 167924 0
0    0    225629

-348813 391907 0
391907 3379.73 0
0    0    -103630

-2.91159e+06 17006.1 0
17006.1 349325 0
0    0    -768679

-1.17469e+06 274493 0
274493 202692 0
0    0    -291598

-2.9637e+06 119039 0
119039 -140385 0
0    0    -931226

-4.48908e+06 -39218.3 0
-39218.3 -19799.5 0
0    0    -1.35266e+06

-4.81322e+06 -178608 0
-178608 -183905 0
0    0    -1.49914e+06

-2.49741e+06 -54158.7 0
-54158.7 -88558.8 0
0    0    -775789

-1.14017e+06 23912.8 0
23912.8 -93781.9 0
0    0    -370186

-2.77342e+06 -13719.1 0
-13719.1 63995.7 0
0    0    -812828

-2.89446e+06 40477 0
40477 121071 0
0    0    -832015

-2.31446e+06 412914 0
412914 251635 0
0    0    -618848

-1.31495e+06 -163634 0
-163634 413029 0
0    0    -270575

2.54331e+06 221279 0
221279 155733 0
0    0    809713

3.43399e+06 78783.5 0
78783.5 158645 0
0    0    1.07779e+06

4.54803e+06 -223023 0
-223023 156868 0
0    0    1.41147e+06

2.74363e+06 144993 0
144993 216268 0
0    0    887969

2.58663e+06 14840.5 0
14840.5 76207.5 0
0    0    798851

1.63699e+06 268486 0
268486 55106.2 0
0    0    507628

3.1632e+06 144443 0
144443 -459756 0
0    0    811033

3.03072e+06 -6543.86 0
-6543.86 -73310.6 0
0    0    887222

2.58774e+06 193178 0
193178 231699 0
0    0    845833

3.29351e+06 134098 0
134098 -106412 0
0    0    956130

3.1529e+06 251424 0
251424 -233189 0
0    0    875913

2.86561e+06 22831.7 0
22831.7 -400619 0
0    0    739498

135660 -161725 0
-161725 154134 0
0    0    86938

2.48115e+06 -88384.4 0
-88384.4 3180.44 0
0    0    745300

2.6423e+06 99756 0
99756 133537 0
0    0    832750

2.85163e+06 -146462 0
-146462 -294710 0
0    0    767075

-4.0985e+06 -33855.4 0
-33855.4 -124816 0
0    0    -1.26699e+06

3.88828e+06 153145 0
153145 149569 0
0    0    1.21135e+06

1.49189e+06 90659.7 0
90659.7 346174 0
0    0    551421

3.66691e+06 121204 0
121204 -334569 0
0    0    999703

4.48829e+06 231070 0
231070 95059.7 0
0    0    1.37501e+06

4.70239e+06 -35628.7 0
-35628.7 39702.1 0
0    0    1.42263e+06

5.3031e+06 231369 0
231369 -204419 0
0    0    1.5296e+06

1.01536e+06 -40927.5 0
-40927.5 -145553 0
0    0    260941

-734527 12378.6 0
12378.6 137204 0
0    0    -179197

-1.96054e+06 308129 0
308129 -151109 0
0    0    -633496

-2.16212e+06 163254 0
163254 6251.12 0
0    0    -646761

2.26258e+06 75359.2 0
75359.2 -490608 0
0    0    531591

-1.01164e+06 479042 0
479042 -563862 0
0    0    -472650

2.14331e+06 364176 0
364176 -97162 0
0    0    613844

40815 -11497.7 0
-11497.7 -94188.1 0
0    0    -16011.9

248830 -55741.8 0
-55741.8 375769 0
0    0    187380

570554 331539 0
331539 -84487.8 0
0    0    145820

1.95076e+06 -168144 0
-168144 3579.87 0
0    0    586303

1.37559e+06 346913 0
346913 66041.5 0
0    0    432489

3.82726e+06 55488.9 0
55488.9 -41166.3 0
0    0    1.13583e+06

1.07484e+06 415912 0
415912 -8.98601 0
0    0    322450

-3.78726e+06 29526.5 0
29526.5 -10834.5 0
0    0    -1.13943e+06

4.2902e+06 -55136.2 0
-55136.2 203970 0
0    0    1.34825e+06

918604 212938 0
212938 133897 0
0    0    315750

2.97303e+06 279549 0
279549 71696.2 0
0    0    913417

2.51876e+06 73513.2 0
73513.2 -296894 0
0    0    666561

1.0764e+06 98913.8 0
98913.8 -220026 0
0    0    256912

2.78144e+06 -81222.6 0
-81222.6 112868 0
0    0    868293

-2.6054e+06 -35.4264 0
-35.4264 30064.5 0
0    0    -772601

2.27557e+06 238250 0
238250 -103935 0
0    0    651490

1.07928e+06 117650 0
117650 -104655 0
0    0    292387

3.73957e+06 -27561.9 0
-27561.9 -118051 0
0    0    1.08646e+06

2.10678e+06 300393 0
300393 -23406 0
0    0    625011

781266 -103619 0
-103619 -454969 0
0    0    97889.3

3.90955e+06 126431 0
126431 171064 0
0    0    1.22418e+06

-1.48042e+06 -83698.4 0
-83698.4 87947.9 0
0    0    -417743

-210314 246714 0
246714 61844.2 0
0    0    -44540.9

408714 -80281.4 0
-80281.4 -57746.1 0
0    0    105290

2.37826e+06 231435 0
231435 223546 0
0    0    780541

-524276 331761 0
331761 38117.4 0
0    0    -145848

-2.1873e+06 -102315 0
-102315 124426 0
0    0    -618863

1.09487e+06 138290 0
138290 -68687.7 0
0    0    307856

-213213 207452 0
207452 30279.8 0
0    0    -54879.8

-1.23863e+06 228979 0
228979 77752.9 0
0    0    -348263

-450754 -51502.9 0
-51502.9 -135046 0
0    0    -175740

-2.37021e+06 -190224 0
-190224 -74041.1 0
0    0    -733275

-3.71468e+06 21282.2 0
21282.2 -31427.9 0
0    0    -1.12383e+06

1.36794e+06 -44112.6 0
-44112.6 184203 0
0    0    465644

100689 -90838.6 0
-90838.6 30481.4 0
0    0    39351

-200207 3749.96 0
3749.96 -56869.2 0
0    0    -77123

-4.11891e+06 121731 0
121731 -75600.1 0
0    0    -1.25835e+06

-837747 -149557 0
-149557 -92029.9 0
0    0    -278933

-2.37367e+06 -161205 0
-161205 -46782.6 0
0    0    -726135

-2.2746e+06 -42978.9 0
-42978.9 124603 0
0    0    -645000

-2.56155e+06 206838 0
206838 295747 0
0    0    -679741

-2.31849e+06 342086 0
342086 102217 0
0    0    -664881

-1.94596e+06 360732 0
360732 -2080.83 0
0    0    -584411

-2.35405e+06 63245.2 0
63245.2 166328 0
0    0    -656316

-1.45133e+06 287144 0
287144 23978.9 0
0    0    -428206

-4.21158e+06 86176.9 0
86176.9 -126108 0
0    0    -1.30131e+06

-2.57487e+06 199184 0
199184 93113.9 0
0    0    -744528

-1.0459e+06 -40929.3 0
-40929.3 89945.3 0
0    0    -286788

-1.36893e+06 -147632 0
-147632 -256289 0
0    0    -487566

-1.40478e+06 179047 0
179047 103646 0
0    0    -390342

-3.73995e+06 100846 0
100846 -50325.4 0
0    0    -1.13708e+06

1.25493e+06 331058 0
331058 358234 0
0    0    483948

-76587 -109887 0
-109887 147196 0
0    0    21182.6

-2.46949e+06 62497.4 0
62497.4 -20770 0
0    0    -747079

-2.47988e+06 183830 0
183830 152582 0
0    0    -698190

-1.577e+06 323207 0
323207 -115498 0
0    0    -507751

3.55856e+06 162654 0
162654 118589 0
0    0    1.10314e+06

-3.79848e+06 56436.8 0
56436.8 -184295 0
0    0    -1.19483e+06

2.06972e+06 109898 0
109898 -85496.5 0
0    0    595267

-2.4654e+06 47476.7 0
47476.7 264322 0
0    0    -660323

-4.59767e+06 3579.74 0
3579.74 -109324 0
0    0    -1.4121e+06

-1.3572e+06 254792 0
254792 -179696 0
0    0    -461068

-1.01036e+06 589067 0
589067 -184394 0
0    0    -358426

3.49114e+06 201621 0
201621 -84247.2 0
0    0    1.02207e+06

1.3305e+06 194784 0
194784 252521 0
0    0    474905

-985841 -56047.4 0
-56047.4 -88412.2 0
0    0    -322276

2.6646e+06 -104554 0
-104554 -128910 0
0    0    760706

1.77291e+06 -126091 0
-126091 19581.2 0
0    0    537747

1.24215e+06 190504 0
190504 153429 0
0    0    418674

-1.96189e+06 36770.3 0
36770.3 126884 0
0    0    -550503

2.19447e+06 120789 0
120789 -214624 0
0    0    593953

-1.07e+06 11314.3 0
11314.3 -117815 0
0    0    -356344

2.12776e+06 -46556.9 0
-46556.9 8350.99 0
0    0    640834

2.39109e+06 -34249.5 0
-34249.5 -23557.2 0
0    0    710259

32652.5 60983.3 0
60983.3 21427.9 0
0    0    16224.1

-5277.58 -61377.1 0
-61377.1 -70877.1 0
0    0    -22846.4

-139934 39814.5 0
39814.5 -173472 0
0    0    -94021.7

1.69689e+06 70075.6 0
70075.6 -22112 0
0    0    502434

-1.17017e+06 234773 0
234773 79029.4 0
0    0    -327342

1.20878e+06 97384.7 0
97384.7 72776.9 0
0    0    384468

-2.38592e+06 -60758 0
-60758 -151211 0
0    0    -761139

532544 392496 0
392496 -117312 0
0    0    124570

-2.52104e+06 164326 0
164326 21220.6 0
0    0    -749947

-49615.1 -14864.5 0
-14864.5 -118333 0
0    0    -50384.4

975044 -13435.8 0
-13435.8 123361 0
0    0    329522

-2.23148e+06 65255.1 0
65255.1 151805 0
0    0    -623902

1.83828e+06 42045 0
42045 305311 0
0    0    643078

-1.06305e+06 242320 0
242320 149786 0
0    0    -273979

-3.56077e+06 67539.9 0
67539.9 43896.5 0
0    0    -1.05506e+06

-1.87601e+06 261080 0
261080 19057.3 0
0    0    -557085

3.51633e+06 -4689.36 0
-4689.36 86689.3 0
0    0    1.08091e+06

1.9204e+06 254190 0
254190 -39427.3 0
0    0    564292

2.97279e+06 69872.4 0
69872.4 138723 0
0    0    933453

3.54733e+06 200461 0
200461 122111 0
0    0    1.10083e+06

-3.29285e+06 38836.8 0
38836.8 -4881.96 0
0    0    -989320

906837 141978 0
141978 -132673 0
0    0    232249

-76024.6 57790 0
57790 98789.1 0
0    0    6829.33

-1.13812e+06 275668 0
275668 165441 0
0    0    -291804

-2.3457e+06 10474 0
10474 -78177.2 0
0    0    -727164

-3.29475e+06 37321.6 0
37321.6 19369.9 0
0    0    -982613

-3.47675e+06 -44025.5 0
-44025.5 -98215.2 0
0    0    -1.07249e+06

-1.64936e+06 -71814.9 0
-71814.9 -96191.9 0
0    0    -523666

-243542 331924 0
331924 176058 0
0    0    -20245.1

-2.2638e+06 -7653.94 0
-7653.94 -121823 0
0    0    -715686

750602 201369 0
201369 -42759.5 0
0    0    212353

3.15395e+06 3633.32 0
3633.32 -30662.4 0
0    0    936986

1.19979e+06 71762.5 0
71762.5 -50316.3 0
0    0    344841

-2.21422e+06 -7000.41 0
-7000.41 -2559.76 0
0    0    -665033

-1.24561e+06 326009 0
326009 -62341.9 0
0    0    -392384

-2.3737e+06 78615.5 0
78615.5 -1014.55 0
0    0    -712416

-1.20432e+06 82316.7 0
82316.7 87724.4 0
0    0    -334978

-805819 281446 0
281446 -16027.9 0
0    0    -246554

-3.07801e+06 41784.8 0
41784.8 27276.8 0
0    0    -915219

52620 264578 0
264578 54615.8 0
0    0    32170.7

-1.56918e+06 247644 0
247644 82667.2 0
0    0    -445954

480397 -48905.1 0
-48905.1 -90962.3 0
0    0    116830

-1.86174e+06 69768.6 0
69768.6 51263 0
0    0    -543143

1.98888e+06 215714 0
215714 18055 0
0    0    602081

-2.05681e+06 32804.4 0
32804.4 -101871 0
0    0    -647604

636704 197090 0
197090 54399.6 0
0    0    207331

-795919 164970 0
164970 184678 0
0    0    -183372

3.35104e+06 -114064 0
-114064 110890 0
0    0    1.03858e+06

-2.00867e+06 181608 0
181608 110335 0
0    0    -569499

69991.6 6120.07 0
6120.07 37889 0
0    0    32364.2

-2.23567e+06 -77887.9 0
-77887.9 13046.8 0
0    0    -666787

-761324 47882.6 0
47882.6 128042 0
0    0    -189985

961116 102366 0
102366 -4145.94 0
0    0    287091

1.93341e+06 -1806.1 0
-1806.1 -6808.85 0
0    0    577980

2.34322e+06 164779 0
164779 -126516 0
0    0    665010

2.07455e+06 12062.1 0
12062.1 -211657 0
0    0    558867

-2.55878e+06 154280 0
154280 -541.058 0
0    0    -767797

-2.42223e+06 -25533.3 0
-25533.3 8923.2 0
0    0    -723991

-1.51132e+06 -64185.1 0
-64185.1 85262.5 0
0    0    -427818

-2.6908e+06 -93387.3 0
-93387.3 35683.7 0
0    0    -796535

-2.46743e+06 189002 0
189002 151548 0
0    0    -694765

2.4462e+06 184074 0
184074 63.7866 0
0    0    733880

2.38397e+06 -53479.3 0
-53479.3 -25760.1 0
0    0    707464

-1.12202e+06 241751 0
241751 -391440 0
0    0    -454037

-259398 405128 0
405128 -3992.91 0
0    0    -79017.2

-600255 74261.4 0
74261.4 155995 0
0    0    -133278

2.90848e+06 181706 0
181706 97906.9 0
0    0    901917

-2.51463e+06 -22524.7 0
-22524.7 -47443.7 0
0    0    -768622

-711177 165503 0
165503 -100828 0
0    0    -243601

897027 156763 0
156763 -15696.9 0
0    0    264399

382622 240486 0
240486 74627 0
0    0    137175

-699957 324439 0
324439 -144864 0
0    0    -253446

948715 1427.34 0
1427.34 -110318 0
0    0    251519

70256.4 245361 0
245361 112222 0
0    0    54743.4

-1.0879e+06 -62323.2 0
-62323.2 50646 0
0    0    -311177

-1.7878e+06 203464 0
203464 71477.3 0
0    0    -514897

1.94763e+06 135570 0
135570 -77661.3 0
0    0    560991

1.75939e+06 -33094.6 0
-33094.6 -159113 0
0    0    480083

-3.07186e+06 -49260.7 0
-49260.7 -135989 0
0    0    -962355

-1.59168e+06 126156 0
126156 152195 0
0    0    -431845

-1.61755e+06 -19334.9 0
-19334.9 -176609 0
0    0    -538249

1.94194e+06 26105.5 0
26105.5 -177268 0
0    0    529402

1.83443e+06 329114 0
329114 61284.3 0
0    0    568715

-1.59264e+06 204484 0
204484 33076.5 0
0    0    -467869

-2.80879e+06 -103528 0
-103528 -164641 0
0    0    -892028

389335 -50359.9 0
-50359.9 54641.6 0
0    0    133193

-1.32102e+06 56733.5 0
56733.5 62743.6 0
0    0    -377483

-304709 13052.8 0
13052.8 -105194 0
0    0    -122971

-780280 -70989.8 0
-70989.8 -116875 0
0    0    -269147

-2.52956e+06 40092.6 0
40092.6 -112528 0
0    0    -792627

-522526 205297 0
205297 -30449.5 0
0    0    -165893

577490 288037 0
288037 -16290.1 0
0    0    168360

-1.32152e+06 1790.71 0
1790.71 -143916 0
0    0    -439629

-479844 26376.2 0
26376.2 -225252 0
0    0    -211529

226976 2373.43 0
2373.43 73440.8 0
0    0    90125.1

-1.71375e+06 -11754 0
-11754 -109265 0
0    0    -546906

1.77035e+06 3216.51 0
3216.51 -61535.7 0
0    0    512645

1.49663e+06 40681.1 0
40681.1 91021.5 0
0    0    476296

-1.6482e+06 -697.661 0
-697.661 2765.67 0
0    0    -493630

-1.60981e+06 129085 0
129085 109849 0
0    0    -449988

-808952 -22772.7 0
-22772.7 13807.1 0
0    0    -238543

-2.73904e+06 19665.6 0
19665.6 -32614.1 0
0    0    -831497

-321340 233803 0
233803 150243 0
0    0    -51329.1

-329242 334454 0
334454 -171469 0
0    0    -150213

1.49018e+06 232281 0
232281 145978 0
0    0    490847

19.7085 -108687 0
-108687 60987.7 0
0    0    18302.2

245323 346055 0
346055 -9164.81 0
0    0    70847.3

2.5158e+06 13082.5 0
13082.5 171898 0
0    0    806310

1.35509e+06 212749 0
212749 84187.8 0
0    0    431783

671767 252529 0
252529 19655.4 0
0    0    207427

-919983 213819 0
213819 129609 0
0    0    -237112

1.90468e+06 -99847.8 0
-99847.8 116703 0
0    0    606414

1.67169e+06 -127283 0
-127283 -291664 0
0    0    414008

870960 -65761.8 0
-65761.8 -19046.2 0
0    0    255574

1.78285e+06 162563 0
162563 -120994 0
0    0    498558

2.76621e+06 192005 0
192005 162141 0
0    0    878504

1.12287e+06 257947 0
257947 129944 0
0    0    375844

1.67223e+06 -118892 0
-118892 -78826.1 0
0    0    478020

2.9598e+06 149094 0
149094 171197 0
0    0    939299

2.52907e+06 -8277.39 0
-8277.39 20770.5 0
0    0    764951

1.38199e+06 113406 0
113406 -247094 0
0    0    340470

2.4906e+06 -21238.6 0
-21238.6 80570 0
0    0    771352

601224 119926 0
119926 80190.2 0
0    0    204424

1.32594e+06 226183 0
226183 -152514 0
0    0    352028

786879 8654.39 0
8654.39 -75249.8 0
0    0    213489

595619 -22938.3 0
-22938.3 -43576.2 0
0    0    165613

1.4606e+06 2630.93 0
2630.93 -56660.8 0
0    0    421182

-2.33846e+06 -27671.7 0
-27671.7 -18310.2 0
0    0    -707032

369480 141617 0
141617 2271.5 0
0    0    111525

1.12424e+06 238681 0
238681 25932.2 0
0    0    345051

194967 247523 0
247523 144230 0
0    0    101759

-502563 -4335.79 0
-4335.79 -82855.6 0
0    0    -175625

-532456 243152 0
243152 17743.2 0
0    0    -154414

-1.4835e+06 239854 0
239854 116367 0
0    0    -410141

-1.46839e+06 11553.3 0
11553.3 -85874.4 0
0    0    -466278

1.37801e+06 53975 0
53975 -46793.5 0
0    0    399365

1.03744e+06 -59275.4 0
-59275.4 226677 0
0    0    379235

369688 218108 0
218108 -12050.9 0
0    0    107291

-634493 209702 0
209702 26578.7 0
0    0    -182374

1.23656e+06 44747.5 0
44747.5 155869 0
0    0    417729

763835 153866 0
153866 102781 0
0    0    259985

-2.06894e+06 28825.8 0
28825.8 24878.3 0
0    0    -613219

-2.28758e+06 52481.7 0
52481.7 -39785.3 0
0    0    -698208

-639030 4170.71 0
4170.71 -32719.2 0
0    0    -201525

-1.55991e+06 -19629.6 0
-19629.6 -5020.58 0
0    0    -469478

-894789 247652 0
247652 95032 0
0    0    -239927

-1.99261e+06 82949.4 0
82949.4 -37867.6 0
0    0    -609142

-2.29382e+06 46346.8 0
46346.8 -13333.4 0
0    0    -692146

-1.39893e+06 43911.6 0
43911.6 -128317 0
0    0    -458175

129327 229446 0
229446 33845.9 0
0    0    48951.7

-944431 -34394.2 0
-34394.2 -2590.38 0
0    0    -284106

160234 29708.8 0
29708.8 81660 0
0    0    72568.1

-441730 -7126.64 0
-7126.64 82861.1 0
0    0    -107661

1.14084e+06 50698.9 0
50698.9 -67234.9 0
0    0    322082

650930 38649.1 0
38649.1 37829.2 0
0    0    206628

-1.58768e+06 129118 0
129118 54018.4 0
0    0    -460098

-1.3903e+06 196300 0
196300 33949.4 0
0    0    -406905

-731581 229427 0
229427 88630.9 0
0    0    -192885

-1.45353e+06 47976.3 0
47976.3 -35371.2 0
0    0    -446670

965488 173253 0
173253 -23521.8 0
0    0    282590

-1.39585e+06 13185.8 0
13185.8 72699.6 0
0    0    -396946

-1.94317e+06 46750.2 0
46750.2 50074.5 0
0    0    -567927

-1.20762e+06 -28139 0
-28139 53766.8 0
0    0    -346156

208163 81185.7 0
81185.7 42642.1 0
0    0    75241.7

-779504 108672 0
108672 -48381.5 0
0    0    -248366

259725 85973.1 0
85973.1 8151.75 0
0    0    80363.2

-768307 102482 0
102482 -9125.8 0
0    0    -233230

-927950 61589.5 0
61589.5 83212.4 0
0    0    -253421

-553658 241797 0
241797 -204026 0
0    0    -227305

2.002e+06 52658.6 0
52658.6 -5754.36 0
0    0    598873

-1.42713e+06 151758 0
151758 123777 0
0    0    -391005

1.9661e+06 31543.4 0
31543.4 38573.8 0
0    0    601402

-74928.7 246399 0
246399 -65392.3 0
0    0    -42096.3

564540 34935.8 0
34935.8 -202427 0
0    0    108634

131832 79836.4 0
79836.4 85550.6 0
0    0    65214.8

1.30811e+06 105641 0
105641 -80523.6 0
0    0    368276

-215089 158334 0
158334 7244.54 0
0    0    -62353.2

-819015 179979 0
179979 65303.5 0
0    0    -226114

-540178 -34006.5 0
-34006.5 -67039 0
0    0    -182165

282100 164040 0
164040 103018 0
0    0    115535

-663775 210922 0
210922 59578.2 0
0    0    -181259

-133471 129158 0
129158 180241 0
0    0    14031.2

550788 155317 0
155317 -77115.7 0
0    0    142102

351527 222213 0
222213 -123987 0
0    0    68262.2

117510 151125 0
151125 11885.5 0
0    0    38818.6

2.19368e+06 10325.3 0
10325.3 81675.3 0
0    0    682606

2.31795e+06 20343.6 0
20343.6 87442.9 0
0    0    721618

381401 -19443.9 0
-19443.9 295693 0
0    0    203128

133546 125704 0
125704 -55334.8 0
0    0    23463.5

2.06148e+06 36398.8 0
36398.8 55128.1 0
0    0    634983

776698 40617.6 0
40617.6 -10820.2 0
0    0    229763

1.18274e+06 -8413.95 0
-8413.95 -91592.1 0
0    0    327344

1.32263e+06 119842 0
119842 -72849.6 0
0    0    374935

1.34425e+06 149620 0
149620 36900.7 0
0    0    414346

1.42818e+06 124272 0
124272 -15486.1 0
0    0    423808

915307 120685 0
120685 20691.7 0
0    0    280800

1.28364e+06 11696.6 0
11696.6 8710.76 0
0    0    387706

1.22351e+06 -18357 0
-18357 23756.7 0
0    0    374181

1.57431e+06 212035 0
212035 -231258 0
0    0    402917

1.49711e+06 23689 0
23689 -160486 0
0    0    400988

546128 256957 0
256957 -234564 0
0    0    93469.5

971443 295356 0
295356 113883 0
0    0    325598

-464018 121863 0
121863 56052.7 0
0    0    -122390

-1.75379e+06 14574.5 0
14574.5 -63561.4 0
0    0    -545206

-126363 -40271.7 0
-40271.7 124308 0
0    0    -616.277

-334161 131714 0
131714 49172.6 0
0    0    -85496.6

1.08855e+06 222444 0
222444 -77481.3 0
0    0    303320

652179 163897 0
163897 53342.5 0
0    0    211656

1.55729e+06 26559.7 0
26559.7 16070.8 0
0    0    472010

742871 18515.6 0
18515.6 43320.1 0
0    0    235857

1.02226e+06 46968.5 0
46968.5 -47280.9 0
0    0    292492

4382.58 223686 0
223686 -103959 0
0    0    -29872.8

-146532 99308.5 0
99308.5 6517.28 0
0    0    -42004.4

-1.24565e+06 25444.1 0
25444.1 -16130 0
0    0    -378534

-1.63612e+06 40359.5 0
40359.5 29563.1 0
0    0    -481968

-1.06391e+06 186487 0
186487 58533.7 0
0    0    -301613

1.49321e+06 48554.2 0
48554.2 -6093.24 0
0    0    446134

1.74591e+06 5047.75 0
5047.75 61979.9 0
0    0    542366

-436243 98937.5 0
98937.5 -162198 0
0    0    -179532

272058 27779.9 0
27779.9 -51623.2 0
0    0    66130.5

1.64632e+06 66277.4 0
66277.4 -14278.5 0
0    0    489611

1.09291e+06 39139.9 0
39139.9 40260.4 0
0    0    339952

1.22363e+06 31263.3 0
31263.3 1288.94 0
0    0    367475

93851.5 240384 0
240384 -3220.3 0
0    0    27189.3

613922 106743 0
106743 4504.86 0
0    0    185528

-1.60458e+06 87111.2 0
87111.2 -72169.9 0
0    0    -503024

1.10039e+06 118376 0
118376 -96110 0
0    0    301285

636300 110768 0
110768 37944.8 0
0    0    202274

861556 77919.9 0
77919.9 24654.2 0
0    0    265863

613005 124775 0
124775 -31359.3 0
0    0    174494

808932 33553.9 0
33553.9 -49506.9 0
0    0    227828

869686 89183.4 0
89183.4 32557.1 0
0    0    270673

-520576 49409.1 0
49409.1 -33395.7 0
0    0    -166192

1.05807e+06 36747.2 0
36747.2 23901.6 0
0    0    324593

357575 228996 0
228996 -68701.8 0
0    0    86661.9

-470383 21651.2 0
21651.2 -111733 0
0    0    -174635

164198 197916 0
197916 -51902.4 0
0    0    33688.6

1.08657e+06 59412.8 0
59412.8 22415.3 0
0    0    332695

937147 26982.4 0
26982.4 68757.3 0
0    0    301771

27207.6 76069.6 0
76069.6 27431.9 0
0    0    16391.8

1.06101e+06 28180.4 0
28180.4 31611.2 0
0    0    327787

-407715 29169.6 0
29169.6 -112794 0
0    0    -156153

-122754 252168 0
252168 114815 0
0    0    -2381.54

-834535 178344 0
178344 22022.7 0
0    0    -243754

860585 12280.5 0
12280.5 -38964.5 0
0    0    246486

530241 105077 0
105077 -43065.6 0
0    0    146153

1.38826e+06 30788.9 0
30788.9 -17677.8 0
0    0    411176

911699 8139.77 0
8139.77 2647.42 0
0    0    274304

629196 150258 0
150258 37112.3 0
0    0    199892

22654.4 50527.4 0
50527.4 100792 0
0    0    37033.9

-9969.95 171462 0
171462 -32519.4 0
0    0    -12746.8

236011 67495.6 0
67495.6 -27135.9 0
0    0    62662.4

-851249 -6878.77 0
-6878.77 62007.3 0
0    0    -236772

391389 154834 0
154834 -53781.7 0
0    0    101282

385235 60504.9 0
60504.9 -37960.4 0
0    0    104182

-246746 123003 0
123003 7878.09 0
0    0    -71660.4

983189 64139.6 0
64139.6 13579.7 0
0    0    299030

585399 160565 0
160565 -46721 0
0    0    161603

153453 77796.4 0
77796.4 -38572.1 0
0    0    34464.1

1.17412e+06 75695 0
75695 7099.97 0
0    0    354366

-76868.1 98478.5 0
98478.5 2588.21 0
0    0    -22284

280983 157309 0
157309 10080.4 0
0    0    87319.1

-842798 -31402.1 0
-31402.1 -26442.6 0
0    0    -260772

-397816 83900.7 0
83900.7 2420.5 0
0    0    -118619

-1.31055e+06 38035.6 0
38035.6 -16093.9 0
0    0    -397992

178105 132903 0
132903 24839.9 0
0    0    60883.3

372475 99736 0
99736 -17945 0
0    0    106359

629702 39227.5 0
39227.5 18991.9 0
0    0    194608

-412544 46395.8 0
46395.8 26245.1 0
0    0    -115890

-609798 100556 0
100556 10725.8 0
0    0    -179722

-178341 193420 0
193420 -2682.27 0
0    0    -54307.1

-239797 151560 0
151560 46400.9 0
0    0    -58018.9

-625463 95788.4 0
95788.4 -26851.6 0
0    0    -195694

-1.1805e+06 67262.4 0
67262.4 -68832.7 0
0    0    -374801

116016 194810 0
194810 11583 0
0    0    38279.7

-344193 70720.4 0
70720.4 -10557.5 0
0    0    -106425

572895 169274 0
169274 28007.9 0
0    0    180271

93085.5 63941 0
63941 5299.91 0
0    0    29515.6

-414025 162227 0
162227 91748.1 0
0    0    -96683.1

-649295 183042 0
183042 27101.6 0
0    0    -186658

-870504 78864.7 0
78864.7 -41128.6 0
0    0    -273490

-1.32751e+06 104116 0
104116 -18976.2 0
0    0    -403946

-204504 120849 0
120849 -71825.6 0
0    0    -82898.8

574806 1623.09 0
1623.09 -16275.8 0
0    0    167559

979929 49698.9 0
49698.9 25334.9 0
0    0    301579

-948412 65078.8 0
65078.8 101342 0
0    0    -254121

-904920 127007 0
127007 -10829.5 0
0    0    -274725

-1.02203e+06 93745.6 0
93745.6 -111548 0
0    0    -340074

-1.06021e+06 109323 0
109323 11644.8 0
0    0    -314569

3813.49 131565 0
131565 7533.73 0
0    0    3404.17

-1.03278e+06 34875.4 0
34875.4 -16362.7 0
0    0    -314742

-230649 87529.5 0
87529.5 -3378.91 0
0    0    -70208.4

414183 145819 0
145819 25815.7 0
0    0    132000

30813.8 134233 0
134233 -7217.77 0
0    0    7078.81

-248669 160346 0
160346 55951.4 0
0    0    -57815.4

-823617 80091.2 0
80091.2 46771.2 0
0    0    -233054

-243786 120951 0
120951 -70416.6 0
0    0    -94260.6

-630220 105941 0
105941 -8735.1 0
0    0    -191686

-297853 86456 0
86456 3639.94 0
0    0    -88263.8

-215119 122246 0
122246 13617.2 0
0    0    -60450.6

-935039 22659.8 0
22659.8 5759.58 0
0    0    -278784

267551 73875 0
73875 -34768.8 0
0    0    69834.6

-295788 137728 0
137728 -42557 0
0    0    -101504

-784649 36180.5 0
36180.5 95567.8 0
0    0    -206724

-853031 57207 0
57207 -47303.4 0
0    0    -270100

-1.52581e+06 -12044.2 0
-12044.2 -43387.1 0
0    0    -470758

-739814 24575.2 0
24575.2 5013.34 0
0    0    -220440

-509894 192045 0
192045 -50544.9 0
0    0    -168132

-260636 232765 0
232765 139963 0
0    0    -36201.9

428309 46608.1 0
46608.1 1729.91 0
0    0    129012

-501802 136580 0
136580 -7720.3 0
0    0    -152857

60841.6 173768 0
173768 20506.1 0
0    0    24404.3

-21065.7 176566 0
176566 18020.2 0
0    0    -913.659

-280502 118720 0
118720 9022.55 0
0    0    -81443.7

-526949 94774.4 0
94774.4 2350.66 0
0    0    -157379

-440193 45739.5 0
45739.5 -56536.8 0
0    0    -149019

-543613 18078.8 0
18078.8 -5014.67 0
0    0    -164588

108169 85829.3 0
85829.3 20405.2 0
0    0    38572.3

-338848 132097 0
132097 7111.79 0
0    0    -99520.8

70061.1 150755 0
150755 16439.2 0
0    0    25950.1

32566.1 141360 0
141360 -9137.79 0
0    0    7028.49

-458266 111652 0
111652 41451.2 0
0    0    -125045

-485927 51480.1 0
51480.1 15394.8 0
0    0    -141160

-802459 37203.1 0
37203.1 -31462.3 0
0    0    -250176

-206819 87912.5 0
87912.5 -35066.5 0
0    0    -72565.7

-280470 150144 0
150144 -17375.6 0
0    0    -89353.6

-656101 29273.3 0
29273.3 -3843.26 0
0    0    -197983

-294023 88062.1 0
88062.1 -36589.2 0
0    0    -99183.5

133448 113313 0
113313 20579.1 0
0    0    46208.3

-72314.1 118316 0
118316 42109.4 0
0    0    -9061.43

-84220.1 135852 0
135852 -24687 0
0    0    -32672.1

-76094.2 149471 0
149471 12131.7 0
0    0    -19188.8

189929 147849 0
147849 -4116.93 0
0    0    55743.5

-90704.1 113896 0
113896 -2055.4 0
0    0    -27827.8

-74943.9 109783 0
109783 21807.9 0
0    0    -15940.8

-111191 138259 0
138259 -45778 0
0    0    -47090.6

575172 47291.8 0
47291.8 23910.7 0
0    0    179725

93007 108301 0
108301 18073.8 0
0    0    33324.3

122141 109519 0
109519 -8735.5 0
0    0    34021.5

659991 20227.2 0
20227.2 59866.2 0
0    0    215957

425598 135213 0
135213 54721.3 0
0    0    144096

414439 167689 0
167689 -32625.2 0
0    0    114544

689869 25629.8 0
25629.8 46129.6 0
0    0    220800

106224 106332 0
106332 -34683.4 0
0    0    21462.3

350704 86254.4 0
86254.4 -76472.9 0
0    0    82269.2

379145 79763.8 0
79763.8 -57605.1 0
0    0    96462.1

205526 51436.2 0
51436.2 -4694.1 0
0    0    60249.7

233355 59866 0
59866 -10630.1 0
0    0    66817.5

130795 112114 0
112114 -14265.2 0
0    0    34958.9

108691 135008 0
135008 -23582.6 0
0    0    25532.4

356570 73658.9 0
73658.9 30220.8 0
0    0    116037

279255 118023 0
118023 -14359.4 0
0    0    79468.8

345268 89231.2 0
89231.2 -54009 0
0    0    87377.6

322348 45640.8 0
45640.8 -15494.4 0
0    0    92056.2

177903 88720.3 0
88720.3 5860.6 0
0    0    55129.2

72839.5 110628 0
110628 19962.2 0
0    0    27840.5

-159884 60424.7 0
60424.7 18347.9 0
0    0    -42460.9

260833 83720.6 0
83720.6 22942.3 0
0    0    85132.7

-497579 45059 0
45059 -6466.9 0
0    0    -151214

336384 52493.2 0
52493.2 5200.91 0
0    0    102475

212242 49445.7 0
49445.7 -257.141 0
0    0    63595.5

26487.3 137463 0
137463 9008.11 0
0    0    10648.6

-141792 80719.2 0
80719.2 -15558.2 0
0    0    -47205.2

118793 98480.2 0
98480.2 6606.69 0
0    0    37620

65628.8 67564.5 0
67564.5 -19804.4 0
0    0    13747.3

125372 100280 0
100280 19907.1 0
0    0    43583.6

16397.3 55365.7 0
55365.7 -17137.1 0
0    0    -221.94

-68774.5 131137 0
131137 -8772.19 0
0    0    -23264

-191718 81576.4 0
81576.4 56942.5 0
0    0    -40432.7

-72144 146932 0
146932 14165.3 0
0    0    -17393.6

-27213.3 114191 0
114191 -6129.02 0
0    0    -10002.7

19158.6 124402 0
124402 -12033.2 0
0    0    2137.61

8984.85 119409 0
119409 -1397.99 0
0    0    2276.06

12260.3 125434 0
125434 7347.57 0
0    0    5882.38

120529 56169.5 0
56169.5 9724.8 0
0    0    39076.2

-73093.3 119790 0
119790 495.184 0
0    0    -21779.4

29166.4 103292 0
103292 -20630.4 0
0    0    2560.8

11978.5 116091 0
116091 9515 0
0    0    6448.04

111843 107040 0
107040 -17305.1 0
0    0    28361.5

-58184.8 106014 0
106014 751.048 0
0    0    -17230.1

-5752.95 41041.9 0
41041.9 10117.6 0
0    0    1309.4

-411227 48295.1 0
48295.1 -34762 0
0    0    -133797

9576.39 63459.2 0
63459.2 18143.3 0
0    0    8315.9

-18654.5 113470 0
113470 -18161.9 0
0    0    -11044.9

5608.56 124400 0
124400 6739.33 0
0    0    3704.37

-134270 45479.2 0
45479.2 -6852.27 0
0    0    -42336.6

-229540 44836.5 0
44836.5 330.106 0
0    0    -68763.1

-145611 114797 0
114797 5666.22 0
0    0    -41983.5

-179431 51496.9 0
51496.9 19941.1 0
0    0    -47847.1

-28260.7 127285 0
127285 649.711 0
0    0    -8283.31

-55778.4 84733.9 0
84733.9 -14779.3 0
0    0    -21167.3

25868.3 127879 0
127879 3055.4 0
0    0    8677.1

-46805.4 123817 0
123817 -1712.77 0
0    0    -14555.4

-358746 36890.1 0
36890.1 -15785.9 0
0    0    -112359

-227866 94171.9 0
94171.9 -20847.7 0
0    0    -74614.2

-265211 107280 0
107280 -34337.4 0
0    0    -89864.4

-272000 67871.2 0
67871.2 -3234.88 0
0    0    -82570.3

-231472 87468.8 0
87468.8 20724.3 0
0    0    -63224.3

3106.62 112341 0
112341 -325.693 0
0    0    834.278

-8539.38 127136 0
127136 -8572.81 0
0    0    -5133.66

-182079 49173.7 0
49173.7 -3701.69 0
0    0    -55734.1

104024 55565.8 0
55565.8 20417.2 0
0    0    37332.4

-2585.96 134463 0
134463 938.172 0
0    0    -494.337

-121476 94023.5 0
94023.5 -19425.9 0
0    0    -42270.7

-88310.3 49817 0
49817 -3651.41 0
0    0    -27588.5

-3382.45 99560.6 0
99560.6 31829.4 0
0    0    8534.08

-238246 78494.4 0
78494.4 16427 0
0    0    -66545.6

-24218.3 121867 0
121867 23312.6 0
0    0    -271.71

-92575.3 53890.3 0
53890.3 -21966.5 0
0    0    -34362.6

-65039 56592.1 0
56592.1 10430.4 0
0    0    -16382.6

-386006 86613.3 0
86613.3 -18688 0
0    0    -121408

-162264 78002.4 0
78002.4 54570.6 0
0    0    -32307.9

-32803.5 123878 0
123878 2745.27 0
0    0    -9017.47

-369579 46470.4 0
46470.4 -34278.8 0
0    0    -121157

-189626 84296.8 0
84296.8 -26858.3 0
0    0    -64945.3

9704.7 127302 0
127302 -14535.4 0
0    0    -1449.21

-317244 36688 0
36688 -7737.13 0
0    0    -97494.4

-22026.5 123056 0
123056 -4710.05 0
0    0    -8020.96

79050.7 133034 0
133034 5528.43 0
0    0    25373.7

83890.8 44130.1 0
44130.1 16778.1 0
0    0    30200.7

67406.4 108404 0
108404 18563.3 0
0    0    25790.9

41331.3 62546 0
62546 -32107.5 0
0    0    2767.14

-3598.71 141456 0
141456 -872.864 0
0    0    -1341.47

-5341.87 129847 0
129847 -2623.5 0
0    0    -2389.61

-237184 106258 0
106258 21311.8 0
0    0    -64761.6

82090 114008 0
114008 18115.2 0
0    0    30061.6

-137165 95860.8 0
95860.8 -27263.8 0
0    0    -49328.5

-52836.8 118037 0
118037 -10642.1 0
0    0    -19043.7

-200947 126149 0
126149 33565.5 0
0    0    -50214.6

290962 40170.4 0
40170.4 -6839.99 0
0    0    85236.7

-109021 94397.7 0
94397.7 -16022 0
0    0    -37512.9

176818 31583.4 0
31583.4 19416.9 0
0    0    58870.6

-1512.63 177551 0
177551 36199.4 0
0    0    10406

-594160 51940.7 0
51940.7 -14464.1 0
0    0    -182587

-132110 99591 0
99591 -10324.5 0
0    0    -42730.4

-286146 74322.2 0
74322.2 -18663.2 0
0    0    -91442.7

-524729 63335.4 0
63335.4 -16130.8 0
0    0    -162258

-152378 99107.2 0
99107.2 42720.9 0
0    0    -32897

-402745 37742.3 0
37742.3 -36872.2 0
0    0    -131885

-330429 47943.4 0
47943.4 37594.7 0
0    0    -87850.1

494451 74729.8 0
74729.8 -13039.4 0
0    0    144423

712830 76484.3 0
76484.3 11743.6 0
0    0    217372

-522444 46059.3 0
46059.3 -146.027 0
0    0    -156777

-311275 171622 0
171622 5211.57 0
0    0    -91819

-426626 46491.8 0
46491.8 4961.27 0
0    0    -126499

78805.1 101734 0
101734 28362.6 0
0    0    32150.3

-438215 79826.3 0
79826.3 -22716.5 0
0    0    -138280

49955.4 148875 0
148875 -9264.33 0
0    0    12207.3

-854670 52973.6 0
52973.6 -25719.8 0
0    0    -264117

-209354 149226 0
149226 41015.9 0
0    0    -50501.3

-100941 167131 0
167131 -19721.8 0
0    0    -36198.9

-149902 134501 0
134501 -18561.3 0
0    0    -50539

-22771.4 131743 0
131743 -4208.39 0
0    0    -8093.95

-457096 133835 0
133835 9499.68 0
0    0    -134279

-698692 53887.9 0
53887.9 -765.199 0
0    0    -209837

-650892 25396.6 0
25396.6 31383.8 0
0    0    -185852

-139498 117099 0
117099 -13965.4 0
0    0    -46038.9

-38789.1 159199 0
159199 12615.8 0
0    0    -7851.99

285911 188868 0
188868 -37799.4 0
0    0    74433.5

-138838 187033 0
187033 7773.12 0
0    0    -39319.5

197800 56040.5 0
56040.5 -28241.9 0
0    0    50867.4

461067 158080 0
158080 27936.5 0
0    0    146701

-94174.3 126162 0
126162 -38476.2 0
0    0    -39795.2

394037 106325 0
106325 -54582.1 0
0    0    101837

52587.1 125251 0
125251 -12333.3 0
0    0    12076.1

-522012 26209.2 0
26209.2 21711.3 0
0    0    -150090

-311611 83632.7 0
83632.7 -8228.11 0
0    0    -95951.6

-1.5229e+06 64913.8 0
64913.8 -13678.2 0
0    0    -460973

60904.1 131139 0
131139 -43713.8 0
0    0    5157.07

-541750 71084.9 0
71084.9 21165 0
0    0    -156176

-1.01253e+06 31982.6 0
31982.6 -4861.94 0
0    0    -305219

314531 91356.2 0
91356.2 54329.6 0
0    0    110658

46532.2 102637 0
102637 -11296.2 0
0    0    10570.8

128944 135423 0
135423 -36744.9 0
0    0    27659.8

295757 146113 0
146113 37809.4 0
0    0    100070

316113 67318.9 0
67318.9 15710.6 0
0    0    99547

-201027 200885 0
200885 14628.2 0
0    0    -55919.7

-184363 87360.6 0
87360.6 -634.727 0
0    0    -55499.3

44562.6 89279.6 0
89279.6 -3159.99 0
0    0    12420.8

944632 39730.9 0
39730.9 -14731 0
0    0    278970

-232263 178558 0
178558 92.222 0
0    0    -69651.2

368980 137098 0
137098 -38425.3 0
0    0    99166.5

-1.21467e+06 69611.2 0
69611.2 -5833.39 0
0    0    -366150

-862510 52255 0
52255 -4236.78 0
0    0    -260024

-542860 156636 0
156636 15485.6 0
0    0    -158212

74428.9 108458 0
108458 21400.4 0
0    0    28748.8

114403 130419 0
130419 6176.73 0
0    0    36173.8

202312 101673 0
101673 -14518.6 0
0    0    56337.9

451402 69602.7 0
69602.7 -31026.3 0
0    0    126113

175082 35042 0
35042 6188.19 0
0    0    54381.1

259846 72334.2 0
72334.2 40798.1 0
0    0    90193.2

163617 99741.4 0
99741.4 19353.9 0
0    0    54891.3

437565 56802.9 0
56802.9 4712.07 0
0    0    132683

251241 37536.5 0
37536.5 10901.9 0
0    0    78643

33550.1 170671 0
170671 -68121.6 0
0    0    -10371.5

366614 57557.7 0
57557.7 27010.6 0
0    0    118087

255897 131693 0
131693 -59465.7 0
0    0    58929.5

225660 96442.4 0
96442.4 41643.1 0
0    0    80190.9

-18319.2 140269 0
140269 -11394.5 0
0    0    -8914.11

88989.5 110926 0
110926 -23755 0
0    0    19570.3

-106301 52522.1 0
52522.1 6208.07 0
0    0    -30027.8

560451 38332.9 0
38332.9 3276.72 0
0    0    169118

30447.8 87553.4 0
87553.4 16635.9 0
0    0    14125.1

-50044.6 92263.3 0
92263.3 8748.71 0
0    0    -12388.8

-26910.7 53488.7 0
53488.7 -28702.8 0
0    0    -16684.1

-64903.1 37206.6 0
37206.6 -6271.16 0
0    0    -21352.3

351681 85022.6 0
85022.6 21506.4 0
0    0    111956

757781 56910.5 0
56910.5 -8403.36 0
0    0    224813

172903 107182 0
107182 34750.4 0
0    0    62296

213890 157236 0
157236 16229.8 0
0    0    69036

79687 117184 0
117184 8697.42 0
0    0    26515.3

641786 42406.3 0
42406.3 8245.05 0
0    0    195009

641965 29873.4 0
29873.4 -10409.7 0
0    0    189467

685252 137664 0
137664 96144.2 0
0    0    234419

377822 50783.5 0
50783.5 4754.7 0
0    0    114773

367489 53972.6 0
53972.6 33689.7 0
0    0    120353

1.06377e+06 61013.9 0
61013.9 28959.2 0
0    0    327817

465067 46910.5 0
46910.5 14028.9 0
0    0    143729

761885 49554.8 0
49554.8 2774.7 0
0    0    229398

458138 35415.6 0
35415.6 60461.3 0
0    0    155580

-726922 126406 0
126406 -29089 0
0    0    -226803

-169420 128679 0
128679 18135.3 0
0    0    -45385.6

-532940 123996 0
123996 -32291.7 0
0    0    -169569

-503232 43581.7 0
43581.7 16013.4 0
0    0    -146165

48086.5 170481 0
170481 24841.2 0
0    0    21878.3

-68248.6 111214 0
111214 55606.5 0
0    0    -3792.63

1.27499e+06 91379.6 0
91379.6 69867.5 0
0    0    403456

54076.6 194048 0
194048 4169.07 0
0    0    17473.7

725181 50336.9 0
50336.9 -74123.8 0
0    0    195317

1.08721e+06 96520.3 0
96520.3 15111.4 0
0    0    330696

-796900 13261.7 0
13261.7 -11745.4 0
0    0    -242594

-467745 128827 0
128827 -43864.9 0
0    0    -153483

-505112 180817 0
180817 302.652 0
0    0    -151443

89085.4 62567 0
62567 38736.6 0
0    0    38346.6

353314 143194 0
143194 -63724 0
0    0    86877.1

372244 103762 0
103762 27382.7 0
0    0    119888

381060 195527 0
195527 -21986.1 0
0    0    107722

1.27133e+06 78588.8 0
78588.8 47784.5 0
0    0    395734

680081 139615 0
139615 -80100 0
0    0    179994

729890 13140.9 0
13140.9 22357 0
0    0    225674

329459 76385.6 0
76385.6 -55320 0
0    0    82241.7

689348 86888 0
86888 -75775.7 0
0    0    184072

319231 92804.5 0
92804.5 -86708.6 0
0    0    69756.6

768281 5062.51 0
5062.51 -58905.2 0
0    0    212813

684715 171348 0
171348 -3808.42 0
0    0    204272

819160 18555.4 0
18555.4 -56770.3 0
0    0    228717

893832 173185 0
173185 35822.1 0
0    0    278896

330212 95531.6 0
95531.6 41433.6 0
0    0    111494

472363 44384.3 0
44384.3 23581.4 0
0    0    148783

59997.9 197613 0
197613 14822.8 0
0    0    22446.2

365655 185269 0
185269 -57322.2 0
0    0    92499.7

-95258.8 182566 0
182566 -10087.5 0
0    0    -31603.9

-816581 -31410.9 0
-31410.9 -34719.8 0
0    0    -255390

-488929 60145.5 0
60145.5 -6280.71 0
0    0    -148563

-906691 139258 0
139258 -27906.4 0
0    0    -280379

-973894 100044 0
100044 -31147.3 0
0    0    -301512

-977982 154955 0
154955 29230.6 0
0    0    -284626

-568546 39456.7 0
39456.7 21100.8 0
0    0    -164233

-1.67146e+06 115086 0
115086 -62944.5 0
0    0    -520322

-509329 143875 0
143875 51279.7 0
0    0    -137415

-278467 193427 0
193427 9764.57 0
0    0    -80610.8

-516445 35224.1 0
35224.1 62802.1 0
0    0    -136093

-1.34684e+06 39905.7 0
39905.7 14129.3 0
0    0    -399812

-1.03483e+06 28971.4 0
28971.4 -15307.9 0
0    0    -315042

-439538 75329.9 0
75329.9 4109.14 0
0    0    -130629

-891386 33459.2 0
33459.2 23394.5 0
0    0    -260398

-1.16465e+06 32668.1 0
32668.1 35684.4 0
0    0    -338688

-861813 98156 0
98156 19359.1 0
0    0    -252736

-862892 37635.8 0
37635.8 -37879.6 0
0    0    -270231

839432 76170 0
76170 35922.9 0
0    0    262606

1.05366e+06 -24389.6 0
-24389.6 -59419.9 0
0    0    298272

231324 184082 0
184082 155712 0
0    0    116111

272340 40242.3 0
40242.3 -123607 0
0    0    44620.1

1.05685e+06 207849 0
207849 45909.3 0
0    0    330827

-403035 76022.1 0
76022.1 -30458.4 0
0    0    -130048

1.287e+06 69028.5 0
69028.5 11479.8 0
0    0    389545

-142329 70906.2 0
70906.2 -20037.4 0
0    0    -48709.8

-241944 29197.3 0
29197.3 -12133.9 0
0    0    -76223.5

-691944 153306 0
153306 54701.3 0
0    0    -191173

51726.2 57142.4 0
57142.4 -57546.6 0
0    0    -1746.13

-1.16488e+06 185587 0
185587 121399 0
0    0    -313045

-1.42965e+06 126644 0
126644 -38269.3 0
0    0    -440376

-2.14446e+06 61761.5 0
61761.5 29052.2 0
0    0    -634622

741879 8693.34 0
8693.34 29131.4 0
0    0    231303

1.22706e+06 51640.6 0
51640.6 -117365 0
0    0    332910

1.57472e+06 20793.3 0
20793.3 -6915.18 0
0    0    470341

1.69444e+06 36970.5 0
36970.5 5855.84 0
0    0    510088

1.12281e+06 -9940.91 0
-9940.91 7861.54 0
0    0    339201

53675.5 95564.5 0
95564.5 29276.6 0
0    0    24885.6

1.78233e+06 66102.5 0
66102.5 7568.77 0
0    0    536969

1.1263e+06 77121.3 0
77121.3 -21116.5 0
0    0    331554

-515813 210359 0
210359 75320.2 0
0    0    -132148

1.17408e+06 102380 0
102380 56554.8 0
0    0    369191

-878386 206077 0
206077 -29651.4 0
0    0    -272411

-137963 70355 0
70355 -151396 0
0    0    -86807.5

-1.00324e+06 -12334.4 0
-12334.4 98141.9 0
0    0    -271530

-1.72032e+06 72410.4 0
72410.4 63399.4 0
0    0    -497075

441380 33947.7 0
33947.7 -82545.5 0
0    0    107650

159746 145322 0
145322 -37200.1 0
0    0    36763.7

599567 266496 0
266496 20167.9 0
0    0    185920

75235.1 186647 0
186647 56488.6 0
0    0    39517.1

-471780 215229 0
215229 -58649.1 0
0    0    -159129

300782 42632.8 0
42632.8 -150422 0
0    0    45107.9

357879 137766 0
137766 -31677.8 0
0    0    97860.3

1.28204e+06 211023 0
211023 32647.4 0
0    0    394406

28954.3 163892 0
163892 150960 0
0    0    53974.4

1.18702e+06 14287 0
14287 -63205.3 0
0    0    337145

-1.04608e+06 -55765.9 0
-55765.9 78262.1 0
0    0    -290346

-135652 212593 0
212593 46604 0
0    0    -26714.4

-1.52085e+06 -5916.71 0
-5916.71 -89187.1 0
0    0    -483010

-1.11801e+06 37727.5 0
37727.5 -201878 0
0    0    -395966

-306337 41933.3 0
41933.3 -54512.7 0
0    0    -108255

-1.03511e+06 -24907.6 0
-24907.6 -52374 0
0    0    -326245

420122 243301 0
243301 104008 0
0    0    157239

-360206 191995 0
191995 36644.1 0
0    0    -97068.7

-384765 83907.9 0
83907.9 42351.9 0
0    0    -102724

-1.06581e+06 168381 0
168381 16288 0
0    0    -314858

-1.78518e+06 -4616.69 0
-4616.69 13110.6 0
0    0    -531621

-1.09444e+06 75335.9 0
75335.9 -166338 0
0    0    -378233

2.11753e+06 61544.8 0
61544.8 -1236.07 0
0    0    634890

-1.01979e+06 130212 0
130212 -38157.5 0
0    0    -317383

-1.4119e+06 171368 0
171368 216019 0
0    0    -358763

-1.93698e+06 -24354.9 0
-24354.9 -38610.3 0
0    0    -592676

-1.2597e+06 -37159.3 0
-37159.3 -229651 0
0    0    -446807

-520629 52367.2 0
52367.2 38646.8 0
0    0    -144595

-1.26379e+06 141283 0
141283 133778 0
0    0    -339005

-898453 268456 0
268456 -63187.4 0
0    0    -288492

2.10855e+06 42175.4 0
42175.4 50108.1 0
0    0    647599

1.40903e+06 13583.2 0
13583.2 -37711.4 0
0    0    411396

1.37901e+06 -18602.5 0
-18602.5 -19649.4 0
0    0    407809

1.94296e+06 27411.8 0
27411.8 -7173.41 0
0    0    580736

1.16485e+06 168444 0
168444 94389.6 0
0    0    377772

81534.7 95830.2 0
95830.2 -30775 0
0    0    15227.9

978917 55710.1 0
55710.1 46576.9 0
0    0    307648

-1.31111e+06 42072.1 0
42072.1 -7772.07 0
0    0    -395665

-2.14933e+06 -38776.9 0
-38776.9 -78088.5 0
0    0    -668226

-1.77195e+06 150853 0
150853 -33643.5 0
0    0    -541678

-918288 160130 0
160130 75952.1 0
0    0    -252701

210581 182562 0
182562 26851.7 0
0    0    71229.7

-2.29584e+06 62956.1 0
62956.1 3059.83 0
0    0    -687833

-1.58558e+06 160274 0
160274 39534.7 0
0    0    -463813

-1.25509e+06 162153 0
162153 4869.75 0
0    0    -375065

-1.49895e+06 146168 0
146168 19393.5 0
0    0    -443867

-1.3846e+06 47174.6 0
47174.6 205703 0
0    0    -353668

1.56648e+06 171334 0
171334 -3979.56 0
0    0    468751

5760.46 28587 0
28587 -132830 0
0    0    -38120.8

-164462 121523 0
121523 28539.2 0
0    0    -40777

-1.04319e+06 158335 0
158335 100627 0
0    0    -282770

59326.9 138271 0
138271 -54808.9 0
0    0    1355.42

-1.78861e+06 88774.4 0
88774.4 -104646 0
0    0    -567976

-2.33137e+06 -10786.9 0
-10786.9 -120802 0
0    0    -735650

1.47094e+06 98384.2 0
98384.2 -19142.1 0
0    0    435540

-2.51878e+06 -54728.3 0
-54728.3 -93473.7 0
0    0    -783677

-1.29054e+06 5104.6 0
5104.6 -2755.5 0
0    0    -387989

-1.43684e+06 78295.7 0
78295.7 157148 0
0    0    -383909

711327 208202 0
208202 47413.1 0
0    0    227622

-367386 125286 0
125286 -22581.2 0
0    0    -116990

-270186 22548.7 0
22548.7 13319.3 0
0    0    -77059.9

-676319 78925.7 0
78925.7 -106533 0
0    0    -234856

-1.4961e+06 201775 0
201775 237170 0
0    0    -377679

1.13957e+06 144266 0
144266 -12101.6 0
0    0    338241

-705146 -4930.81 0
-4930.81 -55905.1 0
0    0    -228315

-104802 300976 0
300976 87517.8 0
0    0    -5185.14

-1.19034e+06 259537 0
259537 41182.2 0
0    0    -344747

-629554 -48447 0
-48447 33996.4 0
0    0    -178667

3.1062e+06 59323.5 0
59323.5 1688.14 0
0    0    932367

-2.72586e+06 113106 0
113106 -119390 0
0    0    -853574

-2.60247e+06 31946.1 0
31946.1 30882.4 0
0    0    -771475

-1.95524e+06 -75162.7 0
-75162.7 -88304 0
0    0    -613062

-1.63755e+06 35945.6 0
35945.6 190142 0
0    0    -434223

-824857 154734 0
154734 175842 0
0    0    -194704

-1.96194e+06 163791 0
163791 -39047.5 0
0    0    -600296

1.79779e+06 86678.4 0
86678.4 -44507.3 0
0    0    525985

-1.77955e+06 -78489.7 0
-78489.7 39119.3 0
0    0    -522129

-715749 86030.8 0
86030.8 75334.8 0
0    0    -192124

-2.87311e+06 102205 0
102205 132171 0
0    0    -822282

-1.5934e+06 -51354.3 0
-51354.3 -30082.6 0
0    0    -487044

-552266 271353 0
271353 348037 0
0    0    -61268.5

-2.84048e+06 -9848.92 0
-9848.92 -136525 0
0    0    -893102

1.01499e+06 255640 0
255640 -91886.7 0
0    0    276930

125824 73953.1 0
73953.1 -70650.9 0
0    0    16552

314315 34955.1 0
34955.1 -125369 0
0    0    56683.9

-1.77044e+06 602.873 0
602.873 -168966 0
0    0    -581823

380139 -20427.5 0
-20427.5 -13153.8 0
0    0    110096

1.60864e+06 131550 0
131550 7789.34 0
0    0    484930

-733473 140581 0
140581 32799.7 0
0    0    -210202

143566 79991.8 0
79991.8 -36714 0
0    0    32055.6

944929 31260.5 0
31260.5 -41805.8 0
0    0    270937

311970 258465 0
258465 89146.4 0
0    0    120335

1.85732e+06 310222 0
310222 33398.1 0
0    0    567215

2.6622e+06 69053.6 0
69053.6 1032.88 0
0    0    798969

-768215 170813 0
170813 -95715.3 0
0    0    -259179

-338487 303730 0
303730 2551.99 0
0    0    -100780

122351 230233 0
230233 27349.1 0
0    0    44910.1

493861 307274 0
307274 32550.1 0
0    0    157923

1.82055e+06 227296 0
227296 -125293 0
0    0    508577

496883 -24724.3 0
-24724.3 -23128.7 0
0    0    142126

910814 4934.48 0
4934.48 -51225.9 0
0    0    257877

1.56598e+06 261410 0
261410 -35336.2 0
0    0    459194

2.47747e+06 64799.9 0
64799.9 33353.9 0
0    0    753247

2.54386e+06 -29605.5 0
-29605.5 -38965.6 0
0    0    751469

1.83997e+06 9487.15 0
9487.15 64684.8 0
0    0    571397

1.18772e+06 230414 0
230414 4141.79 0
0    0    357558

1.68166e+06 -78742.8 0
-78742.8 -19010.1 0
0    0    498796

2.773e+06 61955.5 0
61955.5 86288.8 0
0    0    857787

1.10257e+06 84560.3 0
84560.3 -77895.3 0
0    0    307403

2.85321e+06 3946.38 0
3946.38 26060.1 0
0    0    863780

-1.06851e+06 -41988.7 0
-41988.7 -300119 0
0    0    -410587

50873.6 318113 0
318113 -134147 0
0    0    -24982

1.81157e+06 134957 0
134957 -20124.7 0
0    0    537432

1.89745e+06 -45350.2 0
-45350.2 -97007.1 0
0    0    540132

1.26963e+06 -75797.9 0
-75797.9 104123 0
0    0    412124

2.3736e+06 150283 0
150283 -92341 0
0    0    684378

1.49821e+06 -94178.1 0
-94178.1 201823 0
0    0    510009

755064 78458.6 0
78458.6 37975.5 0
0    0    237912

2.25389e+06 18727.5 0
18727.5 15768.1 0
0    0    680897

-36661.2 183501 0
183501 -44964.2 0
0    0    -24487.6

1.42361e+06 23818.3 0
23818.3 -46418.2 0
0    0    413159

902109 3074.66 0
3074.66 15153 0
0    0    275179

830706 235860 0
235860 21157.3 0
0    0    255559

855001 217161 0
217161 2737.21 0
0    0    257322

838086 -70409.3 0
-70409.3 -155212 0
0    0    204862

1.44137e+06 192230 0
192230 78461.8 0
0    0    455951

-3.08483e+06 -41645.5 0
-41645.5 -81354.6 0
0    0    -949856

-1.80368e+06 35710.5 0
35710.5 42463 0
0    0    -528365

-64362.4 -25264.9 0
-25264.9 142407 0
0    0    23413.4

308032 231811 0
231811 -31046.3 0
0    0    83095.8

1.65807e+06 -526.676 0
-526.676 2443.71 0
0    0    498154

1.89004e+06 -35172.5 0
-35172.5 -136908 0
0    0    525939

1.23988e+06 -47812.2 0
-47812.2 78719.8 0
0    0    395581

-2.87817e+06 -68775.4 0
-68775.4 31576.3 0
0    0    -853978

-1.11094e+06 11177.4 0
11177.4 -220044 0
0    0    -399295

959582 305997 0
305997 72724.3 0
0    0    309692

-2.1037e+06 222037 0
222037 149070 0
0    0    -586390

-1.44635e+06 303345 0
303345 4312.65 0
0    0    -432611

-1.09431e+06 86295 0
86295 -129685 0
0    0    -367199

3.6734e+06 -2916.14 0
-2916.14 159818 0
0    0    1.14997e+06

-2.02166e+06 -980.217 0
-980.217 191385 0
0    0    -549084

919865 221363 0
221363 80995.4 0
0    0    300258

-1.88694e+06 222398 0
222398 22290.3 0
0    0    -559394

-2.19283e+06 151732 0
151732 59823.5 0
0    0    -639903

-28062.5 191175 0
191175 -522.678 0
0    0    -8575.55

-4218.43 293434 0
293434 58276.8 0
0    0    16217.5

115813 204343 0
204343 151529 0
0    0    80202.6

-1.68917e+06 157880 0
157880 14630.8 0
0    0    -502362

1.12096e+06 21960.9 0
21960.9 -58128.1 0
0    0    318850

-1.07484e+06 106273 0
106273 -83664.5 0
0    0    -347551

2.41931e+06 260077 0
260077 146666 0
0    0    769792

-520040 -114427 0
-114427 102519 0
0    0    -125256

2.40511e+06 -26168.1 0
-26168.1 36869.7 0
0    0    732595

28706.9 269542 0
269542 105181 0
0    0    40166.3

-900077 232340 0
232340 -107982 0
0    0    -302418

2.15058e+06 24736.1 0
24736.1 -130241 0
0    0    606102

-1.81848e+06 79637.8 0
79637.8 -294536 0
0    0    -633905

1.14846e+06 3274.24 0
3274.24 -130323 0
0    0    305440

3.13525e+06 29577.8 0
29577.8 -4624.27 0
0    0    939189

1.74272e+06 -39744.5 0
-39744.5 27963.6 0
0    0    531205

-3.48607e+06 110402 0
110402 -78310.5 0
0    0    -1.06932e+06

-1.87615e+06 -52048.9 0
-52048.9 -10470.6 0
0    0    -565987

-3.56208e+06 23607.7 0
23607.7 -181600 0
0    0    -1.1231e+06

-3.29787e+06 -81774.9 0
-81774.9 -120058 0
0    0    -1.02538e+06

3.46928e+06 47626.1 0
47626.1 1737.96 0
0    0    1.0413e+06

-1.00648e+06 125814 0
125814 153522 0
0    0    -255886

77404.9 211220 0
211220 -115343 0
0    0    -11381.3

1.16215e+06 -72888.3 0
-72888.3 -140127 0
0    0    306608

2.29129e+06 175273 0
175273 87170 0
0    0    713539

3.25132e+06 43243.7 0
43243.7 -14495.1 0
0    0    971047

3.20084e+06 131858 0
131858 63025.9 0
0    0    979160

1.46224e+06 242219 0
242219 55958.7 0
0    0    455459

243098 -69124.8 0
-69124.8 -174194 0
0    0    20671.2

2.47646e+06 214860 0
214860 146549 0
0    0    786903

-809342 28298.7 0
28298.7 22208.1 0
0    0    -236140

-3.54981e+06 94973.3 0
94973.3 29096.5 0
0    0    -1.05621e+06

-1.68342e+06 163500 0
163500 115571 0
0    0    -470354

2.36865e+06 94444.5 0
94444.5 -1171.32 0
0    0    710243

1.59861e+06 -150073 0
-150073 87354.3 0
0    0    505789

2.45162e+06 6544.32 0
6544.32 4842.96 0
0    0    736940

1.24698e+06 114843 0
114843 -86678.2 0
0    0    348089

926685 -37197.3 0
-37197.3 26259.8 0
0    0    285883

3.4569e+06 39413.7 0
39413.7 -25680.6 0
0    0    1.02937e+06

-56759.6 -8398.16 0
-8398.16 -62738.4 0
0    0    -35849.4

1.97263e+06 -76346.1 0
-76346.1 -43454.2 0
0    0    578752

-491765 317872 0
317872 92957.4 0
0    0    -119642

2.467e+06 23140.5 0
23140.5 -45548 0
0    0    726436

-2.21985e+06 -26745 0
-26745 -51738.5 0
0    0    -681477

2.33844e+06 180212 0
180212 84228.8 0
0    0    726801

-978205 41059.3 0
41059.3 -95345.1 0
0    0    -322065

885214 45805.8 0
45805.8 -203831 0
0    0    204415

-3.5196e+06 220881 0
220881 -110012 0
0    0    -1.08888e+06

2.59366e+06 -88422.4 0
-88422.4 -69663.9 0
0    0    757199

-73860.5 277135 0
277135 -39459.5 0
0    0    -33996

2.58863e+06 228193 0
228193 -71821.8 0
0    0    755041

934773 228462 0
228462 -195791 0
0    0    221694

-1.06611e+06 113189 0
113189 14921.8 0
0    0    -315358

-1.9376e+06 203256 0
203256 70150.1 0
0    0    -560235

-2.53868e+06 -44023.9 0
-44023.9 81073.2 0
0    0    -737283

-2.22554e+06 100212 0
100212 223805 0
0    0    -600522

2.06856e+06 -40454 0
-40454 10511.9 0
0    0    623721

2.07905e+06 141766 0
141766 -52838.9 0
0    0    607863

1.23836e+06 245688 0
245688 -107262 0
0    0    339328

2.21928e+06 162209 0
162209 -47541.8 0
0    0    651521

2.10665e+06 6089.37 0
6089.37 -84168.8 0
0    0    606744

-2.42055e+06 -66361.3 0
-66361.3 -37770.2 0
0    0    -737496

-2.37261e+06 173144 0
173144 66305.1 0
0    0    -691892

978491 26546.6 0
26546.6 338887 0
0    0    395213

238193 -110840 0
-110840 10760 0
0    0    74686

704609 170725 0
170725 -221358 0
0    0    144975

-3.70694e+06 -123098 0
-123098 -141489 0
0    0    -1.15453e+06

3.6424e+06 161455 0
161455 27381.7 0
0    0    1.10094e+06

853114 92128.8 0
92128.8 123827 0
0    0    293082

-1.16579e+06 68953.6 0
68953.6 -4846.38 0
0    0    -351191

-484611 -3399.82 0
-3399.82 -99141.9 0
0    0    -175126

967216 -138410 0
-138410 202958 0
0    0    351052

-1.10988e+06 259712 0
259712 156633 0
0    0    -285975

-79524.2 -4349.47 0
-4349.47 -129406 0
0    0    -62679.2

1.41617e+06 333613 0
333613 -115086 0
0    0    390326

2.42639e+06 -53569.5 0
-53569.5 -52681.3 0
0    0    712113

-2.26177e+06 71342.1 0
71342.1 109310 0
0    0    -645739

-2.2437e+06 166768 0
166768 246578 0
0    0    -599136

3.87307e+06 172897 0
172897 157808 0
0    0    1.20926e+06

2.24167e+06 -36793.2 0
-36793.2 -189623 0
0    0    615615

1.98631e+06 216975 0
216975 185566 0
0    0    651562

-2.22016e+06 88310.7 0
88310.7 222111 0
0    0    -599415

-2.23293e+06 -157910 0
-157910 -91493.4 0
0    0    -697326

2.31933e+06 -27470.9 0
-27470.9 -6731.04 0
0    0    693779

3.80633e+06 256298 0
256298 218860 0
0    0    1.20756e+06

-465954 355617 0
355617 -56779.1 0
0    0    -156820

2.98258e+06 24921.3 0
24921.3 -144956 0
0    0    851287

439730 316524 0
316524 155034 0
0    0    178429

1.09209e+06 392541 0
392541 154443 0
0    0    373960

4.16177e+06 54712.7 0
54712.7 193035 0
0    0    1.30644e+06

939342 -6144.96 0
-6144.96 78114.4 0
0    0    305237

-868568 -114516 0
-114516 -4632.72 0
0    0    -261960

1.93303e+06 264881 0
264881 163142 0
0    0    628851

730862 307919 0
307919 347761 0
0    0    323587

-319917 323431 0
323431 -99327.6 0
0    0    -125773

2.73721e+06 279201 0
279201 126131 0
0    0    859003

-2.47065e+06 112637 0
112637 110619 0
0    0    -708010

-2.34768e+06 208753 0
208753 -95811.9 0
0    0    -733049

2.77042e+06 125471 0
125471 -2743.57 0
0    0    830303

2.58974e+06 -84172.6 0
-84172.6 -157773 0
0    0    729592

1.36877e+06 349992 0
349992 -56798.9 0
0    0    393592

4.18394e+06 88323.4 0
88323.4 18640 0
0    0    1.26078e+06

498621 -54955.4 0
-54955.4 -204225 0
0    0    88319

486023 -158297 0
-158297 249932 0
0    0    220786

-2.22385e+06 -132248 0
-132248 -271833 0
0    0    -748705

-2388.97 460595 0
460595 -85666 0
0    0    -26416.5

-344153 -163999 0
-163999 -4300.82 0
0    0    -104536

-4.16341e+06 129166 0
129166 -297460 0
0    0    -1.33826e+06

-2.10012e+06 -49918.4 0
-49918.4 -161409 0
0    0    -678460

-1.10818e+06 -100075 0
-100075 -51803.9 0
0    0    -347995

1.54015e+06 -48900.9 0
-48900.9 -161045 0
0    0    413731

-2.72318e+06 286051 0
286051 -151705 0
0    0    -862464

-2.01396e+06 285584 0
285584 396275 0
0    0    -485306

-1.1642e+06 380850 0
380850 47717.6 0
0    0    -334945

-2.27749e+06 43169.6 0
43169.6 178719 0
0    0    -629631

-3.75086e+06 -147808 0
-147808 -242460 0
0    0    -1.198e+06

-1.54379e+06 -99827.2 0
-99827.2 -188065 0
0    0    -519556

-2.2454e+06 391204 0
391204 153648 0
0    0    -627526

-4.3056e+06 -92326.6 0
-92326.6 -266975 0
0    0    -1.37177e+06

-4.77928e+06 173773 0
173773 -29873 0
0    0    -1.44274e+06

-2.23171e+06 -12681.1 0
-12681.1 374886 0
0    0    -557047

-3.8583e+06 169374 0
169374 -117374 0
0    0    -1.1927e+06

-954681 156095 0
156095 -123909 0
0    0    -323577

-2.42804e+06 -192053 0
-192053 201839 0
0    0    -667859

-1.31413e+06 334379 0
334379 143743 0
0    0    -351117

-902631 326936 0
326936 83733.2 0
0    0    -245669

-2.1679e+06 151608 0
151608 64538 0
0    0    -631010

4.10879e+06 168562 0
168562 15701.6 0
0    0    1.23735e+06

-672000 117476 0
117476 -7944.26 0
0    0    -203983

-1.99204e+06 -120732 0
-120732 -94931.3 0
0    0    -626091

-350003 -53867.7 0
-53867.7 -246452 0
0    0    -178937

903774 381900 0
381900 147629 0
0    0    315421

1.15642e+06 -116702 0
-116702 2656.55 0
0    0    347724

2.5866e+06 -126868 0
-126868 -149248 0
0    0    731206

2.66643e+06 278436 0
278436 108217 0
0    0    832393

-2.26551e+06 100613 0
100613 123765 0
0    0    -642523

-1.76221e+06 406564 0
406564 -358086 0
0    0    -636089

-684836 -40015.9 0
-40015.9 -7613.66 0
0    0    -207735

1.19589e+06 -58577.4 0
-58577.4 -22944.4 0
0    0    351885

-2.33384e+06 99464.3 0
99464.3 -283342 0
0    0    -785155

-1.65272e+06 75030.2 0
75030.2 -221669 0
0    0    -562317

4.48622e+06 68742.5 0
68742.5 -45112.6 0
0    0    1.33233e+06

4.29055e+06 28227.1 0
28227.1 40244.3 0
0    0    1.29924e+06

1.22357e+06 369558 0
369558 40350.7 0
0    0    379176

3.19522e+06 175127 0
175127 -980.025 0
0    0    958272

1.81367e+06 -164286 0
-164286 -137015 0
0    0    502996

4.65026e+06 -54538.9 0
-54538.9 82115.9 0
0    0    1.41971e+06

4.62204e+06 42239.9 0
42239.9 28452.9 0
0    0    1.39515e+06

3.10438e+06 232612 0
232612 256304 0
0    0    1.00821e+06

-237218 -55249.7 0
-55249.7 -55575.1 0
0    0    -87837.9

1.92243e+06 409238 0
409238 -32824.5 0
0    0    566881

-340714 350716 0
350716 -170737 0
0    0    -153435

1.24223e+06 448573 0
448573 -239991 0
0    0    300671

-2.17293e+06 223692 0
223692 170880 0
0    0    -600614

-1.44379e+06 280312 0
280312 -44867.9 0
0    0    -446598

3.18719e+06 -115816 0
-115816 -76341.8 0
0    0    933256

2.97546e+06 -130458 0
-130458 -883.102 0
0    0    892374

1.67413e+06 -152208 0
-152208 -139238 0
0    0    460467

3.54482e+06 14217.3 0
14217.3 84499 0
0    0    1.0888e+06

-2.85918e+06 -62933.8 0
-62933.8 2148.85 0
0    0    -857110

3.33233e+06 295469 0
295469 -177865 0
0    0    946339

4.89732e+06 27305.5 0
27305.5 -123353 0
0    0    1.43219e+06

3.3023e+06 279050 0
279050 -184128 0
0    0    935451

-1.01947e+06 117002 0
117002 -150492 0
0    0    -350987

1.95943e+06 60803.8 0
60803.8 132776 0
0    0    627663

-761225 245963 0
245963 1585.87 0
0    0    -227892

1.77857e+06 168225 0
168225 22539.8 0
0    0    540332

2.86956e+06 33020 0
33020 -270168 0
0    0    779818

1.56313e+06 -185539 0
-185539 574554 0
0    0    641306

-5.04526e+06 32543.2 0
32543.2 10451.7 0
0    0    -1.51044e+06

2.67623e+06 -129369 0
-129369 -191668 0
0    0    745368

-4.58883e+06 81567.7 0
81567.7 -44266.7 0
0    0    -1.38993e+06

148519 -119305 0
-119305 141338 0
0    0    86957.2

-1.17234e+06 317004 0
317004 406734 0
0    0    -229683

-289752 232930 0
232930 -184023 0
0    0    -142133

-3.03373e+06 -55781.5 0
-55781.5 143184 0
0    0    -867163

523763 48044.5 0
48044.5 -24874.4 0
0    0    149666

1.98699e+06 -85739.5 0
-85739.5 -97099.5 0
0    0    566967

1.16828e+06 495184 0
495184 138905 0
0    0    392156

-834556 38347.1 0
38347.1 -308678 0
0    0    -342970

1.75362e+06 -80808.1 0
-80808.1 -138359 0
0    0    484579

319681 149039 0
149039 -436420 0
0    0    -35021.7

-1.53406e+06 62490.3 0
62490.3 200902 0
0    0    -399948

-855049 -81728.7 0
-81728.7 270683 0
0    0    -175310

-263458 52394.8 0
52394.8 -7327.3 0
0    0    -81235.7

-4.69443e+06 143066 0
143066 -129517 0
0    0    -1.44718e+06

-4.07948e+06 129034 0
129034 -113720 0
0    0    -1.25796e+06

-715123 404557 0
404557 -567953 0
0    0    -384923

-289065 136865 0
136865 118254 0
0    0    -51243.4

-4.18763e+06 103695 0
103695 -152885 0
0    0    -1.30216e+06

-1.58977e+06 203910 0
203910 97855.7 0
0    0    -447575

-2.36569e+06 240802 0
240802 245004 0
0    0    -636207

-3.33219e+06 -122241 0
-122241 133092 0
0    0    -959730

-3.16067e+06 -13408.2 0
-13408.2 -129232 0
0    0    -986970

-3.20517e+06 -42973.6 0
-42973.6 -52146.7 0
0    0    -977195

-2.34215e+06 105949 0
105949 -105963 0
0    0    -734435

-3.29976e+06 138238 0
138238 -12903.2 0
0    0    -993798

-2.90554e+06 362287 0
362287 31914.1 0
0    0    -862089

-2.98293e+06 -220447 0
-220447 356231 0
0    0    -788010

-2.85653e+06 141788 0
141788 350769 0
0    0    -751729

-1.07583e+06 -148715 0
-148715 390381 0
0    0    -205633

-2.07113e+06 -264020 0
-264020 -270896 0
0    0    -702608

1.51017e+06 70982.5 0
70982.5 -158049 0
0    0    405636

4.80763e+06 128456 0
128456 209303 0
0    0    1.50508e+06

304235 593036 0
593036 -359453 0
0    0    -16565.4

942300 51296.9 0
51296.9 -140457 0
0    0    240553

-2.9563e+06 -243793 0
-243793 112071 0
0    0    -853269

-2.11514e+06 -21116.7 0
-21116.7 -215149 0
0    0    -699086

-4.61739e+06 114288 0
114288 -15982.9 0
0    0    -1.39001e+06

-1.93676e+06 346887 0
346887 -64971.9 0
0    0    -600520

-2.88195e+06 78341.6 0
78341.6 127637 0
0    0    -826295

-12477.1 -94478.1 0
-94478.1 295264 0
0    0    84835.9

412428 215746 0
215746 -17543.1 0
0    0    118465

3.21624e+06 80280.7 0
80280.7 30854.8 0
0    0    974130

4.84807e+06 59905.6 0
59905.6 -60239.9 0
0    0    1.43635e+06

3.07042e+06 -128656 0
-128656 -86733.6 0
0    0    895107

-5.26558e+06 16374.3 0
16374.3 35565.6 0
0    0    -1.56901e+06

-4.7748e+06 161858 0
161858 -190821 0
0    0    -1.48969e+06

1.34618e+06 234825 0
234825 493778 0
0    0    551987

-773752 386127 0
386127 173284 0
0    0    -180140

-5.2482e+06 -13812.6 0
-13812.6 93222.7 0
0    0    -1.54649e+06

-2.05651e+06 -1999.48 0
-1999.48 46477.1 0
0    0    -603010

-5.22209e+06 88554 0
88554 -46443.6 0
0    0    -1.58056e+06

-300006 -193766 0
-193766 -9072.7 0
0    0    -92723.5

-2.17834e+06 60339.6 0
60339.6 -44616.4 0
0    0    -666887

5.20422e+06 -57645.9 0
-57645.9 265080 0
0    0    1.64079e+06

-3.59207e+06 -123303 0
-123303 208910 0
0    0    -1.01495e+06

-2.04853e+06 184736 0
184736 -117314 0
0    0    -649754

-3.69003e+06 193054 0
193054 -37827.2 0
0    0    -1.11836e+06

-3.727e+06 266424 0
266424 -125113 0
0    0    -1.15563e+06

-3.60524e+06 131172 0
131172 271406 0
0    0    -1.00015e+06

-3.5476e+06 131703 0
131703 -163613 0
0    0    -1.11336e+06

1.93478e+06 231408 0
231408 87710.1 0
0    0    606748

-3.90619e+06 46030.5 0
46030.5 -83213.4 0
0    0    -1.19682e+06

-1.35037e+06 -312074 0
-312074 275916 0
0    0    -322337

1.45372e+06 493807 0
493807 337725 0
0    0    537432

-664896 -134524 0
-134524 131166 0
0    0    -160119

-3.72754e+06 -22330.2 0
-22330.2 -84720.5 0
0    0    -1.14368e+06

-2.7927e+06 307011 0
307011 -137928 0
0    0    -879188

1.26775e+06 121377 0
121377 -24246.6 0
0    0    373052

-3.92504e+06 343806 0
343806 -132353 0
0    0    -1.21722e+06

1.37739e+06 430720 0
430720 273707 0
0    0    495329

518054 -275137 0
-275137 -341363 0
0    0    53007.3

2.87411e+06 -137404 0
-137404 -35773.8 0
0    0    851500

-3.9164e+06 330722 0
330722 386040 0
0    0    -1.05911e+06

-1.91431e+06 67639.7 0
67639.7 189551 0
0    0    -517429

-5.41492e+06 86643.3 0
86643.3 35584.4 0
0    0    -1.6138e+06

-3.51489e+06 189420 0
189420 28214.5 0
0    0    -1.046e+06

-2.18564e+06 17030.9 0
17030.9 -67107.2 0
0    0    -675823

-22581 437634 0
437634 -315782 0
0    0    -101509

58934.5 -36357.8 0
-36357.8 106959 0
0    0    49768.1

-934453 369781 0
369781 72212.4 0
0    0    -258672

860721 208801 0
208801 276937 0
0    0    341298

-1.70158e+06 -123899 0
-123899 208869 0
0    0    -447813

-1.69934e+06 404247 0
404247 237215 0
0    0    -438639

-137188 405057 0
405057 -154055 0
0    0    -87373.1

-5.29041e+06 20887.3 0
20887.3 -202824 0
0    0    -1.64797e+06

-3.01996e+06 -196903 0
-196903 68285.9 0
0    0    -885503

-807441 311322 0
311322 287688 0
0    0    -155926

-5.68937e+06 -82328.1 0
-82328.1 -98321.7 0
0    0    -1.73631e+06

6.41758e+06 44226.7 0
44226.7 -176868 0
0    0    1.87221e+06

-1.87125e+06 -108219 0
-108219 -100353 0
0    0    -591482

3.62217e+06 423178 0
423178 132898 0
0    0    1.12652e+06

5.82381e+06 -122706 0
-122706 400508 0
0    0    1.8673e+06

3.09658e+06 191450 0
191450 -401972 0
0    0    808383

-1.00329e+06 154816 0
154816 -170914 0
0    0    -352260

-1.46151e+06 284356 0
284356 102070 0
0    0    -407832

-6.05417e+06 -38425.2 0
-38425.2 1819.55 0
0    0    -1.8157e+06

3.87926e+06 439862 0
439862 -70618 0
0    0    1.14259e+06

3.16967e+06 -226649 0
-226649 60952.3 0
0    0    969185

888887 -229514 0
-229514 99781.3 0
0    0    296601

1.22397e+06 -35790.1 0
-35790.1 -227382 0
0    0    298975

1.98667e+06 274382 0
274382 -42420.9 0
0    0    583274

3.14947e+06 172895 0
172895 60723.6 0
0    0    963058

-646349 -185668 0
-185668 -124036 0
0    0    -231116

1.36151e+06 307234 0
307234 -62580.4 0
0    0    389678

-3.04464e+06 -171213 0
-171213 -214302 0
0    0    -977684

-530151 502655 0
502655 44186.1 0
0    0    -145790

3.25431e+06 173387 0
173387 -1220.21 0
0    0    975928

3.05439e+06 -185666 0
-185666 74233.5 0
0    0    938586

3.30569e+06 340060 0
340060 13921.7 0
0    0    995883

5.19733e+06 -58709 0
-58709 99046.6 0
0    0    1.58891e+06

5.2538e+06 145498 0
145498 83301.3 0
0    0    1.60113e+06

-2.97324e+06 430759 0
430759 152555 0
0    0    -846204

-6.20351e+06 263252 0
263252 -465997 0
0    0    -2.00085e+06

3.41013e+06 87080 0
87080 -362804 0
0    0    914198

3.40715e+06 -53310.3 0
-53310.3 102459 0
0    0    1.05288e+06

3.05555e+06 145119 0
145119 310934 0
0    0    1.00994e+06

3.80364e+06 -77699.6 0
-77699.6 98872.5 0
0    0    1.17075e+06

-143617 146311 0
146311 -76120.1 0
0    0    -65921.1

3.25869e+06 150207 0
150207 -1650.69 0
0    0    977112

-379688 160581 0
160581 60071.6 0
0    0    -95885

-3.32143e+06 -26446.4 0
-26446.4 -222022 0
0    0    -1.06304e+06

1.35912e+06 -82080.6 0
-82080.6 -285718 0
0    0    322021

3.49854e+06 -273080 0
-273080 -396047 0
0    0    930747

1.30869e+06 173006 0
173006 386441 0
0    0    508539

1.72771e+06 291828 0
291828 -98878.7 0
0    0    488648

-1.86083e+06 481142 0
481142 343578 0
0    0    -455176

1.76074e+06 79177.4 0
79177.4 307444 0
0    0    620455

3.28665e+06 -138439 0
-138439 158720 0
0    0    1.03361e+06

1.348e+06 334476 0
334476 -26521.4 0
0    0    396445

3.62655e+06 97590.9 0
97590.9 58415.8 0
0    0    1.10549e+06

5.50123e+06 234875 0
234875 -177561 0
0    0    1.5971e+06

1.74792e+06 -208443 0
-208443 -178789 0
0    0    470738

3.35732e+06 147450 0
147450 -466796 0
0    0    867156

5.38004e+06 308279 0
308279 144631 0
0    0    1.6574e+06

2.42836e+06 305211 0
305211 -83211.9 0
0    0    703544

1.84139e+06 -182721 0
-182721 186420 0
0    0    608343

1.30618e+06 -260116 0
-260116 -380135 0
0    0    277814

-6.40191e+06 57702.6 0
57702.6 -188349 0
0    0    -1.97708e+06

3.50607e+06 282490 0
282490 -125100 0
0    0    1.01429e+06

-649100 -174453 0
-174453 -143762 0
0    0    -237858

2604.71 -158752 0
-158752 103957 0
0    0    31968.5

2.81805e+06 33406.6 0
33406.6 279271 0
0    0    929197

4.2769e+06 -152013 0
-152013 191520 0
0    0    1.34053e+06

1.2326e+06 162154 0
162154 -161665 0
0    0    321282

2.89806e+06 256246 0
256246 231195 0
0    0    938777

-805132 518894 0
518894 143237 0
0    0    -198569

2.70831e+06 80766.1 0
80766.1 20133.4 0
0    0    818532

382762 586849 0
586849 220088 0
0    0    180855

3.92138e+06 451140 0
451140 136411 0
0    0    1.21734e+06

4.05748e+06 -176652 0
-176652 -241814 0
0    0    1.1447e+06

4.19364e+06 -66980 0
-66980 -17792.9 0
0    0    1.25275e+06

6.14306e+06 84371 0
84371 94240.1 0
0    0    1.87119e+06

1.1314e+06 433233 0
433233 17248.4 0
0    0    344594

6.49077e+06 37701.1 0
37701.1 -76197.2 0
0    0    1.92437e+06

5.82999e+06 128817 0
128817 69389.4 0
0    0    1.76981e+06

2.58123e+06 252776 0
252776 197474 0
0    0    833611

-2.66752e+06 -211407 0
-211407 221413 0
0    0    -733832

637902 257786 0
257786 149387 0
0    0    236187

-1.5018e+06 -66423.7 0
-66423.7 -238520 0
0    0    -522097

598024 -143234 0
-143234 -234735 0
0    0    108987

-6.80023e+06 89275.6 0
89275.6 -75399.8 0
0    0    -2.06269e+06

1.01752e+06 -256299 0
-256299 -120707 0
0    0    269043

523516 -107934 0
-107934 -60760.6 0
0    0    138826

-1.05653e+06 215144 0
215144 -111383 0
0    0    -350373

-1.40336e+06 258283 0
258283 145056 0
0    0    -377490

-1.24121e+06 186630 0
186630 -557990 0
0    0    -539760

-3.67544e+06 113088 0
113088 -525403 0
0    0    -1.26025e+06

-5.52752e+06 267050 0
267050 -390396 0
0    0    -1.77537e+06

-4.27876e+06 -240365 0
-240365 105670 0
0    0    -1.25193e+06

-2.80734e+06 428532 0
428532 -31873 0
0    0    -851763

-5.5864e+06 167594 0
167594 -178039 0
0    0    -1.72933e+06

-3.80473e+06 -214793 0
-214793 -188757 0
0    0    -1.19805e+06

-3.44844e+06 -93604.6 0
-93604.6 480077 0
0    0    -890508

-3.3402e+06 -364781 0
-364781 66545.9 0
0    0    -982097

-3.47635e+06 -123173 0
-123173 240111 0
0    0    -970872

-1.13023e+06 179766 0
179766 116941 0
0    0    -303986

-2.94958e+06 -145376 0
-145376 612240 0
0    0    -701203

4.44317e+06 -148275 0
-148275 -105386 0
0    0    1.30133e+06

2.86561e+06 479411 0
479411 145112 0
0    0    903216

4.28047e+06 213458 0
213458 31439 0
0    0    1.29357e+06

3.47111e+06 -352447 0
-352447 -109523 0
0    0    1.00848e+06

2.34079e+06 -176840 0
-176840 -211187 0
0    0    638882

5.7623e+06 109237 0
109237 104766 0
0    0    1.76012e+06

2.39089e+06 168869 0
168869 177399 0
0    0    770487

6.66007e+06 -110382 0
-110382 21514 0
0    0    2.00448e+06

225916 86399.9 0
86399.9 -305456 0
0    0    -23862.2

4.5146e+06 19611.1 0
19611.1 61105.1 0
0    0    1.37271e+06

6.64793e+06 60881.5 0
60881.5 -13853.8 0
0    0    1.99022e+06

406080 -52416.8 0
-52416.8 -31445.6 0
0    0    112390

4.51898e+06 340568 0
340568 117697 0
0    0    1.391e+06

4.36265e+06 -24474.9 0
-24474.9 -127444 0
0    0    1.27056e+06

2.2902e+06 -64871 0
-64871 -171896 0
0    0    635491

-1.96196e+06 -75112.6 0
-75112.6 68927.9 0
0    0    -567909

-3.95801e+06 71899.6 0
71899.6 145780 0
0    0    -1.14367e+06

373736 329648 0
329648 -181717 0
0    0    57605.7

577474 181414 0
181414 53705.9 0
0    0    189354

-1.96346e+06 92067.5 0
92067.5 -276274 0
0    0    -671921

3.17209e+06 80248.6 0
80248.6 -67536.9 0
0    0    931367

7.07895e+06 34030.4 0
34030.4 85902.4 0
0    0    2.14945e+06

3.1058e+06 -366206 0
-366206 -296966 0
0    0    842649

2.65352e+06 5457.94 0
5457.94 12490.7 0
0    0    799805

1.94219e+06 421959 0
421959 269023 0
0    0    663363

2.57984e+06 -58496 0
-58496 -120669 0
0    0    737750

5.96638e+06 -100692 0
-100692 103058 0
0    0    1.82083e+06

-3.63192e+06 -76156.9 0
-76156.9 -161539 0
0    0    -1.13804e+06

4.75356e+06 275498 0
275498 -416720 0
0    0    1.30105e+06

-1.66119e+06 46287.3 0
46287.3 -182723 0
0    0    -553173

475919 97826.4 0
97826.4 446144 0
0    0    276619

655984 -268322 0
-268322 14370.9 0
0    0    201107

4.49733e+06 167643 0
167643 92880 0
0    0    1.37706e+06

804975 382333 0
382333 257889 0
0    0    318859

-1.95668e+06 480589 0
480589 211667 0
0    0    -523505

-4.24074e+06 30548.9 0
30548.9 -89763.4 0
0    0    -1.29915e+06

-2.87121e+06 -27563.7 0
-27563.7 -94458.2 0
0    0    -889701

3.50766e+06 634478 0
634478 -403349 0
0    0    931294

119095 -139965 0
-139965 231344 0
0    0    105132

-1.69167e+06 34068 0
34068 342165 0
0    0    -404851

-4.02748e+06 209605 0
209605 341420 0
0    0    -1.10582e+06

-4.20517e+06 78370.2 0
78370.2 101109 0
0    0    -1.23122e+06

-4.27343e+06 187553 0
187553 -116895 0
0    0    -1.3171e+06

-1.76077e+06 405471 0
405471 -75545.7 0
0    0    -550896

-4.32091e+06 209102 0
209102 46055.8 0
0    0    -1.28245e+06

966771 326251 0
326251 88779.1 0
0    0    316665

-1.54545e+06 60875 0
60875 190483 0
0    0    -406491

-3.68148e+06 401688 0
401688 -48429.8 0
0    0    -1.11897e+06

-6.25095e+06 92151.2 0
92151.2 -41191.4 0
0    0    -1.88764e+06

-6.54285e+06 -3879.92 0
-3879.92 -119895 0
0    0    -1.99882e+06

-4.11629e+06 113800 0
113800 -222113 0
0    0    -1.30152e+06

-4.07838e+06 -223865 0
-223865 -93785.2 0
0    0    -1.25165e+06

-1.49502e+06 -144357 0
-144357 145995 0
0    0    -404708

-6.70373e+06 -2370.13 0
-2370.13 -254233 0
0    0    -2.08739e+06

896658 -16820.2 0
-16820.2 -261165 0
0    0    190648

-2.67094e+06 406718 0
406718 4814.5 0
0    0    -799837

-1.52424e+06 292678 0
292678 -171131 0
0    0    -508612

-3.85493e+06 32327.6 0
32327.6 213913 0
0    0    -1.09231e+06

-6.00237e+06 34672.2 0
34672.2 -213228 0
0    0    -1.86468e+06

-1.72489e+06 290089 0
290089 182534 0
0    0    -462706

-4.17006e+06 -80480.8 0
-80480.8 83727.9 0
0    0    -1.2259e+06

-3.65204e+06 328448 0
328448 149343 0
0    0    -1.05081e+06

-7.14172e+06 -67625.2 0
-67625.2 118248 0
0    0    -2.10704e+06

-2.76289e+06 21099.3 0
21099.3 143392 0
0    0    -785848

-1.08235e+06 -250509 0
-250509 -135061 0
0    0    -365225

-1.81475e+06 112485 0
112485 233856 0
0    0    -474267

4.69808e+06 114295 0
114295 -36960.6 0
0    0    1.39834e+06

-6.66304e+06 66534.4 0
66534.4 -106947 0
0    0    -2.031e+06

-774944 164449 0
164449 93250.5 0
0    0    -204508

-4.7936e+06 -207490 0
-207490 213446 0
0    0    -1.37404e+06

-1.06137e+06 -116135 0
-116135 -298760 0
0    0    -408038

-5.03394e+06 -51507.8 0
-51507.8 -86306.2 0
0    0    -1.53608e+06

-4.41143e+06 324208 0
324208 -142298 0
0    0    -1.36612e+06

-893437 238816 0
238816 67009.1 0
0    0    -247928

7.07257e+06 -305588 0
-305588 157715 0
0    0    2.16908e+06

310496 530978 0
530978 83680.5 0
0    0    118253

-7.24834e+06 108644 0
108644 106809 0
0    0    -2.14246e+06

3.12274e+06 103646 0
103646 471633 0
0    0    1.07831e+06

2.94777e+06 254159 0
254159 177639 0
0    0    937624

640254 -217350 0
-217350 -532074 0
0    0    32454.1

4.84971e+06 30343.7 0
30343.7 141039 0
0    0    1.49722e+06

4.12813e+06 147181 0
147181 -113700 0
0    0    1.20433e+06

-862990 141157 0
141157 -36173.6 0
0    0    -269749

4.66445e+06 150514 0
150514 -277388 0
0    0    1.31612e+06

3.19689e+06 402269 0
402269 -49743.7 0
0    0    944145

-3.37026e+06 -151600 0
-151600 -329405 0
0    0    -1.1099e+06

2.00853e+06 -238145 0
-238145 255430 0
0    0    679188

906092 228355 0
228355 -209179 0
0    0    209074

1.31807e+06 60115.5 0
60115.5 -234963 0
0    0    324933

-2.93281e+06 140847 0
140847 -301730 0
0    0    -970363

1.1165e+06 57997.2 0
57997.2 268817 0
0    0    415596

3.03374e+06 67444.7 0
67444.7 43505 0
0    0    923173

1.0131e+06 209424 0
209424 38274.8 0
0    0    315412

-5.4468e+06 -65615.4 0
-65615.4 -139804 0
0    0    -1.67598e+06

-4.95968e+06 104939 0
104939 113028 0
0    0    -1.45399e+06

911350 485925 0
485925 -461662 0
0    0    134907

-6.92439e+06 -37273.4 0
-37273.4 11559.4 0
0    0    -2.07385e+06

-5.22427e+06 -51512.9 0
-51512.9 -144330 0
0    0    -1.61058e+06

-5.31995e+06 311927 0
311927 41812.3 0
0    0    -1.58344e+06

-4.91157e+06 520831 0
520831 121469 0
0    0    -1.43703e+06

-2.94632e+06 265337 0
265337 492725 0
0    0    -736078

-1.05759e+06 340181 0
340181 -198273 0
0    0    -376759

-3.17767e+06 432434 0
432434 36533.6 0
0    0    -942340

-305424 418273 0
418273 -38325.5 0
0    0    -103125

-4.79522e+06 -314085 0
-314085 171332 0
0    0    -1.38717e+06

4.47684e+06 275657 0
275657 -510738 0
0    0    1.18983e+06

3.93666e+06 233297 0
233297 163101 0
0    0    1.22993e+06

5.3074e+06 -385844 0
-385844 144972 0
0    0    1.63571e+06

-543365 -225176 0
-225176 9904.76 0
0    0    -160038

-7.40866e+06 41827.3 0
41827.3 42369.3 0
0    0    -2.20989e+06

-3.2896e+06 -241109 0
-241109 -131419 0
0    0    -1.02631e+06

-2.49691e+06 341753 0
341753 -27599.3 0
0    0    -757352

-7.06039e+06 -72277.5 0
-72277.5 167218 0
0    0    -2.06795e+06

-2.67622e+06 -63231.8 0
-63231.8 -153263 0
0    0    -848845

-4.89481e+06 -72353.3 0
-72353.3 -173354 0
0    0    -1.52045e+06

1.22754e+06 -180322 0
-180322 67169 0
0    0    388413

-6.94785e+06 192759 0
192759 -64960 0
0    0    -2.10384e+06

-5.0673e+06 436779 0
436779 202049 0
0    0    -1.45957e+06

-1.8568e+06 -188717 0
-188717 141047 0
0    0    -514726

3.85133e+06 642939 0
642939 -17303 0
0    0    1.15021e+06

4.64361e+06 61031.5 0
61031.5 -266156 0
0    0    1.31324e+06

-4.97763e+06 213424 0
213424 -65543 0
0    0    -1.51295e+06

-3.66843e+06 -468944 0
-468944 230900 0
0    0    -1.03126e+06

-284210 -190671 0
-190671 115486 0
0    0    -50617.1

-3.28219e+06 -106182 0
-106182 -174095 0
0    0    -1.03689e+06

-792641 384575 0
384575 -174575 0
0    0    -290165

1.90514e+06 -75090 0
-75090 -416211 0
0    0    446678

-3.29197e+06 290024 0
290024 195477 0
0    0    -928947

-2.27908e+06 300879 0
300879 110528 0
0    0    -650564

-1.84182e+06 -374505 0
-374505 -5577.42 0
0    0    -554220

1.52615e+06 511396 0
511396 -215776 0
0    0    393113

4.66907e+06 90962.3 0
90962.3 -584030 0
0    0    1.22551e+06

7.20674e+06 210835 0
210835 10519.3 0
0    0    2.16518e+06

6.81015e+06 21063.1 0
21063.1 -64447.1 0
0    0    2.02371e+06

1.51848e+06 257892 0
257892 210169 0
0    0    518594

4.65125e+06 -186806 0
-186806 181580 0
0    0    1.44985e+06

4.54293e+06 -240617 0
-240617 120948 0
0    0    1.39916e+06

-607716 -144293 0
-144293 2473.23 0
0    0    -181573

3.75449e+06 -2876.78 0
-2876.78 220010 0
0    0    1.19235e+06

7.50667e+06 82385.3 0
82385.3 -33676.8 0
0    0    2.2419e+06

4.39842e+06 500048 0
500048 118830 0
0    0    1.35518e+06

5.14598e+06 -230830 0
-230830 1793.53 0
0    0    1.54433e+06

5.16322e+06 387373 0
387373 23813.4 0
0    0    1.55611e+06

6.80852e+06 41440.1 0
41440.1 230284 0
0    0    2.11164e+06

4.32253e+06 -57397.7 0
-57397.7 328524 0
0    0    1.39532e+06

1.39383e+06 163372 0
163372 -56180.4 0
0    0    401295

4.01038e+06 152704 0
152704 -252041 0
0    0    1.1275e+06

1.7715e+06 218831 0
218831 -309373 0
0    0    438637

1.53291e+06 -145169 0
-145169 -21068.2 0
0    0    453551

-302700 -44339.2 0
-44339.2 218332 0
0    0    -25310.2

-4.61705e+06 154025 0
154025 679698 0
0    0    -1.1812e+06

-1.67106e+06 477034 0
477034 15912.9 0
0    0    -496545

4.16094e+06 -106328 0
-106328 382196 0
0    0    1.36294e+06

-4.85989e+06 229012 0
229012 68530.4 0
0    0    -1.43741e+06

-7.02706e+06 36254.3 0
36254.3 -152132 0
0    0    -2.15376e+06

-392869 82204.4 0
82204.4 -133663 0
0    0    -157959

-2.26928e+06 747544 0
747544 237921 0
0    0    -609408

-2.25197e+06 168189 0
168189 349796 0
0    0    -570651

-4.41115e+06 -413988 0
-413988 -316437 0
0    0    -1.41828e+06

-7.3529e+06 191445 0
191445 -94541 0
0    0    -2.23423e+06

428088 -459814 0
-459814 -328345 0
0    0    29922.8

-8.22151e+06 65218.2 0
65218.2 81199.6 0
0    0    -2.44209e+06

102526 -246805 0
-246805 384641 0
0    0    146150

-5.07554e+06 -164796 0
-164796 307599 0
0    0    -1.43038e+06

-3.11232e+06 323140 0
323140 -449085 0
0    0    -1.06842e+06

-4.95309e+06 249804 0
249804 171371 0
0    0    -1.43451e+06

-4.03039e+06 447181 0
447181 -138623 0
0    0    -1.2507e+06

1.73581e+06 512865 0
512865 177632 0
0    0    574033

7.53948e+06 190853 0
190853 118528 0
0    0    2.2974e+06

4.59262e+06 -216634 0
-216634 154899 0
0    0    1.42425e+06

1.51382e+06 102827 0
102827 -301427 0
0    0    363717

7.98758e+06 285616 0
285616 406387 0
0    0    2.51819e+06

3.98158e+06 390064 0
390064 9319.38 0
0    0    1.19727e+06

1.07716e+06 -173791 0
-173791 -412058 0
0    0    199529

4.37364e+06 118761 0
118761 -355899 0
0    0    1.20532e+06

-714493 193531 0
193531 13112.2 0
0    0    -210414

887238 515777 0
515777 -275598 0
0    0    183492

652146 -193731 0
-193731 -250272 0
0    0    120562

7.32242e+06 145621 0
145621 482920 0
0    0    2.3416e+06

1.94229e+06 438084 0
438084 -388451 0
0    0    466150

7.35381e+06 -30023.2 0
-30023.2 150036 0
0    0    2.25115e+06

-4.13264e+06 433576 0
433576 -8922.64 0
0    0    -1.24247e+06

3.85864e+06 268621 0
268621 -541004 0
0    0    995292

-7.4361e+06 -208840 0
-208840 -320090 0
0    0    -2.32686e+06

-778049 202561 0
202561 506587 0
0    0    -81438.6

-5.75598e+06 -92569.1 0
-92569.1 -384929 0
0    0    -1.84227e+06

-1.3027e+06 -171374 0
-171374 40719 0
0    0    -378595

-1.76178e+06 -160089 0
-160089 9418.14 0
0    0    -525709

3.71653e+06 198206 0
198206 157121 0
0    0    1.16209e+06

1.51434e+06 94506.9 0
94506.9 -132372 0
0    0    414591

-8.20413e+06 -260301 0
-260301 -290268 0
0    0    -2.54832e+06

-4.33776e+06 -86388.8 0
-86388.8 13289 0
0    0    -1.29734e+06

-7.96129e+06 51767.2 0
51767.2 -76312.8 0
0    0    -2.41128e+06

-4.93216e+06 559459 0
559459 753030 0
0    0    -1.25374e+06

600250 219426 0
219426 -1.26852e+06 0
0    0    -200480

-1.50488e+06 228561 0
228561 77042.9 0
0    0    -428351

438873 426433 0
426433 30594.2 0
0    0    140840

-4.25643e+06 81612.2 0
81612.2 -533766 0
0    0    -1.43706e+06

-1.14585e+06 -293188 0
-293188 -688242 0
0    0    -550227

2.2356e+06 -143717 0
-143717 92335.1 0
0    0    698379

387317 791819 0
791819 290262 0
0    0    203274

-4.40904e+06 414170 0
414170 411765 0
0    0    -1.19918e+06

-3.67083e+06 447170 0
447170 -270188 0
0    0    -1.1823e+06

-3.11311e+06 695219 0
695219 118376 0
0    0    -898420

1.44965e+06 640918 0
640918 499010 0
0    0    584598

8.52967e+06 166886 0
166886 -268567 0
0    0    2.47833e+06

4.06851e+06 420458 0
420458 365469 0
0    0    1.33019e+06

-379684 76493.3 0
76493.3 37392.8 0
0    0    -102687

1.10947e+06 95458.6 0
95458.6 -96815 0
0    0    303796

1.28464e+06 598384 0
598384 119477 0
0    0    421234

1.69877e+06 191519 0
191519 565210 0
0    0    679194

7.99003e+06 -54385.2 0
-54385.2 473961 0
0    0    2.5392e+06

1.65019e+06 398967 0
398967 -192289 0
0    0    437371

-5.57983e+06 -563091 0
-563091 -226803 0
0    0    -1.74199e+06

-105989 91955.6 0
91955.6 311987 0
0    0    61799.5

8.68727e+06 107182 0
107182 -271679 0
0    0    2.52468e+06

4.84026e+06 -197800 0
-197800 -508484 0
0    0    1.29953e+06

4.45284e+06 -214854 0
-214854 -375569 0
0    0    1.22318e+06

7.59292e+06 -56574.2 0
-56574.2 58727.1 0
0    0    2.29549e+06

4.63614e+06 -121401 0
-121401 -129065 0
0    0    1.35212e+06

-1.06978e+06 -265231 0
-265231 614346 0
0    0    -136630

-2.97205e+06 -503187 0
-503187 106391 0
0    0    -859697

4.01568e+06 -177006 0
-177006 436636 0
0    0    1.3357e+06

8.25194e+06 -240590 0
-240590 96753.7 0
0    0    2.50461e+06

5.5618e+06 200455 0
200455 -145467 0
0    0    1.6249e+06

5.6477e+06 181874 0
181874 -538752 0
0    0    1.53269e+06

8.192e+06 -247357 0
-247357 272055 0
0    0    2.53922e+06

4.68496e+06 181256 0
181256 389440 0
0    0    1.52232e+06

5.59383e+06 163595 0
163595 -81204.2 0
0    0    1.65379e+06

-5.53491e+06 85063.3 0
85063.3 19955.9 0
0    0    -1.65449e+06

-5.67634e+06 49082.3 0
49082.3 -50564.3 0
0    0    -1.71807e+06

-3.21715e+06 199145 0
199145 -293662 0
0    0    -1.05324e+06

-3.38786e+06 537791 0
537791 460491 0
0    0    -878209

-8.24243e+06 -84179.7 0
-84179.7 -6048.99 0
0    0    -2.47454e+06

639857 116980 0
116980 4120.39 0
0    0    193193

534555 28141.7 0
28141.7 63731.1 0
0    0    179486

900587 39342.3 0
39342.3 43365.1 0
0    0    283186

588141 15784.3 0
15784.3 86932.9 0
0    0    202522

641454 106788 0
106788 -71155 0
0    0    171090

-3.49459e+06 331884 0
331884 -77657.6 0
0    0    -1.07168e+06

8.69808e+06 -160748 0
-160748 441171 0
0    0    2.74178e+06

7.4092e+06 11054.2 0
11054.2 117204 0
0    0    2.25792e+06

3.83891e+06 182358 0
182358 341379 0
0    0    1.25409e+06

5.10876e+06 123722 0
123722 -706250 0
0    0    1.32075e+06

645655 -433454 0
-433454 -535899 0
0    0    32927

5.5822e+06 257571 0
257571 -144378 0
0    0    1.63135e+06

6.01108e+06 140713 0
140713 299400 0
0    0    1.89314e+06

4.11569e+06 -404538 0
-404538 -161552 0
0    0    1.18624e+06

-764179 77696.5 0
77696.5 -406003 0
0    0    -351055

4.57138e+06 -140984 0
-140984 17012.2 0
0    0    1.37652e+06

3.31778e+06 -177997 0
-177997 701567 0
0    0    1.2058e+06

4.31336e+06 439028 0
439028 102449 0
0    0    1.32474e+06

-8.49233e+06 111270 0
111270 5171.18 0
0    0    -2.54615e+06

5.27868e+06 -393775 0
-393775 -34756.5 0
0    0    1.57318e+06

5.36088e+06 539290 0
539290 468.937 0
0    0    1.6084e+06

-2.36608e+06 805416 0
805416 96702.7 0
0    0    -680812

-1.38544e+06 152449 0
152449 -150784 0
0    0    -460866

1.96085e+06 -257455 0
-257455 -106275 0
0    0    556371

-6.14244e+06 -351723 0
-351723 24105.5 0
0    0    -1.8355e+06

944673 544248 0
544248 -1.31448e+06 0
0    0    -110941

2.30786e+06 235281 0
235281 659940 0
0    0    890341

3.8839e+06 440194 0
440194 579652 0
0    0    1.33907e+06

-1.80137e+06 231614 0
231614 -459303 0
0    0    -678201

-999857 536601 0
536601 485006 0
0    0    -154455

1.52199e+06 228487 0
228487 -384526 0
0    0    341239

304754 -65821.3 0
-65821.3 298134 0
0    0    180866

635631 565937 0
565937 -169916 0
0    0    139715

2.13051e+06 -73526.2 0
-73526.2 819406 0
0    0    884975

2.6318e+06 187471 0
187471 -391817 0
0    0    671994

5.23334e+06 -211219 0
-211219 227789 0
0    0    1.63834e+06

5.62684e+06 232878 0
232878 -712575 0
0    0    1.47428e+06

-7.96165e+06 138176 0
138176 -117726 0
0    0    -2.42381e+06

-5.67305e+06 -68954.8 0
-68954.8 284787 0
0    0    -1.61648e+06

-3.90252e+06 375313 0
375313 -519397 0
0    0    -1.32658e+06

-4.76126e+06 30262.4 0
30262.4 220719 0
0    0    -1.36216e+06

258088 -249640 0
-249640 -325441 0
0    0    -20205.8

-2.15173e+06 525265 0
525265 469772 0
0    0    -504587

-1.6089e+06 -133210 0
-133210 44388.9 0
0    0    -469353

-8.64528e+06 317206 0
317206 377493 0
0    0    -2.48034e+06

-1.20829e+06 285689 0
285689 -455051 0
0    0    -499002

709195 878518 0
878518 219864 0
0    0    278718

-5.88048e+06 143451 0
143451 20921.8 0
0    0    -1.75787e+06

-5.53843e+06 424377 0
424377 58292.7 0
0    0    -1.64404e+06

-3.18455e+06 167316 0
167316 -291271 0
0    0    -1.04275e+06

-8.94902e+06 -27759.8 0
-27759.8 177944 0
0    0    -2.63132e+06

-4.45355e+06 28484.7 0
28484.7 -266809 0
0    0    -1.41611e+06

-5.59305e+06 -71140 0
-71140 -190326 0
0    0    -1.73501e+06

-5.63197e+06 45081.9 0
45081.9 95569.6 0
0    0    -1.66092e+06

-1.26012e+06 -143421 0
-143421 231698 0
0    0    -308527

-3.74137e+06 -113734 0
-113734 184580 0
0    0    -1.06704e+06

-6.00243e+06 194883 0
194883 -412880 0
0    0    -1.92459e+06

-8.24304e+06 39273.6 0
39273.6 109396 0
0    0    -2.44009e+06

-5.21106e+06 628675 0
628675 -541414 0
0    0    -1.72574e+06

-1.46905e+06 -214674 0
-214674 350054 0
0    0    -335700

-1.54653e+06 184257 0
184257 267863 0
0    0    -383599

-5.17165e+06 -546075 0
-546075 194962 0
0    0    -1.49301e+06

4.82201e+06 -161251 0
-161251 251400 0
0    0    1.52202e+06

-562646 157492 0
157492 -748659 0
0    0    -393392

-5.77608e+06 -233729 0
-233729 -377089 0
0    0    -1.84595e+06

-2.25226e+06 370517 0
370517 379790 0
0    0    -561741

-5.3813e+06 -450246 0
-450246 809761 0
0    0    -1.37146e+06

-9.01287e+06 -85041.5 0
-85041.5 -508201 0
0    0    -2.85632e+06

-5.85043e+06 -176212 0
-176212 19244.5 0
0    0    -1.74936e+06

-8.59953e+06 -289691 0
-289691 174023 0
0    0    -2.52765e+06

-7.97188e+06 597832 0
597832 -359144 0
0    0    -2.49931e+06

-3.84585e+06 -328138 0
-328138 -662927 0
0    0    -1.35263e+06

4.73906e+06 426811 0
426811 959527 0
0    0    1.70957e+06

-5.97354e+06 610097 0
610097 619124 0
0    0    -1.60633e+06

-4.20986e+06 716209 0
716209 116552 0
0    0    -1.22799e+06

-2.37527e+06 46856.4 0
46856.4 -473279 0
0    0    -854564

2.67654e+06 30081.4 0
30081.4 407551 0
0    0    925229

-5.36951e+06 230135 0
230135 503717 0
0    0    -1.45974e+06

-2.08072e+06 114076 0
114076 -178116 0
0    0    -677651

-6.09695e+06 415806 0
415806 617581 0
0    0    -1.64381e+06

1.33984e+06 159323 0
159323 -158406 0
0    0    354429

-2.35581e+06 -301983 0
-301983 625963 0
0    0    -518953

-5.89486e+06 -21874.1 0
-21874.1 -517977 0
0    0    -1.92385e+06

-2.07823e+06 283463 0
283463 354200 0
0    0    -517210

-8.38816e+06 -98452.6 0
-98452.6 -364364 0
0    0    -2.62576e+06

-5.27183e+06 -89847.8 0
-89847.8 -708619 0
0    0    -1.79413e+06

1.38833e+06 152334 0
152334 -43983.6 0
0    0    403303

-9.4844e+06 -298900 0
-298900 -35435.5 0
0    0    -2.85595e+06

5.3637e+06 -90964.6 0
-90964.6 740109 0
0    0    1.83114e+06

-1.73936e+06 -210556 0
-210556 -180855 0
0    0    -576064

1.23755e+06 461927 0
461927 -1649.65 0
0    0    370769

-5.22872e+06 245856 0
245856 -168507 0
0    0    -1.61917e+06

-2.93653e+06 -106045 0
-106045 -654393 0
0    0    -1.07728e+06

-5.16762e+06 394894 0
394894 -91292.2 0
0    0    -1.57767e+06

6.09041e+06 120031 0
120031 263272 0
0    0    1.90611e+06

4.81193e+06 158891 0
158891 51619 0
0    0    1.45906e+06

-1.34901e+06 -263379 0
-263379 603910 0
0    0    -223529

-1.62409e+06 -342690 0
-342690 53221.6 0
0    0    -471261

3.78881e+06 457744 0
457744 361124 0
0    0    1.24498e+06

5.85364e+06 -184153 0
-184153 139660 0
0    0    1.79799e+06

8.83562e+06 -380651 0
-380651 443284 0
0    0    2.78367e+06

-719685 301546 0
301546 -189950 0
0    0    -272890

5.11429e+06 -7704.74 0
-7704.74 -270905 0
0    0    1.45302e+06

6.88867e+06 -331845 0
-331845 -320062 0
0    0    1.97058e+06

9.05331e+06 265990 0
265990 531250 0
0    0    2.87537e+06

1.98966e+06 365695 0
365695 -423971 0
0    0    469706

2.14881e+06 528909 0
528909 -170970 0
0    0    593352

-5.53352e+06 523309 0
523309 -376659 0
0    0    -1.77305e+06

1.49964e+06 209238 0
209238 701771 0
0    0    660423

-6.06664e+06 -421443 0
-421443 -291588 0
0    0    -1.90747e+06

-9.18844e+06 339514 0
339514 -443343 0
0    0    -2.88954e+06

-2.87903e+06 -373915 0
-373915 91075.4 0
0    0    -836386

-9.999e+06 510304 0
510304 -355889 0
0    0    -3.10647e+06

-3.41254e+06 -267808 0
-267808 390137 0
0    0    -906720

-5.82833e+06 -84272.2 0
-84272.2 43345.1 0
0    0    -1.7355e+06

5.59002e+06 505575 0
505575 -57435.6 0
0    0    1.65977e+06

-6.26275e+06 727714 0
727714 -771743 0
0    0    -2.11035e+06

169238 502930 0
502930 325495 0
0    0    148420

-6.39126e+06 -409538 0
-409538 672743 0
0    0    -1.71556e+06

-9.01275e+06 583027 0
583027 312261 0
0    0    -2.61015e+06

8.88395e+06 -311520 0
-311520 -366431 0
0    0    2.55526e+06

1.25367e+06 78936.3 0
78936.3 226609 0
0    0    444085

-1.56347e+06 26426.2 0
26426.2 339351 0
0    0    -367237

4.05426e+06 -220094 0
-220094 -249671 0
0    0    1.14138e+06

5.39593e+06 620399 0
620399 959030 0
0    0    1.90649e+06

8.60134e+06 436556 0
436556 -179577 0
0    0    2.52653e+06

887764 -607872 0
-607872 -482432 0
0    0    121600

5.55033e+06 -261914 0
-261914 209153 0
0    0    1.72785e+06

4.80491e+06 530402 0
530402 -10444.5 0
0    0    1.43834e+06

6.19406e+06 -98673.8 0
-98673.8 121252 0
0    0    1.89459e+06

6.69728e+06 385076 0
385076 -70351.4 0
0    0    1.98808e+06

5.30739e+06 -548454 0
-548454 -698653 0
0    0    1.38262e+06

9.37317e+06 49454.4 0
49454.4 144491 0
0    0    2.8553e+06

2.53877e+06 -287807 0
-287807 351926 0
0    0    867210

3.50598e+06 421325 0
421325 -18001.5 0
0    0    1.04639e+06

2.14476e+06 29695.7 0
29695.7 260611 0
0    0    721612

1.29624e+06 526077 0
526077 -278709 0
0    0    305260

1.11572e+06 424348 0
424348 -279908 0
0    0    250743

-3.62181e+06 -368896 0
-368896 -376838 0
0    0    -1.1996e+06

8.43663e+06 598209 0
598209 -335436 0
0    0    2.43036e+06

5.66593e+06 325152 0
325152 -31866.2 0
0    0    1.69022e+06

5.76629e+06 505684 0
505684 -331865 0
0    0    1.63033e+06

5.96224e+06 131383 0
131383 -742068 0
0    0    1.56605e+06

6.30777e+06 -519817 0
-519817 175008 0
0    0    1.94483e+06

2.79927e+06 43399.2 0
43399.2 261024 0
0    0    918087

-79436.8 258946 0
258946 390319 0
0    0    93264.5

5.87273e+06 35128.6 0
35128.6 291720 0
0    0    1.84933e+06

9.07665e+06 -14604.8 0
-14604.8 -296650 0
0    0    2.634e+06

8.99342e+06 88155.9 0
88155.9 84472.9 0
0    0    2.72337e+06

172047 34868.3 0
34868.3 -64144.5 0
0    0    32370.9

5.74368e+06 -40113.3 0
-40113.3 -915138 0
0    0    1.44856e+06

3.03694e+06 41195.2 0
41195.2 -257426 0
0    0    833853

6.001e+06 -12164.7 0
-12164.7 594284 0
0    0    1.97859e+06

1.00904e+07 457584 0
457584 417312 0
0    0    3.15233e+06

5.76268e+06 293148 0
293148 408771 0
0    0    1.85143e+06

-3.32317e+06 -284677 0
-284677 114715 0
0    0    -962537

1.01615e+07 -350379 0
-350379 244358 0
0    0    3.12174e+06

182544 502017 0
502017 298482 0
0    0    144308

2.67025e+06 368414 0
368414 409174 0
0    0    923826

3.24492e+06 138065 0
138065 216927 0
0    0    1.03855e+06

2.82801e+06 166459 0
166459 177472 0
0    0    901646

2.92097e+06 -356227 0
-356227 92330.5 0
0    0    903991

6.45962e+06 529769 0
529769 -737595 0
0    0    1.71661e+06

-1.01906e+07 -102647 0
-102647 -288876 0
0    0    -3.14385e+06

5.40581e+06 -328250 0
-328250 -205429 0
0    0    1.56011e+06

899500 274869 0
274869 -533091 0
0    0    109923

1.68955e+06 -525391 0
-525391 -340549 0
0    0    404702

60063.1 402994 0
402994 -20010.2 0
0    0    12015.9

79479.6 584344 0
584344 -100904 0
0    0    -6427.2

-4.10051e+06 -368727 0
-368727 -54512.1 0
0    0    -1.24651e+06

-5.94893e+06 454021 0
454021 500658 0
0    0    -1.63448e+06

5.45091e+06 520397 0
520397 33705.2 0
0    0    1.64538e+06

-582998 -522135 0
-522135 51147 0
0    0    -159555

-5.30307e+06 -400583 0
-400583 258785 0
0    0    -1.51328e+06

4.86371e+06 86738.8 0
86738.8 -410209 0
0    0    1.33605e+06

6.71438e+06 -504800 0
-504800 311567 0
0    0    2.10778e+06

-9.66534e+06 253382 0
253382 365851 0
0    0    -2.78985e+06

-5.09705e+06 640685 0
640685 111818 0
0    0    -1.49557e+06

-8.91207e+06 -229304 0
-229304 -375033 0
0    0    -2.78613e+06

-4.96431e+06 793034 0
793034 112348 0
0    0    -1.45559e+06

-2.53095e+06 672281 0
672281 -149984 0
0    0    -804281

-5.98047e+06 -293228 0
-293228 52375.9 0
0    0    -1.77843e+06

9.71238e+06 422771 0
422771 472648 0
0    0    3.05551e+06

-690260 -69625.9 0
-69625.9 4369.6 0
0    0    -205767

5.12183e+06 70012.9 0
70012.9 690358 0
0    0    1.74366e+06

4.13603e+06 701239 0
701239 801337 0
0    0    1.48121e+06

6.18833e+06 93784 0
93784 -914598 0
0    0    1.58212e+06

2.08641e+06 472345 0
472345 -656.978 0
0    0    625727

-1.03255e+07 339723 0
339723 -251766 0
0    0    -3.17318e+06

-1.13595e+06 -164302 0
-164302 230074 0
0    0    -271762

-4.84441e+06 -533491 0
-533491 -76711.8 0
0    0    -1.47634e+06

-6.70114e+06 -152795 0
-152795 -94557.5 0
0    0    -2.03871e+06

-3.85787e+06 -9572.03 0
-9572.03 72967.2 0
0    0    -1.13547e+06

-670213 152837 0
152837 131170 0
0    0    -161713

1.32065e+06 -338226 0
-338226 -252159 0
0    0    320546

-9.54409e+06 -291414 0
-291414 180712 0
0    0    -2.80901e+06

2.13433e+06 235705 0
235705 356947 0
0    0    747383

5.37063e+06 -330670 0
-330670 124192 0
0    0    1.64845e+06

2.26477e+06 -115760 0
-115760 -528253 0
0    0    520954

19893 522302 0
522302 60918 0
0    0    24243.3

2.53096e+06 230257 0
230257 -460104 0
0    0    621256

-15933.5 219865 0
219865 -360378 0
0    0    -112893

-3.0288e+06 -203758 0
-203758 -498793 0
0    0    -1.05828e+06

-2.75482e+06 46766.9 0
46766.9 214673 0
0    0    -762045

9.21662e+06 -132385 0
-132385 443978 0
0    0    2.89818e+06

-2.47053e+06 389578 0
389578 -279230 0
0    0    -824928

-6.16368e+06 214092 0
214092 120206 0
0    0    -1.81304e+06

-9.58388e+06 -144909 0
-144909 383122 0
0    0    -2.76023e+06

-1.94591e+06 -450566 0
-450566 -32875.3 0
0    0    -593637

9.531e+06 319305 0
319305 571651 0
0    0    3.0308e+06

1.07427e+07 472150 0
472150 584784 0
0    0    3.39823e+06

5.30971e+06 486170 0
486170 75714 0
0    0    1.61563e+06

483194 -609559 0
-609559 -625139 0
0    0    -42583.5

5.73883e+06 -442172 0
-442172 -324157 0
0    0    1.6244e+06

-4.61959e+06 43680 0
43680 -863845 0
0    0    -1.64503e+06

1.03169e+07 440714 0
440714 547818 0
0    0    3.25942e+06

-7.66544e+06 -467806 0
-467806 247515 0
0    0    -2.22538e+06

6.10524e+06 -674502 0
-674502 -933415 0
0    0    1.55155e+06

3.94769e+06 537057 0
537057 -47335.1 0
0    0    1.17011e+06

-507284 829361 0
829361 406491 0
0    0    -30238

1.88972e+06 1.13985e+06 0
1.13985e+06 1.31053e+06 0
0    0    960077

-9.88665e+06 186124 0
186124 -605075 0
0    0    -3.14752e+06

-2.30137e+06 -413451 0
-413451 -899790 0
0    0    -960348

-3.06132e+06 -319553 0
-319553 708.796 0
0    0    -918183

-2.21818e+06 346901 0
346901 -244640 0
0    0    -738847

-3.94784e+06 494730 0
494730 -275872 0
0    0    -1.26711e+06

-4.08718e+06 340879 0
340879 -104324 0
0    0    -1.25745e+06

-6.55006e+06 158538 0
158538 147356 0
0    0    -1.92081e+06

-6.2399e+06 -430095 0
-430095 219172 0
0    0    -1.80622e+06

-6.41252e+06 -155176 0
-155176 90025.1 0
0    0    -1.89675e+06

-2.60656e+06 -446281 0
-446281 -948640 0
0    0    -1.06656e+06

4.45329e+06 -310835 0
-310835 -538107 0
0    0    1.17456e+06

817139 783807 0
783807 689821 0
0    0    452088

-6.50212e+06 595768 0
595768 129105 0
0    0    -1.9119e+06

-6.51595e+06 -467058 0
-467058 -237646 0
0    0    -2.02608e+06

-2.13567e+06 440033 0
440033 460102 0
0    0    -502670

5.30294e+06 641610 0
641610 195407 0
0    0    1.6495e+06

-5.96041e+06 -172418 0
-172418 -98309.1 0
0    0    -1.81762e+06

6.86428e+06 410500 0
410500 -187188 0
0    0    2.00313e+06

-3.92648e+06 141614 0
141614 735074 0
0    0    -957422

6.93515e+06 -579553 0
-579553 -430641 0
0    0    1.95135e+06

-2.55229e+06 216580 0
216580 221476 0
0    0    -699245

-1.09933e+07 -15472.4 0
-15472.4 60388.1 0
0    0    -3.27988e+06

-1.00465e+07 54942.5 0
54942.5 9897.01 0
0    0    -3.01099e+06

-6.06627e+06 150889 0
150889 -548554 0
0    0    -1.98445e+06

-7.40293e+06 358341 0
358341 -137597 0
0    0    -2.26216e+06

-6.28855e+06 541323 0
541323 -140188 0
0    0    -1.92862e+06

-4.88044e+06 -407876 0
-407876 -26610.8 0
0    0    -1.47212e+06

-5.63949e+06 -291254 0
-291254 659678 0
0    0    -1.49394e+06

-1.06004e+07 150880 0
150880 -109289 0
0    0    -3.21291e+06

-7.16701e+06 -245908 0
-245908 290996 0
0    0    -2.0628e+06

-783535 89554.7 0
89554.7 -147065 0
0    0    -279180

-4.70576e+06 895261 0
895261 1.35762e+06 0
0    0    -1.00444e+06

6.06666e+06 -209452 0
-209452 105778 0
0    0    1.85173e+06

1.50584e+06 749531 0
749531 338695 0
0    0    553360

-5.95493e+06 610916 0
610916 -129790 0
0    0    -1.82542e+06

-9.99624e+06 273348 0
273348 -21320.3 0
0    0    -3.00527e+06

2.95746e+06 192002 0
192002 562122 0
0    0    1.05587e+06

-7.14003e+06 -314981 0
-314981 265358 0
0    0    -2.0624e+06

-3.67867e+06 693645 0
693645 -433348 0
0    0    -1.23361e+06

-3.49167e+06 -50141 0
-50141 168951 0
0    0    -996817

-6.76463e+06 362822 0
362822 218670 0
0    0    -1.96379e+06

-1.71887e+06 242292 0
242292 569111 0
0    0    -344928

5.62879e+06 -331239 0
-331239 59987.3 0
0    0    1.70663e+06

-3.78041e+06 -609877 0
-609877 -1.04332e+06 0
0    0    -1.44712e+06

305697 901340 0
901340 26711.2 0
0    0    99722.4

3.15698e+06 187737 0
187737 99655.8 0
0    0    976991

2.91393e+06 -539783 0
-539783 404225 0
0    0    995447

1.05248e+07 -312963 0
-312963 -344730 0
0    0    3.05403e+06

2.33178e+06 -553045 0
-553045 -682761 0
0    0    494706

-534180 453778 0
453778 -349888 0
0    0    -265220

1.02378e+07 316801 0
316801 702184 0
0    0    3.28199e+06

1.69203e+06 -465333 0
-465333 497579 0
0    0    656883

5.75108e+06 317165 0
317165 -39059 0
0    0    1.71361e+06

6.29628e+06 -300368 0
-300368 -533402 0
0    0    1.72886e+06

7.22872e+06 547251 0
547251 139917 0
0    0    2.21059e+06

1.02257e+07 518291 0
518291 -335142 0
0    0    2.96718e+06

4.42652e+06 -64105.2 0
-64105.2 -85218 0
0    0    1.30239e+06

-5.91472e+06 -176572 0
-176572 -335298 0
0    0    -1.875e+06

6.73186e+06 39861.6 0
39861.6 513376 0
0    0    2.17357e+06

2.67415e+06 146767 0
146767 -16975 0
0    0    797151

2.81914e+06 858734 0
858734 -294643 0
0    0    757349

1.11845e+07 -19895.8 0
-19895.8 245446 0
0    0    3.42899e+06

1.02836e+07 355755 0
355755 175561 0
0    0    3.13774e+06

2.15934e+06 -247825 0
-247825 48934 0
0    0    662482

-1.48143e+06 662765 0
662765 509163 0
0    0    -291679

7.51046e+06 531223 0
531223 931165 0
0    0    2.53249e+06

6.55264e+06 803782 0
803782 537987 0
0    0    2.12719e+06

895313 -110328 0
-110328 543674 0
0    0    431696

7.20432e+06 -384756 0
-384756 -305197 0
0    0    2.06974e+06

3.60306e+06 -263159 0
-263159 -97370.8 0
0    0    1.05171e+06

1.11453e+07 132469 0
132469 -13679.1 0
0    0    3.33948e+06

3.77718e+06 -237535 0
-237535 -127584 0
0    0    1.09488e+06

-807150 -93093.6 0
-93093.6 -565067 0
0    0    -411665

3.92337e+06 -550874 0
-550874 -575918 0
0    0    1.00424e+06

-1.05683e+07 485467 0
485467 353901 0
0    0    -3.06432e+06

-3.6221e+06 24561.4 0
24561.4 41872.8 0
0    0    -1.07407e+06

-2.1945e+06 114600 0
114600 -272820 0
0    0    -740197

-4.04983e+06 11316.2 0
11316.2 15414.5 0
0    0    -1.21032e+06

-4.34154e+06 330572 0
330572 -238517 0
0    0    -1.37402e+06

-3.58926e+06 82803.3 0
82803.3 155879 0
0    0    -1.03002e+06

1.26754e+06 579478 0
579478 291893 0
0    0    467831

-7.42014e+06 283409 0
283409 -843823 0
0    0    -2.47919e+06

-7.68451e+06 -475596 0
-475596 314557 0
0    0    -2.21099e+06

-1.11317e+07 132755 0
132755 -226283 0
0    0    -3.4074e+06

-7.51107e+06 313762 0
313762 -221429 0
0    0    -2.31975e+06

-6.79503e+06 -168547 0
-168547 -149500 0
0    0    -2.08336e+06

-355347 302958 0
302958 372539 0
0    0    5157.62

-4.13508e+06 382165 0
382165 105356 0
0    0    -1.20892e+06

-7.98613e+06 574795 0
574795 52653.2 0
0    0    -2.38004e+06

-2.82485e+06 10421.4 0
10421.4 -334001 0
0    0    -947656

-1.07243e+07 -371516 0
-371516 317622 0
0    0    -3.12201e+06

-5.70306e+06 -504484 0
-504484 -84234.8 0
0    0    -1.73619e+06

-6.70802e+06 566651 0
566651 -75018.3 0
0    0    -2.03491e+06

-4.19482e+06 -111997 0
-111997 -296663 0
0    0    -1.34744e+06

-5.63211e+06 -72747.8 0
-72747.8 -805353 0
0    0    -1.93124e+06

-7.78244e+06 565023 0
565023 151593 0
0    0    -2.28925e+06

-7.06078e+06 -289683 0
-289683 93627.2 0
0    0    -2.09014e+06

-509327 -693363 0
-693363 102982 0
0    0    -121903

-5.77908e+06 578611 0
578611 -380596 0
0    0    -1.8479e+06

-7.62579e+06 233958 0
233958 619927 0
0    0    -2.10176e+06

-1.1541e+07 -321259 0
-321259 -354428 0
0    0    -3.56863e+06

-6.64166e+06 -600646 0
-600646 495435 0
0    0    -1.84387e+06

-1.09665e+07 422121 0
422121 -453306 0
0    0    -3.42593e+06

7.78465e+06 457853 0
457853 -266406 0
0    0    2.25547e+06

-1.16182e+07 489977 0
489977 -156764 0
0    0    -3.53248e+06

-1.16966e+07 380992 0
380992 -665959 0
0    0    -3.70878e+06

-1.87067e+06 330727 0
330727 103129 0
0    0    -530263

5.74085e+06 65554.6 0
65554.6 216152 0
0    0    1.7871e+06

2.10933e+06 973545 0
973545 153412 0
0    0    678823

7.55301e+06 224929 0
224929 -28146.9 0
0    0    2.25746e+06

-2.14563e+06 -167406 0
-167406 160455 0
0    0    -595554

-6.70841e+06 365031 0
365031 738240 0
0    0    -1.79105e+06

-6.1754e+06 -307402 0
-307402 -136953 0
0    0    -1.89371e+06

-5.79436e+06 120500 0
120500 494382 0
0    0    -1.58999e+06

-4.47369e+06 480936 0
480936 -943584 0
0    0    -1.62518e+06

1.06404e+06 295396 0
295396 -298423 0
0    0    229685

4.78541e+06 553175 0
553175 -52688.5 0
0    0    1.41982e+06

1.69117e+06 -436044 0
-436044 -44751.2 0
0    0    493927

-1.48015e+06 -242442 0
-242442 47453.6 0
0    0    -429809

3.98058e+06 651888 0
651888 152751 0
0    0    1.24e+06

2.52428e+06 789694 0
789694 614647 0
0    0    941677

2.62297e+06 -234537 0
-234537 -334086 0
0    0    686666

-112682 -259162 0
-259162 76677.4 0
0    0    -10801.3

1.12824e+07 -126946 0
-126946 17982.6 0
0    0    3.39011e+06

-4.17344e+06 -508194 0
-508194 375851 0
0    0    -1.13928e+06

8.95973e+06 432550 0
432550 576412 0
0    0    2.86084e+06

6.75572e+06 790126 0
790126 -341119 0
0    0    1.92438e+06

1.14992e+07 112689 0
112689 104094 0
0    0    3.48099e+06

-56692.8 -610880 0
-610880 -89825.4 0
0    0    -43955.5

5.27678e+06 -504083 0
-504083 -369634 0
0    0    1.47214e+06

7.78331e+06 -120618 0
-120618 43468.5 0
0    0    2.34803e+06

1.06704e+07 -120460 0
-120460 -275980 0
0    0    3.11834e+06

6.63932e+06 -635181 0
-635181 -107113 0
0    0    1.95966e+06

8.25365e+06 -440854 0
-440854 -18917.7 0
0    0    2.47042e+06

-1.06579e+07 262943 0
262943 -595435 0
0    0    -3.376e+06

8.40411e+06 -389917 0
-389917 397305 0
0    0    2.64042e+06

5.2014e+06 726621 0
726621 -494803 0
0    0    1.41198e+06

-4.18292e+06 845919 0
845919 -25187.4 0
0    0    -1.26243e+06

2.05275e+06 900694 0
900694 -779120 0
0    0    382090

8.3741e+06 64951.2 0
64951.2 337286 0
0    0    2.61342e+06

8.38855e+06 -260049 0
-260049 375141 0
0    0    2.62911e+06

3.10327e+06 -482002 0
-482002 1.08435e+06 0
0    0    1.25629e+06

851539 -581320 0
-581320 820528 0
0    0    501620

1.97888e+06 -337006 0
-337006 -743074 0
0    0    370742

-6.94466e+06 -320272 0
-320272 -425545 0
0    0    -2.21106e+06

-2.14365e+06 -411438 0
-411438 221562 0
0    0    -576626

-6.38226e+06 851101 0
851101 191126 0
0    0    -1.85734e+06

4.53625e+06 -294468 0
-294468 -96346.6 0
0    0    1.33197e+06

-3.82776e+06 489625 0
489625 -688469 0
0    0    -1.35487e+06

-7.48769e+06 -472649 0
-472649 763224 0
0    0    -2.01734e+06

-1.24795e+07 198473 0
198473 -74299.6 0
0    0    -3.76613e+06

-2.59411e+06 3378.38 0
3378.38 575616 0
0    0    -605547

5.43035e+06 -285806 0
-285806 305461 0
0    0    1.72074e+06

3.56848e+06 871947 0
871947 -56954.2 0
0    0    1.05346e+06

311371 -62683.9 0
-62683.9 321267 0
0    0    189791

-6.19953e+06 493364 0
493364 -85554.1 0
0    0    -1.88552e+06

1.14735e+07 -116343 0
-116343 -141773 0
0    0    3.39951e+06

-1.06713e+07 190886 0
190886 -469989 0
0    0    -3.34237e+06

1.21689e+07 194322 0
194322 129035 0
0    0    3.68938e+06

-4.77203e+06 1.04968e+06 0
1.04968e+06 -197846 0
0    0    -1.49096e+06

-6.72643e+06 98508.3 0
98508.3 150579 0
0    0    -1.97276e+06

1.2533e+06 793721 0
793721 353218 0
0    0    481957

-1.17422e+07 341931 0
341931 -300680 0
0    0    -3.61288e+06

535470 -433710 0
-433710 -462050 0
0    0    22025.9

1.00344e+06 -57812.5 0
-57812.5 120525 0
0    0    337190

-7.49331e+06 468150 0
468150 -463475 0
0    0    -2.38704e+06

-6.47141e+06 305586 0
305586 442231 0
0    0    -1.80875e+06

2.73592e+06 428745 0
428745 -515064 0
0    0    666258

-1.27876e+07 487411 0
487411 -698985 0
0    0    -4.04598e+06

-2.67273e+06 149914 0
149914 -30304.6 0
0    0    -810909

-2.70483e+06 271209 0
271209 176762 0
0    0    -758420

5.10436e+06 13667.7 0
13667.7 424461 0
0    0    1.65865e+06

776804 345918 0
345918 -507567 0
0    0    80771.2

1.13582e+06 380435 0
380435 104279 0
0    0    372029

5.60118e+06 641618 0
641618 508017 0
0    0    1.83276e+06

8.47513e+06 383082 0
383082 15895.4 0
0    0    2.54731e+06

3.48192e+06 -560729 0
-560729 92597.2 0
0    0    1.07236e+06

6.66414e+06 -180883 0
-180883 -1.20706e+06 0
0    0    1.63712e+06

4.64474e+06 644237 0
644237 1424.19 0
0    0    1.39385e+06

7.81712e+06 55198.8 0
55198.8 303645 0
0    0    2.43623e+06

-8.22367e+06 -728004 0
-728004 35983 0
0    0    -2.45631e+06

-7.15239e+06 112271 0
112271 1.06465e+06 0
0    0    -1.82632e+06

5.62845e+06 -35991.2 0
-35991.2 827374 0
0    0    1.93675e+06

8.52734e+06 194857 0
194857 322625 0
0    0    2.65499e+06

7.81936e+06 -38120.1 0
-38120.1 -1.26976e+06 0
0    0    1.96488e+06

-7.5224e+06 -342626 0
-342626 206893 0
0    0    -2.19465e+06

-612372 -127174 0
-127174 6825.59 0
0    0    -181664

1.31154e+07 171661 0
171661 -480177 0
0    0    3.79055e+06

7.75678e+06 77248.8 0
77248.8 -260572 0
0    0    2.24886e+06

4.82866e+06 -48822 0
-48822 633152 0
0    0    1.63854e+06

9.28318e+06 -255159 0
-255159 -190588 0
0    0    2.72778e+06

1.16514e+07 741740 0
741740 570553 0
0    0    3.6666e+06

7.36958e+06 7824.09 0
7824.09 336587 0
0    0    2.31185e+06

7.19526e+06 -270561 0
-270561 -911338 0
0    0    1.88518e+06

-344433 65467.3 0
65467.3 23976.6 0
0    0    -96136.9

2.236e+06 422974 0
422974 5677.99 0
0    0    672503

1.10778e+07 210350 0
210350 111197 0
0    0    3.35669e+06

5.39424e+06 -267558 0
-267558 114851 0
0    0    1.65273e+06

3.37807e+06 67538.4 0
67538.4 569779 0
0    0    1.18436e+06

6.19478e+06 712249 0
712249 457937 0
0    0    1.99582e+06

7.96433e+06 66421.1 0
66421.1 225024 0
0    0    2.45681e+06

1.17292e+07 383030 0
383030 36740.7 0
0    0    3.52979e+06

-2.54434e+06 -78993.6 0
-78993.6 65751 0
0    0    -743576

911330 781167 0
781167 45007.5 0
0    0    286901

-6.33434e+06 -291317 0
-291317 -533531 0
0    0    -2.06036e+06

1.15213e+07 180217 0
180217 -222489 0
0    0    3.38964e+06

-2.85699e+06 -451609 0
-451609 396913 0
0    0    -738025

2.97982e+06 200332 0
200332 454341 0
0    0    1.03025e+06

-1.23217e+07 189160 0
189160 -79195.4 0
0    0    -3.72026e+06

-1.90267e+06 629472 0
629472 287364 0
0    0    -484592

-5.26071e+06 -348807 0
-348807 58961.5 0
0    0    -1.56052e+06

-6.7024e+06 58441.6 0
58441.6 387282 0
0    0    -1.89453e+06

-4.12578e+06 -312307 0
-312307 245279 0
0    0    -1.16415e+06

-7.69848e+06 -651664 0
-651664 693067 0
0    0    -2.10162e+06

-5.73111e+06 -347537 0
-347537 72989.5 0
0    0    -1.69744e+06

-7.82767e+06 245351 0
245351 553940 0
0    0    -2.18212e+06

2.37716e+06 -709392 0
-709392 -372529 0
0    0    601390

2.22221e+06 1.17287e+06 0
1.17287e+06 1.20299e+06 0
0    0    1.02756e+06

-1.17363e+07 120676 0
120676 -163514 0
0    0    -3.56994e+06

-1.13857e+07 241524 0
241524 -304618 0
0    0    -3.50709e+06

-2.06199e+06 -303682 0
-303682 -280524 0
0    0    -702754

2.34549e+06 308792 0
308792 388470 0
0    0    820187

1.148e+07 -227072 0
-227072 -240167 0
0    0    3.37196e+06

-1.65487e+06 524917 0
524917 -1.13846e+06 0
0    0    -838001

6.85665e+06 -631189 0
-631189 -858827 0
0    0    1.79935e+06

5.45454e+06 -189877 0
-189877 212819 0
0    0    1.70021e+06

5.65656e+06 -300749 0
-300749 184576 0
0    0    1.75234e+06

-1.47489e+06 255160 0
255160 -420880 0
0    0    -568730

-1.71939e+06 -270768 0
-270768 91212.1 0
0    0    -488453

5.69795e+06 871708 0
871708 768781 0
0    0    1.94002e+06

1.25245e+07 -2368.52 0
-2368.52 81395.6 0
0    0    3.78177e+06

9.39312e+06 -16629.9 0
-16629.9 137997 0
0    0    2.85933e+06

-4.84246e+06 -589602 0
-589602 -361895 0
0    0    -1.56131e+06

-7.71709e+06 -291860 0
-291860 363041 0
0    0    -2.20621e+06

3.20401e+06 361456 0
361456 72732 0
0    0    983023

-450030 265265 0
265265 -232712 0
0    0    -204823

-957073 -860136 0
-860136 -513773 0
0    0    -441254

2.3947e+06 -66648.2 0
-66648.2 237714 0
0    0    789723

-7.37713e+06 547230 0
547230 -165533 0
0    0    -2.2628e+06

-4.53863e+06 339917 0
339917 331576 0
0    0    -1.26212e+06

-6.16625e+06 670464 0
670464 -181484 0
0    0    -1.90432e+06

-3.51281e+06 411167 0
411167 -111731 0
0    0    -1.08736e+06

-8.3655e+06 -561266 0
-561266 730844 0
0    0    -2.2904e+06

-8.72035e+06 -379380 0
-379380 180675 0
0    0    -2.5619e+06

-1.19448e+07 -64635.4 0
-64635.4 -203655 0
0    0    -3.64455e+06

-8.61979e+06 419560 0
419560 -660950 0
0    0    -2.78422e+06

-4.8211e+06 159945 0
159945 -515373 0
0    0    -1.60094e+06

-1.29481e+07 27976.8 0
27976.8 185807 0
0    0    -3.82867e+06

-8.64925e+06 398777 0
398777 41671.2 0
0    0    -2.58227e+06

-4.0477e+06 -352344 0
-352344 938448 0
0    0    -932777

-3.5969e+06 222797 0
222797 -149441 0
0    0    -1.1239e+06

-7.86291e+06 3069.42 0
3069.42 456989 0
0    0    -2.22178e+06

-2.16551e+06 367928 0
367928 -661670 0
0    0    -848152

-4.99642e+06 58472.5 0
58472.5 239924 0
0    0    -1.42695e+06

1.06236e+06 -510430 0
-510430 -317107 0
0    0    223575

523052 453262 0
453262 -497202 0
0    0    7755.14

7.52479e+06 554948 0
554948 -43184.1 0
0    0    2.24448e+06

1.06001e+07 156804 0
156804 36449.3 0
0    0    3.19096e+06

4.24562e+06 -190395 0
-190395 -468051 0
0    0    1.13327e+06

7.21425e+06 -172871 0
-172871 -295911 0
0    0    2.0755e+06

-3.34977e+06 526932 0
526932 184615 0
0    0    -949546

-2.08469e+06 915217 0
915217 -219531 0
0    0    -691266

4.08446e+06 600057 0
600057 286467 0
0    0    1.31128e+06

-1.76669e+06 607220 0
607220 -160140 0
0    0    -578048

3.59508e+06 -410727 0
-410727 -15975.9 0
0    0    1.07373e+06

7.54443e+06 267757 0
267757 -119943 0
0    0    2.22734e+06

4.4244e+06 -488638 0
-488638 -261346 0
0    0    1.24892e+06

7.15662e+06 530958 0
530958 342555 0
0    0    2.24975e+06

1.1088e+07 -73403.9 0
-73403.9 49306.6 0
0    0    3.34118e+06

2.66173e+06 727300 0
727300 -375898 0
0    0    685749

7.79238e+06 226985 0
226985 -87511.2 0
0    0    2.31146e+06

1.20743e+07 196724 0
196724 408554 0
0    0    3.74486e+06

1.29613e+07 -146060 0
-146060 -242791 0
0    0    3.81557e+06

2.32533e+06 730460 0
730460 -138387 0
0    0    656081

5.05766e+06 472845 0
472845 -279709 0
0    0    1.43339e+06

2.74937e+06 1242.16 0
1242.16 213507 0
0    0    888863

9.3634e+06 207310 0
207310 39878.5 0
0    0    2.82098e+06

9.15272e+06 -366427 0
-366427 603559 0
0    0    2.92688e+06

9.30471e+06 193477 0
193477 119624 0
0    0    2.8273e+06

8.73903e+06 -727568 0
-727568 554678 0
0    0    2.78811e+06

5.70634e+06 812858 0
812858 -345348 0
0    0    1.6083e+06

7.80249e+06 -456518 0
-456518 296447 0
0    0    2.42968e+06

2.6571e+06 -453696 0
-453696 -1.36056e+06 0
0    0    388961

-2.65014e+06 -258389 0
-258389 171550 0
0    0    -743578

5.62278e+06 -179188 0
-179188 704311 0
0    0    1.89813e+06

1.21631e+07 289688 0
289688 -54608.9 0
0    0    3.63255e+06

5.51788e+06 1.12864e+06 0
1.12864e+06 841827 0
0    0    1.90791e+06

-2.19813e+06 -551073 0
-551073 -1.04525e+06 0
0    0    -973015

-1.7531e+06 302622 0
302622 -517089 0
0    0    -681057

5.47968e+06 333752 0
333752 812108 0
0    0    1.88754e+06

1.31352e+07 -55344.6 0
-55344.6 -140370 0
0    0    3.89846e+06

8.59215e+06 443613 0
443613 313386 0
0    0    2.67166e+06

8.96596e+06 -286471 0
-286471 -319473 0
0    0    2.59395e+06

1.22717e+06 413059 0
413059 183605 0
0    0    423233

5.06937e+06 64411.5 0
64411.5 -278046 0
0    0    1.4374e+06

-8.25366e+06 -571371 0
-571371 -574615 0
0    0    -2.64848e+06

1.31368e+07 -287013 0
-287013 466534 0
0    0    4.081e+06

-2.85825e+06 353234 0
353234 -673151 0
0    0    -1.05942e+06

4.93143e+06 484156 0
484156 56860.4 0
0    0    1.49649e+06

-411545 50719.9 0
50719.9 -185710 0
0    0    -179177

1.27379e+06 130035 0
130035 567194 0
0    0    552295

1.29741e+07 188.132 0
188.132 -57051.1 0
0    0    3.87513e+06

9.19569e+06 491737 0
491737 381914 0
0    0    2.87328e+06

-1.28385e+07 -78215.3 0
-78215.3 -322653 0
0    0    -3.94835e+06

3.91494e+06 1.05794e+06 0
1.05794e+06 -314209 0
0    0    1.08022e+06

812313 -117079 0
-117079 -358711 0
0    0    136080

4.32569e+06 166573 0
166573 -558073 0
0    0    1.13029e+06

-4.09114e+06 6841.98 0
6841.98 78098 0
0    0    -1.20391e+06

4.34131e+06 -186174 0
-186174 -95626.4 0
0    0    1.2737e+06

8.89434e+06 95647.3 0
95647.3 -25319.6 0
0    0    2.66071e+06

3.269e+06 538.241 0
538.241 -498442 0
0    0    831166

-6.7075e+06 -518290 0
-518290 -454523 0
0    0    -2.14861e+06

-4.8876e+06 670552 0
670552 323496 0
0    0    -1.36923e+06

-1.25455e+07 -189499 0
-189499 -568035 0
0    0    -3.93405e+06

-7.10089e+06 157215 0
157215 422945 0
0    0    -2.00338e+06

876454 12420.2 0
12420.2 255994 0
0    0    339734

-2.6695e+06 -310752 0
-310752 512984 0
0    0    -646954

-1.28337e+07 -107386 0
-107386 603.014 0
0    0    -3.84993e+06

-7.29222e+06 396667 0
396667 -194888 0
0    0    -2.24613e+06

-1.25663e+07 27083.8 0
27083.8 -416835 0
0    0    -3.89494e+06

-3.43436e+06 184754 0
184754 236308 0
0    0    -959414

-7.78327e+06 295332 0
295332 -224308 0
0    0    -2.40227e+06

3.14793e+06 786955 0
786955 991840 0
0    0    1.24193e+06

-7.65863e+06 -115192 0
-115192 175886 0
0    0    -2.24482e+06

-2.09178e+06 398999 0
398999 245304 0
0    0    -553943

-7.64841e+06 350933 0
350933 422397 0
0    0    -2.1678e+06

-7.67356e+06 722554 0
722554 791844 0
0    0    -2.06452e+06

-1.28505e+07 51743 0
51743 -459382 0
0    0    -3.99296e+06

7.34656e+06 181653 0
181653 -724180 0
0    0    1.98671e+06

-9.06867e+06 -512370 0
-512370 85299.8 0
0    0    -2.69501e+06

1.01264e+06 -96102.1 0
-96102.1 -402914 0
0    0    182916

8.03083e+06 258116 0
258116 991150 0
0    0    2.70659e+06

1.22594e+07 -114833 0
-114833 364611 0
0    0    3.78722e+06

6.3626e+06 1.06364e+06 0
1.06364e+06 -459438 0
0    0    1.77095e+06

9.3189e+06 717072 0
717072 -895625 0
0    0    2.52698e+06

9.79991e+06 339675 0
339675 741344 0
0    0    3.16238e+06

-2.06732e+06 -1.0335e+06 0
-1.0335e+06 -907435 0
0    0    -892425

8.13599e+06 -289502 0
-289502 -508648 0
0    0    2.2882e+06

5.44857e+06 541335 0
541335 859956 0
0    0    1.89256e+06

8.48971e+06 -47850.4 0
-47850.4 218701 0
0    0    2.61252e+06

1.48799e+06 900890 0
900890 -59622.5 0
0    0    428510

-1.27066e+07 364999 0
364999 -523012 0
0    0    -3.96888e+06

-1.6854e+06 222382 0
222382 -356333 0
0    0    -612520

-9.00324e+06 -357822 0
-357822 176576 0
0    0    -2.648e+06

-4.75133e+06 842962 0
842962 120716 0
0    0    -1.38918e+06

-9.07042e+06 27277 0
27277 -245068 0
0    0    -2.79465e+06

-8.07965e+06 -251989 0
-251989 408934 0
0    0    -2.30122e+06

-4.30978e+06 -364372 0
-364372 -6381.83 0
0    0    -1.29485e+06

-8.48325e+06 854768 0
854768 411552 0
0    0    -2.42151e+06

-8.19036e+06 273352 0
273352 -278473 0
0    0    -2.54065e+06

6.50429e+06 740793 0
740793 -144846 0
0    0    1.90783e+06

1.27102e+07 183061 0
183061 -107661 0
0    0    3.78077e+06

9.57615e+06 -827210 0
-827210 348894 0
0    0    2.97751e+06

-282870 791384 0
791384 1.4881e+06 0
0    0    361569

-2.95649e+06 -646534 0
-646534 676448 0
0    0    -684013

-6.06013e+06 718414 0
718414 758446 0
0    0    -1.59051e+06

-1.60049e+06 -649948 0
-649948 -804059 0
0    0    -721366

-9.72233e+06 116301 0
116301 -288022 0
0    0    -3.00311e+06

-1.42331e+07 42979.5 0
42979.5 470266 0
0    0    -4.12885e+06

-5.14986e+06 303364 0
303364 -200905 0
0    0    -1.60523e+06

-8.93764e+06 -733309 0
-733309 317200 0
0    0    -2.58613e+06

-1.34233e+07 104817 0
104817 558684 0
0    0    -3.85939e+06

505314 193013 0
193013 -548147 0
0    0    -12849.8

5.6415e+06 -273780 0
-273780 -779681 0
0    0    1.45854e+06

2.06514e+06 -782715 0
-782715 -145014 0
0    0    576038

302027 728952 0
728952 533373 0
0    0    250620

-9.66551e+06 -402981 0
-402981 131659 0
0    0    -2.86016e+06

5.54046e+06 -726555 0
-726555 253201 0
0    0    1.7381e+06

-8.5629e+06 43946.2 0
43946.2 -802141 0
0    0    -2.80951e+06

1.45998e+07 119075 0
119075 -442816 0
0    0    4.24708e+06

8.58133e+06 170167 0
170167 -1.10684e+06 0
0    0    2.24235e+06

2.16052e+06 -120093 0
-120093 -588576 0
0    0    471584

1.39565e+07 368440 0
368440 808806 0
0    0    4.42958e+06

7.6536e+06 -633743 0
-633743 1.05866e+06 0
0    0    2.61368e+06

-1.8122e+06 780006 0
780006 -103356 0
0    0    -574666

2.57262e+06 39252.7 0
39252.7 -72252.8 0
0    0    750110

2.38525e+06 1.00547e+06 0
1.00547e+06 -1.00608e+06 0
0    0    413750

9.99672e+06 -262846 0
-262846 102599 0
0    0    3.02979e+06

2.56383e+06 -255703 0
-255703 -370563 0
0    0    657981

1.32751e+07 -127390 0
-127390 431099 0
0    0    4.11185e+06

5.22061e+06 -792839 0
-792839 -830248 0
0    0    1.31711e+06

8.07543e+06 451774 0
451774 228084 0
0    0    2.49105e+06

8.62332e+06 1.32454e+06 0
1.32454e+06 628056 0
0    0    2.77541e+06

-3.69567e+06 969689 0
969689 1.04747e+06 0
0    0    -794457

-8.44841e+06 349336 0
349336 65027.2 0
0    0    -2.51501e+06

-1.39004e+06 613567 0
613567 79129.9 0
0    0    -393274

1.26786e+07 513270 0
513270 1.02542e+06 0
0    0    4.11121e+06

-1.98554e+06 -601387 0
-601387 -747294 0
0    0    -819850

2.29189e+06 -691268 0
-691268 571004 0
0    0    858867

3.08453e+06 -612840 0
-612840 -792993 0
0    0    687462

-4.00238e+06 457162 0
457162 -88259.5 0
0    0    -1.22719e+06

1.20215e+06 -579791 0
-579791 1.08061e+06 0
0    0    684828

8.20142e+06 -460710 0
-460710 -344079 0
0    0    2.3572e+06

6.14898e+06 287217 0
287217 856437 0
0    0    2.10163e+06

-5.75224e+06 -7585.19 0
-7585.19 -145291 0
0    0    -1.76926e+06

1.32608e+07 648542 0
648542 -590310 0
0    0    3.80114e+06

1.12129e+06 1.24198e+06 0
1.24198e+06 -507376 0
0    0    184174

2.20088e+06 1.07338e+06 0
1.07338e+06 961780 0
0    0    948797

2.75491e+06 -228901 0
-228901 340467 0
0    0    928613

4.26594e+06 1.11009e+06 0
1.11009e+06 -800755 0
0    0    1.03956e+06

-4.57477e+06 -569803 0
-569803 671168 0
0    0    -1.17108e+06

7.9462e+06 -479609 0
-479609 -1.00276e+06 0
0    0    2.08303e+06

-4.47069e+06 871682 0
871682 219177 0
0    0    -1.27546e+06

-384467 492146 0
492146 22667.1 0
0    0    -108540

1.34514e+07 -468130 0
-468130 -547814 0
0    0    3.87108e+06

-3.47108e+06 795310 0
795310 763534 0
0    0    -812264

-1.34593e+06 734585 0
734585 -484365 0
0    0    -549089

-1.32843e+07 -231788 0
-231788 -508952 0
0    0    -4.13796e+06

-1.40305e+07 -14903.2 0
-14903.2 -420632 0
0    0    -4.33534e+06

-8.71719e+06 -102913 0
-102913 21154.8 0
0    0    -2.60881e+06

-8.55938e+06 99120.8 0
99120.8 -10456.8 0
0    0    -2.57095e+06

-1.32599e+07 -360606 0
-360606 -552942 0
0    0    -4.14385e+06

-1.33068e+06 -703692 0
-703692 84384.4 0
0    0    -373889

-1.44077e+07 64485.8 0
64485.8 65778.1 0
0    0    -4.30256e+06

-5.02288e+06 -404384 0
-404384 417969 0
0    0    -1.38147e+06

-3.9143e+06 144207 0
144207 140834 0
0    0    -1.13204e+06

-8.75943e+06 -109360 0
-109360 -83967.3 0
0    0    -2.65302e+06

-4.49476e+06 292012 0
292012 -211094 0
0    0    -1.41175e+06

-1.32885e+07 234617 0
234617 -276042 0
0    0    -4.06936e+06

1.48804e+07 -286443 0
-286443 167353 0
0    0    4.51432e+06

-8.81601e+06 669492 0
669492 -132747 0
0    0    -2.68463e+06

-5.06688e+06 994504 0
994504 -358350 0
0    0    -1.62757e+06

-9.58326e+06 -404110 0
-404110 560672 0
0    0    -2.70678e+06

-9.53762e+06 -124133 0
-124133 10664.4 0
0    0    -2.85809e+06

8.26213e+06 -54777 0
-54777 106334 0
0    0    2.51054e+06

8.0299e+06 494093 0
494093 -383039 0
0    0    2.29406e+06

1.54433e+06 -628594 0
-628594 -824948 0
0    0    215816

8.06727e+06 -64940.8 0
-64940.8 894277 0
0    0    2.68846e+06

4.59214e+06 -711678 0
-711678 476446 0
0    0    1.52058e+06

6.2439e+06 977918 0
977918 -192698 0
0    0    1.81536e+06

8.97821e+06 253645 0
253645 -729619 0
0    0    2.47458e+06

-8.48699e+06 708535 0
708535 -14867 0
0    0    -2.55056e+06

5.05754e+06 596922 0
596922 550502 0
0    0    1.68241e+06

-2.62236e+06 161026 0
161026 -1.00753e+06 0
0    0    -1.08897e+06

1.4326e+07 -13505.2 0
-13505.2 187617 0
0    0    4.35409e+06

6.05349e+06 879098 0
879098 163071 0
0    0    1.86497e+06

8.4728e+06 833131 0
833131 -1.20441e+06 0
0    0    2.18052e+06

1.48702e+07 -363481 0
-363481 335236 0
0    0    4.56163e+06

9.42093e+06 119652 0
119652 129375 0
0    0    2.86509e+06

3.55678e+06 223807 0
223807 -529277 0
0    0    908249

6.30951e+06 -907434 0
-907434 122206 0
0    0    1.92951e+06

2.13199e+06 417913 0
417913 -1.13664e+06 0
0    0    298607

-2.29322e+06 93042.5 0
93042.5 -268424 0
0    0    -768493

-1.32901e+07 -122172 0
-122172 -94060.5 0
0    0    -4.01525e+06

-8.37958e+06 255916 0
255916 893808 0
0    0    -2.24573e+06

2.92615e+06 -281126 0
-281126 542841 0
0    0    1.0407e+06

2.83962e+06 531608 0
531608 403492 0
0    0    972935

-3.31518e+06 199098 0
199098 42666.8 0
0    0    -981753

-5.52725e+06 -37579 0
-37579 385698 0
0    0    -1.54247e+06

-9.76479e+06 321270 0
321270 -598869 0
0    0    -3.1091e+06

-1.00384e+07 57738.6 0
57738.6 -381156 0
0    0    -3.12588e+06

-5.64972e+06 199645 0
199645 336131 0
0    0    -1.59408e+06

-4.21328e+06 165312 0
165312 -290665 0
0    0    -1.35118e+06

-1.45206e+07 80704.6 0
80704.6 -106348 0
0    0    -4.38807e+06

-8.89726e+06 -233731 0
-233731 -29216.5 0
0    0    -2.67794e+06

-9.68866e+06 503897 0
503897 577827 0
0    0    -2.73325e+06

8.1496e+06 -713326 0
-713326 1.275e+06 0
0    0    2.82738e+06

-3.30364e+06 -741049 0
-741049 334039 0
0    0    -890881

-9.45516e+06 746164 0
746164 288286 0
0    0    -2.75006e+06

-6.31983e+06 -685918 0
-685918 426961 0
0    0    -1.76786e+06

-2.75223e+06 977069 0
977069 922902 0
0    0    -548799

-1.40012e+07 -532688 0
-532688 -613037 0
0    0    -4.38427e+06

-1.87817e+06 779150 0
779150 -571695 0
0    0    -734959

-250141 -1.30899e+06 0
-1.30899e+06 986359 0
0    0    220866

-1.51579e+07 114246 0
114246 123924 0
0    0    -4.51019e+06

-6.30206e+06 -363877 0
-363877 -183603 0
0    0    -1.9457e+06

-1.37516e+07 368050 0
368050 -1.0934e+06 0
0    0    -4.45351e+06

1.02646e+07 539378 0
539378 -814434 0
0    0    2.83505e+06

7.36946e+06 -433307 0
-433307 984145 0
0    0    2.50608e+06

1.00589e+07 -365181 0
-365181 489515 0
0    0    3.16454e+06

-2.7783e+06 -143754 0
-143754 -1.09467e+06 0
0    0    -1.16189e+06

4.52123e+06 170128 0
170128 -311127 0
0    0    1.26303e+06

9.71973e+06 24954.2 0
24954.2 866591 0
0    0    3.1759e+06

9.35068e+06 -441299 0
-441299 128271 0
0    0    2.84369e+06

-5.86727e+06 627420 0
627420 -490470 0
0    0    -1.90732e+06

9.87553e+06 591492 0
591492 353205 0
0    0    3.06862e+06

1.41779e+07 598030 0
598030 571942 0
0    0    4.42497e+06

-5.69822e+06 -317132 0
-317132 -1.09946e+06 0
0    0    -2.0393e+06

2.31213e+06 -99304 0
-99304 962690 0
0    0    982445

8.66504e+06 -395121 0
-395121 715844 0
0    0    2.81426e+06

4.18378e+06 -82456.4 0
-82456.4 1.06254e+06 0
0    0    1.5739e+06

460589 242358 0
242358 256100 0
0    0    215006

8.27486e+06 -39507.5 0
-39507.5 192209 0
0    0    2.54012e+06

4.84363e+06 -407698 0
-407698 84682.3 0
0    0    1.47849e+06

9.57974e+06 182495 0
182495 -933162 0
0    0    2.59397e+06

5.61726e+06 -580968 0
-580968 -328509 0
0    0    1.58663e+06

8.85699e+06 533117 0
533117 240699 0
0    0    2.72931e+06

-1.48055e+07 367688 0
367688 818078 0
0    0    -4.19623e+06

3.1538e+06 -72588.3 0
-72588.3 132448 0
0    0    985874

511362 -50299.3 0
-50299.3 392856 0
0    0    271265

-2.20142e+06 242195 0
242195 307032 0
0    0    -568316

-1.01611e+07 51850.1 0
51850.1 -684390 0
0    0    -3.25365e+06

-4.49514e+06 -361309 0
-361309 -831162 0
0    0    -1.59789e+06

-5.87714e+06 745094 0
745094 -63331 0
0    0    -1.78214e+06

-9.65097e+06 -304446 0
-304446 270123 0
0    0    -2.81425e+06

8.22119e+06 -313113 0
-313113 187759 0
0    0    2.52269e+06

6.3188e+06 594219 0
594219 -445740 0
0    0    1.76192e+06

2.06284e+06 -503760 0
-503760 86818.8 0
0    0    644897

1.88563e+06 -176500 0
-176500 383924 0
0    0    680865

2.81869e+06 170410 0
170410 -635246 0
0    0    655034

2.8116e+06 -42416 0
-42416 411125 0
0    0    966817

9.87223e+06 -769342 0
-769342 -605488 0
0    0    2.78002e+06

1.35725e+07 571135 0
571135 665506 0
0    0    4.27141e+06

6.70424e+06 -801309 0
-801309 880993 0
0    0    2.27557e+06

1.43283e+07 -289367 0
-289367 -225014 0
0    0    4.23098e+06

9.238e+06 -293921 0
-293921 615668 0
0    0    2.9561e+06

1.33153e+07 22546.7 0
22546.7 364759 0
0    0    4.104e+06

9.84474e+06 1.18558e+06 0
1.18558e+06 -293470 0
0    0    2.86538e+06

1.41282e+07 479789 0
479789 -407478 0
0    0    4.11623e+06

2.51363e+06 -258509 0
-258509 -351777 0
0    0    648557

2.4832e+06 76163.1 0
76163.1 1.06423e+06 0
0    0    1.06423e+06

-7.99136e+06 581002 0
581002 724066 0
0    0    -2.18019e+06

8.24805e+06 815655 0
815655 3.53488e+06 0
0    0    3.53488e+06

1.68099e+07 2.53818e+06 0
2.53818e+06 7.20425e+06 0
0    0    7.20425e+06

-3.78424e+06 -92638.3 0
-92638.3 -200466 0
0    0    -1.19541e+06

-1.26436e+07 191791 0
191791 -52571 0
0    0    -3.80884e+06

2.54691e+06 459580 0
459580 -72044.7 0
0    0    742458

-1.30026e+07 -8048.3 0
-8048.3 -278976 0
0    0    -3.98447e+06

-7.62775e+06 1.03684e+06 0
1.03684e+06 370287 0
0    0    -2.17724e+06

-5.6334e+06 -627522 0
-627522 -766142 0
0    0    -1.91986e+06

-7.91463e+06 -9654.71 0
-9654.71 530997 0
0    0    -2.21509e+06

1.4626e+06 -491376 0
-491376 291534 0
0    0    526240

-8.33951e+06 -617187 0
-617187 65246.8 0
0    0    -2.48228e+06

-3.63329e+06 237406 0
237406 182532 0
0    0    -1.03523e+06

-8.14087e+06 524649 0
524649 751066 0
0    0    -2.21694e+06

-8.4893e+06 -368506 0
-368506 -113634 0
0    0    -2.58088e+06

-1.57615e+06 160944 0
160944 216155 0
0    0    -407997

-3.75036e+06 -763422 0
-763422 -214339 0
0    0    -1.18941e+06

-6.04375e+06 836630 0
836630 136074 0
0    0    -1.7723e+06

-9.76184e+06 492977 0
492977 185685 0
0    0    -2.87285e+06

-1.49743e+07 2.1193e+06 0
2.1193e+06 -6.41757e+06 0
0    0    -6.41757e+06

-1.55639e+06 -549973 0
-549973 -899940 0
0    0    -736898

-2.60655e+06 -237649 0
-237649 -669425 0
0    0    -982791

-3.08606e+06 608234 0
608234 -143763 0
0    0    -968948

-2.38004e+06 -197912 0
-197912 -250296 0
0    0    -789100

-5.56781e+06 -673930 0
-673930 -67092.4 0
0    0    -1.69047e+06

-6.95511e+06 137587 0
137587 -347354 0
0    0    -2.19074e+06

-6.63085e+06 64633.4 0
64633.4 375120 0
0    0    -1.87672e+06

-5.91093e+06 322583 0
322583 -2.53326e+06 0
0    0    -2.53326e+06

-9.99638e+06 864834 0
864834 523446 0
0    0    -2.84188e+06

-1.41507e+07 404540 0
404540 -1.9478e+06 0
0    0    -4.82955e+06

-7.37247e+06 -243563 0
-243563 -458537 0
0    0    -2.3493e+06

-1.39455e+07 862870 0
862870 -2.91245e+06 0
0    0    -5.05738e+06

-6.88854e+06 676837 0
676837 884566 0
0    0    -1.80119e+06

