# vtk DataFile Version 3.0
2D scalar data
ASCII
DATASET UNSTRUCTURED_GRID
POINTS 201 float
0.000000 0.000000 0
4000.000000 0.000000 0
4000.000000 200.000000 0
0.000000 200.000000 0
2048.000000 0.000000 0
2000.000000 200.000000 0
3000.000000 200.000000 0
1024.000000 0.000000 0
2500.000000 200.000000 0
3024.000000 0.000000 0
1000.000000 200.000000 0
1536.000000 0.000000 0
2536.000000 0.000000 0
1500.000000 200.000000 0
2250.000000 200.000000 0
2292.000000 0.000000 0
3500.000000 200.000000 0
3512.000000 0.000000 0
512.000000 200.000000 0
512.000000 0.000000 0
1792.000000 0.000000 0
1750.000000 200.000000 0
2750.000000 200.000000 0
2780.000000 0.000000 0
1250.000000 200.000000 0
1280.000000 0.000000 0
2125.000000 200.000000 0
2062.500000 109.240000 0
2062.500000 200.000000 0
1920.000000 0.000000 0
2170.000000 0.000000 0
1984.000000 64.077387 0
1875.000000 200.000000 0
1886.446550 97.512974 0
1954.307268 136.475657 0
1812.500000 200.000000 0
1781.250000 102.152500 0
1856.000000 0.000000 0
1664.000000 0.000000 0
1625.000000 200.000000 0
1835.563344 138.720178 0
1832.133916 60.961387 0
1728.000000 0.000000 0
1687.500000 126.125114 0
1581.293042 99.647097 0
1722.527810 67.807856 0
2187.500000 109.000000 0
2109.000000 0.000000 0
1562.500000 200.000000 0
1408.000000 0.000000 0
1600.000000 0.000000 0
1645.408415 68.715890 0
2187.500000 200.000000 0
2125.045981 133.068669 0
2231.000000 0.000000 0
2291.755728 104.358703 0
2237.812377 65.898747 0
2414.000000 0.000000 0
2375.000000 200.000000 0
2353.000000 0.000000 0
2312.500000 200.000000 0
1472.000000 89.207380 0
1375.000000 200.000000 0
2475.000000 92.260000 0
1472.000000 0.000000 0
1529.648048 63.004354 0
1522.740575 135.318450 0
1344.000000 92.162500 0
1437.500000 200.000000 0
2475.000000 0.000000 0
2437.500000 200.000000 0
2384.024149 108.097838 0
1344.000000 0.000000 0
1407.474849 67.938191 0
1312.500000 200.000000 0
1239.798554 96.219783 0
1293.524763 135.937794 0
1125.000000 200.000000 0
1152.000000 0.000000 0
1187.500000 200.000000 0
1216.000000 0.000000 0
1062.500000 106.060000 0
1062.500000 200.000000 0
768.000000 0.000000 0
756.000000 200.000000 0
1088.000000 0.000000 0
1151.882632 114.353297 0
896.000000 0.000000 0
960.000000 83.249923 0
960.000000 0.000000 0
1002.513977 133.911398 0
878.000000 200.000000 0
855.727941 97.185515 0
914.292485 138.318615 0
817.000000 200.000000 0
832.000000 0.000000 0
755.356327 99.601380 0
806.479448 137.335919 0
634.000000 200.000000 0
640.000000 0.000000 0
695.000000 200.000000 0
704.000000 0.000000 0
573.000000 100.000000 0
573.000000 200.000000 0
256.000000 0.000000 0
256.000000 200.000000 0
576.000000 0.000000 0
664.153741 88.628006 0
384.000000 200.000000 0
384.000000 0.000000 0
460.532787 100.000000 0
320.000000 100.000000 0
516.766393 65.697500 0
516.766393 134.302500 0
448.000000 200.000000 0
448.000000 0.000000 0
320.000000 200.000000 0
209.875000 100.000000 0
320.000000 0.000000 0
390.266393 74.490492 0
264.937500 64.760000 0
264.937500 135.240000 0
128.000000 200.000000 0
128.000000 0.000000 0
0.000000 72.000000 0
192.000000 200.000000 0
192.000000 0.000000 0
64.000000 136.000000 0
64.000000 0.000000 0
138.731314 125.268686 0
92.371451 68.000000 0
3250.000000 200.000000 0
3268.000000 0.000000 0
3750.000000 200.000000 0
3756.000000 0.000000 0
2625.000000 200.000000 0
2562.500000 128.726993 0
2536.917300 66.902331 0
2658.000000 0.000000 0
2663.086371 103.561751 0
2597.000000 0.000000 0
2605.095693 67.700742 0
2719.000000 0.000000 0
2687.500000 200.000000 0
2764.141473 99.871221 0
2712.207581 63.207663 0
2902.000000 0.000000 0
2875.000000 200.000000 0
2841.000000 0.000000 0
2871.500000 97.705000 0
2812.500000 200.000000 0
2963.000000 72.655018 0
2817.060009 61.086211 0
2818.558101 135.332073 0
3125.000000 200.000000 0
3071.276830 101.627701 0
2937.500000 200.000000 0
2930.150815 132.302778 0
3146.000000 0.000000 0
3062.500000 200.000000 0
3005.872003 129.246240 0
3187.500000 105.460000 0
3085.000000 0.000000 0
3187.500000 200.000000 0
3128.374226 134.301442 0
3207.000000 0.000000 0
3293.777044 103.129934 0
3241.372539 137.774334 0
3239.708112 61.857897 0
3390.000000 0.000000 0
3375.000000 200.000000 0
3329.000000 0.000000 0
3312.500000 200.000000 0
3451.000000 96.700000 0
3451.000000 0.000000 0
3625.000000 200.000000 0
3437.500000 200.000000 0
3373.170960 119.046931 0
3562.500000 107.081849 0
3634.000000 0.000000 0
3562.500000 200.000000 0
3503.668261 134.988482 0
3510.057866 66.364786 0
3687.500000 102.610000 0
3687.500000 200.000000 0
3625.966808 131.870772 0
3695.000000 0.000000 0
3796.654765 101.309643 0
3742.483782 136.073853 0
3741.632052 64.577786 0
3878.000000 0.000000 0
3875.000000 200.000000 0
4000.000000 128.000000 0
3817.000000 0.000000 0
3812.500000 200.000000 0
3899.207463 100.340612 0
3848.308338 140.746828 0
3847.534491 58.850484 0
3939.000000 0.000000 0
3936.000000 200.000000 0
4000.000000 64.000000 0

CELLS 275 1100
3 27 28 5
3 155 159 160
3 96 83 95
3 181 178 180
3 126 104 120
3 27 31 4
3 22 144 153
3 8 63 136
3 72 49 73
3 78 80 86
3 55 14 46
3 20 36 45
3 47 46 53
3 71 58 60
3 194 188 187
3 172 167 166
3 112 110 115
3 7 81 88
3 33 29 31
3 45 51 38
3 139 135 136
3 151 157 149
3 75 25 67
3 50 65 11
3 34 33 31
3 26 53 52
3 55 46 56
3 5 34 27
3 53 28 27
3 29 4 31
3 47 30 46
3 40 36 41
3 36 35 21
3 32 33 34
3 37 29 33
3 27 34 31
3 32 34 5
3 64 11 65
3 32 35 40
3 20 37 41
3 21 43 36
3 41 37 33
3 43 21 39
3 32 40 33
3 35 36 40
3 40 41 33
3 20 41 36
3 44 43 39
3 42 20 45
3 45 38 42
3 66 48 13
3 51 50 38
3 36 43 45
3 45 43 51
3 53 26 28
3 56 15 55
3 43 44 51
3 27 4 47
3 44 39 48
3 68 62 73
3 65 50 44
3 50 51 44
3 47 53 27
3 46 14 52
3 52 53 46
3 69 12 137
3 30 54 56
3 60 14 55
3 30 56 46
3 15 56 54
3 66 61 65
3 57 63 71
3 57 71 59
3 55 15 59
3 71 60 55
3 67 76 75
3 8 136 135
3 62 67 73
3 71 70 58
3 66 65 44
3 73 64 61
3 64 65 61
3 48 66 44
3 68 66 13
3 73 49 64
3 76 24 75
3 59 71 55
3 66 68 61
3 63 57 69
3 63 8 70
3 70 71 63
3 68 73 61
3 67 25 72
3 72 73 67
3 82 10 90
3 62 74 76
3 80 25 75
3 62 76 67
3 24 76 74
3 7 88 89
3 79 77 86
3 75 79 86
3 75 24 79
3 86 80 75
3 86 85 78
3 92 87 88
3 81 77 82
3 99 107 102
3 77 81 86
3 81 7 85
3 86 81 85
3 81 90 88
3 93 92 88
3 92 97 96
3 82 90 81
3 88 87 89
3 93 10 91
3 97 84 96
3 93 90 10
3 95 87 92
3 90 93 88
3 91 92 93
3 103 18 113
3 91 94 97
3 96 95 92
3 101 83 96
3 91 97 92
3 84 97 94
3 106 99 102
3 100 98 107
3 107 98 102
3 96 84 100
3 107 101 96
3 112 113 110
3 116 105 121
3 102 98 103
3 120 117 126
3 101 107 99
3 112 106 102
3 107 96 100
3 118 119 111
3 115 19 112
3 114 108 110
3 108 111 119
3 109 119 118
3 120 121 117
3 106 112 19
3 113 112 102
3 103 113 102
3 114 113 18
3 123 117 130
3 113 114 110
3 119 115 110
3 111 108 116
3 129 130 117
3 115 119 109
3 120 118 111
3 108 119 110
3 118 120 104
3 121 120 111
3 116 121 111
3 125 121 105
3 122 3 127
3 125 122 129
3 117 125 129
3 130 124 128
3 121 125 117
3 117 123 126
3 3 124 127
3 122 127 129
3 124 0 128
3 129 127 130
3 124 130 127
3 123 130 128
3 164 158 161
3 177 170 172
3 196 195 191
3 184 175 185
3 63 137 136
3 136 137 141
3 141 140 138
3 69 137 63
3 139 145 144
3 145 23 144
3 138 139 141
3 143 135 139
3 136 141 139
3 137 12 140
3 137 140 141
3 151 149 146
3 138 142 145
3 144 143 139
3 143 144 22
3 138 145 139
3 23 145 142
3 146 9 151
3 148 146 149
3 152 149 153
3 23 148 152
3 147 150 153
3 155 151 9
3 153 144 152
3 157 147 149
3 23 152 144
3 148 149 152
3 147 153 149
3 22 153 150
3 166 167 168
3 154 164 163
3 160 159 6
3 157 151 160
3 6 156 157
3 147 157 156
3 157 160 6
3 155 162 158
3 164 159 155
3 151 155 160
3 164 154 159
3 168 165 132
3 158 164 155
3 155 9 162
3 167 163 161
3 163 164 161
3 174 17 182
3 161 158 165
3 131 167 172
3 163 167 131
3 168 167 161
3 165 168 161
3 132 166 168
3 181 180 16
3 171 169 177
3 177 169 173
3 166 132 171
3 177 172 166
3 177 176 170
3 177 166 171
3 173 169 174
3 183 185 179
3 181 176 173
3 176 177 173
3 182 178 181
3 188 189 187
3 176 181 16
3 182 179 178
3 185 180 178
3 182 181 173
3 174 182 173
3 179 182 17
3 185 175 180
3 189 186 134
3 179 185 178
3 188 184 183
3 184 185 183
3 195 199 191
3 183 179 186
3 133 188 194
3 184 188 133
3 189 188 183
3 186 189 183
3 193 189 134
3 195 198 200
3 193 190 197
3 196 197 195
3 195 200 192
3 189 193 187
3 196 194 187
3 199 195 192
3 194 196 191
3 197 196 187
3 193 197 187
3 190 195 197
3 195 190 198
3 192 2 199
3 198 1 200

CELL_TYPES 275
5
5
5
5
5
5
5
5
5
5
5
5
5
5
5
5
5
5
5
5
5
5
5
5
5
5
5
5
5
5
5
5
5
5
5
5
5
5
5
5
5
5
5
5
5
5
5
5
5
5
5
5
5
5
5
5
5
5
5
5
5
5
5
5
5
5
5
5
5
5
5
5
5
5
5
5
5
5
5
5
5
5
5
5
5
5
5
5
5
5
5
5
5
5
5
5
5
5
5
5
5
5
5
5
5
5
5
5
5
5
5
5
5
5
5
5
5
5
5
5
5
5
5
5
5
5
5
5
5
5
5
5
5
5
5
5
5
5
5
5
5
5
5
5
5
5
5
5
5
5
5
5
5
5
5
5
5
5
5
5
5
5
5
5
5
5
5
5
5
5
5
5
5
5
5
5
5
5
5
5
5
5
5
5
5
5
5
5
5
5
5
5
5
5
5
5
5
5
5
5
5
5
5
5
5
5
5
5
5
5
5
5
5
5
5
5
5
5
5
5
5
5
5
5
5
5
5
5
5
5
5
5
5
5
5
5
5
5
5
5
5
5
5
5
5
5
5
5
5
5
5
5
5
5
5
5
5
5
5
5
5
5
5
5
5
5
5
5
5
5
5
5
5
5
5

POINT_DATA 201
SCALARS pressure float 1
LOOKUP_TABLE default
4.7e+07
4.69998e+07
4.7e+07
4.69999e+07
4.69998e+07
4.7e+07
4.7e+07
4.69999e+07
4.69999e+07
4.69998e+07
4.69999e+07
4.7e+07
4.69999e+07
4.69999e+07
4.70002e+07
4.70001e+07
4.7e+07
4.69998e+07
4.7e+07
4.69999e+07
4.7e+07
4.70001e+07
4.70001e+07
4.70001e+07
4.70001e+07
4.70001e+07
4.7e+07
4.69999e+07
4.69999e+07
4.7e+07
4.7e+07
4.69999e+07
4.70001e+07
4.7e+07
4.7e+07
4.70001e+07
4.7e+07
4.7e+07
4.7e+07
4.69999e+07
4.70001e+07
4.7e+07
4.69999e+07
4.7e+07
4.69999e+07
4.7e+07
4.7e+07
4.69999e+07
4.69999e+07
4.70001e+07
4.70001e+07
4.7e+07
4.7e+07
4.69999e+07
4.7e+07
4.70001e+07
4.7e+07
4.7e+07
4.70001e+07
4.70001e+07
4.70002e+07
4.7e+07
4.69998e+07
4.7e+07
4.7e+07
4.7e+07
4.7e+07
4.7e+07
4.69998e+07
4.7e+07
4.69999e+07
4.70001e+07
4.70001e+07
4.7e+07
4.69999e+07
4.70001e+07
4.7e+07
4.70001e+07
4.7e+07
4.70001e+07
4.7e+07
4.69999e+07
4.7e+07
4.70001e+07
4.70001e+07
4.69999e+07
4.7e+07
4.7e+07
4.69999e+07
4.69999e+07
4.69999e+07
4.70001e+07
4.7e+07
4.7e+07
4.70002e+07
4.7e+07
4.7e+07
4.70001e+07
4.7e+07
4.7e+07
4.7e+07
4.7e+07
4.7e+07
4.7e+07
4.70001e+07
4.69999e+07
4.69999e+07
4.7e+07
4.7e+07
4.7e+07
4.7e+07
4.7e+07
4.69999e+07
4.7e+07
4.7e+07
4.69999e+07
4.69999e+07
4.7e+07
4.70001e+07
4.7e+07
4.7e+07
4.69999e+07
4.69999e+07
4.70001e+07
4.7e+07
4.69999e+07
4.70002e+07
4.69999e+07
4.7e+07
4.7e+07
4.7e+07
4.70001e+07
4.70001e+07
4.7e+07
4.70002e+07
4.7e+07
4.70001e+07
4.69999e+07
4.69999e+07
4.7e+07
4.69999e+07
4.69999e+07
4.7e+07
4.70001e+07
4.7e+07
4.7e+07
4.7e+07
4.70002e+07
4.7e+07
4.70001e+07
4.70002e+07
4.7e+07
4.70001e+07
4.70001e+07
4.69998e+07
4.69999e+07
4.70001e+07
4.7e+07
4.7e+07
4.69999e+07
4.7e+07
4.7e+07
4.69999e+07
4.69999e+07
4.69999e+07
4.70001e+07
4.70001e+07
4.7e+07
4.70001e+07
4.7e+07
4.70002e+07
4.70001e+07
4.70002e+07
4.7e+07
4.69999e+07
4.7e+07
4.7e+07
4.7e+07
4.69999e+07
4.7e+07
4.7e+07
4.69999e+07
4.69999e+07
4.7e+07
4.7e+07
4.7e+07
4.7e+07
4.70001e+07
4.7e+07
4.70001e+07
4.70001e+07
4.70001e+07
4.7e+07
4.70001e+07
4.7e+07
4.7e+07
4.7e+07
4.70001e+07
4.7e+07
4.7e+07
4.69999e+07
VECTORS displacement float
0 0 0
0 0 0
0 0.0692142 0
0 0.072285 0
0 0 0
0.000927149 0.0730409 0
0.000592876 0.0727792 0
0 0 0
-0.00159804 0.071922 0
0 0 0
0.00103277 0.0712093 0
0 0 0
0 0 0
-3.12728e-05 0.069427 0
0.00100505 0.0748047 0
0 0 0
-0.000154832 0.0706399 0
0 0 0
0.00103992 0.0693002 0
0 0 0
0 0 0
0.000641359 0.0718268 0
-0.00123651 0.0704256 0
0 0 0
-0.00152143 0.0708192 0
0 0 0
0.000187316 0.0692829 0
0.000787081 0.0586304 0
-0.000417354 0.0714288 0
0 0 0
0 0 0
0.000224044 0.0410224 0
-0.000338511 0.0725322 0
0.000565584 0.0554535 0
0.000242815 0.0672866 0
-0.000688128 0.0710666 0
0.000424076 0.0565319 0
0 0 0
0 0 0
-0.000982364 0.0728808 0
0.000399332 0.0653832 0
0.000491757 0.0374914 0
0 0 0
-0.000197947 0.064718 0
5.84827e-05 0.0557713 0
-2.12707e-05 0.0431876 0
-0.000616102 0.0598949 0
0 0 0
0.000204632 0.0708402 0
0 0 0
0 0 0
-0.000518067 0.0424966 0
0.00117261 0.0721618 0
-0.000187565 0.065299 0
0 0 0
0.000327731 0.0577696 0
0.000137991 0.0422186 0
0 0 0
0.000202941 0.0688904 0
0 0 0
-0.00015794 0.073929 0
0.000196164 0.0508159 0
0.000403725 0.0739525 0
-0.000904488 0.0532525 0
0 0 0
0.000166545 0.0398856 0
-0.00116122 0.0650075 0
-0.00238128 0.0522688 0
-0.00172535 0.0738572 0
0 0 0
-4.77226e-07 0.0732845 0
-0.00062587 0.058053 0
0 0 0
-0.000974273 0.0443223 0
-0.00129121 0.0695438 0
-0.00115283 0.0534886 0
-0.000529443 0.0654067 0
3.83893e-05 0.0749801 0
0 0 0
9.18642e-05 0.0746775 0
0 0 0
0.000527603 0.05718 0
0.000870073 0.0710871 0
0 0 0
-0.00119472 0.0715378 0
0 0 0
-0.000451767 0.062395 0
0 0 0
0.000246306 0.0494232 0
0 0 0
0.000199766 0.0649098 0
0.000285065 0.0721742 0
-4.90549e-05 0.0538024 0
0.000473925 0.0670775 0
-0.000420749 0.0698564 0
0 0 0
0.000796393 0.0570083 0
0.000791485 0.0665103 0
0.00181765 0.0738684 0
0 0 0
-0.000745445 0.0738103 0
0 0 0
0.000838259 0.0569936 0
0.00220428 0.0715353 0
0 0 0
0.000513544 0.0699827 0
0 0 0
0.000663484 0.0501041 0
0.000255627 0.0762587 0
0 0 0
0.000219262 0.0560515 0
8.23654e-05 0.0561113 0
0.000603422 0.0418379 0
0.00048702 0.0657505 0
-4.72547e-05 0.0714322 0
0 0 0
0.00100893 0.0715969 0
-0.000161789 0.0568354 0
0 0 0
0.000271441 0.0463427 0
6.69572e-05 0.041339 0
-0.000261899 0.0661305 0
-1.91631e-05 0.0708317 0
0 0 0
0 0.0455599 0
-0.000686464 0.0739309 0
0 0 0
8.54079e-06 0.0660439 0
0 0 0
-0.00073448 0.062697 0
0.000682894 0.0405074 0
-0.000379146 0.0695656 0
0 0 0
5.75559e-05 0.0698921 0
0 0 0
0.000683289 0.0727406 0
-0.00027512 0.065624 0
-0.000708442 0.0427623 0
0 0 0
-0.000677383 0.0564563 0
0 0 0
-0.000235899 0.0419816 0
0 0 0
-0.000847287 0.0732666 0
0.000827877 0.0558491 0
5.41692e-05 0.0403823 0
0 0 0
-0.000131444 0.0736205 0
0 0 0
0.000520387 0.0555783 0
-0.000642076 0.069028 0
0.000552929 0.0447064 0
0.000592276 0.0376207 0
0.000471171 0.0652709 0
0.000609453 0.0707057 0
0.000712613 0.0574747 0
0.000203504 0.0702066 0
0.000544324 0.0657464 0
0 0 0
-2.15339e-05 0.0745283 0
0.00021055 0.0649002 0
-0.000501451 0.0573402 0
0 0 0
0.000688668 0.0730376 0
0.000476637 0.0665038 0
0 0 0
0.000148436 0.056548 0
8.45311e-05 0.0651577 0
-7.55765e-05 0.0376455 0
0 0 0
-0.000627409 0.0705797 0
0 0 0
-0.000551211 0.0741506 0
-0.00134783 0.0555549 0
0 0 0
-5.70767e-05 0.0701684 0
-0.000374407 0.0748213 0
-0.000794185 0.062983 0
0.000386279 0.0588159 0
0 0 0
-0.000292113 0.0738186 0
-0.000559776 0.0662264 0
-0.00113466 0.0425851 0
-0.0010438 0.0570698 0
0.000139238 0.073602 0
-0.000240293 0.0653676 0
0 0 0
-0.00025533 0.0563077 0
-0.000300369 0.0658923 0
-0.000817479 0.040938 0
0 0 0
0.000515288 0.0715864 0
0 0.0637896 0
0 0 0
0.000478253 0.0727681 0
-1.7827e-05 0.0568966 0
-0.000254606 0.066134 0
-6.78156e-06 0.0365069 0
0 0 0
-0.000799482 0.0734605 0
0 0.0400778 0
VECTORS displacementExact float
0 -0 0
0 -0 0
0 -20000.1 0
0 -20000.1 0
0 -0 0
0 -20000.1 0
0 -20000.1 0
0 -0 0
0 -20000.1 0
0 -0 0
0 -20000.1 0
0 -0 0
0 -0 0
0 -20000.1 0
0 -20000.1 0
0 -0 0
0 -20000.1 0
0 -0 0
0 -20000.1 0
0 -0 0
0 -0 0
0 -20000.1 0
0 -20000.1 0
0 -0 0
0 -20000.1 0
0 -0 0
0 -20000.1 0
0 -10924.1 0
0 -20000.1 0
0 -0 0
0 -0 0
0 -6407.79 0
0 -20000.1 0
0 -9751.37 0
0 -13647.7 0
0 -20000.1 0
0 -10215.3 0
0 -0 0
0 -0 0
0 -20000.1 0
0 -13872.1 0
0 -6096.19 0
0 -0 0
0 -12612.6 0
0 -9964.78 0
0 -6780.84 0
0 -10900.1 0
0 -0 0
0 -20000.1 0
0 -0 0
0 -0 0
0 -6871.65 0
0 -20000.1 0
0 -13307 0
0 -0 0
0 -10435.9 0
0 -6589.93 0
0 -0 0
0 -20000.1 0
0 -0 0
0 -20000.1 0
0 -8920.81 0
0 -20000.1 0
0 -9226.07 0
0 -0 0
0 -6300.49 0
0 -13531.9 0
0 -9216.32 0
0 -20000.1 0
0 -0 0
0 -20000.1 0
0 -10809.9 0
0 -0 0
0 -6793.88 0
0 -20000.1 0
0 -9622.05 0
0 -13593.9 0
0 -20000.1 0
0 -0 0
0 -20000.1 0
0 -0 0
0 -10606.1 0
0 -20000.1 0
0 -0 0
0 -20000.1 0
0 -0 0
0 -11435.4 0
0 -0 0
0 -8325.06 0
0 -0 0
0 -13391.2 0
0 -20000.1 0
0 -9718.63 0
0 -13832 0
0 -20000.1 0
0 -0 0
0 -9960.21 0
0 -13733.7 0
0 -20000.1 0
0 -0 0
0 -20000.1 0
0 -0 0
0 -10000.1 0
0 -20000.1 0
0 -0 0
0 -20000.1 0
0 -0 0
0 -8862.87 0
0 -20000.1 0
0 -0 0
0 -10000.1 0
0 -10000.1 0
0 -6569.8 0
0 -13430.3 0
0 -20000.1 0
0 -0 0
0 -20000.1 0
0 -10000.1 0
0 -0 0
0 -7449.11 0
0 -6476.05 0
0 -13524.1 0
0 -20000.1 0
0 -0 0
0 -7200.06 0
0 -20000.1 0
0 -0 0
0 -13600.1 0
0 -0 0
0 -12527 0
0 -6800.06 0
0 -20000.1 0
0 -0 0
0 -20000.1 0
0 -0 0
0 -20000.1 0
0 -12872.8 0
0 -6690.29 0
0 -0 0
0 -10356.3 0
0 -0 0
0 -6770.13 0
0 -0 0
0 -20000.1 0
0 -9987.2 0
0 -6320.82 0
0 -0 0
0 -20000.1 0
0 -0 0
0 -9770.57 0
0 -20000.1 0
0 -7265.56 0
0 -6108.67 0
0 -13533.3 0
0 -20000.1 0
0 -10162.8 0
0 -20000.1 0
0 -13230.4 0
0 -0 0
0 -20000.1 0
0 -12924.7 0
0 -10546.1 0
0 -0 0
0 -20000.1 0
0 -13430.2 0
0 -0 0
0 -10313.1 0
0 -13777.5 0
0 -6185.84 0
0 -0 0
0 -20000.1 0
0 -0 0
0 -20000.1 0
0 -9670.07 0
0 -0 0
0 -20000.1 0
0 -20000.1 0
0 -11904.8 0
0 -10708.3 0
0 -0 0
0 -20000.1 0
0 -13498.9 0
0 -6636.53 0
0 -10261.1 0
0 -20000.1 0
0 -13187.2 0
0 -0 0
0 -10131 0
0 -13607.5 0
0 -6457.83 0
0 -0 0
0 -20000.1 0
0 -12800.1 0
0 -0 0
0 -20000.1 0
0 -10034.1 0
0 -14074.8 0
0 -5885.1 0
0 -0 0
0 -20000.1 0
0 -6400.05 0
VECTORS error float
0 0 0
0 0 0
0 20000.2 0
0 20000.2 0
0 0 0
0.000927149 20000.2 0
0.000592876 20000.2 0
0 0 0
-0.00159804 20000.2 0
0 0 0
0.00103277 20000.2 0
0 0 0
0 0 0
-3.12728e-05 20000.2 0
0.00100505 20000.2 0
0 0 0
-0.000154832 20000.2 0
0 0 0
0.00103992 20000.2 0
0 0 0
0 0 0
0.000641359 20000.2 0
-0.00123651 20000.2 0
0 0 0
-0.00152143 20000.2 0
0 0 0
0.000187316 20000.2 0
0.000787081 10924.1 0
-0.000417354 20000.2 0
0 0 0
0 0 0
0.000224044 6407.83 0
-0.000338511 20000.2 0
0.000565584 9751.43 0
0.000242815 13647.7 0
-0.000688128 20000.2 0
0.000424076 10215.4 0
0 0 0
0 0 0
-0.000982364 20000.2 0
0.000399332 13872.2 0
0.000491757 6096.23 0
0 0 0
-0.000197947 12612.7 0
5.84827e-05 9964.84 0
-2.12707e-05 6780.89 0
-0.000616102 10900.1 0
0 0 0
0.000204632 20000.2 0
0 0 0
0 0 0
-0.000518067 6871.69 0
0.00117261 20000.2 0
-0.000187565 13307 0
0 0 0
0.000327731 10436 0
0.000137991 6589.97 0
0 0 0
0.000202941 20000.2 0
0 0 0
-0.00015794 20000.2 0
0.000196164 8920.86 0
0.000403725 20000.2 0
-0.000904488 9226.12 0
0 0 0
0.000166545 6300.53 0
-0.00116122 13532 0
-0.00238128 9216.37 0
-0.00172535 20000.2 0
0 0 0
-4.77226e-07 20000.2 0
-0.00062587 10809.9 0
0 0 0
-0.000974273 6793.92 0
-0.00129121 20000.2 0
-0.00115283 9622.1 0
-0.000529443 13593.9 0
3.83893e-05 20000.2 0
0 0 0
9.18642e-05 20000.2 0
0 0 0
0.000527603 10606.1 0
0.000870073 20000.2 0
0 0 0
-0.00119472 20000.2 0
0 0 0
-0.000451767 11435.5 0
0 0 0
0.000246306 8325.11 0
0 0 0
0.000199766 13391.3 0
0.000285065 20000.2 0
-4.90549e-05 9718.68 0
0.000473925 13832 0
-0.000420749 20000.2 0
0 0 0
0.000796393 9960.27 0
0.000791485 13733.7 0
0.00181765 20000.2 0
0 0 0
-0.000745445 20000.2 0
0 0 0
0.000838259 10000.1 0
0.00220428 20000.2 0
0 0 0
0.000513544 20000.2 0
0 0 0
0.000663484 8862.92 0
0.000255627 20000.2 0
0 0 0
0.000219262 10000.1 0
8.23654e-05 10000.1 0
0.000603422 6569.85 0
0.00048702 13430.4 0
-4.72547e-05 20000.2 0
0 0 0
0.00100893 20000.2 0
-0.000161789 10000.1 0
0 0 0
0.000271441 7449.16 0
6.69572e-05 6476.1 0
-0.000261899 13524.2 0
-1.91631e-05 20000.2 0
0 0 0
0 7200.1 0
-0.000686464 20000.2 0
0 0 0
8.54079e-06 13600.2 0
0 0 0
-0.00073448 12527 0
0.000682894 6800.1 0
-0.000379146 20000.2 0
0 0 0
5.75559e-05 20000.2 0
0 0 0
0.000683289 20000.2 0
-0.00027512 12872.9 0
-0.000708442 6690.33 0
0 0 0
-0.000677383 10356.3 0
0 0 0
-0.000235899 6770.17 0
0 0 0
-0.000847287 20000.2 0
0.000827877 9987.25 0
5.41692e-05 6320.86 0
0 0 0
-0.000131444 20000.2 0
0 0 0
0.000520387 9770.63 0
-0.000642076 20000.2 0
0.000552929 7265.61 0
0.000592276 6108.71 0
0.000471171 13533.4 0
0.000609453 20000.2 0
0.000712613 10162.9 0
0.000203504 20000.2 0
0.000544324 13230.4 0
0 0 0
-2.15339e-05 20000.2 0
0.00021055 12924.8 0
-0.000501451 10546.1 0
0 0 0
0.000688668 20000.2 0
0.000476637 13430.3 0
0 0 0
0.000148436 10313.1 0
8.45311e-05 13777.6 0
-7.55765e-05 6185.88 0
0 0 0
-0.000627409 20000.2 0
0 0 0
-0.000551211 20000.2 0
-0.00134783 9670.13 0
0 0 0
-5.70767e-05 20000.2 0
-0.000374407 20000.2 0
-0.000794185 11904.8 0
0.000386279 10708.3 0
0 0 0
-0.000292113 20000.2 0
-0.000559776 13499 0
-0.00113466 6636.58 0
-0.0010438 10261.1 0
0.000139238 20000.2 0
-0.000240293 13187.2 0
0 0 0
-0.00025533 10131.1 0
-0.000300369 13607.5 0
-0.000817479 6457.87 0
0 0 0
0.000515288 20000.2 0
0 12800.2 0
0 0 0
0.000478253 20000.2 0
-1.7827e-05 10034.2 0
-0.000254606 14074.8 0
-6.78156e-06 5885.14 0
0 0 0
-0.000799482 20000.2 0
0 6400.09 0

CELL_DATA 275
VECTORS stress float
-0.122027 0.799895 0
0.029113 1.05022 0
0 3.64853 0
0.068974 0.882633 0
0 2.6457 0
0.0259595 4.34717 0
0.0374884 0.926442 0
0.0930997 1.32429 0
0 2.83663 0
0 3.99328 0
0.0934131 1.68726 0
0.0309286 3.46313 0
-0.0615393 4.1649 0
0.0331658 0.631868 0
0.0299473 1.04355 0
-0.0180484 1.08365 0
0.0459372 3.33011 0
0.0177997 5.56231 0
-0.014394 4.92547 0
0.0336674 3.29016 0
-0.00455186 1.28881 0
0.00172548 1.56803 0
-0.122879 5.52455 0
0 2.55268 0
-0.0240993 2.13367 0
0.0659468 0.249123 0
0.0371804 1.73592 0
0.0532124 1.01809 0
-0.0597588 0.800484 0
0 5.25086 0
0 3.65359 0
0.00145565 1.48454 0
-0.130087 0.932177 0
0.00214637 1.29442 0
0 3.54903 0
0.0399151 2.58458 0
0.0804002 0.696039 0
0 2.55268 0
0.0214245 0.389018 0
0 2.39945 0
0.0660722 1.17808 0
-0.0134739 2.46494 0
0.119952 0.95447 0
-0.0202165 0.75536 0
0.0382495 0.512828 0
0.00911903 1.45328 0
0.0243819 2.67188 0
0.00182613 1.42611 0
0 2.764 0
0 2.764 0
0.0152587 0.308355 0
0 2.71978 0
0.0320393 1.73174 0
0.0288114 1.68462 0
0.0404713 0.248892 0
0.00719652 3.12008 0
-0.0231976 1.98349 0
0 3.57646 0
-0.119119 0.980153 0
-0.28117 1.84879 0
-0.0129111 3.17748 0
-0.0556425 3.32747 0
-0.125225 3.97719 0
-0.0152472 0.766683 0
0.00405494 0.766119 0
0 2.6085 0
0 2.57534 0
-0.11123 1.02813 0
0.0556414 3.32279 0
0 2.57534 0
-0.0369333 1.37273 0
-0.0400305 5.13752 0
0 3.54123 0
0 3.52394 0
-0.0893877 1.48512 0
-0.0462623 1.30742 0
0.162597 0.838412 0
0.219193 1.62271 0
-0.0186946 0.716991 0
0.0408385 1.40715 0
0.100239 3.2789 0
0.00249789 2.92944 0
0.127614 0.708743 0
0.109576 0.175473 0
0 2.83663 0
0.0793353 0.809523 0
-0.100742 5.34766 0
-0.0617849 1.65874 0
0 3.2484 0
-0.172121 1.20091 0
-0.0157008 1.64241 0
0.170545 1.71077 0
0 3.3452 0
0.0719885 3.31775 0
-0.0107525 0.393412 0
0.108581 0.174908 0
0 3.42327 0
-0.0777832 1.50177 0
0.014748 0.282767 0
0 3.16308 0
0.00457995 0.778434 0
-0.0501859 1.39705 0
-0.167428 1.12252 0
-0.0883611 4.91446 0
0 3.99328 0
0.0280212 5.43372 0
-0.0781283 0.869192 0
-0.00794491 4.73358 0
-0.0879448 1.26508 0
0 3.65952 0
-0.108248 5.24388 0
0.0153125 1.2576 0
0.0194371 1.64069 0
-0.0319144 1.11763 0
0.0403353 0.83423 0
0 3.16308 0
0.0461195 0.586786 0
0.074641 0.736677 0
-0.0144476 0.550302 0
0 3.44335 0
-0.0140944 1.45841 0
0.0400265 0.780277 0
0.0764955 0.227186 0
0.0442292 0.179725 0
-0.0822838 5.4763 0
0 3.64853 0
-0.0730046 1.18782 0
0.0485001 0.221799 0
0 3.64759 0
-0.285457 1.44787 0
-0.00633994 1.95846 0
-0.0451065 0.887762 0
0.00449881 4.84473 0
0.0223624 1.34469 0
0.0320811 0.26097 0
-0.0386629 0.887043 0
0.0171732 3.40649 0
0 3.20666 0
-0.0052706 3.25042 0
0.030263 1.9491 0
0.0210086 3.94274 0
0 2.67763 0
-0.0302882 0.923877 0
0.0233273 2.04088 0
0 2.96593 0
0.00453316 1.36508 0
0 2.67763 0
0.0201039 1.34469 0
0.0819819 0.817732 0
0.0714248 0.21702 0
-0.0792911 5.3415 0
0.035918 0.98647 0
-0.0108111 3.81686 0
-0.0753301 0.991076 0
-0.00301794 1.8504 0
0 2.96593 0
-0.00136173 3.08963 0
-0.00614551 2.16293 0
0 2.6457 0
0.0126749 1.36508 0
0.0670785 0.852673 0
0.0777125 0.211256 0
-0.00122644 0.705855 0
-0.0498683 0.55388 0
0.0440112 1.11147 0
0.0491684 3.88507 0
0.00847856 1.10748 0
0 3.63746 0
0.00109322 1.71041 0
-0.0478506 0.572001 0
0 2.91583 0
-0.0577621 1.81342 0
0.0437394 2.2155 0
0 2.59247 0
-0.117612 3.77057 0
-0.00616851 0.481324 0
0.0451384 0.524084 0
0.0133748 0.303371 0
0.0231085 1.6839 0
0.0288689 1.57865 0
0 2.56088 0
-0.00484853 3.29725 0
0.0580436 1.59453 0
0.0469182 3.14574 0
-0.0214292 3.20032 0
-0.147606 1.0378 0
-0.0255356 1.9876 0
0 2.6085 0
0.0321799 2.86856 0
0.0162152 4.75382 0
0 2.46332 0
0.144538 1.71358 0
-0.0389724 0.870857 0
0.0484256 2.85496 0
0 2.46332 0
0 5.45418 0
0 3.39028 0
-0.000902702 1.47837 0
0 2.29486 0
0.0330215 0.262646 0
-0.00441803 5.61953 0
-0.0221894 1.49051 0
0.0250005 1.0226 0
0.00857944 2.66638 0
-0.0260798 2.47798 0
-0.019492 0.989113 0
0.0384408 0.226358 0
0.0103983 1.45609 0
0.00520433 0.270489 0
-0.0434718 0.50271 0
-0.0199351 1.56538 0
0.0263594 0.259859 0
0.0226751 0.303855 0
-0.0224471 0.591641 0
0 3.50596 0
0.000773861 1.05296 0
0.0189563 1.63912 0
0.0414549 0.249723 0
0 2.29637 0
-0.0472654 3.95634 0
0 3.50596 0
0.0169408 0.845661 0
-0.0581437 0.928124 0
0 2.59769 0
0 3.49775 0
-0.0107068 0.235935 0
-0.0664455 0.305447 0
0.0393119 1.46914 0
0.0230484 2.60957 0
0.0169761 2.57024 0
-0.00892485 0.287502 0
0 3.84196 0
-0.0836574 4.7769 0
0 3.44943 0
-0.0801754 1.27705 0
0.0204813 0.467035 0
-0.099575 4.71623 0
0 3.38885 0
-0.112991 3.95562 0
0.0441351 1.1588 0
-0.0354386 1.39921 0
0.080965 1.34351 0
0.021197 1.35997 0
0.0142749 0.260503 0
0.147137 4.24494 0
-0.0414032 0.952172 0
0.0320676 1.31333 0
-0.0202735 3.28095 0
0 5.19539 0
0.0160129 0.296522 0
0 2.49722 0
-0.0766699 4.2013 0
0.032814 0.909005 0
-0.0436372 1.01728 0
-0.131029 0.941444 0
0 3.48126 0
0.0268936 0.228366 0
-0.00522161 0.277867 0
0.0358482 1.36457 0
-0.016475 2.96832 0
0 2.49722 0
0.00114093 5.06549 0
0 2.22692 0
0.00937767 1.51514 0
0.00114093 2.38997 0
0.0663298 3.41091 0
-0.0288589 0.694537 0
0.0233967 1.4159 0
0.00219443 0.372315 0
0.00983283 1.52274 0
0.0143393 2.46207 0
-0.000368662 2.5076 0
0 3.47069 0
0.0575627 0.347178 0
0 2.44474 0
