# vtk DataFile Version 3.0
2D scalar data
ASCII
DATASET UNSTRUCTURED_GRID
POINTS 201 float
0.000000 0.000000 0
4000.000000 0.000000 0
4000.000000 200.000000 0
0.000000 200.000000 0
2048.000000 0.000000 0
2000.000000 200.000000 0
3000.000000 200.000000 0
1024.000000 0.000000 0
2500.000000 200.000000 0
3024.000000 0.000000 0
1000.000000 200.000000 0
1536.000000 0.000000 0
2536.000000 0.000000 0
1500.000000 200.000000 0
2250.000000 200.000000 0
2292.000000 0.000000 0
3500.000000 200.000000 0
3512.000000 0.000000 0
512.000000 200.000000 0
512.000000 0.000000 0
1792.000000 0.000000 0
1750.000000 200.000000 0
2750.000000 200.000000 0
2780.000000 0.000000 0
1250.000000 200.000000 0
1280.000000 0.000000 0
2125.000000 200.000000 0
2062.500000 109.240000 0
2062.500000 200.000000 0
1920.000000 0.000000 0
2170.000000 0.000000 0
1984.000000 64.077387 0
1875.000000 200.000000 0
1886.446550 97.512974 0
1954.307268 136.475657 0
1812.500000 200.000000 0
1781.250000 102.152500 0
1856.000000 0.000000 0
1664.000000 0.000000 0
1625.000000 200.000000 0
1835.563344 138.720178 0
1832.133916 60.961387 0
1728.000000 0.000000 0
1687.500000 126.125114 0
1581.293042 99.647097 0
1722.527810 67.807856 0
2187.500000 109.000000 0
2109.000000 0.000000 0
1562.500000 200.000000 0
1408.000000 0.000000 0
1600.000000 0.000000 0
1645.408415 68.715890 0
2187.500000 200.000000 0
2125.045981 133.068669 0
2231.000000 0.000000 0
2291.755728 104.358703 0
2237.812377 65.898747 0
2414.000000 0.000000 0
2375.000000 200.000000 0
2353.000000 0.000000 0
2312.500000 200.000000 0
1472.000000 89.207380 0
1375.000000 200.000000 0
2475.000000 92.260000 0
1472.000000 0.000000 0
1529.648048 63.004354 0
1522.740575 135.318450 0
1344.000000 92.162500 0
1437.500000 200.000000 0
2475.000000 0.000000 0
2437.500000 200.000000 0
2384.024149 108.097838 0
1344.000000 0.000000 0
1407.474849 67.938191 0
1312.500000 200.000000 0
1239.798554 96.219783 0
1293.524763 135.937794 0
1125.000000 200.000000 0
1152.000000 0.000000 0
1187.500000 200.000000 0
1216.000000 0.000000 0
1062.500000 106.060000 0
1062.500000 200.000000 0
768.000000 0.000000 0
756.000000 200.000000 0
1088.000000 0.000000 0
1151.882632 114.353297 0
896.000000 0.000000 0
960.000000 83.249923 0
960.000000 0.000000 0
1002.513977 133.911398 0
878.000000 200.000000 0
855.727941 97.185515 0
914.292485 138.318615 0
817.000000 200.000000 0
832.000000 0.000000 0
755.356327 99.601380 0
806.479448 137.335919 0
634.000000 200.000000 0
640.000000 0.000000 0
695.000000 200.000000 0
704.000000 0.000000 0
573.000000 100.000000 0
573.000000 200.000000 0
256.000000 0.000000 0
256.000000 200.000000 0
576.000000 0.000000 0
664.153741 88.628006 0
384.000000 200.000000 0
384.000000 0.000000 0
460.532787 100.000000 0
320.000000 100.000000 0
516.766393 65.697500 0
516.766393 134.302500 0
448.000000 200.000000 0
448.000000 0.000000 0
320.000000 200.000000 0
209.875000 100.000000 0
320.000000 0.000000 0
390.266393 74.490492 0
264.937500 64.760000 0
264.937500 135.240000 0
128.000000 200.000000 0
128.000000 0.000000 0
0.000000 72.000000 0
192.000000 200.000000 0
192.000000 0.000000 0
64.000000 136.000000 0
64.000000 0.000000 0
138.731314 125.268686 0
92.371451 68.000000 0
3250.000000 200.000000 0
3268.000000 0.000000 0
3750.000000 200.000000 0
3756.000000 0.000000 0
2625.000000 200.000000 0
2562.500000 128.726993 0
2536.917300 66.902331 0
2658.000000 0.000000 0
2663.086371 103.561751 0
2597.000000 0.000000 0
2605.095693 67.700742 0
2719.000000 0.000000 0
2687.500000 200.000000 0
2764.141473 99.871221 0
2712.207581 63.207663 0
2902.000000 0.000000 0
2875.000000 200.000000 0
2841.000000 0.000000 0
2871.500000 97.705000 0
2812.500000 200.000000 0
2963.000000 72.655018 0
2817.060009 61.086211 0
2818.558101 135.332073 0
3125.000000 200.000000 0
3071.276830 101.627701 0
2937.500000 200.000000 0
2930.150815 132.302778 0
3146.000000 0.000000 0
3062.500000 200.000000 0
3005.872003 129.246240 0
3187.500000 105.460000 0
3085.000000 0.000000 0
3187.500000 200.000000 0
3128.374226 134.301442 0
3207.000000 0.000000 0
3293.777044 103.129934 0
3241.372539 137.774334 0
3239.708112 61.857897 0
3390.000000 0.000000 0
3375.000000 200.000000 0
3329.000000 0.000000 0
3312.500000 200.000000 0
3451.000000 96.700000 0
3451.000000 0.000000 0
3625.000000 200.000000 0
3437.500000 200.000000 0
3373.170960 119.046931 0
3562.500000 107.081849 0
3634.000000 0.000000 0
3562.500000 200.000000 0
3503.668261 134.988482 0
3510.057866 66.364786 0
3687.500000 102.610000 0
3687.500000 200.000000 0
3625.966808 131.870772 0
3695.000000 0.000000 0
3796.654765 101.309643 0
3742.483782 136.073853 0
3741.632052 64.577786 0
3878.000000 0.000000 0
3875.000000 200.000000 0
4000.000000 128.000000 0
3817.000000 0.000000 0
3812.500000 200.000000 0
3899.207463 100.340612 0
3848.308338 140.746828 0
3847.534491 58.850484 0
3939.000000 0.000000 0
3936.000000 200.000000 0
4000.000000 64.000000 0

CELLS 275 1100
3 27 28 5
3 155 159 160
3 96 83 95
3 181 178 180
3 126 104 120
3 27 31 4
3 22 144 153
3 8 63 136
3 72 49 73
3 78 80 86
3 55 14 46
3 20 36 45
3 47 46 53
3 71 58 60
3 194 188 187
3 172 167 166
3 112 110 115
3 7 81 88
3 33 29 31
3 45 51 38
3 139 135 136
3 151 157 149
3 75 25 67
3 50 65 11
3 34 33 31
3 26 53 52
3 55 46 56
3 5 34 27
3 53 28 27
3 29 4 31
3 47 30 46
3 40 36 41
3 36 35 21
3 32 33 34
3 37 29 33
3 27 34 31
3 32 34 5
3 64 11 65
3 32 35 40
3 20 37 41
3 21 43 36
3 41 37 33
3 43 21 39
3 32 40 33
3 35 36 40
3 40 41 33
3 20 41 36
3 44 43 39
3 42 20 45
3 45 38 42
3 66 48 13
3 51 50 38
3 36 43 45
3 45 43 51
3 53 26 28
3 56 15 55
3 43 44 51
3 27 4 47
3 44 39 48
3 68 62 73
3 65 50 44
3 50 51 44
3 47 53 27
3 46 14 52
3 52 53 46
3 69 12 137
3 30 54 56
3 60 14 55
3 30 56 46
3 15 56 54
3 66 61 65
3 57 63 71
3 57 71 59
3 55 15 59
3 71 60 55
3 67 76 75
3 8 136 135
3 62 67 73
3 71 70 58
3 66 65 44
3 73 64 61
3 64 65 61
3 48 66 44
3 68 66 13
3 73 49 64
3 76 24 75
3 59 71 55
3 66 68 61
3 63 57 69
3 63 8 70
3 70 71 63
3 68 73 61
3 67 25 72
3 72 73 67
3 82 10 90
3 62 74 76
3 80 25 75
3 62 76 67
3 24 76 74
3 7 88 89
3 79 77 86
3 75 79 86
3 75 24 79
3 86 80 75
3 86 85 78
3 92 87 88
3 81 77 82
3 99 107 102
3 77 81 86
3 81 7 85
3 86 81 85
3 81 90 88
3 93 92 88
3 92 97 96
3 82 90 81
3 88 87 89
3 93 10 91
3 97 84 96
3 93 90 10
3 95 87 92
3 90 93 88
3 91 92 93
3 103 18 113
3 91 94 97
3 96 95 92
3 101 83 96
3 91 97 92
3 84 97 94
3 106 99 102
3 100 98 107
3 107 98 102
3 96 84 100
3 107 101 96
3 112 113 110
3 116 105 121
3 102 98 103
3 120 117 126
3 101 107 99
3 112 106 102
3 107 96 100
3 118 119 111
3 115 19 112
3 114 108 110
3 108 111 119
3 109 119 118
3 120 121 117
3 106 112 19
3 113 112 102
3 103 113 102
3 114 113 18
3 123 117 130
3 113 114 110
3 119 115 110
3 111 108 116
3 129 130 117
3 115 119 109
3 120 118 111
3 108 119 110
3 118 120 104
3 121 120 111
3 116 121 111
3 125 121 105
3 122 3 127
3 125 122 129
3 117 125 129
3 130 124 128
3 121 125 117
3 117 123 126
3 3 124 127
3 122 127 129
3 124 0 128
3 129 127 130
3 124 130 127
3 123 130 128
3 164 158 161
3 177 170 172
3 196 195 191
3 184 175 185
3 63 137 136
3 136 137 141
3 141 140 138
3 69 137 63
3 139 145 144
3 145 23 144
3 138 139 141
3 143 135 139
3 136 141 139
3 137 12 140
3 137 140 141
3 151 149 146
3 138 142 145
3 144 143 139
3 143 144 22
3 138 145 139
3 23 145 142
3 146 9 151
3 148 146 149
3 152 149 153
3 23 148 152
3 147 150 153
3 155 151 9
3 153 144 152
3 157 147 149
3 23 152 144
3 148 149 152
3 147 153 149
3 22 153 150
3 166 167 168
3 154 164 163
3 160 159 6
3 157 151 160
3 6 156 157
3 147 157 156
3 157 160 6
3 155 162 158
3 164 159 155
3 151 155 160
3 164 154 159
3 168 165 132
3 158 164 155
3 155 9 162
3 167 163 161
3 163 164 161
3 174 17 182
3 161 158 165
3 131 167 172
3 163 167 131
3 168 167 161
3 165 168 161
3 132 166 168
3 181 180 16
3 171 169 177
3 177 169 173
3 166 132 171
3 177 172 166
3 177 176 170
3 177 166 171
3 173 169 174
3 183 185 179
3 181 176 173
3 176 177 173
3 182 178 181
3 188 189 187
3 176 181 16
3 182 179 178
3 185 180 178
3 182 181 173
3 174 182 173
3 179 182 17
3 185 175 180
3 189 186 134
3 179 185 178
3 188 184 183
3 184 185 183
3 195 199 191
3 183 179 186
3 133 188 194
3 184 188 133
3 189 188 183
3 186 189 183
3 193 189 134
3 195 198 200
3 193 190 197
3 196 197 195
3 195 200 192
3 189 193 187
3 196 194 187
3 199 195 192
3 194 196 191
3 197 196 187
3 193 197 187
3 190 195 197
3 195 190 198
3 192 2 199
3 198 1 200

CELL_TYPES 275
5
5
5
5
5
5
5
5
5
5
5
5
5
5
5
5
5
5
5
5
5
5
5
5
5
5
5
5
5
5
5
5
5
5
5
5
5
5
5
5
5
5
5
5
5
5
5
5
5
5
5
5
5
5
5
5
5
5
5
5
5
5
5
5
5
5
5
5
5
5
5
5
5
5
5
5
5
5
5
5
5
5
5
5
5
5
5
5
5
5
5
5
5
5
5
5
5
5
5
5
5
5
5
5
5
5
5
5
5
5
5
5
5
5
5
5
5
5
5
5
5
5
5
5
5
5
5
5
5
5
5
5
5
5
5
5
5
5
5
5
5
5
5
5
5
5
5
5
5
5
5
5
5
5
5
5
5
5
5
5
5
5
5
5
5
5
5
5
5
5
5
5
5
5
5
5
5
5
5
5
5
5
5
5
5
5
5
5
5
5
5
5
5
5
5
5
5
5
5
5
5
5
5
5
5
5
5
5
5
5
5
5
5
5
5
5
5
5
5
5
5
5
5
5
5
5
5
5
5
5
5
5
5
5
5
5
5
5
5
5
5
5
5
5
5
5
5
5
5
5
5
5
5
5
5
5
5
5
5
5
5
5
5
5
5
5
5
5
5
5
5
5
5
5
5

POINT_DATA 201
SCALARS pressure float 1
LOOKUP_TABLE default
4.99995e+07
3.5e+07
3.49999e+07
5.00004e+07
4.23199e+07
4.25e+07
3.875e+07
4.616e+07
4.06251e+07
3.86599e+07
4.62502e+07
4.42401e+07
4.049e+07
4.4375e+07
4.15627e+07
4.14048e+07
3.6875e+07
3.683e+07
4.80801e+07
4.808e+07
4.32799e+07
4.34374e+07
3.96874e+07
3.9575e+07
4.53125e+07
4.51999e+07
4.20313e+07
4.22656e+07
4.22658e+07
4.27999e+07
4.18623e+07
4.25599e+07
4.2969e+07
4.29258e+07
4.26713e+07
4.32032e+07
4.33204e+07
4.304e+07
4.37599e+07
4.39062e+07
4.31168e+07
4.31295e+07
4.35199e+07
4.36718e+07
4.40701e+07
4.35405e+07
4.1797e+07
4.20911e+07
4.41406e+07
4.47201e+07
4.4e+07
4.38297e+07
4.17971e+07
4.20311e+07
4.16334e+07
4.14059e+07
4.16082e+07
4.09473e+07
4.10939e+07
4.1176e+07
4.13284e+07
4.44801e+07
4.48438e+07
4.07187e+07
4.44801e+07
4.42639e+07
4.42897e+07
4.496e+07
4.46093e+07
4.07188e+07
4.08596e+07
4.10599e+07
4.49601e+07
4.47221e+07
4.50781e+07
4.53507e+07
4.51492e+07
4.57812e+07
4.56799e+07
4.55468e+07
4.54399e+07
4.60157e+07
4.60157e+07
4.71201e+07
4.71649e+07
4.59201e+07
4.56803e+07
4.66399e+07
4.64e+07
4.64e+07
4.62408e+07
4.67074e+07
4.6791e+07
4.65714e+07
4.69361e+07
4.688e+07
4.71673e+07
4.69756e+07
4.76226e+07
4.76001e+07
4.73937e+07
4.73601e+07
4.78513e+07
4.78513e+07
4.90398e+07
4.90401e+07
4.78401e+07
4.75094e+07
4.85601e+07
4.85598e+07
4.8273e+07
4.87999e+07
4.80622e+07
4.80622e+07
4.83201e+07
4.83199e+07
4.88001e+07
4.9213e+07
4.87997e+07
4.85364e+07
4.90064e+07
4.90066e+07
4.95203e+07
4.952e+07
5e+07
4.92802e+07
4.92799e+07
4.97601e+07
4.97598e+07
4.94798e+07
4.96536e+07
3.78124e+07
3.77451e+07
3.59377e+07
3.59148e+07
4.01563e+07
4.03906e+07
4.04865e+07
4.00324e+07
4.00134e+07
4.02611e+07
4.02308e+07
3.98037e+07
3.99219e+07
3.96344e+07
3.98292e+07
3.91176e+07
3.92188e+07
3.93464e+07
3.92318e+07
3.94532e+07
3.88887e+07
3.94361e+07
3.94304e+07
3.82812e+07
3.84827e+07
3.89845e+07
3.90119e+07
3.82025e+07
3.85156e+07
3.87279e+07
3.80469e+07
3.84312e+07
3.80467e+07
3.82686e+07
3.79739e+07
3.76484e+07
3.78449e+07
3.78512e+07
3.72875e+07
3.73436e+07
3.75164e+07
3.7578e+07
3.70587e+07
3.70587e+07
3.64063e+07
3.71093e+07
3.73506e+07
3.66406e+07
3.63725e+07
3.66407e+07
3.68613e+07
3.68373e+07
3.61719e+07
3.6172e+07
3.64026e+07
3.61436e+07
3.57625e+07
3.59657e+07
3.59688e+07
3.54574e+07
3.54689e+07
3.5e+07
3.56862e+07
3.57033e+07
3.5378e+07
3.55689e+07
3.55717e+07
3.52288e+07
3.524e+07
3.5e+07
VECTORS displacement float
0 0 0
0 0 0
0 -0.508457 0
0 0.205701 0
0 0 0
0.0562199 -0.149443 0
0.0556474 -0.336082 0
0 0 0
0.0539353 -0.244108 0
0 0 0
0.0563937 0.0337769 0
0 0 0
0 0 0
0.0558753 -0.0597513 0
0.0562058 -0.194355 0
0 0 0
0.0503616 -0.430154 0
0 0 0
0.0522482 0.122239 0
0 0 0
0 0 0
0.0561984 -0.10406 0
0.0545478 -0.291169 0
0 0 0
0.0538565 -0.0121711 0
0 0 0
0.056572 -0.177048 0
0.0350152 -0.0694115 0
0.0556865 -0.163278 0
0 0 0
0 0 0
0.0207489 -0.0293524 0
0.0555868 -0.127774 0
0.031693 -0.0432075 0
0.0413093 -0.0792363 0
0.055071 -0.116959 0
0.0329133 -0.0365356 0
0 0 0
0 0 0
0.0543708 -0.080805 0
0.0418984 -0.0681327 0
0.020315 -0.0209912 0
0 0 0
0.0382048 -0.0391898 0
0.032013 -0.0162354 0
0.0217261 -0.0146513 0
0.0335783 -0.0803404 0
0 0 0
0.0557548 -0.0709386 0
0 0 0
0 0 0
0.0217152 -0.0119708 0
0.0570409 -0.185205 0
0.0408101 -0.0988435 0
0 0 0
0.0336936 -0.0870255 0
0.0208407 -0.045507 0
0 0 0
0.0561093 -0.223379 0
0 0 0
0.0552506 -0.207714 0
0.0288996 -0.0045703 0
0.0564707 -0.0325737 0
0.029135 -0.0901407 0
0 0 0
0.0206947 -0.00283314 0
0.0393628 -0.0259926 0
0.0271992 0.00562093 0
0.0544128 -0.0448012 0
0 0 0
0.0553971 -0.230406 0
0.0339532 -0.101075 0
0 0 0
0.0215366 0.00602544 0
0.0545227 -0.0262089 0
0.0301313 0.0141726 0
0.0397934 0.00345406 0
0.0550003 0.0149705 0
0 0 0
0.0551228 0.00291887 0
0 0 0
0.0346615 0.0313564 0
0.0560559 0.0220305 0
0 0 0
0.0527839 0.0797451 0
0 0 0
0.0356633 0.0250658 0
0 0 0
0.0267538 0.0372033 0
0 0 0
0.040512 0.0390038 0
0.0550086 0.0577222 0
0.031103 0.0487998 0
0.0413331 0.0531332 0
0.054183 0.0661038 0
0 0 0
0.0317934 0.0609731 0
0.0406585 0.0656277 0
0.0542689 0.104386 0
0 0 0
0.0523708 0.0926666 0
0 0 0
0.0301668 0.0778991 0
0.0542535 0.112713 0
0 0 0
0.0402983 0.169334 0
0 0 0
0.0283373 0.0612776 0
0.0468708 0.152497 0
0 0 0
0.0275564 0.0877199 0
0.0235342 0.100784 0
0.0193407 0.0594831 0
0.0367155 0.100867 0
0.0491968 0.136375 0
0 0 0
0.0451056 0.158821 0
0.018413 0.112974 0
0 0 0
0.0200437 0.0753879 0
0.0136795 0.0748055 0
0.0276792 0.133643 0
0.0261421 0.191928 0
0 0 0
0 0.0965932 0
0.0326694 0.184812 0
0 0 0
0.010019 0.155919 0
0 0 0
0.016284 0.138819 0
0.008766 0.0851177 0
0.0541078 -0.385542 0
0 0 0
0.039318 -0.4759 0
0 0 0
0.055821 -0.265756 0
0.0386883 -0.145021 0
0.0211155 -0.0655592 0
0 0 0
0.0326241 -0.122715 0
0 0 0
0.0217461 -0.0709306 0
0 0 0
0.0543545 -0.277608 0
0.0326892 -0.126128 0
0.0202174 -0.0718959 0
0 0 0
0.05519 -0.311659 0
0 0 0
0.0316269 -0.132675 0
0.0552707 -0.304334 0
0.0235399 -0.101241 0
0.0204229 -0.0768321 0
0.0409489 -0.188443 0
0.0556893 -0.360411 0
0.0323634 -0.156778 0
0.0557445 -0.326762 0
0.0397885 -0.195527 0
0 0 0
0.054662 -0.345935 0
0.0386484 -0.20062 0
0.0315256 -0.176287 0
0 0 0
0.0554223 -0.369522 0
0.0407595 -0.22322 0
0 0 0
0.0312509 -0.182539 0
0.039827 -0.247133 0
0.0189393 -0.102524 0
0 0 0
0.0524741 -0.407476 0
0 0 0
0.0529329 -0.392699 0
0.0267078 -0.182906 0
0 0 0
0.0465275 -0.452816 0
0.0512693 -0.414334 0
0.0339537 -0.221729 0
0.0285096 -0.215785 0
0 0 0
0.0480663 -0.438644 0
0.0351179 -0.272964 0
0.0176514 -0.125681 0
0.0228624 -0.21826 0
0.0434913 -0.460773 0
0.0323855 -0.280083 0
0 0 0
0.0181774 -0.225938 0
0.0273724 -0.305827 0
0.0128435 -0.136651 0
0 0 0
0.0250807 -0.495414 0
0 -0.309355 0
0 0 0
0.0336946 -0.483963 0
0.0113641 -0.232227 0
0.0205407 -0.331717 0
0.0089345 -0.130846 0
0 0 0
0.0139985 -0.501847 0
0 -0.148349 0
VECTORS displacementExact float
0 -0 0
0 -0 0
0 -20000.1 0
0 -20000.1 0
0 -0 0
0 -20000.1 0
0 -20000.1 0
0 -0 0
0 -20000.1 0
0 -0 0
0 -20000.1 0
0 -0 0
0 -0 0
0 -20000.1 0
0 -20000.1 0
0 -0 0
0 -20000.1 0
0 -0 0
0 -20000.1 0
0 -0 0
0 -0 0
0 -20000.1 0
0 -20000.1 0
0 -0 0
0 -20000.1 0
0 -0 0
0 -20000.1 0
0 -10924.1 0
0 -20000.1 0
0 -0 0
0 -0 0
0 -6407.79 0
0 -20000.1 0
0 -9751.37 0
0 -13647.7 0
0 -20000.1 0
0 -10215.3 0
0 -0 0
0 -0 0
0 -20000.1 0
0 -13872.1 0
0 -6096.19 0
0 -0 0
0 -12612.6 0
0 -9964.78 0
0 -6780.84 0
0 -10900.1 0
0 -0 0
0 -20000.1 0
0 -0 0
0 -0 0
0 -6871.65 0
0 -20000.1 0
0 -13307 0
0 -0 0
0 -10435.9 0
0 -6589.93 0
0 -0 0
0 -20000.1 0
0 -0 0
0 -20000.1 0
0 -8920.81 0
0 -20000.1 0
0 -9226.07 0
0 -0 0
0 -6300.49 0
0 -13531.9 0
0 -9216.32 0
0 -20000.1 0
0 -0 0
0 -20000.1 0
0 -10809.9 0
0 -0 0
0 -6793.88 0
0 -20000.1 0
0 -9622.05 0
0 -13593.9 0
0 -20000.1 0
0 -0 0
0 -20000.1 0
0 -0 0
0 -10606.1 0
0 -20000.1 0
0 -0 0
0 -20000.1 0
0 -0 0
0 -11435.4 0
0 -0 0
0 -8325.06 0
0 -0 0
0 -13391.2 0
0 -20000.1 0
0 -9718.63 0
0 -13832 0
0 -20000.1 0
0 -0 0
0 -9960.21 0
0 -13733.7 0
0 -20000.1 0
0 -0 0
0 -20000.1 0
0 -0 0
0 -10000.1 0
0 -20000.1 0
0 -0 0
0 -20000.1 0
0 -0 0
0 -8862.87 0
0 -20000.1 0
0 -0 0
0 -10000.1 0
0 -10000.1 0
0 -6569.8 0
0 -13430.3 0
0 -20000.1 0
0 -0 0
0 -20000.1 0
0 -10000.1 0
0 -0 0
0 -7449.11 0
0 -6476.05 0
0 -13524.1 0
0 -20000.1 0
0 -0 0
0 -7200.06 0
0 -20000.1 0
0 -0 0
0 -13600.1 0
0 -0 0
0 -12527 0
0 -6800.06 0
0 -20000.1 0
0 -0 0
0 -20000.1 0
0 -0 0
0 -20000.1 0
0 -12872.8 0
0 -6690.29 0
0 -0 0
0 -10356.3 0
0 -0 0
0 -6770.13 0
0 -0 0
0 -20000.1 0
0 -9987.2 0
0 -6320.82 0
0 -0 0
0 -20000.1 0
0 -0 0
0 -9770.57 0
0 -20000.1 0
0 -7265.56 0
0 -6108.67 0
0 -13533.3 0
0 -20000.1 0
0 -10162.8 0
0 -20000.1 0
0 -13230.4 0
0 -0 0
0 -20000.1 0
0 -12924.7 0
0 -10546.1 0
0 -0 0
0 -20000.1 0
0 -13430.2 0
0 -0 0
0 -10313.1 0
0 -13777.5 0
0 -6185.84 0
0 -0 0
0 -20000.1 0
0 -0 0
0 -20000.1 0
0 -9670.07 0
0 -0 0
0 -20000.1 0
0 -20000.1 0
0 -11904.8 0
0 -10708.3 0
0 -0 0
0 -20000.1 0
0 -13498.9 0
0 -6636.53 0
0 -10261.1 0
0 -20000.1 0
0 -13187.2 0
0 -0 0
0 -10131 0
0 -13607.5 0
0 -6457.83 0
0 -0 0
0 -20000.1 0
0 -12800.1 0
0 -0 0
0 -20000.1 0
0 -10034.1 0
0 -14074.8 0
0 -5885.1 0
0 -0 0
0 -20000.1 0
0 -6400.05 0
VECTORS error float
0 0 0
0 0 0
0 19999.6 0
0 20000.3 0
0 0 0
0.0562199 20000 0
0.0556474 19999.8 0
0 0 0
0.0539353 19999.9 0
0 0 0
0.0563937 20000.1 0
0 0 0
0 0 0
0.0558753 20000 0
0.0562058 19999.9 0
0 0 0
0.0503616 19999.7 0
0 0 0
0.0522482 20000.2 0
0 0 0
0 0 0
0.0561984 20000 0
0.0545478 19999.8 0
0 0 0
0.0538565 20000.1 0
0 0 0
0.056572 19999.9 0
0.0350152 10924 0
0.0556865 19999.9 0
0 0 0
0 0 0
0.0207489 6407.76 0
0.0555868 20000 0
0.031693 9751.33 0
0.0413093 13647.6 0
0.055071 20000 0
0.0329133 10215.3 0
0 0 0
0 0 0
0.0543708 20000 0
0.0418984 13872 0
0.020315 6096.17 0
0 0 0
0.0382048 12612.6 0
0.032013 9964.77 0
0.0217261 6780.83 0
0.0335783 10900 0
0 0 0
0.0557548 20000 0
0 0 0
0 0 0
0.0217152 6871.63 0
0.0570409 19999.9 0
0.0408101 13306.9 0
0 0 0
0.0336936 10435.9 0
0.0208407 6589.88 0
0 0 0
0.0561093 19999.9 0
0 0 0
0.0552506 19999.9 0
0.0288996 8920.8 0
0.0564707 20000.1 0
0.029135 9225.98 0
0 0 0
0.0206947 6300.49 0
0.0393628 13531.9 0
0.0271992 9216.33 0
0.0544128 20000.1 0
0 0 0
0.0553971 19999.9 0
0.0339532 10809.8 0
0 0 0
0.0215366 6793.88 0
0.0545227 20000.1 0
0.0301313 9622.07 0
0.0397934 13593.9 0
0.0550003 20000.1 0
0 0 0
0.0551228 20000.1 0
0 0 0
0.0346615 10606.1 0
0.0560559 20000.1 0
0 0 0
0.0527839 20000.2 0
0 0 0
0.0356633 11435.4 0
0 0 0
0.0267538 8325.1 0
0 0 0
0.040512 13391.3 0
0.0550086 20000.2 0
0.031103 9718.67 0
0.0413331 13832 0
0.054183 20000.2 0
0 0 0
0.0317934 9960.27 0
0.0406585 13733.7 0
0.0542689 20000.2 0
0 0 0
0.0523708 20000.2 0
0 0 0
0.0301668 10000.2 0
0.0542535 20000.2 0
0 0 0
0.0402983 20000.3 0
0 0 0
0.0283373 8862.93 0
0.0468708 20000.3 0
0 0 0
0.0275564 10000.2 0
0.0235342 10000.2 0
0.0193407 6569.86 0
0.0367155 13430.4 0
0.0491968 20000.2 0
0 0 0
0.0451056 20000.3 0
0.018413 10000.2 0
0 0 0
0.0200437 7449.19 0
0.0136795 6476.13 0
0.0276792 13524.2 0
0.0261421 20000.3 0
0 0 0
0 7200.16 0
0.0326694 20000.3 0
0 0 0
0.010019 13600.2 0
0 0 0
0.016284 12527.1 0
0.008766 6800.14 0
0.0541078 19999.7 0
0 0 0
0.039318 19999.6 0
0 0 0
0.055821 19999.8 0
0.0386883 12872.6 0
0.0211155 6690.22 0
0 0 0
0.0326241 10356.1 0
0 0 0
0.0217461 6770.06 0
0 0 0
0.0543545 19999.8 0
0.0326892 9987.07 0
0.0202174 6320.75 0
0 0 0
0.05519 19999.8 0
0 0 0
0.0316269 9770.44 0
0.0552707 19999.8 0
0.0235399 7265.46 0
0.0204229 6108.6 0
0.0409489 13533.1 0
0.0556893 19999.7 0
0.0323634 10162.7 0
0.0557445 19999.8 0
0.0397885 13230.2 0
0 0 0
0.054662 19999.8 0
0.0386484 12924.5 0
0.0315256 10545.9 0
0 0 0
0.0554223 19999.7 0
0.0407595 13430 0
0 0 0
0.0312509 10312.9 0
0.039827 13777.3 0
0.0189393 6185.74 0
0 0 0
0.0524741 19999.7 0
0 0 0
0.0529329 19999.7 0
0.0267078 9669.89 0
0 0 0
0.0465275 19999.6 0
0.0512693 19999.7 0
0.0339537 11904.6 0
0.0285096 10708 0
0 0 0
0.0480663 19999.7 0
0.0351179 13498.7 0
0.0176514 6636.41 0
0.0228624 10260.9 0
0.0434913 19999.6 0
0.0323855 13186.9 0
0 0 0
0.0181774 10130.8 0
0.0273724 13607.2 0
0.0128435 6457.7 0
0 0 0
0.0250807 19999.6 0
0 12799.8 0
0 0 0
0.0336946 19999.6 0
0.0113641 10033.9 0
0.0205407 14074.4 0
0.0089345 5884.97 0
0 0 0
0.0139985 19999.6 0
0 6399.91 0

CELL_DATA 275
VECTORS stress float
-0.0484105 -5.86668 0
-0.0024174 -11.987 0
0 3.90228 0
-0.0682722 -13.1112 0
0 4.78755 0
-0.0229305 -4.86794 0
0.0519078 -9.86219 0
0.124879 -12.1001 0
0 0.385628 0
0 1.60421 0
0.115514 -11.4688 0
0.012401 -2.38071 0
0.0199259 -6.47008 0
0.0789176 -7.78532 0
-0.368016 -15.2433 0
-0.0796142 -12.2227 0
0.123689 5.28669 0
0.0480603 3.43914 0
-0.00751488 -3.75015 0
0.0204718 -0.973013 0
-0.00106543 -13.5385 0
-0.0753482 -7.59457 0
-0.159876 1.13301 0
0 -0.181321 0
-0.104885 -4.45496 0
0.0313828 -4.88818 0
0.064089 -3.96793 0
0.00627583 -8.04478 0
0.0333684 -5.87099 0
0 -3.75711 0
0 -4.90076 0
-0.0905858 -2.45205 0
-0.110311 -4.62336 0
0.0545756 -6.15113 0
0 -2.76528 0
0.104295 -5.10535 0
0.0402192 -7.7857 0
0 -0.181321 0
0.0316084 -3.30105 0
0 -1.34344 0
0.0404428 -6.24749 0
-0.0489218 -1.6703 0
0.135014 -6.65536 0
-0.06132 -4.01769 0
0.0689119 -3.38063 0
0.0958362 -2.48419 0
0.0687845 -1.69197 0
0.0293747 -5.85448 0
0 -0.937685 0
0 -0.937685 0
-0.00779175 -2.36432 0
0 -0.766128 0
0.0864501 -2.20751 0
0.0156028 -1.98628 0
0.0592647 -4.88843 0
0.045462 -4.70459 0
-0.0811472 -1.92466 0
0 -4.2341 0
-0.138895 -3.60437 0
-0.271771 -2.80953 0
-0.0452049 -1.08919 0
-0.03595 -0.961161 0
-0.201339 -5.71 0
-0.075992 -6.55403 0
-0.0933753 -6.54921 0
0 -3.99911 0
0 -2.77592 0
-0.0913612 -7.2659 0
0.0588642 -4.6517 0
0 -2.77592 0
-0.104172 -1.3231 0
0.0169155 -8.86763 0
0 -6.16558 0
0 -5.30855 0
-0.0557808 -10.8443 0
-0.0772559 -0.657437 0
0.134401 -13.7389 0
0.0984376 -2.43694 0
-0.0654467 -7.70738 0
0.134423 -1.28865 0
0.0421659 -0.294899 0
0.0253152 -0.263469 0
0.109328 -3.01964 0
0.0945977 -2.44989 0
0 0.385628 0
0.0604114 -1.306 0
-0.0988988 -8.89016 0
-0.0171943 -2.78041 0
0 -5.49859 0
-0.157497 -9.28039 0
-0.10317 -12.3507 0
0.273126 -2.96146 0
0 0.35974 0
0.137 0.356788 0
-0.0223284 -0.356215 0
0.124792 -1.73316 0
0 0.907045 0
-0.076753 -1.99506 0
0.0426794 -1.58757 0
0 2.38101 0
0.0104912 -0.954933 0
-0.120928 -1.55908 0
-0.131418 -1.49254 0
0.0140996 1.50524 0
0 1.60421 0
0.0107586 4.62144 0
-0.0991607 -0.582868 0
0.160104 5.98716 0
-0.0745683 -1.07145 0
0 2.00681 0
-0.18121 2.64231 0
0.0867925 0.433133 0
-0.0363342 1.131 0
-0.00463287 1.08953 0
0.046274 -0.559423 0
0 2.38101 0
0.0854362 -0.309173 0
0.0979762 0.956684 0
0.0157245 -0.496651 0
0 3.12319 0
0.0190335 0.759544 0
0.0684911 0.426023 0
0.131738 1.25833 0
0.051738 0.117219 0
0.00804942 5.18696 0
0 3.90228 0
-0.0226194 0.814207 0
0.0876715 0.172555 0
0 4.98554 0
-0.211394 2.27624 0
0.0911357 3.42832 0
0.0414711 1.15341 0
-0.00465046 5.57654 0
0.0323647 2.32715 0
0.311318 2.19029 0
0.00154769 2.12365 0
0.175525 6.90291 0
0 3.92177 0
0.0478112 4.4358 0
0.121181 2.87215 0
0.251293 7.08169 0
0 3.80692 0
0.232605 2.91191 0
0.24625 5.25901 0
0 4.82483 0
0.159733 3.23973 0
0 3.80692 0
0.146725 2.32715 0
0.171361 1.95771 0
0.200468 1.30048 0
0.375484 10.9941 0
0.173593 2.90084 0
0.0483198 6.0092 0
0.176519 3.71437 0
0.311896 5.01872 0
0 4.82483 0
0.156125 5.54939 0
0.258569 5.49542 0
0 4.78755 0
0.201211 3.23973 0
0.345676 3.19566 0
0.49405 2.14592 0
1.67309 5.49069 0
0.487794 3.32261 0
0.573144 4.64884 0
0.631152 8.18802 0
0.424226 4.32503 0
0 7.23035 0
1.28243 6.98292 0
0.57398 3.78541 0
0 6.18196 0
0.439464 4.80593 0
0.6011 6.21443 0
0 5.44753 0
-0.0645662 -12.3708 0
-0.037141 -11.5822 0
-0.360296 -10.9876 0
-0.206857 -10.8035 0
-0.0502002 -5.54891 0
0.0249576 -5.28015 0
0 -4.32677 0
-0.00108723 -5.58127 0
0.048413 -5.30317 0
0.047072 -7.41036 0
-0.0433887 -6.85292 0
-0.141431 -9.39146 0
0.0562789 -6.50232 0
0 -3.99911 0
0.0253312 -4.79245 0
0.00210838 -11.181 0
0 -4.38565 0
0.0864711 -15.5694 0
0.0193594 -10.5068 0
0.0316533 -6.28638 0
0 -4.38565 0
0 -12.3514 0
0 -8.09317 0
0.0802169 -5.99243 0
0 -4.68676 0
-0.00522263 -7.28759 0
-0.0409379 -14.3498 0
-0.114619 -5.98013 0
0.0196539 -10.2776 0
0.0428035 -5.89275 0
-0.0634505 -5.51962 0
-0.066979 -9.67093 0
0.0467497 -7.32298 0
0.0725703 -7.68568 0
-0.0175376 -8.60518 0
-0.069722 -8.52423 0
-0.0183351 -7.30672 0
-0.006574 -8.13368 0
0.0375393 -8.09118 0
-0.0287026 -10.2873 0
0 -9.56346 0
0.0973657 -11.3835 0
0.0616003 -8.37944 0
0.0674926 -8.62329 0
0 -6.25398 0
-0.20416 -13.9164 0
0 -9.56346 0
0.0126095 -10.4101 0
-0.183759 -11.4252 0
0 -7.66655 0
0 -10.7535 0
-0.0731136 -8.58879 0
-0.0817959 -8.51232 0
-0.0447584 -7.67254 0
0.047231 -7.76524 0
-0.0200965 -7.80715 0
-0.149225 -9.85551 0
0 -13.5255 0
-0.103844 -16.6036 0
0 -11.1349 0
-0.0832833 -15.9516 0
-0.097532 -11.5966 0
-0.218671 -15.8729 0
0 -11.1573 0
-0.308194 -16.7378 0
-0.0716584 -13.4047 0
-0.199632 -17.4877 0
0.033942 -8.29955 0
-0.152321 -9.23248 0
-0.0590065 -9.8824 0
0.00188213 -17.7586 0
-0.124646 -14.1442 0
-0.0916324 -8.33257 0
-0.0655631 -10.802 0
0 -15.3331 0
-0.104834 -10.8095 0
0 -8.33571 0
-0.291681 -18.2925 0
-0.251088 -13.3343 0
-0.323838 -14.9226 0
-1.10444 -16.2102 0
0 -13.3139 0
-0.35948 -10.5689 0
-0.266781 -10.5159 0
-0.163744 -9.22736 0
-0.158532 -11.2028 0
0 -8.33571 0
-0.727303 -20.069 0
0 -7.98159 0
-0.282566 -10.3011 0
-0.727303 -16.2282 0
-0.127312 -14.2483 0
-0.378725 -11.6518 0
-1.20541 -24.338 0
-0.510404 -9.92545 0
-0.264174 -10.2938 0
-0.1646 -9.56099 0
-0.227709 -9.84981 0
0 -14.1658 0
-1.00789 -12.7426 0
0 -9.04928 0
