# vtk DataFile Version 3.0
2D scalar data
ASCII
DATASET UNSTRUCTURED_GRID
POINTS 84 float
0.000000 0.000000 0
40.000000 0.000000 0
40.000000 200.000000 0
0.000000 200.000000 0
0.000000 128.000000 0
40.000000 100.000000 0
40.000000 150.000000 0
0.000000 64.000000 0
40.000000 50.000000 0
0.000000 164.000000 0
40.000000 175.000000 0
24.000000 200.000000 0
40.000000 184.000000 0
32.000000 192.000000 0
0.000000 184.000000 0
16.800000 184.800000 0
28.231034 179.500000 0
16.055389 168.216801 0
12.000000 200.000000 0
8.113580 190.414815 0
0.000000 174.000000 0
0.000000 146.000000 0
10.075528 176.793623 0
40.000000 125.000000 0
10.945215 155.000000 0
26.195371 156.699950 0
40.000000 162.500000 0
20.837506 135.510937 0
27.503583 168.074049 0
28.918641 144.739440 0
17.871567 146.260585 0
40.000000 137.500000 0
30.964269 131.250000 0
0.000000 96.000000 0
24.674348 112.500000 0
30.530028 120.965655 0
40.000000 112.500000 0
0.000000 137.000000 0
10.576564 138.463828 0
13.753335 122.504377 0
8.690944 129.792593 0
0.000000 112.000000 0
22.546399 126.147652 0
12.381871 110.044249 0
0.000000 120.000000 0
40.000000 75.000000 0
20.784395 90.156052 0
20.434908 101.727479 0
9.990938 99.671917 0
29.807401 96.219561 0
40.000000 87.500000 0
29.344735 81.250000 0
0.000000 80.000000 0
25.507298 62.500000 0
14.873324 75.907385 0
30.622596 71.220777 0
40.000000 62.500000 0
9.081253 87.760878 0
0.000000 72.000000 0
12.757063 63.308064 0
0.000000 32.000000 0
17.868962 42.972039 0
18.565185 53.957555 0
0.000000 48.000000 0
28.513319 47.812258 0
8.294747 54.057143 0
40.000000 25.000000 0
40.000000 37.500000 0
26.712631 31.250000 0
0.000000 40.000000 0
32.753649 56.331572 0
31.109849 39.150940 0
13.320329 30.343268 0
9.364316 38.901694 0
0.000000 16.000000 0
16.000000 0.000000 0
0.000000 24.000000 0
21.036254 15.734718 0
20.425589 24.754147 0
8.000000 8.000000 0
10.564514 19.545736 0
28.000000 0.000000 0
40.000000 12.500000 0
31.308334 18.750000 0

CELLS 126 504
3 13 11 15
3 34 47 49
3 17 9 24
3 29 6 25
3 45 50 51
3 64 71 8
3 65 62 59
3 10 12 16
3 17 25 28
3 12 2 13
3 16 13 15
3 19 3 14
3 2 11 13
3 22 9 17
3 22 19 14
3 16 12 13
3 14 20 22
3 16 15 17
3 29 31 6
3 16 17 28
3 15 18 19
3 15 11 18
3 3 19 18
3 22 15 19
3 15 22 17
3 9 21 24
3 9 22 20
3 38 37 40
3 32 35 23
3 29 25 30
3 28 10 16
3 17 24 25
3 21 37 38
3 25 6 26
3 43 39 44
3 25 26 28
3 10 28 26
3 30 25 24
3 29 32 31
3 38 24 21
3 27 29 30
3 40 27 38
3 32 29 27
3 23 31 32
3 39 34 42
3 36 23 35
3 34 43 47
3 42 32 27
3 36 34 5
3 38 30 24
3 34 36 35
3 30 38 27
3 40 37 4
3 39 43 34
3 42 34 35
3 44 40 4
3 40 39 42
3 32 42 35
3 44 41 43
3 40 42 27
3 33 48 41
3 46 47 48
3 59 54 58
3 40 44 39
3 45 51 55
3 5 49 50
3 48 47 43
3 49 47 46
3 41 48 43
3 33 52 57
3 51 50 49
3 34 49 5
3 46 57 54
3 51 49 46
3 55 56 45
3 54 51 46
3 48 57 46
3 53 59 62
3 59 58 7
3 55 54 53
3 54 55 51
3 53 70 56
3 33 57 48
3 53 56 55
3 54 57 52
3 83 68 78
3 54 52 58
3 53 54 59
3 72 78 68
3 72 73 60
3 64 70 62
3 65 7 63
3 64 62 61
3 68 66 67
3 65 61 62
3 8 56 70
3 7 65 59
3 65 63 73
3 72 61 73
3 71 68 67
3 71 61 68
3 68 61 72
3 62 70 53
3 63 69 73
3 8 70 64
3 8 71 67
3 61 71 64
3 82 66 83
3 77 80 79
3 73 61 65
3 60 73 69
3 77 78 80
3 76 74 80
3 74 0 79
3 72 60 76
3 81 1 82
3 80 78 72
3 78 77 83
3 75 77 79
3 0 75 79
3 76 80 72
3 79 80 74
3 83 66 68
3 77 75 81
3 82 83 81
3 81 83 77

CELL_TYPES 126
5
5
5
5
5
5
5
5
5
5
5
5
5
5
5
5
5
5
5
5
5
5
5
5
5
5
5
5
5
5
5
5
5
5
5
5
5
5
5
5
5
5
5
5
5
5
5
5
5
5
5
5
5
5
5
5
5
5
5
5
5
5
5
5
5
5
5
5
5
5
5
5
5
5
5
5
5
5
5
5
5
5
5
5
5
5
5
5
5
5
5
5
5
5
5
5
5
5
5
5
5
5
5
5
5
5
5
5
5
5
5
5
5
5
5
5
5
5
5
5
5
5
5
5
5
5

POINT_DATA 84
SCALARS pressure float 1
LOOKUP_TABLE default
0
0
999.863
1000.25
640.044
500.083
749.954
319.727
250.19
819.987
874.908
999.948
919.919
959.996
920.023
923.992
897.422
841.071
1000.05
952.033
869.98
730.177
883.998
624.963
775.021
783.487
812.542
677.626
840.393
723.705
731.398
687.511
656.164
479.915
562.412
604.797
562.592
685.031
692.323
612.5
649.008
559.84
630.658
550.165
599.89
375.299
450.776
508.597
498.231
481.195
437.709
406.431
399.985
312.512
379.539
356.249
312.721
438.784
359.832
316.333
159.726
214.821
269.675
239.552
239.202
269.914
125.315
187.832
156.461
199.546
281.81
196.018
151.669
194.284
79.9996
0
119.913
78.7654
123.834
40.0365
97.6957
0
62.6336
93.9036
VECTORS displacement float
0 0 0
0 0 0
0 -0.0183503 0
0 -0.00877759 0
0 -0.0445312 0
0 -0.0515045 0
0 -0.0396642 0
0 -0.0383957 0
0 -0.0335612 0
0 -0.0329457 0
0 -0.0296531 0
0.00231129 -0.0159659 0
0 -0.0256918 0
0.000420031 -0.0215589 0
0 -0.0221157 0
-5.50494e-05 -0.0234182 0
-0.000108134 -0.027193 0
-0.000179286 -0.031553 0
0.00204253 -0.0146274 0
3.31725e-05 -0.0186796 0
0 -0.0279434 0
0 -0.0399512 0
-0.00015608 -0.0269625 0
0 -0.0477389 0
-7.65775e-06 -0.0369478 0
-3.62578e-05 -0.0368814 0
0 -0.034877 0
0.000264099 -0.0438671 0
-0.000104087 -0.0322538 0
9.59447e-05 -0.0413426 0
0.000102333 -0.0403384 0
0 -0.0439738 0
0.00021114 -0.0458836 0
0 -0.0462616 0
0.000230645 -0.0488716 0
0.000438311 -0.0494353 0
0 -0.0501791 0
0 -0.0425561 0
0.000157761 -0.042427 0
0.000272581 -0.0461056 0
0.000202268 -0.0444591 0
0 -0.0465481 0
0.000440672 -0.0464223 0
0.000232855 -0.047266 0
0 -0.0458243 0
0 -0.0475274 0
0.000353037 -0.0480204 0
0.000393013 -0.0485757 0
0.000219926 -0.0470213 0
0.000533324 -0.0504762 0
0 -0.054676 0
-0.000404873 -0.050058 0
0 -0.0434437 0
-0.000507424 -0.0397992 0
-0.000474258 -0.0434865 0
-0.000369862 -0.0449404 0
0 -0.0406767 0
2.25384e-05 -0.0455349 0
0 -0.041234 0
-0.00030757 -0.0386822 0
0 -0.0222738 0
-0.000219053 -0.0290076 0
-0.000353599 -0.0348842 0
0 -0.0312649 0
-0.000217803 -0.0320525 0
-0.000201213 -0.0343848 0
0 -0.0181452 0
0 -0.026131 0
-0.000106677 -0.0221432 0
0 -0.0269279 0
-0.000228611 -0.0369437 0
-0.000109784 -0.0270588 0
-8.08285e-05 -0.0213707 0
-0.000117717 -0.0264565 0
0 -0.0118257 0
0 0 0
0 -0.0172328 0
-5.50646e-05 -0.011708 0
-7.71798e-05 -0.0178633 0
-2.09733e-05 -0.00606775 0
-3.6309e-05 -0.0142923 0
0 0 0
0 -0.00944238 0
-2.69212e-05 -0.0138827 0
VECTORS displacementExact float
0 -0 0
0 -0 0
0 -20000.1 0
0 -20000.1 0
0 -12800.1 0
0 -10000.1 0
0 -15000.1 0
0 -6400.05 0
0 -5000.04 0
0 -16400.1 0
0 -17500.1 0
0 -20000.1 0
0 -18400.1 0
0 -19200.1 0
0 -18400.1 0
0 -18480.1 0
0 -17950.1 0
0 -16821.8 0
0 -20000.1 0
0 -19041.6 0
0 -17400.1 0
0 -14600.1 0
0 -17679.5 0
0 -12500.1 0
0 -15500.1 0
0 -15670.1 0
0 -16250.1 0
0 -13551.2 0
0 -16807.5 0
0 -14474 0
0 -14626.2 0
0 -13750.1 0
0 -13125.1 0
0 -9600.07 0
0 -11250.1 0
0 -12096.6 0
0 -11250.1 0
0 -13700.1 0
0 -13846.5 0
0 -12250.5 0
0 -12979.3 0
0 -11200.1 0
0 -12614.9 0
0 -11004.5 0
0 -12000.1 0
0 -7500.06 0
0 -9015.68 0
0 -10172.8 0
0 -9967.27 0
0 -9622.03 0
0 -8750.07 0
0 -8125.06 0
0 -8000.06 0
0 -6250.05 0
0 -7590.8 0
0 -7122.14 0
0 -6250.05 0
0 -8776.16 0
0 -7200.06 0
0 -6330.86 0
0 -3200.03 0
0 -4297.24 0
0 -5395.8 0
0 -4800.04 0
0 -4781.27 0
0 -5405.76 0
0 -2500.02 0
0 -3750.03 0
0 -3125.03 0
0 -4000.04 0
0 -5633.21 0
0 -3915.13 0
0 -3034.35 0
0 -3890.2 0
0 -1600.02 0
0 -0 0
0 -2400.02 0
0 -1573.49 0
0 -2475.44 0
0 -800.008 0
0 -1954.59 0
0 -0 0
0 -1250.01 0
0 -1875.02 0
VECTORS error float
0 0 0
0 0 0
0 20000.1 0
0 20000.1 0
0 12800 0
0 10000 0
0 15000.1 0
0 6400.02 0
0 5000.01 0
0 16400.1 0
0 17500.1 0
0.00231129 20000.1 0
0 18400.1 0
0.000420031 19200.1 0
0 18400.1 0
-5.50494e-05 18480.1 0
-0.000108134 17950.1 0
-0.000179286 16821.7 0
0.00204253 20000.1 0
3.31725e-05 19041.6 0
0 17400.1 0
0 14600.1 0
-0.00015608 17679.4 0
0 12500 0
-7.65775e-06 15500.1 0
-3.62578e-05 15670.1 0
0 16250.1 0
0.000264099 13551.1 0
-0.000104087 16807.5 0
9.59447e-05 14474 0
0.000102333 14626.1 0
0 13750 0
0.00021114 13125 0
0 9600.03 0
0.000230645 11250 0
0.000438311 12096.6 0
0 11250 0
0 13700 0
0.000157761 13846.4 0
0.000272581 12250.5 0
0.000202268 12979.3 0
0 11200 0
0.000440672 12614.8 0
0.000232855 11004.5 0
0 12000 0
0 7500.01 0
0.000353037 9015.63 0
0.000393013 10172.8 0
0.000219926 9967.22 0
0.000533324 9621.98 0
0 8750.01 0
-0.000404873 8125.01 0
0 8000.02 0
-0.000507424 6250.01 0
-0.000474258 7590.76 0
-0.000369862 7122.09 0
0 6250.01 0
2.25384e-05 8776.11 0
0 7200.02 0
-0.00030757 6330.82 0
0 3200.01 0
-0.000219053 4297.21 0
-0.000353599 5395.77 0
0 4800.01 0
-0.000217803 4781.24 0
-0.000201213 5405.73 0
0 2500.01 0
0 3750.01 0
-0.000106677 3125.01 0
0 4000.01 0
-0.000228611 5633.17 0
-0.000109784 3915.1 0
-8.08285e-05 3034.33 0
-0.000117717 3890.18 0
0 1600 0
0 0 0
0 2400.01 0
-5.50646e-05 1573.48 0
-7.71798e-05 2475.42 0
-2.09733e-05 800.002 0
-3.6309e-05 1954.58 0
0 0 0
0 1250 0
-2.69212e-05 1875 0

CELL_DATA 126
VECTORS stress float
-0.00981642 0.0998884 0
0.000617186 0.00528396 0
-0.00164586 0.0794981 0
-0.000452088 0.0540067 0
0.00506091 -0.0761696 0
0.00212278 -0.0612784 0
-0.00142031 -0.0419076 0
0.000973207 0.0466215 0
0.000845628 0.0538948 0
-0.0067205 0.0587318 0
0.00213572 0.0786309 0
0.00053076 0.108219 0
-0.0184903 0.0704137 0
-0.00163555 0.0820311 0
-0.000762174 0.0739454 0
-0.00102507 0.0606492 0
-0.0015608 0.0587181 0
-0.000221862 0.0958004 0
-0.00119931 0.0477556 0
0.000858632 0.0584464 0
0.0104365 0.0536152 0
0.00408524 0.0990648 0
0.019578 0.0713609 0
-0.000139067 0.0626518 0
0.000680737 0.0520634 0
-0.00013784 0.0766769 0
-0.0015608 0.0504003 0
0.00143314 0.0212495 0
-0.00359125 0.0328982 0
-0.000277508 0.0465481 0
0.00121732 0.0613496 0
-8.62425e-05 0.0819319 0
0.00141985 0.0275513 0
0.000453223 0.0660867 0
0.00329691 0.0163454 0
0.000805815 0.0612605 0
0.00130109 0.0652789 0
-6.29686e-05 0.0521663 0
-0.00212819 0.0449374 0
0.00136214 0.0588641 0
-0.000314743 0.0360037 0
0.000790653 0.0235671 0
-0.00120522 0.0418601 0
-0.00263925 0.0340206 0
0.00152886 0.0208626 0
-0.00547888 0.023109 0
0.000374928 0.00316984 0
-0.00124823 0.0224303 0
-0.00288306 0.0203111 0
0.000373162 0.039201 0
-0.00195256 -0.000982427 0
0.000665413 0.031937 0
0.00182041 0.0171654 0
-0.000125095 0.0164665 0
0.00105613 0.0131426 0
0.00161814 0.0112382 0
0.00148125 0.0128739 0
-0.00120148 0.0296641 0
0.00186284 0.00896194 0
0.00158865 0.032049 0
0.00351882 -0.00286254 0
0.00192069 -0.00634312 0
-0.00532401 -0.0666888 0
0.00216272 0.0212204 0
0.00384174 -0.0512948 0
-0.00666655 0.0323258 0
0.00176874 0.00116105 0
0.00184378 -0.00586905 0
0.00244054 -0.00131319 0
0.000360614 -0.0255903 0
0.000197037 -0.00232004 0
-0.00753849 0.0110772 0
0.00272765 -0.0383691 0
-0.00298995 -0.0026377 0
0.00462327 -0.0642414 0
-0.00343127 -0.0267678 0
0.0034638 -0.0151352 0
-0.00183154 -0.0549134 0
-0.00246056 -0.0362087 0
0.00155512 -0.0735327 0
0.000882931 -0.0824551 0
0.00313001 -0.0477425 0
0.00189476 -0.01416 0
0.00442513 -0.0700212 0
-0.00358842 -0.0307143 0
0.000149369 -0.0716033 0
-0.00379406 -0.0328653 0
-0.00265272 -0.0588917 0
-0.000141159 -0.0524612 0
-0.00075288 -0.0641723 0
0.00109047 -0.0606656 0
-0.00321941 -0.0591478 0
0.000664963 -0.0604329 0
0.00133346 -0.10611 0
-0.00168744 -0.0600078 0
0.00285764 -0.0515619 0
-0.00291889 -0.0535435 0
-0.00254373 -0.0691001 0
-0.000717124 -0.0533454 0
0.000862266 -0.0477804 0
0.000851454 -0.0736563 0
-0.000201096 -0.0987617 0
0.00143288 -0.0554394 0
-0.000941738 -0.0406131 0
0.00187918 -0.0497867 0
0.0013723 -0.0660553 0
0.000533661 -0.0610612 0
0.000336516 -0.0756421 0
-0.000274992 -0.0927531 0
-0.00119593 -0.0701558 0
-0.000941738 -0.0435824 0
-0.000253446 -0.0628777 0
-0.000290472 -0.0571236 0
-0.000335573 -0.0946054 0
-0.000646628 -0.0671484 0
0 -0.113309 0
-0.000209427 -0.0599591 0
0.000320521 -0.0645549 0
-0.000110508 -0.124223 0
0 -0.097084 0
-0.00059035 -0.0828825 0
-0.000364838 -0.0805629 0
0.000834986 -0.0913865 0
0 -0.140497 0
0.000336516 -0.135354 0
0.000608863 -0.13541 0
